<?xml version="1.0"?>
<VTKFile type="UnstructuredGrid" version="0.1" byte_order="LittleEndian">
<UnstructuredGrid>
<Piece NumberOfPoints="29291" NumberOfCells="10245">
<Points>
<DataArray type="Float64" NumberOfComponents="3" format="ascii">
-0.48827199530150028 -0.49999999999999989 0 -0.48973661415322989 -0.47713437377675338 0 -0.48827199530150028 -0.49999999999999989 0 -0.48973661415322989 -0.47713437377675338 0 -0.47998537215925352 -0.48463007819086251 0 -0.5 -0.5 0 -0.48827199530150028 -0.49999999999999989 0 -0.48973661415322989 -0.47713437377675338 0 -0.5 -0.5 0 -0.48973661415322989 -0.47713437377675338 0 -0.5 -0.46845208018324053 0 -0.48973661415322989 -0.47713437377675338 0 -0.47589185245049592 -0.47575352157111389 0 -0.48074524957805659 -0.46569659644067968 0 -0.48973661415322989 -0.47713437377675338 0 -0.47589185245049592 -0.47575352157111389 0 -0.47998537215925352 -0.48463007819086251 0 -0.47589185245049592 -0.47575352157111389 0 -0.47998537215925352 -0.48463007819086251 0 -0.46726475125714062 -0.48621785652091859 0 -0.47589185245049592 -0.47575352157111389 0 -0.47186517899159569 -0.46526037089104449 0 -0.48074524957805659 -0.46569659644067968 0 -0.47589185245049592 -0.47575352157111389 0 -0.46231961700660451 -0.47516629983044562 0 -0.47186517899159569 -0.46526037089104449 0 -0.48827199530150028 -0.49999999999999989 0 -0.47998537215925352 -0.48463007819086251 0 -0.46726475125714062 -0.48621785652091859 0 -0.48827199530150028 -0.49999999999999989 0 -0.46726475125714062 -0.48621785652091859 0 -0.43613627641351582 -0.49999999999999972 0 -0.46231961700660451 -0.47516629983044562 0 -0.44549335411621438 -0.47556419295779401 0 -0.46249615500103208 -0.46067606521144899 0 -0.46231961700660451 -0.47516629983044562 0 -0.45280349969836892 -0.48423708732728948 0 -0.44549335411621438 -0.47556419295779401 0 -0.47589185245049592 -0.47575352157111389 0 -0.46726475125714062 -0.48621785652091859 0 -0.46231961700660451 -0.47516629983044562 0 -0.46726475125714062 -0.48621785652091859 0 -0.46231961700660451 -0.47516629983044562 0 -0.45280349969836892 -0.48423708732728948 0 -0.44549335411621438 -0.47556419295779401 0 -0.43928766979589728 -0.45446538397982711 0 -0.43266293650858778 -0.47723269198991197 0 -0.44549335411621438 -0.47556419295779401 0 -0.43613627641351582 -0.49999999999999972 0 -0.43266293650858778 -0.47723269198991197 0 -0.45280349969836892 -0.48423708732728948 0 -0.44549335411621438 -0.47556419295779401 0 -0.43613627641351582 -0.49999999999999972 0 -0.44549335411621438 -0.47556419295779401 0 -0.43613627641351582 -0.49999999999999972 0 -0.46726475125714062 -0.48621785652091859 0 -0.45280349969836892 -0.48423708732728948 0 -0.43613627641351582 -0.49999999999999972 0 -0.43928766979589728 -0.45446538397982711 0 -0.45485043181891321 -0.45112838591558829 0 -0.44591240308320679 -0.43169807596974208 0 -0.43928766979589728 -0.45446538397982711 0 -0.44591240308320679 -0.43169807596974208 0 -0.43150946710850058 -0.43169895255797219 0 -0.43928766979589728 -0.45446538397982711 0 -0.44591240308320679 -0.43169807596974208 0 -0.44549335411621438 -0.47556419295779401 0 -0.43928766979589728 -0.45446538397982711 0 -0.45485043181891321 -0.45112838591558829 0 -0.44549335411621438 -0.47556419295779401 0 -0.45485043181891321 -0.45112838591558829 0 -0.44549335411621438 -0.47556419295779401 0 -0.46249615500103208 -0.46067606521144899 0 -0.45485043181891321 -0.45112838591558829 0 -0.46231961700660451 -0.47516629983044562 0 -0.46249615500103208 -0.46067606521144899 0 -0.47186517899159569 -0.46526037089104449 0 -0.46249615500103208 -0.46067606521144899 0 -0.46541697878286442 -0.44256241196002599 0 -0.47503136929000028 -0.45437472971379572 0 -0.46249615500103208 -0.46067606521144899 0 -0.46541697878286442 -0.44256241196002599 0 -0.45485043181891321 -0.45112838591558829 0 -0.46541697878286442 -0.44256241196002599 0 -0.45485043181891321 -0.45112838591558829 0 -0.44591240308320679 -0.43169807596974208 0 -0.4912012330049611 -0.4559599862506909 0 -0.47706546193331739 -0.43466989362358838 0 -0.47503136929000028 -0.45437472971379572 0 -0.4912012330049611 -0.4559599862506909 0 -0.47706546193331739 -0.43466989362358838 0 -0.46541697878286442 -0.44256241196002599 0 -0.47503136929000028 -0.45437472971379572 0 -0.47706546193331739 -0.43466989362358838 0 -0.47503136929000028 -0.45437472971379572 0 -0.48074524957805659 -0.46569659644067968 0 -0.4912012330049611 -0.4559599862506909 0 -0.47186517899159569 -0.46526037089104449 0 -0.47503136929000028 -0.45437472971379572 0 -0.48074524957805659 -0.46569659644067968 0 -0.46249615500103208 -0.46067606521144899 0 -0.47186517899159569 -0.46526037089104449 0 -0.47503136929000028 -0.45437472971379572 0 -0.4912012330049611 -0.4559599862506909 0 -0.5 -0.46845208018324053 0 -0.5 -0.43988023943640309 0 -0.48973661415322989 -0.47713437377675338 0 -0.4912012330049611 -0.4559599862506909 0 -0.48973661415322989 -0.47713437377675338 0 -0.4912012330049611 -0.4559599862506909 0 -0.5 -0.46845208018324053 0 -0.48973661415322989 -0.47713437377675338 0 -0.48074524957805659 -0.46569659644067968 0 -0.4912012330049611 -0.4559599862506909 0 -0.4912012330049611 -0.4559599862506909 0 -0.5 -0.46845208018324053 0 -0.4912012330049611 -0.4559599862506909 0 -0.49281364675446149 -0.43264888825137737 0 -0.4912012330049611 -0.4559599862506909 0 -0.49281364675446149 -0.43264888825137737 0 -0.47706546193331739 -0.43466989362358838 0 -0.4912012330049611 -0.4559599862506909 0 -0.5 -0.43988023943640309 0 -0.49281364675446149 -0.43264888825137737 0 -0.5 -0.43988023943640309 0 -0.49442606050396359 -0.40933779025206402 0 -0.49603847425346581 -0.38602669225275071 0 -0.5 -0.43988023943640309 0 -0.49603847425346581 -0.38602669225275071 0 -0.49999999999999739 -0.36369546746181552 0 -0.5 -0.43988023943640309 0 -0.49281364675446149 -0.43264888825137737 0 -0.49442606050396359 -0.40933779025206402 0 -0.48567522798783153 -0.42373156932264439 0 -0.49281364675446149 -0.43264888825137737 0 -0.49442606050396359 -0.40933779025206402 0 -0.48567522798783153 -0.42373156932264439 0 -0.49281364675446149 -0.43264888825137737 0 -0.47706546193331739 -0.43466989362358838 0 -0.49281364675446149 -0.43264888825137737 0 -0.49442606050396359 -0.40933779025206402 0 -0.48567522798783153 -0.42373156932264439 0 -0.49442606050396359 -0.40933779025206402 0 -0.47839574275958341 -0.41826970516354772 0 -0.49442606050396359 -0.40933779025206402 0 -0.47839574275958341 -0.41826970516354772 0 -0.47537293762570049 -0.40619457181412483 0 -0.47839574275958341 -0.41826970516354772 0 -0.47537293762570049 -0.40619457181412483 0 -0.46292969086167213 -0.41337980099648708 0 -0.48567522798783153 -0.42373156932264439 0 -0.47839574275958341 -0.41826970516354772 0 -0.47706546193331739 -0.43466989362358838 0 -0.47706546193331739 -0.43466989362358838 0 -0.46292969086167213 -0.41337980099648708 0 -0.47839574275958341 -0.41826970516354772 0 -0.47706546193331739 -0.43466989362358838 0 -0.46292969086167213 -0.41337980099648708 0 -0.49603847425346581 -0.38602669225275071 0 -0.48289337864831472 -0.39668409578355568 0 -0.47815354196535631 -0.38517847557377399 0 -0.49603847425346581 -0.38602669225275071 0 -0.47815354196535631 -0.38517847557377399 0 -0.48074157637671122 -0.37087819406386219 0 -0.49442606050396359 -0.40933779025206402 0 -0.49603847425346581 -0.38602669225275071 0 -0.48289337864831472 -0.39668409578355568 0 -0.49442606050396359 -0.40933779025206402 0 -0.49603847425346581 -0.38602669225275071 0 -0.49442606050396359 -0.40933779025206402 0 -0.47537293762570049 -0.40619457181412483 0 -0.48289337864831472 -0.39668409578355568 0 -0.47537293762570049 -0.40619457181412483 0 -0.47240821973735492 -0.39489106073182512 0 -0.48289337864831472 -0.39668409578355568 0 -0.47537293762570049 -0.40619457181412483 0 -0.47240821973735492 -0.39489106073182512 0 -0.46610453097704863 -0.4009795265416421 0 -0.47240821973735492 -0.39489106073182512 0 -0.48289337864831472 -0.39668409578355568 0 -0.47815354196535631 -0.38517847557377399 0 -0.47240821973735492 -0.39489106073182512 0 -0.47815354196535631 -0.38517847557377399 0 -0.46712550721207952 -0.3864620356201387 0 -0.47815354196535631 -0.38517847557377399 0 -0.46929139830501132 -0.37619395019243351 0 -0.46712550721207952 -0.3864620356201387 0 -0.47815354196535631 -0.38517847557377399 0 -0.46929139830501132 -0.37619395019243351 0 -0.48074157637671122 -0.37087819406386219 0 -0.46017146004197418 -0.38058821547635802 0 -0.45234911498290759 -0.37850400504586112 0 -0.45938567431424498 -0.3721824343097051 0 -0.46017146004197418 -0.38058821547635802 0 -0.4554789171830893 -0.38420486643469609 0 -0.45234911498290759 -0.37850400504586112 0 -0.46929139830501132 -0.37619395019243351 0 -0.46017146004197418 -0.38058821547635802 0 -0.46712550721207952 -0.3864620356201387 0 -0.46929139830501132 -0.37619395019243351 0 -0.46017146004197418 -0.38058821547635802 0 -0.45938567431424498 -0.3721824343097051 0 -0.46017146004197418 -0.38058821547635802 0 -0.46712550721207952 -0.3864620356201387 0 -0.45927007340792869 -0.38867812285420972 0 -0.46712550721207952 -0.3864620356201387 0 -0.45927007340792869 -0.38867812285420972 0 -0.46479942199563012 -0.39384765905771563 0 -0.46017146004197418 -0.38058821547635802 0 -0.45927007340792869 -0.38867812285420972 0 -0.4554789171830893 -0.38420486643469609 0 -0.4554789171830893 -0.38420486643469609 0 -0.45456067628122943 -0.38913092440803099 0 -0.4500835907944406 -0.38506266843081999 0 -0.45927007340792869 -0.38867812285420972 0 -0.45456067628122943 -0.38913092440803099 0 -0.4562958422580447 -0.39167029526851699 0 -0.45927007340792869 -0.38867812285420972 0 -0.4554789171830893 -0.38420486643469609 0 -0.45456067628122943 -0.38913092440803099 0 -0.44879391979002642 -0.392089708369386 0 -0.46292969086167213 -0.41337980099648708 0 -0.45943957252300938 -0.39637691031558769 0 -0.46610453097704863 -0.4009795265416421 0 -0.46292969086167213 -0.41337980099648708 0 -0.45943957252300938 -0.39637691031558769 0 -0.45191304682001132 -0.39249522349623989 0 -0.46292969086167213 -0.41337980099648708 0 -0.44879391979002642 -0.392089708369386 0 -0.46292969086167213 -0.41337980099648708 0 -0.45253713637051629 -0.40893076795965722 0 -0.44879391979002642 -0.392089708369386 0 -0.45191304682001132 -0.39249522349623989 0 -0.46292969086167213 -0.41337980099648708 0 -0.4562958422580447 -0.39167029526851699 0 -0.45943957252300938 -0.39637691031558769 0 -0.45191304682001132 -0.39249522349623989 0 -0.45456067628122943 -0.38913092440803099 0 -0.4562958422580447 -0.39167029526851699 0 -0.45191304682001132 -0.39249522349623989 0 -0.45927007340792869 -0.38867812285420972 0 -0.4562958422580447 -0.39167029526851699 0 -0.45943957252300938 -0.39637691031558769 0 -0.45927007340792869 -0.38867812285420972 0 -0.45943957252300938 -0.39637691031558769 0 -0.46479942199563012 -0.39384765905771563 0 -0.47240821973735492 -0.39489106073182512 0 -0.46712550721207952 -0.3864620356201387 0 -0.46479942199563012 -0.39384765905771563 0 -0.47240821973735492 -0.39489106073182512 0 -0.46479942199563012 -0.39384765905771563 0 -0.46610453097704863 -0.4009795265416421 0 -0.45943957252300938 -0.39637691031558769 0 -0.46479942199563012 -0.39384765905771563 0 -0.46610453097704863 -0.4009795265416421 0 -0.44879391979002642 -0.392089708369386 0 -0.45253713637051629 -0.40893076795965722 0 -0.43487767659190862 -0.40401936104036013 0 -0.44879391979002642 -0.392089708369386 0 -0.45191304682001132 -0.39249522349623989 0 -0.44879391979002642 -0.392089708369386 0 -0.45191304682001132 -0.39249522349623989 0 -0.45133780842142701 -0.3896946311761193 0 -0.44879391979002642 -0.392089708369386 0 -0.4500835907944406 -0.38506266843081999 0 -0.43862482865108421 -0.37677389070480882 0 -0.44879391979002642 -0.392089708369386 0 -0.45133780842142701 -0.3896946311761193 0 -0.4500835907944406 -0.38506266843081999 0 -0.45456067628122943 -0.38913092440803099 0 -0.45133780842142701 -0.3896946311761193 0 -0.4500835907944406 -0.38506266843081999 0 -0.45456067628122943 -0.38913092440803099 0 -0.45191304682001132 -0.39249522349623989 0 -0.45133780842142701 -0.3896946311761193 0 -0.44879391979002642 -0.392089708369386 0 -0.43862482865108421 -0.37677389070480882 0 -0.4500835907944406 -0.38506266843081999 0 -0.43862482865108421 -0.37677389070480882 0 -0.45234911498290759 -0.37850400504586112 0 -0.43862482865108421 -0.37677389070480882 0 -0.45234911498290759 -0.37850400504586112 0 -0.44962730577443299 -0.37090306519802457 0 -0.4554789171830893 -0.38420486643469609 0 -0.4500835907944406 -0.38506266843081999 0 -0.45234911498290759 -0.37850400504586112 0 -0.46541697878286442 -0.44256241196002599 0 -0.46129839782319582 -0.42781001484326497 0 -0.44591240308320679 -0.43169807596974208 0 -0.46129839782319582 -0.42781001484326497 0 -0.45253713637051629 -0.40893076795965722 0 -0.44591240308320679 -0.43169807596974208 0 -0.47706546193331739 -0.43466989362358838 0 -0.46129839782319582 -0.42781001484326497 0 -0.46292969086167213 -0.41337980099648708 0 -0.46541697878286442 -0.44256241196002599 0 -0.47706546193331739 -0.43466989362358838 0 -0.46129839782319582 -0.42781001484326497 0 -0.46129839782319582 -0.42781001484326497 0 -0.46292969086167213 -0.41337980099648708 0 -0.45253713637051629 -0.40893076795965722 0 -0.47537293762570049 -0.40619457181412483 0 -0.46610453097704863 -0.4009795265416421 0 -0.46292969086167213 -0.41337980099648708 0 -0.45253713637051629 -0.40893076795965722 0 -0.44591240308320679 -0.43169807596974208 0 -0.45253713637051629 -0.40893076795965722 0 -0.43848891487768232 -0.41833196165999359 0 -0.43487767659190862 -0.40401936104036013 0 -0.45253713637051629 -0.40893076795965722 0 -0.43848891487768232 -0.41833196165999359 0 -0.44591240308320679 -0.43169807596974208 0 -0.43848891487768232 -0.41833196165999359 0 -0.44591240308320679 -0.43169807596974208 0 -0.43150946710850058 -0.43169895255797219 0 -0.43150946710850058 -0.43169895255797219 0 -0.42709565300941038 -0.4151430662254883 0 -0.41855381463446811 -0.42589742498019878 0 -0.43150946710850058 -0.43169895255797219 0 -0.41855381463446811 -0.42589742498019878 0 -0.41971834725033919 -0.44465780253258408 0 -0.43848891487768232 -0.41833196165999359 0 -0.43150946710850058 -0.43169895255797219 0 -0.42709565300941038 -0.4151430662254883 0 -0.42709565300941038 -0.4151430662254883 0 -0.41667962652001128 -0.40749950927679662 0 -0.43487767659190862 -0.40401936104036013 0 -0.43848891487768232 -0.41833196165999359 0 -0.42709565300941038 -0.4151430662254883 0 -0.43487767659190862 -0.40401936104036013 0 -0.42709565300941038 -0.4151430662254883 0 -0.41667962652001128 -0.40749950927679662 0 -0.41855381463446811 -0.42589742498019878 0 -0.41667962652001128 -0.40749950927679662 0 -0.39683128089044523 -0.40589891327684868 0 -0.40546507388840752 -0.41891070272267261 0 -0.41667962652001128 -0.40749950927679662 0 -0.41855381463446811 -0.42589742498019878 0 -0.40546507388840752 -0.41891070272267261 0 -0.41855381463446811 -0.42589742498019878 0 -0.40546507388840752 -0.41891070272267261 0 -0.40532106328753598 -0.43764480273581979 0 -0.41855381463446811 -0.42589742498019878 0 -0.40532106328753598 -0.43764480273581979 0 -0.41971834725033919 -0.44465780253258408 0 -0.44879391979002642 -0.392089708369386 0 -0.43862482865108421 -0.37677389070480882 0 -0.42447441951943787 -0.38892795024205129 0 -0.43862482865108421 -0.37677389070480882 0 -0.42447441951943787 -0.38892795024205129 0 -0.42820135255848307 -0.37281822657943331 0 -0.44879391979002642 -0.392089708369386 0 -0.42447441951943787 -0.38892795024205129 0 -0.42447441951943787 -0.38892795024205129 0 -0.41931018712138057 -0.37612434997693789 0 -0.42820135255848307 -0.37281822657943331 0 -0.41667962652001128 -0.40749950927679662 0 -0.42447441951943787 -0.38892795024205129 0 -0.43487767659190862 -0.40401936104036013 0 -0.44879391979002642 -0.392089708369386 0 -0.42447441951943787 -0.38892795024205129 0 -0.43487767659190862 -0.40401936104036013 0 -0.41667962652001128 -0.40749950927679662 0 -0.42447441951943787 -0.38892795024205129 0 -0.409535061544686 -0.39702314122760318 0 -0.41667962652001128 -0.40749950927679662 0 -0.409535061544686 -0.39702314122760318 0 -0.39683128089044523 -0.40589891327684868 0 -0.42447441951943787 -0.38892795024205129 0 -0.409535061544686 -0.39702314122760318 0 -0.40015491924884961 -0.38576619211471641 0 -0.42447441951943787 -0.38892795024205129 0 -0.41149154142176292 -0.37895015525392961 0 -0.40015491924884961 -0.38576619211471641 0 -0.42447441951943787 -0.38892795024205129 0 -0.40015491924884961 -0.38576619211471641 0 -0.41149154142176292 -0.37895015525392961 0 -0.41931018712138057 -0.37612434997693789 0 -0.41375387195581692 -0.37370609491998208 0 -0.42447441951943787 -0.38892795024205129 0 -0.41149154142176292 -0.37895015525392961 0 -0.41931018712138057 -0.37612434997693789 0 -0.40015491924884961 -0.38576619211471641 0 -0.37583541897826123 -0.38260443398738142 0 -0.40275984053109209 -0.37165708048225238 0 -0.41149154142176292 -0.37895015525392961 0 -0.40015491924884961 -0.38576619211471641 0 -0.40275984053109209 -0.37165708048225238 0 -0.40015491924884961 -0.38576619211471641 0 -0.39683128089044523 -0.40589891327684868 0 -0.38916570623785018 -0.39107628636407332 0 -0.409535061544686 -0.39702314122760318 0 -0.40015491924884961 -0.38576619211471641 0 -0.39683128089044523 -0.40589891327684868 0 -0.39683128089044523 -0.40589891327684868 0 -0.37930406543582929 -0.40961742982547678 0 -0.36831026135857098 -0.40077672209154158 0 -0.39683128089044523 -0.40589891327684868 0 -0.36831026135857098 -0.40077672209154158 0 -0.39683128089044523 -0.40589891327684868 0 -0.38249815054820629 -0.39561396152182671 0 -0.36831026135857098 -0.40077672209154158 0 -0.38249815054820629 -0.39561396152182671 0 -0.38009848032970273 -0.38977526351988317 0 -0.3744093142454516 -0.39265811364109998 0 -0.38249815054820629 -0.39561396152182671 0 -0.3744093142454516 -0.39265811364109998 0 -0.36831026135857098 -0.40077672209154158 0 -0.39683128089044523 -0.40589891327684868 0 -0.38249815054820629 -0.39561396152182671 0 -0.38916570623785018 -0.39107628636407332 0 -0.38249815054820629 -0.39561396152182671 0 -0.38916570623785018 -0.39107628636407332 0 -0.38009848032970273 -0.38977526351988317 0 -0.37583541897826123 -0.38260443398738142 0 -0.40275984053109209 -0.37165708048225238 0 -0.38529782787685379 -0.37512251053811541 0 -0.37583541897826123 -0.38260443398738142 0 -0.40275984053109209 -0.37165708048225238 0 -0.40015491924884961 -0.38576619211471641 0 -0.38916570623785018 -0.39107628636407332 0 -0.37583541897826123 -0.38260443398738142 0 -0.40015491924884961 -0.38576619211471641 0 -0.37583541897826123 -0.38260443398738142 0 -0.38916570623785018 -0.39107628636407332 0 -0.38009848032970273 -0.38977526351988317 0 -0.37583541897826123 -0.38260443398738142 0 -0.38009848032970273 -0.38977526351988317 0 -0.37583541897826123 -0.38260443398738142 0 -0.37490759201799329 -0.38818445396466522 0 -0.38009848032970273 -0.38977526351988317 0 -0.37490759201799329 -0.38818445396466522 0 -0.3744093142454516 -0.39265811364109998 0 -0.39289698581220428 -0.42682916471885118 0 -0.38543533768308419 -0.4452615437997493 0 -0.40532106328753598 -0.43764480273581979 0 -0.39289698581220428 -0.42682916471885118 0 -0.40546507388840752 -0.41891070272267261 0 -0.40532106328753598 -0.43764480273581979 0 -0.39683128089044523 -0.40589891327684868 0 -0.39289698581220428 -0.42682916471885118 0 -0.40546507388840752 -0.41891070272267261 0 -0.39683128089044523 -0.40589891327684868 0 -0.39289698581220428 -0.42682916471885118 0 -0.38428198392866447 -0.41865455339844698 0 -0.39683128089044523 -0.40589891327684868 0 -0.38428198392866447 -0.41865455339844698 0 -0.37930406543582929 -0.40961742982547678 0 -0.38428198392866447 -0.41865455339844698 0 -0.37930406543582929 -0.40961742982547678 0 -0.37345439217194421 -0.41610272168094459 0 -0.38428198392866447 -0.41865455339844698 0 -0.37982254315831238 -0.43204764104745452 0 -0.37345439217194421 -0.41610272168094459 0 -0.39289698581220428 -0.42682916471885118 0 -0.37982254315831238 -0.43204764104745452 0 -0.38543533768308419 -0.4452615437997493 0 -0.39289698581220428 -0.42682916471885118 0 -0.38428198392866447 -0.41865455339844698 0 -0.37982254315831238 -0.43204764104745452 0 -0.38543533768308419 -0.4452615437997493 0 -0.37705985753298332 -0.46235384023312748 0 -0.36618563377185692 -0.44314360481620602 0 -0.37982254315831238 -0.43204764104745452 0 -0.38543533768308419 -0.4452615437997493 0 -0.36618563377185692 -0.44314360481620602 0 -0.38543533768308419 -0.4452615437997493 0 -0.40532106328753598 -0.43764480273581979 0 -0.4016440035560388 -0.45585946420079199 0 -0.4016440035560388 -0.45585946420079199 0 -0.38860016257005009 -0.47747977613702491 0 -0.40797815117218389 -0.46960256779870863 0 -0.4016440035560388 -0.45585946420079199 0 -0.37705985753298332 -0.46235384023312748 0 -0.38860016257005009 -0.47747977613702491 0 -0.38543533768308419 -0.4452615437997493 0 -0.4016440035560388 -0.45585946420079199 0 -0.37705985753298332 -0.46235384023312748 0 -0.37705985753298332 -0.46235384023312748 0 -0.38860016257005009 -0.47747977613702491 0 -0.36994728981782271 -0.48145733840571031 0 -0.38860016257005009 -0.47747977613702491 0 -0.40002028485701702 -0.5 0 -0.37400236649275492 -0.5 0 -0.38860016257005009 -0.47747977613702491 0 -0.37400236649275492 -0.5 0 -0.36994728981782271 -0.48145733840571031 0 -0.38860016257005009 -0.47747977613702491 0 -0.40002028485701702 -0.5 0 -0.41302924403914798 -0.48386723685815369 0 -0.38860016257005009 -0.47747977613702491 0 -0.40797815117218389 -0.46960256779870863 0 -0.41302924403914798 -0.48386723685815369 0 -0.40797815117218389 -0.46960256779870863 0 -0.41302924403914798 -0.48386723685815369 0 -0.41859182365354958 -0.47302647723650909 0 -0.41302924403914798 -0.48386723685815369 0 -0.41859182365354958 -0.47302647723650909 0 -0.43266293650858778 -0.47723269198991197 0 -0.40002028485701702 -0.5 0 -0.41302924403914798 -0.48386723685815369 0 -0.42603820322127911 -0.49999999999999711 0 -0.42603820322127911 -0.49999999999999711 0 -0.43266293650858778 -0.47723269198991197 0 -0.42603820322127911 -0.49999999999999711 0 -0.43613627641351582 -0.49999999999999972 0 -0.43266293650858778 -0.47723269198991197 0 -0.41302924403914798 -0.48386723685815369 0 -0.42603820322127911 -0.49999999999999711 0 -0.43266293650858778 -0.47723269198991197 0 -0.41859182365354958 -0.47302647723650909 0 -0.43266293650858778 -0.47723269198991197 0 -0.42069696289427871 -0.46140341229926207 0 -0.43928766979589728 -0.45446538397982711 0 -0.43266293650858778 -0.47723269198991197 0 -0.43928766979589728 -0.45446538397982711 0 -0.43266293650858778 -0.47723269198991197 0 -0.42069696289427871 -0.46140341229926207 0 -0.43928766979589728 -0.45446538397982711 0 -0.41971834725033919 -0.44465780253258408 0 -0.42069696289427871 -0.46140341229926207 0 -0.43928766979589728 -0.45446538397982711 0 -0.43150946710850058 -0.43169895255797219 0 -0.41971834725033919 -0.44465780253258408 0 -0.40532106328753598 -0.43764480273581979 0 -0.4016440035560388 -0.45585946420079199 0 -0.41971834725033919 -0.44465780253258408 0 -0.4016440035560388 -0.45585946420079199 0 -0.40797815117218389 -0.46960256779870863 0 -0.42069696289427871 -0.46140341229926207 0 -0.4016440035560388 -0.45585946420079199 0 -0.41971834725033919 -0.44465780253258408 0 -0.42069696289427871 -0.46140341229926207 0 -0.40797815117218389 -0.46960256779870863 0 -0.41859182365354958 -0.47302647723650909 0 -0.42069696289427871 -0.46140341229926207 0 -0.44595313017567789 -0.26380075322127872 0 -0.42686892815175892 -0.26320261671309481 0 -0.44515169611381661 -0.24178921517315011 0 -0.44595313017567789 -0.26380075322127872 0 -0.45783752861143301 -0.25509380603075732 0 -0.44515169611381661 -0.24178921517315011 0 -0.44760862408716928 -0.28726311080056549 0 -0.42845144471825908 -0.26603283877891859 0 -0.44595313017567789 -0.26380075322127872 0 -0.44760862408716928 -0.28726311080056549 0 -0.42845144471825908 -0.26603283877891859 0 -0.44595313017567789 -0.26380075322127872 0 -0.46558029237349019 -0.2700242439181556 0 -0.44760862408716928 -0.28726311080056549 0 -0.44760862408716928 -0.28726311080056549 0 -0.43906019157882398 -0.28500585308481641 0 -0.42845144471825908 -0.26603283877891859 0 -0.44595313017567789 -0.26380075322127872 0 -0.46558029237349019 -0.2700242439181556 0 -0.45783752861143301 -0.25509380603075732 0 -0.46558029237349019 -0.2700242439181556 0 -0.45783752861143301 -0.25509380603075732 0 -0.47466499578274712 -0.24476101181044499 0 -0.46558029237349019 -0.2700242439181556 0 -0.48298354239071528 -0.2725835060964088 0 -0.47466499578274712 -0.24476101181044499 0 -0.5 -0.2650431368310423 0 -0.48298354239071528 -0.2725835060964088 0 -0.47466499578274712 -0.24476101181044499 0 -0.5 -0.2650431368310423 0 -0.48298354239071528 -0.2725835060964088 0 -0.5 -0.29420784559028251 0 -0.46558029237349019 -0.2700242439181556 0 -0.4746724237973392 -0.28888129233211851 0 -0.46558029237349019 -0.2700242439181556 0 -0.48298354239071528 -0.2725835060964088 0 -0.4746724237973392 -0.28888129233211851 0 -0.48298354239071528 -0.2725835060964088 0 -0.4746724237973392 -0.28888129233211851 0 -0.5 -0.29420784559028251 0 -0.4746724237973392 -0.28888129233211851 0 -0.5 -0.29420784559028251 0 -0.48376455522118822 -0.30773834074608131 0 -0.5 -0.29420784559028251 0 -0.48376455522118822 -0.30773834074608131 0 -0.500000000000002 -0.32337255434952272 0 -0.4746724237973392 -0.28888129233211851 0 -0.48376455522118822 -0.30773834074608131 0 -0.4746724237973392 -0.28888129233211851 0 -0.48376455522118822 -0.30773834074608131 0 -0.46676580345607932 -0.30849338282221261 0 -0.46676580345607932 -0.30849338282221261 0 -0.44760862408716928 -0.28726311080056549 0 -0.44966893843938899 -0.30397886739071422 0 -0.46676580345607932 -0.30849338282221261 0 -0.44966893843938899 -0.30397886739071422 0 -0.45363138017556248 -0.32397582654406581 0 -0.46676580345607932 -0.30849338282221261 0 -0.44760862408716928 -0.28726311080056549 0 -0.4746724237973392 -0.28888129233211851 0 -0.46676580345607932 -0.30849338282221261 0 -0.44760862408716928 -0.28726311080056549 0 -0.46558029237349019 -0.2700242439181556 0 -0.4746724237973392 -0.28888129233211851 0 -0.44760862408716928 -0.28726311080056549 0 -0.43906019157882398 -0.28500585308481641 0 -0.44966893843938899 -0.30397886739071422 0 -0.43906019157882398 -0.28500585308481641 0 -0.44966893843938899 -0.30397886739071422 0 -0.43382658326904888 -0.30054323717296022 0 -0.44760862408716928 -0.28726311080056549 0 -0.43906019157882398 -0.28500585308481641 0 -0.44966893843938899 -0.30397886739071422 0 -0.44966893843938899 -0.30397886739071422 0 -0.4361129769271691 -0.31560884283093882 0 -0.43382658326904888 -0.30054323717296022 0 -0.45363138017556248 -0.32397582654406581 0 -0.43012626208223892 -0.33454938850015281 0 -0.4361129769271691 -0.31560884283093882 0 -0.44966893843938899 -0.30397886739071422 0 -0.45363138017556248 -0.32397582654406581 0 -0.4361129769271691 -0.31560884283093882 0 -0.45356070695208878 -0.34432447998593152 0 -0.43012626208223892 -0.33454938850015281 0 -0.45363138017556248 -0.32397582654406581 0 -0.45356070695208878 -0.34432447998593152 0 -0.43012626208223892 -0.33454938850015281 0 -0.46974184488853821 -0.33702406741489699 0 -0.45356070695208878 -0.34432447998593152 0 -0.45363138017556248 -0.32397582654406581 0 -0.46901550283629229 -0.32480423290625882 0 -0.46974184488853821 -0.33702406741489699 0 -0.45363138017556248 -0.32397582654406581 0 -0.46974184488853821 -0.33702406741489699 0 -0.45356070695208878 -0.34432447998593152 0 -0.46676580345607932 -0.30849338282221261 0 -0.45363138017556248 -0.32397582654406581 0 -0.46901550283629229 -0.32480423290625882 0 -0.48376455522118822 -0.30773834074608131 0 -0.46676580345607932 -0.30849338282221261 0 -0.4859229828249873 -0.32972365484386151 0 -0.46676580345607932 -0.30849338282221261 0 -0.4859229828249873 -0.32972365484386151 0 -0.46676580345607932 -0.30849338282221261 0 -0.46901550283629229 -0.32480423290625882 0 -0.4859229828249873 -0.32972365484386151 0 -0.48376455522118822 -0.30773834074608131 0 -0.49285668664503701 -0.32659538916004432 0 -0.48376455522118822 -0.30773834074608131 0 -0.49285668664503701 -0.32659538916004432 0 -0.500000000000002 -0.32337255434952272 0 -0.48376455522118822 -0.30773834074608131 0 -0.49285668664503701 -0.32659538916004432 0 -0.4859229828249873 -0.32972365484386151 0 -0.49285668664503701 -0.32659538916004432 0 -0.500000000000002 -0.32337255434952272 0 -0.49999999999999989 -0.32875385211927322 0 -0.49285668664503701 -0.32659538916004432 0 -0.500000000000002 -0.32337255434952272 0 -0.5 -0.34141059579215649 0 -0.49923437535218529 -0.33982269298062201 0 -0.49999999999999989 -0.32875385211927322 0 -0.49923437535218529 -0.33982269298062201 0 -0.4859229828249873 -0.32972365484386151 0 -0.4989354546151642 -0.34414427024132799 0 -0.4859229828249873 -0.32972365484386151 0 -0.4989354546151642 -0.34414427024132799 0 -0.49923437535218529 -0.33982269298062201 0 -0.4989354546151642 -0.34414427024132799 0 -0.5 -0.34141059579215649 0 -0.49923437535218529 -0.33982269298062201 0 -0.4989354546151642 -0.34414427024132799 0 -0.5 -0.34141059579215649 0 -0.49923437535218529 -0.33982269298062201 0 -0.49923437535218529 -0.33982269298062201 0 -0.49999999999999989 -0.32875385211927322 0 -0.49285668664503701 -0.32659538916004432 0 -0.49923437535218529 -0.33982269298062201 0 -0.49999999999999989 -0.32875385211927322 0 -0.49285668664503701 -0.32659538916004432 0 -0.49923437535218529 -0.33982269298062201 0 -0.4859229828249873 -0.32972365484386151 0 -0.49285668664503701 -0.32659538916004432 0 -0.49923437535218529 -0.33982269298062201 0 -0.49285668664503701 -0.32659538916004432 0 -0.4859229828249873 -0.32972365484386151 0 -0.4859229828249873 -0.32972365484386151 0 -0.48513435877878303 -0.34351649432663961 0 -0.4989354546151642 -0.34414427024132799 0 -0.46901550283629229 -0.32480423290625882 0 -0.4859229828249873 -0.32972365484386151 0 -0.46974184488853821 -0.33702406741489699 0 -0.4859229828249873 -0.32972365484386151 0 -0.48513435877878303 -0.34351649432663961 0 -0.46974184488853821 -0.33702406741489699 0 -0.4859229828249873 -0.32972365484386151 0 -0.46974184488853821 -0.33702406741489699 0 -0.48513435877878303 -0.34351649432663961 0 -0.46974184488853821 -0.33702406741489699 0 -0.47560579747752951 -0.35352003711968277 0 -0.4989354546151642 -0.34414427024132799 0 -0.49765088800296903 -0.36271559425343708 0 -0.48513435877878303 -0.34351649432663961 0 -0.4989354546151642 -0.34414427024132799 0 -0.49765088800296903 -0.36271559425343708 0 -0.47560579747752951 -0.35352003711968277 0 -0.49765088800296903 -0.36271559425343708 0 -0.4989354546151642 -0.34414427024132799 0 -0.49999999999999739 -0.36369546746181552 0 -0.49765088800296903 -0.36271559425343708 0 -0.48513435877878303 -0.34351649432663961 0 -0.47560579747752951 -0.35352003711968277 0 -0.49765088800296903 -0.36271559425343708 0 -0.49603847425346581 -0.38602669225275071 0 -0.49999999999999739 -0.36369546746181552 0 -0.49765088800296903 -0.36271559425343708 0 -0.47560579747752951 -0.35352003711968277 0 -0.49765088800296903 -0.36271559425343708 0 -0.48074157637671122 -0.37087819406386219 0 -0.49603847425346581 -0.38602669225275071 0 -0.49765088800296903 -0.36271559425343708 0 -0.48074157637671122 -0.37087819406386219 0 -0.49603847425346581 -0.38602669225275071 0 -0.49765088800296903 -0.36271559425343708 0 -0.49999999999999739 -0.36369546746181552 0 -0.49765088800296903 -0.36271559425343708 0 -0.47560579747752951 -0.35352003711968277 0 -0.48074157637671122 -0.37087819406386219 0 -0.46687623438509779 -0.36523430870514312 0 -0.46929139830501132 -0.37619395019243351 0 -0.48074157637671122 -0.37087819406386219 0 -0.46687623438509779 -0.36523430870514312 0 -0.46929139830501132 -0.37619395019243351 0 -0.45938567431424498 -0.3721824343097051 0 -0.46687623438509779 -0.36523430870514312 0 -0.45234911498290759 -0.37850400504586112 0 -0.45938567431424498 -0.3721824343097051 0 -0.44962730577443299 -0.37090306519802457 0 -0.45938567431424498 -0.3721824343097051 0 -0.45501787867742838 -0.36223374192838498 0 -0.44962730577443299 -0.37090306519802457 0 -0.45938567431424498 -0.3721824343097051 0 -0.45501787867742838 -0.36223374192838498 0 -0.46687623438509779 -0.36523430870514312 0 -0.45501787867742838 -0.36223374192838498 0 -0.46687623438509779 -0.36523430870514312 0 -0.46112233380969819 -0.35528261998992172 0 -0.47560579747752951 -0.35352003711968277 0 -0.46112233380969819 -0.35528261998992172 0 -0.45356070695208878 -0.34432447998593152 0 -0.46974184488853821 -0.33702406741489699 0 -0.47560579747752951 -0.35352003711968277 0 -0.45356070695208878 -0.34432447998593152 0 -0.47560579747752951 -0.35352003711968277 0 -0.46687623438509779 -0.36523430870514312 0 -0.46112233380969819 -0.35528261998992172 0 -0.47560579747752951 -0.35352003711968277 0 -0.45356070695208878 -0.34432447998593152 0 -0.46112233380969819 -0.35528261998992172 0 -0.45356070695208878 -0.34432447998593152 0 -0.45455105155634667 -0.35110053221046589 0 -0.45501787867742838 -0.36223374192838498 0 -0.46112233380969819 -0.35528261998992172 0 -0.45455105155634667 -0.35110053221046589 0 -0.45455105155634667 -0.35110053221046589 0 -0.44555602341633221 -0.36010643753335753 0 -0.42845573751214061 -0.36145807304023259 0 -0.45501787867742838 -0.36223374192838498 0 -0.45455105155634667 -0.35110053221046589 0 -0.44555602341633221 -0.36010643753335753 0 -0.45455105155634667 -0.35110053221046589 0 -0.42845573751214061 -0.36145807304023259 0 -0.43080641392701052 -0.35459049016999289 0 -0.45356070695208878 -0.34432447998593152 0 -0.43080641392701052 -0.35459049016999289 0 -0.43012626208223892 -0.33454938850015281 0 -0.45356070695208878 -0.34432447998593152 0 -0.45455105155634667 -0.35110053221046589 0 -0.43080641392701052 -0.35459049016999289 0 -0.45356070695208878 -0.34432447998593152 0 -0.43080641392701052 -0.35459049016999289 0 -0.45455105155634667 -0.35110053221046589 0 -0.42845573751214061 -0.36145807304023259 0 -0.44419942591941308 -0.36563340295434671 0 -0.44555602341633221 -0.36010643753335753 0 -0.42845573751214061 -0.36145807304023259 0 -0.43862482865108421 -0.37677389070480882 0 -0.44419942591941308 -0.36563340295434671 0 -0.44962730577443299 -0.37090306519802457 0 -0.45501787867742838 -0.36223374192838498 0 -0.44419942591941308 -0.36563340295434671 0 -0.44555602341633221 -0.36010643753335753 0 -0.45501787867742838 -0.36223374192838498 0 -0.44419942591941308 -0.36563340295434671 0 -0.44962730577443299 -0.37090306519802457 0 -0.43862482865108421 -0.37677389070480882 0 -0.44419942591941308 -0.36563340295434671 0 -0.42845573751214061 -0.36145807304023259 0 -0.42845573751214061 -0.36145807304023259 0 -0.43080641392701052 -0.35459049016999289 0 -0.40805212090193221 -0.36485650035405409 0 -0.42845573751214061 -0.36145807304023259 0 -0.42820135255848307 -0.37281822657943331 0 -0.42145391874903232 -0.36809279396680861 0 -0.41931018712138057 -0.37612434997693789 0 -0.42820135255848307 -0.37281822657943331 0 -0.42145391874903232 -0.36809279396680861 0 -0.43862482865108421 -0.37677389070480882 0 -0.42845573751214061 -0.36145807304023259 0 -0.43862482865108421 -0.37677389070480882 0 -0.42845573751214061 -0.36145807304023259 0 -0.42820135255848307 -0.37281822657943331 0 -0.43080641392701052 -0.35459049016999289 0 -0.41445536733790822 -0.34511331720994992 0 -0.43012626208223892 -0.33454938850015281 0 -0.43080641392701052 -0.35459049016999289 0 -0.41445536733790822 -0.34511331720994992 0 -0.40805212090193221 -0.36485650035405409 0 -0.42845573751214061 -0.36145807304023259 0 -0.42145391874903232 -0.36809279396680861 0 -0.40275984053109209 -0.37165708048225238 0 -0.43080641392701052 -0.35459049016999289 0 -0.40805212090193221 -0.36485650035405409 0 -0.42845573751214061 -0.36145807304023259 0 -0.40805212090193221 -0.36485650035405409 0 -0.40275984053109209 -0.37165708048225238 0 -0.42145391874903232 -0.36809279396680861 0 -0.41375387195581692 -0.37370609491998208 0 -0.40275984053109209 -0.37165708048225238 0 -0.42845573751214061 -0.36145807304023259 0 -0.40275984053109209 -0.37165708048225238 0 -0.41931018712138057 -0.37612434997693789 0 -0.42145391874903232 -0.36809279396680861 0 -0.41375387195581692 -0.37370609491998208 0 -0.41149154142176292 -0.37895015525392961 0 -0.41375387195581692 -0.37370609491998208 0 -0.40275984053109209 -0.37165708048225238 0 -0.38529782787685379 -0.37512251053811541 0 -0.40805212090193221 -0.36485650035405409 0 -0.40275984053109209 -0.37165708048225238 0 -0.38529782787685379 -0.37512251053811541 0 -0.40805212090193221 -0.36485650035405409 0 -0.38529782787685379 -0.37512251053811541 0 -0.40805212090193221 -0.36485650035405409 0 -0.38877661842505978 -0.35654341434893388 0 -0.38529782787685379 -0.37512251053811541 0 -0.38877661842505978 -0.35654341434893388 0 -0.36972147746553219 -0.35625538617263919 0 -0.38877661842505978 -0.35654341434893388 0 -0.38218286632374598 -0.33164860206412672 0 -0.36972147746553219 -0.35625538617263919 0 -0.41445536733790822 -0.34511331720994992 0 -0.40805212090193221 -0.36485650035405409 0 -0.39601411801637931 -0.34097884561919112 0 -0.40805212090193221 -0.36485650035405409 0 -0.38877661842505978 -0.35654341434893388 0 -0.39601411801637931 -0.34097884561919112 0 -0.41445536733790822 -0.34511331720994992 0 -0.39601411801637931 -0.34097884561919112 0 -0.40669181721238878 -0.32477429701437421 0 -0.39601411801637931 -0.34097884561919112 0 -0.38218286632374598 -0.33164860206412672 0 -0.38325737234253943 -0.31499920552859439 0 -0.38877661842505978 -0.35654341434893388 0 -0.39601411801637931 -0.34097884561919112 0 -0.38218286632374598 -0.33164860206412672 0 -0.39601411801637931 -0.34097884561919112 0 -0.38325737234253943 -0.31499920552859439 0 -0.38218286632374598 -0.33164860206412672 0 -0.38325737234253943 -0.31499920552859439 0 -0.36578820015179658 -0.33474244906941469 0 -0.38325737234253943 -0.31499920552859439 0 -0.40669181721238878 -0.32477429701437421 0 -0.38325737234253943 -0.31499920552859439 0 -0.40669181721238878 -0.32477429701437421 0 -0.39807376343871809 -0.31245691828831851 0 -0.39601411801637931 -0.34097884561919112 0 -0.38325737234253943 -0.31499920552859439 0 -0.40669181721238878 -0.32477429701437421 0 -0.40669181721238878 -0.32477429701437421 0 -0.41982114240552187 -0.30866554751101138 0 -0.39807376343871809 -0.31245691828831851 0 -0.40669181721238878 -0.32477429701437421 0 -0.43012626208223892 -0.33454938850015281 0 -0.42318804965682971 -0.32089951896411928 0 -0.40669181721238878 -0.32477429701437421 0 -0.42318804965682971 -0.32089951896411928 0 -0.41982114240552187 -0.30866554751101138 0 -0.40669181721238878 -0.32477429701437421 0 -0.43012626208223892 -0.33454938850015281 0 -0.41445536733790822 -0.34511331720994992 0 -0.40669181721238878 -0.32477429701437421 0 -0.43012626208223892 -0.33454938850015281 0 -0.4361129769271691 -0.31560884283093882 0 -0.42318804965682971 -0.32089951896411928 0 -0.41982114240552187 -0.30866554751101138 0 -0.43012626208223892 -0.33454938850015281 0 -0.4361129769271691 -0.31560884283093882 0 -0.42318804965682971 -0.32089951896411928 0 -0.43382658326904888 -0.30054323717296022 0 -0.42443126673122228 -0.29026570541143792 0 -0.41982114240552187 -0.30866554751101138 0 -0.4361129769271691 -0.31560884283093882 0 -0.43382658326904888 -0.30054323717296022 0 -0.41982114240552187 -0.30866554751101138 0 -0.43906019157882398 -0.28500585308481641 0 -0.43382658326904888 -0.30054323717296022 0 -0.42443126673122228 -0.29026570541143792 0 -0.43906019157882398 -0.28500585308481641 0 -0.42443126673122228 -0.29026570541143792 0 -0.42605002844866041 -0.2804051889644355 0 -0.42443126673122228 -0.29026570541143792 0 -0.41157214627506128 -0.29752232494517211 0 -0.41225721076633598 -0.28031635858256931 0 -0.41157214627506128 -0.29752232494517211 0 -0.39764549338091459 -0.29743010045204499 0 -0.41225721076633598 -0.28031635858256931 0 -0.42443126673122228 -0.29026570541143792 0 -0.41225721076633598 -0.28031635858256931 0 -0.42605002844866041 -0.2804051889644355 0 -0.41157214627506128 -0.29752232494517211 0 -0.41982114240552187 -0.30866554751101138 0 -0.39807376343871809 -0.31245691828831851 0 -0.42443126673122228 -0.29026570541143792 0 -0.41157214627506128 -0.29752232494517211 0 -0.41982114240552187 -0.30866554751101138 0 -0.38325737234253943 -0.31499920552859439 0 -0.39764549338091459 -0.29743010045204499 0 -0.39807376343871809 -0.31245691828831851 0 -0.41157214627506128 -0.29752232494517211 0 -0.39764549338091459 -0.29743010045204499 0 -0.39807376343871809 -0.31245691828831851 0 -0.38325737234253943 -0.31499920552859439 0 -0.39764549338091459 -0.29743010045204499 0 -0.37488707221238349 -0.29795274317905329 0 -0.38325737234253943 -0.31499920552859439 0 -0.39764549338091459 -0.29743010045204499 0 -0.38325737234253943 -0.31499920552859439 0 -0.37488707221238349 -0.29795274317905329 0 -0.36869337048675649 -0.30892419708141527 0 -0.38325737234253943 -0.31499920552859439 0 -0.37488707221238349 -0.29795274317905329 0 -0.38325737234253943 -0.31499920552859439 0 -0.36869337048675649 -0.30892419708141527 0 -0.39764549338091459 -0.29743010045204499 0 -0.39555103474683018 -0.29277833718980839 0 -0.37488707221238349 -0.29795274317905329 0 -0.39555103474683018 -0.29277833718980839 0 -0.37488707221238349 -0.29795274317905329 0 -0.38196309039515142 -0.28236286908932112 0 -0.39555103474683018 -0.29277833718980839 0 -0.37488707221238349 -0.29795274317905329 0 -0.38196309039515142 -0.28236286908932112 0 -0.39555103474683018 -0.29277833718980839 0 -0.39725144180630562 -0.2775941039841639 0 -0.39764549338091459 -0.29743010045204499 0 -0.41225721076633598 -0.28031635858256931 0 -0.39764549338091459 -0.29743010045204499 0 -0.39555103474683018 -0.29277833718980839 0 -0.41225721076633598 -0.28031635858256931 0 -0.39555103474683018 -0.29277833718980839 0 -0.39725144180630562 -0.2775941039841639 0 -0.41225721076633598 -0.28031635858256931 0 -0.39725144180630562 -0.2775941039841639 0 -0.40587804628304419 -0.26245074519858591 0 -0.41225721076633598 -0.28031635858256931 0 -0.39725144180630562 -0.2775941039841639 0 -0.38622503322442309 -0.26585474944075072 0 -0.40587804628304419 -0.26245074519858591 0 -0.38196309039515142 -0.28236286908932112 0 -0.39725144180630562 -0.2775941039841639 0 -0.38622503322442309 -0.26585474944075072 0 -0.38196309039515142 -0.28236286908932112 0 -0.38622503322442309 -0.26585474944075072 0 -0.36424466861694871 -0.27627904816487142 0 -0.38622503322442309 -0.26585474944075072 0 -0.37296094896050469 -0.25131874535835808 0 -0.39305878154435231 -0.2433936727470595 0 -0.40587804628304419 -0.26245074519858591 0 -0.41633050832669871 -0.24435537747453029 0 -0.39305878154435231 -0.2433936727470595 0 -0.38622503322442309 -0.26585474944075072 0 -0.40587804628304419 -0.26245074519858591 0 -0.39305878154435231 -0.2433936727470595 0 -0.42686892815175892 -0.26320261671309481 0 -0.41633050832669871 -0.24435537747453029 0 -0.40587804628304419 -0.26245074519858591 0 -0.42686892815175892 -0.26320261671309481 0 -0.41633050832669871 -0.24435537747453029 0 -0.40587804628304419 -0.26245074519858591 0 -0.41225721076633598 -0.28031635858256931 0 -0.42686892815175892 -0.26320261671309481 0 -0.41225721076633598 -0.28031635858256931 0 -0.42686892815175892 -0.26320261671309481 0 -0.43906019157882398 -0.28500585308481641 0 -0.42845144471825908 -0.26603283877891859 0 -0.41225721076633598 -0.28031635858256931 0 -0.42845144471825908 -0.26603283877891859 0 -0.42686892815175892 -0.26320261671309481 0 -0.41225721076633598 -0.28031635858256931 0 -0.42845144471825908 -0.26603283877891859 0 -0.42605002844866041 -0.2804051889644355 0 -0.43906019157882398 -0.28500585308481641 0 -0.42845144471825908 -0.26603283877891859 0 -0.42605002844866041 -0.2804051889644355 0 -0.44595313017567789 -0.26380075322127872 0 -0.42845144471825908 -0.26603283877891859 0 -0.42686892815175892 -0.26320261671309481 0 -0.42686892815175892 -0.26320261671309481 0 -0.44515169611381661 -0.24178921517315011 0 -0.42845144471825908 -0.26603283877891859 0 -0.42686892815175892 -0.26320261671309481 0 -0.3204267963439279 -0.25655738410344142 0 -0.34197435386089542 -0.2737646994550183 0 -0.35360226502151387 -0.25460535315068938 0 -0.3204267963439279 -0.25655738410344142 0 -0.30616162266381541 -0.28284064532118969 0 -0.3204267963439279 -0.25655738410344142 0 -0.32434872675277993 -0.27626521861553782 0 -0.30616162266381541 -0.28284064532118969 0 -0.32434872675277993 -0.27626521861553782 0 -0.34197435386089542 -0.2737646994550183 0 -0.33037127799590649 -0.29293909642701588 0 -0.3204267963439279 -0.25655738410344142 0 -0.32434872675277993 -0.27626521861553782 0 -0.34197435386089542 -0.2737646994550183 0 -0.35360226502151387 -0.25460535315068938 0 -0.36424466861694871 -0.27627904816487142 0 -0.38622503322442309 -0.26585474944075072 0 -0.37296094896050469 -0.25131874535835808 0 -0.36424466861694871 -0.27627904816487142 0 -0.35360226502151387 -0.25460535315068938 0 -0.37296094896050469 -0.25131874535835808 0 -0.36424466861694871 -0.27627904816487142 0 -0.34197435386089542 -0.2737646994550183 0 -0.35360226502151387 -0.25460535315068938 0 -0.36424466861694871 -0.27627904816487142 0 -0.34197435386089542 -0.2737646994550183 0 -0.36424466861694871 -0.27627904816487142 0 -0.35458093332799689 -0.3030375475328439 0 -0.36424466861694871 -0.27627904816487142 0 -0.37488707221238349 -0.29795274317905329 0 -0.36424466861694871 -0.27627904816487142 0 -0.37488707221238349 -0.29795274317905329 0 -0.35458093332799689 -0.3030375475328439 0 -0.38196309039515142 -0.28236286908932112 0 -0.36424466861694871 -0.27627904816487142 0 -0.37488707221238349 -0.29795274317905329 0 -0.37488707221238349 -0.29795274317905329 0 -0.36869337048675649 -0.30892419708141527 0 -0.35458093332799689 -0.3030375475328439 0 -0.37488707221238349 -0.29795274317905329 0 -0.35458093332799689 -0.3030375475328439 0 -0.36869337048675649 -0.30892419708141527 0 -0.35458093332799689 -0.3030375475328439 0 -0.35886509419714241 -0.31712309116148529 0 -0.36869337048675649 -0.30892419708141527 0 -0.35458093332799689 -0.3030375475328439 0 -0.35458093332799689 -0.3030375475328439 0 -0.33614564770549882 -0.30765387667008048 0 -0.35458093332799689 -0.3030375475328439 0 -0.33614564770549882 -0.30765387667008048 0 -0.34639787282201889 -0.32178817096226919 0 -0.35458093332799689 -0.3030375475328439 0 -0.33614564770549882 -0.30765387667008048 0 -0.33037127799590649 -0.29293909642701588 0 -0.35458093332799689 -0.3030375475328439 0 -0.33037127799590649 -0.29293909642701588 0 -0.34197435386089542 -0.2737646994550183 0 -0.35458093332799689 -0.3030375475328439 0 -0.33037127799590649 -0.29293909642701588 0 -0.33037127799590649 -0.29293909642701588 0 -0.31241735561098632 -0.29766761039886358 0 -0.30616162266381541 -0.28284064532118969 0 -0.33037127799590649 -0.29293909642701588 0 -0.30616162266381541 -0.28284064532118969 0 -0.32434872675277993 -0.27626521861553782 0 -0.33037127799590649 -0.29293909642701588 0 -0.30616162266381541 -0.28284064532118969 0 -0.33614564770549882 -0.30765387667008048 0 -0.33037127799590649 -0.29293909642701588 0 -0.31771036208300008 -0.31227020580731463 0 -0.33614564770549882 -0.30765387667008048 0 -0.31771036208300008 -0.31227020580731463 0 -0.33037127799590649 -0.29293909642701588 0 -0.31771036208300008 -0.31227020580731463 0 -0.31241735561098632 -0.29766761039886358 0 -0.33614564770549882 -0.30765387667008048 0 -0.31771036208300008 -0.31227020580731463 0 -0.32945704595157821 -0.32006175312163643 0 -0.31771036208300008 -0.31227020580731463 0 -0.32945704595157821 -0.32006175312163643 0 -0.31082663595911503 -0.33240078527314221 0 -0.33245121680185402 -0.3340921600319014 0 -0.32252131820658519 -0.34498208228240468 0 -0.31082663595911503 -0.33240078527314221 0 -0.32252131820658519 -0.34498208228240468 0 -0.31123517938595252 -0.35242665102898679 0 -0.31082663595911503 -0.33240078527314221 0 -0.33245121680185402 -0.3340921600319014 0 -0.32945704595157821 -0.32006175312163643 0 -0.31082663595911503 -0.33240078527314221 0 -0.33245121680185402 -0.3340921600319014 0 -0.34639787282201889 -0.32178817096226919 0 -0.34580890464371772 -0.33868788764918162 0 -0.33245121680185402 -0.3340921600319014 0 -0.33593564807294429 -0.34663399897162711 0 -0.32252131820658519 -0.34498208228240468 0 -0.33245121680185402 -0.3340921600319014 0 -0.34580890464371772 -0.33868788764918162 0 -0.33593564807294429 -0.34663399897162711 0 -0.33245121680185402 -0.3340921600319014 0 -0.32945704595157821 -0.32006175312163643 0 -0.34639787282201889 -0.32178817096226919 0 -0.33614564770549882 -0.30765387667008048 0 -0.32945704595157821 -0.32006175312163643 0 -0.34639787282201889 -0.32178817096226919 0 -0.35458093332799689 -0.3030375475328439 0 -0.34639787282201889 -0.32178817096226919 0 -0.35886509419714241 -0.31712309116148529 0 -0.34639787282201889 -0.32178817096226919 0 -0.35886509419714241 -0.31712309116148529 0 -0.36578820015179658 -0.33474244906941469 0 -0.38325737234253943 -0.31499920552859439 0 -0.36869337048675649 -0.30892419708141527 0 -0.36578820015179658 -0.33474244906941469 0 -0.38325737234253943 -0.31499920552859439 0 -0.36578820015179658 -0.33474244906941469 0 -0.36869337048675649 -0.30892419708141527 0 -0.35886509419714241 -0.31712309116148529 0 -0.36578820015179658 -0.33474244906941469 0 -0.38218286632374598 -0.33164860206412672 0 -0.36578820015179658 -0.33474244906941469 0 -0.36972147746553219 -0.35625538617263919 0 -0.34639787282201889 -0.32178817096226919 0 -0.36578820015179658 -0.33474244906941469 0 -0.34580890464371772 -0.33868788764918162 0 -0.36578820015179658 -0.33474244906941469 0 -0.34580890464371772 -0.33868788764918162 0 -0.34877059265808008 -0.35467405150884429 0 -0.36578820015179658 -0.33474244906941469 0 -0.34877059265808008 -0.35467405150884429 0 -0.36578820015179658 -0.33474244906941469 0 -0.34877059265808008 -0.35467405150884429 0 -0.36972147746553219 -0.35625538617263919 0 -0.36972147746553219 -0.35625538617263919 0 -0.36564458720461052 -0.37127411702710578 0 -0.35140562079391269 -0.36880738783291978 0 -0.38529782787685379 -0.37512251053811541 0 -0.36972147746553219 -0.35625538617263919 0 -0.36564458720461052 -0.37127411702710578 0 -0.36564458720461052 -0.37127411702710578 0 -0.35140562079391269 -0.36880738783291978 0 -0.34976865238176458 -0.3819383339311061 0 -0.34877059265808008 -0.35467405150884429 0 -0.36972147746553219 -0.35625538617263919 0 -0.35140562079391269 -0.36880738783291978 0 -0.34877059265808008 -0.35467405150884429 0 -0.35140562079391269 -0.36880738783291978 0 -0.33917687258947798 -0.36835691237577578 0 -0.35140562079391269 -0.36880738783291978 0 -0.33660234981190529 -0.38061550073876971 0 -0.34877059265808008 -0.35467405150884429 0 -0.33917687258947798 -0.36835691237577578 0 -0.33115531904612189 -0.35943222170651012 0 -0.35140562079391269 -0.36880738783291978 0 -0.33917687258947798 -0.36835691237577578 0 -0.33660234981190529 -0.38061550073876971 0 -0.33917687258947798 -0.36835691237577578 0 -0.32631931093636779 -0.37356823547123968 0 -0.33660234981190529 -0.38061550073876971 0 -0.33917687258947798 -0.36835691237577578 0 -0.33115531904612189 -0.35943222170651012 0 -0.32631931093636779 -0.37356823547123968 0 -0.34580890464371772 -0.33868788764918162 0 -0.34877059265808008 -0.35467405150884429 0 -0.33593564807294429 -0.34663399897162711 0 -0.34877059265808008 -0.35467405150884429 0 -0.33115531904612189 -0.35943222170651012 0 -0.33593564807294429 -0.34663399897162711 0 -0.33115531904612189 -0.35943222170651012 0 -0.33593564807294429 -0.34663399897162711 0 -0.32252131820658519 -0.34498208228240468 0 -0.32252131820658519 -0.34498208228240468 0 -0.31803490286454689 -0.36285896333447121 0 -0.31123517938595252 -0.35242665102898679 0 -0.33115531904612189 -0.35943222170651012 0 -0.32252131820658519 -0.34498208228240468 0 -0.31803490286454689 -0.36285896333447121 0 -0.31803490286454689 -0.36285896333447121 0 -0.32631931093636779 -0.37356823547123968 0 -0.31218479266313781 -0.37616661017248387 0 -0.33115531904612189 -0.35943222170651012 0 -0.31803490286454689 -0.36285896333447121 0 -0.32631931093636779 -0.37356823547123968 0 -0.30442782358907511 -0.36405936070187739 0 -0.31218479266313781 -0.37616661017248387 0 -0.2968095825510022 -0.37573890339989868 0 -0.31803490286454689 -0.36285896333447121 0 -0.30442782358907511 -0.36405936070187739 0 -0.31218479266313781 -0.37616661017248387 0 -0.31803490286454689 -0.36285896333447121 0 -0.30442782358907511 -0.36405936070187739 0 -0.31123517938595252 -0.35242665102898679 0 -0.31123517938595252 -0.35242665102898679 0 -0.29660668642369831 -0.35158002391049209 0 -0.31082663595911503 -0.33240078527314221 0 -0.30442782358907511 -0.36405936070187739 0 -0.31123517938595252 -0.35242665102898679 0 -0.29660668642369831 -0.35158002391049209 0 -0.29660668642369831 -0.35158002391049209 0 -0.28158641304959159 -0.34814832691095149 0 -0.29141075718257659 -0.33533624216920699 0 -0.29660668642369831 -0.35158002391049209 0 -0.28158641304959159 -0.34814832691095149 0 -0.2876129965724441 -0.36523454018182011 0 -0.30442782358907511 -0.36405936070187739 0 -0.2876129965724441 -0.36523454018182011 0 -0.2968095825510022 -0.37573890339989868 0 -0.30442782358907511 -0.36405936070187739 0 -0.29660668642369831 -0.35158002391049209 0 -0.2876129965724441 -0.36523454018182011 0 -0.2876129965724441 -0.36523454018182011 0 -0.26743370886982959 -0.37385045006866152 0 -0.27814772893425138 -0.38458411269647108 0 -0.2876129965724441 -0.36523454018182011 0 -0.26743370886982959 -0.37385045006866152 0 -0.26921434836044611 -0.35655903319975962 0 -0.26743370886982959 -0.37385045006866152 0 -0.25234099474177929 -0.3645829912548777 0 -0.2494264406445981 -0.38570149830623152 0 -0.26743370886982959 -0.37385045006866152 0 -0.25234099474177929 -0.3645829912548777 0 -0.26921434836044611 -0.35655903319975962 0 -0.25234099474177929 -0.3645829912548777 0 -0.25366849844647138 -0.34784678421434451 0 -0.26921434836044611 -0.35655903319975962 0 -0.25366849844647138 -0.34784678421434451 0 -0.26921434836044611 -0.35655903319975962 0 -0.2653576487433385 -0.34033888589362299 0 -0.28158641304959159 -0.34814832691095149 0 -0.2876129965724441 -0.36523454018182011 0 -0.26921434836044611 -0.35655903319975962 0 -0.28158641304959159 -0.34814832691095149 0 -0.26921434836044611 -0.35655903319975962 0 -0.2653576487433385 -0.34033888589362299 0 -0.28158641304959159 -0.34814832691095149 0 -0.27764606591022128 -0.3336708243722894 0 -0.2653576487433385 -0.34033888589362299 0 -0.27764606591022128 -0.3336708243722894 0 -0.2653576487433385 -0.34033888589362299 0 -0.26623900781732629 -0.32496631785838381 0 -0.2653576487433385 -0.34033888589362299 0 -0.25257272060382863 -0.33347201750691319 0 -0.26623900781732629 -0.32496631785838381 0 -0.25366849844647138 -0.34784678421434451 0 -0.2653576487433385 -0.34033888589362299 0 -0.25257272060382863 -0.33347201750691319 0 -0.25257272060382863 -0.33347201750691319 0 -0.25147377537078452 -0.31548627993528078 0 -0.26623900781732629 -0.32496631785838381 0 -0.25147377537078452 -0.31548627993528078 0 -0.26623900781732629 -0.32496631785838381 0 -0.27017939076281861 -0.3067498526193172 0 -0.26623900781732629 -0.32496631785838381 0 -0.28363650275827351 -0.31956434902928182 0 -0.27017939076281861 -0.3067498526193172 0 -0.27764606591022128 -0.3336708243722894 0 -0.26623900781732629 -0.32496631785838381 0 -0.28363650275827351 -0.31956434902928182 0 -0.28363650275827351 -0.31956434902928182 0 -0.29980208353683768 -0.32043841526377598 0 -0.2954261597012231 -0.30262049403993407 0 -0.28363650275827351 -0.31956434902928182 0 -0.29141075718257659 -0.33533624216920699 0 -0.29980208353683768 -0.32043841526377598 0 -0.27764606591022128 -0.3336708243722894 0 -0.28363650275827351 -0.31956434902928182 0 -0.29141075718257659 -0.33533624216920699 0 -0.28158641304959159 -0.34814832691095149 0 -0.27764606591022128 -0.3336708243722894 0 -0.29141075718257659 -0.33533624216920699 0 -0.29141075718257659 -0.33533624216920699 0 -0.31082663595911503 -0.33240078527314221 0 -0.29980208353683768 -0.32043841526377598 0 -0.29660668642369831 -0.35158002391049209 0 -0.29141075718257659 -0.33533624216920699 0 -0.31082663595911503 -0.33240078527314221 0 -0.31771036208300008 -0.31227020580731463 0 -0.31082663595911503 -0.33240078527314221 0 -0.29980208353683768 -0.32043841526377598 0 -0.31771036208300008 -0.31227020580731463 0 -0.29980208353683768 -0.32043841526377598 0 -0.2954261597012231 -0.30262049403993407 0 -0.31771036208300008 -0.31227020580731463 0 -0.31241735561098632 -0.29766761039886358 0 -0.2954261597012231 -0.30262049403993407 0 -0.31241735561098632 -0.29766761039886358 0 -0.30616162266381541 -0.28284064532118969 0 -0.2954261597012231 -0.30262049403993407 0 -0.30616162266381541 -0.28284064532118969 0 -0.2954261597012231 -0.30262049403993407 0 -0.28909701670518861 -0.27572257252958943 0 -0.30616162266381541 -0.28284064532118969 0 -0.2954261597012231 -0.30262049403993407 0 -0.2954261597012231 -0.30262049403993407 0 -0.27568103490557649 -0.288739686241271 0 -0.28909701670518861 -0.27572257252958943 0 -0.28363650275827351 -0.31956434902928182 0 -0.2954261597012231 -0.30262049403993407 0 -0.27017939076281861 -0.3067498526193172 0 -0.2954261597012231 -0.30262049403993407 0 -0.27017939076281861 -0.3067498526193172 0 -0.27568103490557649 -0.288739686241271 0 -0.25147377537078452 -0.31548627993528078 0 -0.27017939076281861 -0.3067498526193172 0 -0.25167019661209061 -0.29000101227952502 0 -0.27017939076281861 -0.3067498526193172 0 -0.25167019661209061 -0.29000101227952502 0 -0.27568103490557649 -0.288739686241271 0 -0.25167019661209061 -0.29000101227952502 0 -0.27568103490557649 -0.288739686241271 0 -0.27203241074656048 -0.26860449973799239 0 -0.27203241074656048 -0.26860449973799239 0 -0.28909701670518861 -0.27572257252958943 0 -0.27568103490557649 -0.288739686241271 0 -0.27203241074656048 -0.26860449973799239 0 -0.28909701670518861 -0.27572257252958943 0 -0.25167019661209061 -0.29000101227952502 0 -0.27203241074656048 -0.26860449973799239 0 -0.25167019661209061 -0.29000101227952502 0 -0.27203241074656048 -0.26860449973799239 0 -0.25244940239910019 -0.26043593849293539 0 -0.27203241074656048 -0.26860449973799239 0 -0.25244940239910019 -0.26043593849293539 0 -0.26201260759904971 -0.24716288073615961 0 -0.27203241074656048 -0.26860449973799239 0 -0.25244940239910019 -0.26043593849293539 0 -0.27203241074656048 -0.26860449973799239 0 -0.2751333524927278 -0.25148720473187502 0 -0.26201260759904971 -0.24716288073615961 0 -0.27203241074656048 -0.26860449973799239 0 -0.2751333524927278 -0.25148720473187502 0 -0.29109069816673733 -0.24857814685159099 0 -0.27203241074656048 -0.26860449973799239 0 -0.28845749277698463 -0.26361864532678481 0 -0.29109069816673733 -0.24857814685159099 0 -0.27203241074656048 -0.26860449973799239 0 -0.29109069816673733 -0.24857814685159099 0 -0.28845749277698463 -0.26361864532678481 0 -0.3016098454894508 -0.26156936218797 0 -0.29109069816673733 -0.24857814685159099 0 -0.27203241074656048 -0.26860449973799239 0 -0.28845749277698463 -0.26361864532678481 0 -0.28909701670518861 -0.27572257252958943 0 -0.28845749277698463 -0.26361864532678481 0 -0.28909701670518861 -0.27572257252958943 0 -0.3016098454894508 -0.26156936218797 0 -0.3204267963439279 -0.25655738410344142 0 -0.30616162266381541 -0.28284064532118969 0 -0.3016098454894508 -0.26156936218797 0 -0.30616162266381541 -0.28284064532118969 0 -0.28909701670518861 -0.27572257252958943 0 -0.30616162266381541 -0.28284064532118969 0 -0.28909701670518861 -0.27572257252958943 0 -0.3016098454894508 -0.26156936218797 0 -0.3204267963439279 -0.25655738410344142 0 -0.3016098454894508 -0.26156936218797 0 -0.31049353829928178 -0.23997410907081471 0 -0.3016098454894508 -0.26156936218797 0 -0.31049353829928178 -0.23997410907081471 0 -0.29109069816673733 -0.24857814685159099 0 -0.33664758629543901 -0.45710450246727669 0 -0.33564673310064302 -0.47800329852552548 0 -0.35891687537176958 -0.47018448795146728 0 -0.33664758629543901 -0.45710450246727669 0 -0.32312407824149569 -0.4420881522305814 0 -0.3414393817155526 -0.43578459602485531 0 -0.33664758629543901 -0.45710450246727669 0 -0.32312407824149569 -0.4420881522305814 0 -0.31472967988232819 -0.45550979822112508 0 -0.32312407824149569 -0.4420881522305814 0 -0.31472967988232819 -0.45550979822112508 0 -0.30572097633434298 -0.44466950536259497 0 -0.32312407824149569 -0.4420881522305814 0 -0.31194034436711648 -0.43178727563646158 0 -0.30572097633434298 -0.44466950536259497 0 -0.33664758629543901 -0.45710450246727669 0 -0.31472967988232819 -0.45550979822112508 0 -0.31923699084658091 -0.47175942626738437 0 -0.31923699084658091 -0.47175942626738437 0 -0.32196652976423068 -0.5 0 -0.33564673310064302 -0.47800329852552548 0 -0.31923699084658091 -0.47175942626738437 0 -0.32196652976423068 -0.5 0 -0.30190008936497192 -0.47855697705932798 0 -0.32196652976423068 -0.5 0 -0.34323254066736358 -0.48908263151274428 0 -0.33564673310064302 -0.47800329852552548 0 -0.32196652976423068 -0.5 0 -0.34323254066736358 -0.48908263151274428 0 -0.34798444812849272 -0.5 0 -0.33664758629543901 -0.45710450246727669 0 -0.31923699084658091 -0.47175942626738437 0 -0.33564673310064302 -0.47800329852552548 0 -0.35891687537176958 -0.47018448795146728 0 -0.3516481169716823 -0.4972253710867286 0 -0.34323254066736358 -0.48908263151274428 0 -0.33564673310064302 -0.47800329852552548 0 -0.35891687537176958 -0.47018448795146728 0 -0.34323254066736358 -0.48908263151274428 0 -0.35891687537176958 -0.47018448795146728 0 -0.3516481169716823 -0.4972253710867286 0 -0.34798444812849272 -0.5 0 -0.3516481169716823 -0.4972253710867286 0 -0.37400236649275492 -0.5 0 -0.34323254066736358 -0.48908263151274428 0 -0.34798444812849272 -0.5 0 -0.3516481169716823 -0.4972253710867286 0 -0.3516481169716823 -0.4972253710867286 0 -0.37400236649275492 -0.5 0 -0.36994728981782271 -0.48145733840571031 0 -0.35891687537176958 -0.47018448795146728 0 -0.3516481169716823 -0.4972253710867286 0 -0.36994728981782271 -0.48145733840571031 0 -0.37705985753298332 -0.46235384023312748 0 -0.35891687537176958 -0.47018448795146728 0 -0.36994728981782271 -0.48145733840571031 0 -0.35891687537176958 -0.47018448795146728 0 -0.36618563377185692 -0.44314360481620602 0 -0.37705985753298332 -0.46235384023312748 0 -0.35891687537176958 -0.47018448795146728 0 -0.36618563377185692 -0.44314360481620602 0 -0.33664758629543901 -0.45710450246727669 0 -0.35891687537176958 -0.47018448795146728 0 -0.36618563377185692 -0.44314360481620602 0 -0.33664758629543901 -0.45710450246727669 0 -0.36618563377185692 -0.44314360481620602 0 -0.3414393817155526 -0.43578459602485531 0 -0.36618563377185692 -0.44314360481620602 0 -0.37345439217194421 -0.41610272168094459 0 -0.37982254315831238 -0.43204764104745452 0 -0.36618563377185692 -0.44314360481620602 0 -0.37345439217194421 -0.41610272168094459 0 -0.36618563377185692 -0.44314360481620602 0 -0.37345439217194421 -0.41610272168094459 0 -0.35665502033633351 -0.42584078649043627 0 -0.37930406543582929 -0.40961742982547678 0 -0.35179582509094331 -0.41053864804628931 0 -0.36831026135857098 -0.40077672209154158 0 -0.37930406543582929 -0.40961742982547678 0 -0.37345439217194421 -0.41610272168094459 0 -0.35179582509094331 -0.41053864804628931 0 -0.37345439217194421 -0.41610272168094459 0 -0.35179582509094331 -0.41053864804628931 0 -0.35665502033633351 -0.42584078649043627 0 -0.37930406543582929 -0.40961742982547678 0 -0.35179582509094331 -0.41053864804628931 0 -0.35179582509094331 -0.41053864804628931 0 -0.35665502033633351 -0.42584078649043627 0 -0.33987351651064118 -0.422003369068427 0 -0.35665502033633351 -0.42584078649043627 0 -0.3414393817155526 -0.43578459602485531 0 -0.33987351651064118 -0.422003369068427 0 -0.36618563377185692 -0.44314360481620602 0 -0.35665502033633351 -0.42584078649043627 0 -0.3414393817155526 -0.43578459602485531 0 -0.38529782787685379 -0.37512251053811541 0 -0.36564458720461052 -0.37127411702710578 0 -0.36254353485177548 -0.38538852072217672 0 -0.38529782787685379 -0.37512251053811541 0 -0.37583541897826123 -0.38260443398738142 0 -0.36254353485177548 -0.38538852072217672 0 -0.38529782787685379 -0.37512251053811541 0 -0.36254353485177548 -0.38538852072217672 0 -0.37583541897826123 -0.38260443398738142 0 -0.36998470181150711 -0.38850993334407069 0 -0.36254353485177548 -0.38538852072217672 0 -0.37583541897826123 -0.38260443398738142 0 -0.37490759201799329 -0.38818445396466522 0 -0.36998470181150711 -0.38850993334407069 0 -0.37490759201799329 -0.38818445396466522 0 -0.36998470181150711 -0.38850993334407069 0 -0.3744093142454516 -0.39265811364109998 0 -0.36998470181150711 -0.38850993334407069 0 -0.36254353485177548 -0.38538852072217672 0 -0.36831026135857098 -0.40077672209154158 0 -0.36998470181150711 -0.38850993334407069 0 -0.3744093142454516 -0.39265811364109998 0 -0.36831026135857098 -0.40077672209154158 0 -0.36254353485177548 -0.38538852072217672 0 -0.36831026135857098 -0.40077672209154158 0 -0.33978924182669651 -0.39565453090623642 0 -0.35179582509094331 -0.41053864804628931 0 -0.36831026135857098 -0.40077672209154158 0 -0.33978924182669651 -0.39565453090623642 0 -0.36831026135857098 -0.40077672209154158 0 -0.33978924182669651 -0.39565453090623642 0 -0.36254353485177548 -0.38538852072217672 0 -0.33978924182669651 -0.39565453090623642 0 -0.36254353485177548 -0.38538852072217672 0 -0.34976865238176458 -0.3819383339311061 0 -0.33978924182669651 -0.39565453090623642 0 -0.36564458720461052 -0.37127411702710578 0 -0.36254353485177548 -0.38538852072217672 0 -0.34976865238176458 -0.3819383339311061 0 -0.35140562079391269 -0.36880738783291978 0 -0.34976865238176458 -0.3819383339311061 0 -0.33660234981190529 -0.38061550073876971 0 -0.33660234981190529 -0.38061550073876971 0 -0.33978924182669651 -0.39565453090623642 0 -0.32179907882989711 -0.39242361364461842 0 -0.32631931093636779 -0.37356823547123968 0 -0.33660234981190529 -0.38061550073876971 0 -0.32179907882989711 -0.39242361364461842 0 -0.34976865238176458 -0.3819383339311061 0 -0.33660234981190529 -0.38061550073876971 0 -0.33978924182669651 -0.39565453090623642 0 -0.33660234981190529 -0.38061550073876971 0 -0.32179907882989711 -0.39242361364461842 0 -0.33978924182669651 -0.39565453090623642 0 -0.33124997387789168 -0.39950717583922901 0 -0.32179907882989711 -0.39242361364461842 0 -0.33978924182669651 -0.39565453090623642 0 -0.32179907882989711 -0.39242361364461842 0 -0.35179582509094331 -0.41053864804628931 0 -0.33978924182669651 -0.39565453090623642 0 -0.33124997387789168 -0.39950717583922901 0 -0.33978924182669651 -0.39565453090623642 0 -0.33124997387789168 -0.39950717583922901 0 -0.33124997387789168 -0.39950717583922901 0 -0.32173654749047259 -0.40163057828994397 0 -0.32428758474605712 -0.41145986626710163 0 -0.32173654749047259 -0.40163057828994397 0 -0.32428758474605712 -0.41145986626710163 0 -0.30928921161553419 -0.40240234906626637 0 -0.32173654749047259 -0.40163057828994397 0 -0.32179907882989711 -0.39242361364461842 0 -0.30928921161553419 -0.40240234906626637 0 -0.32179907882989711 -0.39242361364461842 0 -0.30928921161553419 -0.40240234906626637 0 -0.33124997387789168 -0.39950717583922901 0 -0.32173654749047259 -0.40163057828994397 0 -0.32179907882989711 -0.39242361364461842 0 -0.32631931093636779 -0.37356823547123968 0 -0.32179907882989711 -0.39242361364461842 0 -0.31218479266313781 -0.37616661017248387 0 -0.3414393817155526 -0.43578459602485531 0 -0.33987351651064118 -0.422003369068427 0 -0.32478966643407198 -0.42701707419651158 0 -0.32312407824149569 -0.4420881522305814 0 -0.3414393817155526 -0.43578459602485531 0 -0.32478966643407198 -0.42701707419651158 0 -0.35179582509094331 -0.41053864804628931 0 -0.32428758474605712 -0.41145986626710163 0 -0.35179582509094331 -0.41053864804628931 0 -0.33987351651064118 -0.422003369068427 0 -0.32428758474605712 -0.41145986626710163 0 -0.35179582509094331 -0.41053864804628931 0 -0.33124997387789168 -0.39950717583922901 0 -0.32428758474605712 -0.41145986626710163 0 -0.33987351651064118 -0.422003369068427 0 -0.32428758474605712 -0.41145986626710163 0 -0.32478966643407198 -0.42701707419651158 0 -0.32428758474605712 -0.41145986626710163 0 -0.32478966643407198 -0.42701707419651158 0 -0.31103588432091761 -0.42237666528543999 0 -0.32478966643407198 -0.42701707419651158 0 -0.31194034436711648 -0.43178727563646158 0 -0.31103588432091761 -0.42237666528543999 0 -0.32312407824149569 -0.4420881522305814 0 -0.32478966643407198 -0.42701707419651158 0 -0.31194034436711648 -0.43178727563646158 0 -0.31194034436711648 -0.43178727563646158 0 -0.2973824816561712 -0.42923802583921111 0 -0.30572097633434298 -0.44466950536259497 0 -0.31194034436711648 -0.43178727563646158 0 -0.2973824816561712 -0.42923802583921111 0 -0.31103588432091761 -0.42237666528543999 0 -0.32428758474605712 -0.41145986626710163 0 -0.31103588432091761 -0.42237666528543999 0 -0.29677934440117082 -0.41238108448791372 0 -0.32428758474605712 -0.41145986626710163 0 -0.29677934440117082 -0.41238108448791372 0 -0.2973824816561712 -0.42923802583921111 0 -0.31103588432091761 -0.42237666528543999 0 -0.29677934440117082 -0.41238108448791372 0 -0.32428758474605712 -0.41145986626710163 0 -0.29677934440117082 -0.41238108448791372 0 -0.30928921161553419 -0.40240234906626637 0 -0.29677934440117082 -0.41238108448791372 0 -0.30928921161553419 -0.40240234906626637 0 -0.2973824816561712 -0.42923802583921111 0 -0.29677934440117082 -0.41238108448791372 0 -0.28371025572752367 -0.42280589362790372 0 -0.29677934440117082 -0.41238108448791372 0 -0.28684160228382899 -0.39889946566581069 0 -0.27203347854441379 -0.41320979407570357 0 -0.29677934440117082 -0.41238108448791372 0 -0.28371025572752367 -0.42280589362790372 0 -0.29677934440117082 -0.41238108448791372 0 -0.28371025572752367 -0.42280589362790372 0 -0.27203347854441379 -0.41320979407570357 0 -0.29677934440117082 -0.41238108448791372 0 -0.27203347854441379 -0.41320979407570357 0 -0.2973824816561712 -0.42923802583921111 0 -0.28371025572752367 -0.42280589362790372 0 -0.28322367105094981 -0.43560033831326411 0 -0.2973824816561712 -0.42923802583921111 0 -0.28322367105094981 -0.43560033831326411 0 -0.29163798532461221 -0.4452509286971873 0 -0.32179907882989711 -0.39242361364461842 0 -0.29997340388207439 -0.38850386317054431 0 -0.32179907882989711 -0.39242361364461842 0 -0.31218479266313781 -0.37616661017248387 0 -0.29997340388207439 -0.38850386317054431 0 -0.31218479266313781 -0.37616661017248387 0 -0.29997340388207439 -0.38850386317054431 0 -0.2968095825510022 -0.37573890339989868 0 -0.29997340388207439 -0.38850386317054431 0 -0.30928921161553419 -0.40240234906626637 0 -0.28684160228382899 -0.39889946566581069 0 -0.29677934440117082 -0.41238108448791372 0 -0.30928921161553419 -0.40240234906626637 0 -0.28684160228382899 -0.39889946566581069 0 -0.32179907882989711 -0.39242361364461842 0 -0.29997340388207439 -0.38850386317054431 0 -0.30928921161553419 -0.40240234906626637 0 -0.29997340388207439 -0.38850386317054431 0 -0.28684160228382899 -0.39889946566581069 0 -0.27814772893425138 -0.38458411269647108 0 -0.2876129965724441 -0.36523454018182011 0 -0.2968095825510022 -0.37573890339989868 0 -0.27814772893425138 -0.38458411269647108 0 -0.29997340388207439 -0.38850386317054431 0 -0.2968095825510022 -0.37573890339989868 0 -0.27814772893425138 -0.38458411269647108 0 -0.29997340388207439 -0.38850386317054431 0 -0.27814772893425138 -0.38458411269647108 0 -0.26743370886982959 -0.37385045006866152 0 -0.27814772893425138 -0.38458411269647108 0 -0.26686176199409639 -0.3950473040793952 0 -0.28684160228382899 -0.39889946566581069 0 -0.27814772893425138 -0.38458411269647108 0 -0.26686176199409639 -0.3950473040793952 0 -0.28684160228382899 -0.39889946566581069 0 -0.26686176199409639 -0.3950473040793952 0 -0.27203347854441379 -0.41320979407570357 0 -0.26686176199409639 -0.3950473040793952 0 -0.24728761268765681 -0.41403850366349298 0 -0.2494264406445981 -0.38570149830623152 0 -0.26743370886982959 -0.37385045006866152 0 -0.26686176199409639 -0.3950473040793952 0 -0.2494264406445981 -0.38570149830623152 0 -0.28371025572752367 -0.42280589362790372 0 -0.27064116705387692 -0.43323070276789422 0 -0.26393843541588913 -0.42270570854355038 0 -0.28371025572752367 -0.42280589362790372 0 -0.28322367105094981 -0.43560033831326411 0 -0.27064116705387692 -0.43323070276789422 0 -0.28371025572752367 -0.42280589362790372 0 -0.27064116705387692 -0.43323070276789422 0 -0.28371025572752367 -0.42280589362790372 0 -0.27203347854441379 -0.41320979407570357 0 -0.26393843541588913 -0.42270570854355038 0 -0.27203347854441379 -0.41320979407570357 0 -0.26393843541588913 -0.42270570854355038 0 -0.24728761268765681 -0.41403850366349298 0 -0.26686176199409639 -0.3950473040793952 0 -0.27203347854441379 -0.41320979407570357 0 -0.24728761268765681 -0.41403850366349298 0 -0.27203347854441379 -0.41320979407570357 0 -0.24728761268765681 -0.41403850366349298 0 -0.25362671964213218 -0.43204106342196069 0 -0.26393843541588913 -0.42270570854355038 0 -0.24728761268765681 -0.41403850366349298 0 -0.27064116705387692 -0.43323070276789422 0 -0.25362671964213218 -0.43204106342196069 0 -0.26393843541588913 -0.42270570854355038 0 -0.27064116705387692 -0.43323070276789422 0 -0.25362671964213218 -0.43204106342196069 0 -0.26015061643894177 -0.44946119757614389 0 -0.25362671964213218 -0.43204106342196069 0 -0.26015061643894177 -0.44946119757614389 0 -0.24398413824983331 -0.44353265416309029 0 -0.26015061643894177 -0.44946119757614389 0 -0.25551020281771658 -0.4681677526964772 0 -0.28032900270946742 -0.46391715923511972 0 -0.26015061643894177 -0.44946119757614389 0 -0.25551020281771658 -0.4681677526964772 0 -0.2401513275021506 -0.46037045013929628 0 -0.26015061643894177 -0.44946119757614389 0 -0.28032900270946742 -0.46391715923511972 0 -0.27680103034041831 -0.44665366112079252 0 -0.27064116705387692 -0.43323070276789422 0 -0.26015061643894177 -0.44946119757614389 0 -0.27680103034041831 -0.44665366112079252 0 -0.28322367105094981 -0.43560033831326411 0 -0.27064116705387692 -0.43323070276789422 0 -0.27680103034041831 -0.44665366112079252 0 -0.28032900270946742 -0.46391715923511972 0 -0.27680103034041831 -0.44665366112079252 0 -0.29163798532461221 -0.4452509286971873 0 -0.28322367105094981 -0.43560033831326411 0 -0.27680103034041831 -0.44665366112079252 0 -0.29163798532461221 -0.4452509286971873 0 -0.28032900270946742 -0.46391715923511972 0 -0.29860756514600378 -0.46068108617481651 0 -0.30190008936497192 -0.47855697705932798 0 -0.28032900270946742 -0.46391715923511972 0 -0.29163798532461221 -0.4452509286971873 0 -0.29860756514600378 -0.46068108617481651 0 -0.31472967988232819 -0.45550979822112508 0 -0.29860756514600378 -0.46068108617481651 0 -0.30572097633434298 -0.44466950536259497 0 -0.31472967988232819 -0.45550979822112508 0 -0.31923699084658091 -0.47175942626738437 0 -0.29860756514600378 -0.46068108617481651 0 -0.2973824816561712 -0.42923802583921111 0 -0.29163798532461221 -0.4452509286971873 0 -0.30572097633434298 -0.44466950536259497 0 -0.29163798532461221 -0.4452509286971873 0 -0.29860756514600378 -0.46068108617481651 0 -0.30572097633434298 -0.44466950536259497 0 -0.32196652976423068 -0.5 0 -0.30190008936497192 -0.47855697705932798 0 -0.29594861139996842 -0.5 0 -0.31923699084658091 -0.47175942626738437 0 -0.29860756514600378 -0.46068108617481651 0 -0.30190008936497192 -0.47855697705932798 0 -0.28032900270946742 -0.46391715923511972 0 -0.30190008936497192 -0.47855697705932798 0 -0.28433560807434027 -0.48451973732181147 0 -0.28433560807434027 -0.48451973732181147 0 -0.29594861139996842 -0.5 0 -0.26993069303570599 -0.5 0 -0.30190008936497192 -0.47855697705932798 0 -0.28433560807434027 -0.48451973732181147 0 -0.29594861139996842 -0.5 0 -0.28433560807434027 -0.48451973732181147 0 -0.26993069303570599 -0.5 0 -0.26932636706708712 -0.48049603867484902 0 -0.25551020281771658 -0.4681677526964772 0 -0.28032900270946742 -0.46391715923511972 0 -0.26932636706708712 -0.48049603867484902 0 -0.28032900270946742 -0.46391715923511972 0 -0.28433560807434027 -0.48451973732181147 0 -0.26932636706708712 -0.48049603867484902 0 -0.25551020281771658 -0.4681677526964772 0 -0.26932636706708712 -0.48049603867484902 0 -0.25440469030095492 -0.48606128830095607 0 -0.26993069303570599 -0.5 0 -0.26932636706708712 -0.48049603867484902 0 -0.25440469030095492 -0.48606128830095607 0 -0.26993069303570599 -0.5 0 -0.25440469030095492 -0.48606128830095607 0 -0.24391277467144371 -0.50000000000000044 0 -0.24391277467144371 -0.50000000000000044 0 -0.23394530543286421 -0.48239366226332309 0 -0.22743255028417109 -0.49159714901049673 0 -0.24391277467144371 -0.50000000000000044 0 -0.23394530543286421 -0.48239366226332309 0 -0.25440469030095492 -0.48606128830095607 0 -0.24391277467144371 -0.50000000000000044 0 -0.23394530543286421 -0.48239366226332309 0 -0.25551020281771658 -0.4681677526964772 0 -0.25440469030095492 -0.48606128830095607 0 -0.23394530543286421 -0.48239366226332309 0 -0.25551020281771658 -0.4681677526964772 0 -0.23394530543286421 -0.48239366226332309 0 -0.2401513275021506 -0.46037045013929628 0 -0.23394530543286421 -0.48239366226332309 0 -0.2401513275021506 -0.46037045013929628 0 -0.2239778361942848 -0.46478732452664567 0 -0.23394530543286421 -0.48239366226332309 0 -0.2239778361942848 -0.46478732452664567 0 -0.23394530543286421 -0.48239366226332309 0 -0.2239778361942848 -0.46478732452664567 0 -0.21694555143378669 -0.48399493377866348 0 -0.23394530543286421 -0.48239366226332309 0 -0.22743255028417109 -0.49159714901049673 0 -0.21694555143378669 -0.48399493377866348 0 -0.24391277467144371 -0.50000000000000044 0 -0.22743255028417109 -0.49159714901049673 0 -0.2149265695985898 -0.5 0 -0.22743255028417109 -0.49159714901049673 0 -0.2149265695985898 -0.5 0 -0.21694555143378669 -0.48399493377866348 0 -0.24398413824983331 -0.44353265416309029 0 -0.22936745406304709 -0.44599940566483542 0 -0.23575834800659601 -0.42927761381759239 0 -0.26015061643894177 -0.44946119757614389 0 -0.24398413824983331 -0.44353265416309029 0 -0.2401513275021506 -0.46037045013929628 0 -0.24398413824983331 -0.44353265416309029 0 -0.2401513275021506 -0.46037045013929628 0 -0.22936745406304709 -0.44599940566483542 0 -0.2401513275021506 -0.46037045013929628 0 -0.2239778361942848 -0.46478732452664567 0 -0.22936745406304709 -0.44599940566483542 0 -0.2239778361942848 -0.46478732452664567 0 -0.21392651838780841 -0.44703287836145988 0 -0.22936745406304709 -0.44599940566483542 0 -0.21392651838780841 -0.44703287836145988 0 -0.21829160708543871 -0.4309652015312232 0 -0.2239778361942848 -0.46478732452664567 0 -0.22936745406304709 -0.44599940566483542 0 -0.21392651838780841 -0.44703287836145988 0 -0.21392651838780841 -0.44703287836145988 0 -0.21829160708543871 -0.4309652015312232 0 -0.21392651838780841 -0.44703287836145988 0 -0.2016810817665442 -0.43525449010426709 0 -0.21829160708543871 -0.4309652015312232 0 -0.21392651838780841 -0.44703287836145988 0 -0.2005815454080436 -0.4488542056680902 0 -0.2016810817665442 -0.43525449010426709 0 -0.21392651838780841 -0.44703287836145988 0 -0.2005815454080436 -0.4488542056680902 0 -0.20789899748810661 -0.47032863838635508 0 -0.2239778361942848 -0.46478732452664567 0 -0.21392651838780841 -0.44703287836145988 0 -0.20789899748810661 -0.47032863838635508 0 -0.21392651838780841 -0.44703287836145988 0 -0.20789899748810661 -0.47032863838635508 0 -0.19252124970047299 -0.45883377868675967 0 -0.2005815454080436 -0.4488542056680902 0 -0.20789899748810661 -0.47032863838635508 0 -0.19252124970047299 -0.45883377868675967 0 -0.2005815454080436 -0.4488542056680902 0 -0.1850251633990376 -0.43695061378878097 0 -0.2005815454080436 -0.4488542056680902 0 -0.1850251633990376 -0.43695061378878097 0 -0.2016810817665442 -0.43525449010426709 0 -0.2149265695985898 -0.5 0 -0.21694555143378669 -0.48399493377866348 0 -0.20178762802050509 -0.49347628998274201 0 -0.21694555143378669 -0.48399493377866348 0 -0.20789899748810661 -0.47032863838635508 0 -0.20178762802050509 -0.49347628998274201 0 -0.20789899748810661 -0.47032863838635508 0 -0.20178762802050509 -0.49347628998274201 0 -0.2239778361942848 -0.46478732452664567 0 -0.21694555143378669 -0.48399493377866348 0 -0.20789899748810661 -0.47032863838635508 0 -0.19252124970047299 -0.45883377868675967 0 -0.20789899748810661 -0.47032863838635508 0 -0.19647723826629121 -0.47766253003775749 0 -0.19252124970047299 -0.45883377868675967 0 -0.19647723826629121 -0.47766253003775749 0 -0.18574838463683671 -0.47579536997804422 0 -0.20789899748810661 -0.47032863838635508 0 -0.19647723826629121 -0.47766253003775749 0 -0.20178762802050509 -0.49347628998274201 0 -0.19647723826629121 -0.47766253003775749 0 -0.18963608231209439 -0.48689868688913007 0 -0.18574838463683671 -0.47579536997804422 0 -0.19647723826629121 -0.47766253003775749 0 -0.20178762802050509 -0.49347628998274201 0 -0.18963608231209439 -0.48689868688913007 0 -0.20178762802050509 -0.49347628998274201 0 -0.18963608231209439 -0.48689868688913007 0 -0.18594036452573581 -0.5 0 -0.2149265695985898 -0.5 0 -0.20178762802050509 -0.49347628998274201 0 -0.18594036452573581 -0.5 0 -0.18594036452573581 -0.5 0 -0.1758298715243829 -0.48606930131422882 0 -0.15695415945288191 -0.5 0 -0.18963608231209439 -0.48689868688913007 0 -0.18594036452573581 -0.5 0 -0.1758298715243829 -0.48606930131422882 0 -0.1758298715243829 -0.48606930131422882 0 -0.15695415945288191 -0.5 0 -0.16172603145128431 -0.47995756342664758 0 -0.16172603145128431 -0.47995756342664758 0 -0.1632982131543807 -0.46440314815754202 0 -0.1523585528768493 -0.46910265255367561 0 -0.1758298715243829 -0.48606930131422882 0 -0.16172603145128431 -0.47995756342664758 0 -0.1736064260721836 -0.47184807551731361 0 -0.16172603145128431 -0.47995756342664758 0 -0.1736064260721836 -0.47184807551731361 0 -0.1632982131543807 -0.46440314815754202 0 -0.1758298715243829 -0.48606930131422882 0 -0.1736064260721836 -0.47184807551731361 0 -0.18574838463683671 -0.47579536997804422 0 -0.18963608231209439 -0.48689868688913007 0 -0.1758298715243829 -0.48606930131422882 0 -0.18574838463683671 -0.47579536997804422 0 -0.1736064260721836 -0.47184807551731361 0 -0.18574838463683671 -0.47579536997804422 0 -0.18037776005700309 -0.46369528984271402 0 -0.19252124970047299 -0.45883377868675967 0 -0.18574838463683671 -0.47579536997804422 0 -0.18037776005700309 -0.46369528984271402 0 -0.19252124970047299 -0.45883377868675967 0 -0.18037776005700309 -0.46369528984271402 0 -0.1778755807329408 -0.45201000930822449 0 -0.18037776005700309 -0.46369528984271402 0 -0.17213715914258171 -0.45998921572322798 0 -0.1778755807329408 -0.45201000930822449 0 -0.1736064260721836 -0.47184807551731361 0 -0.18037776005700309 -0.46369528984271402 0 -0.17213715914258171 -0.45998921572322798 0 -0.19252124970047299 -0.45883377868675967 0 -0.1778755807329408 -0.45201000930822449 0 -0.1850251633990376 -0.43695061378878097 0 -0.1778755807329408 -0.45201000930822449 0 -0.16949990212501881 -0.44082425656667279 0 -0.1850251633990376 -0.43695061378878097 0 -0.16949990212501881 -0.44082425656667279 0 -0.16311371763029461 -0.44402297606120328 0 -0.1599739659533366 -0.43862113080353898 0 -0.16949990212501881 -0.44082425656667279 0 -0.16517111350689859 -0.45058833657971431 0 -0.16311371763029461 -0.44402297606120328 0 -0.16949990212501881 -0.44082425656667279 0 -0.1599739659533366 -0.43862113080353898 0 -0.1647377194052406 -0.43377381137767401 0 -0.1778755807329408 -0.45201000930822449 0 -0.16949990212501881 -0.44082425656667279 0 -0.16517111350689859 -0.45058833657971431 0 -0.16517111350689859 -0.45058833657971431 0 -0.15780988893592451 -0.44605818029488742 0 -0.15477562512256429 -0.45605691457887049 0 -0.16517111350689859 -0.45058833657971431 0 -0.15780988893592451 -0.44605818029488742 0 -0.16311371763029461 -0.44402297606120328 0 -0.15780988893592451 -0.44605818029488742 0 -0.16311371763029461 -0.44402297606120328 0 -0.1599739659533366 -0.43862113080353898 0 -0.15780988893592451 -0.44605818029488742 0 -0.1599739659533366 -0.43862113080353898 0 -0.1542314322419544 -0.44116527676583861 0 -0.1736064260721836 -0.47184807551731361 0 -0.17213715914258171 -0.45998921572322798 0 -0.1632982131543807 -0.46440314815754202 0 -0.17213715914258171 -0.45998921572322798 0 -0.16517111350689859 -0.45058833657971431 0 -0.1632982131543807 -0.46440314815754202 0 -0.17213715914258171 -0.45998921572322798 0 -0.1778755807329408 -0.45201000930822449 0 -0.16517111350689859 -0.45058833657971431 0 -0.16517111350689859 -0.45058833657971431 0 -0.1632982131543807 -0.46440314815754202 0 -0.15477562512256429 -0.45605691457887049 0 -0.1632982131543807 -0.46440314815754202 0 -0.15477562512256429 -0.45605691457887049 0 -0.1523585528768493 -0.46910265255367561 0 -0.15477562512256429 -0.45605691457887049 0 -0.14260971202994671 -0.45996291498239328 0 -0.1523585528768493 -0.46910265255367561 0 -0.15477562512256429 -0.45605691457887049 0 -0.14260971202994671 -0.45996291498239328 0 -0.14576671656806389 -0.45223109158222752 0 -0.14260971202994671 -0.45996291498239328 0 -0.14576671656806389 -0.45223109158222752 0 -0.13854311312440401 -0.44913886541262998 0 -0.14260971202994671 -0.45996291498239328 0 -0.1403222844445641 -0.47426483659786522 0 -0.1523585528768493 -0.46910265255367561 0 -0.15780988893592451 -0.44605818029488742 0 -0.1542314322419544 -0.44116527676583861 0 -0.1496135490486839 -0.44495860876112397 0 -0.1542314322419544 -0.44116527676583861 0 -0.14799710563284271 -0.43938620025518582 0 -0.1524102441137255 -0.43550872580402411 0 -0.1599739659533366 -0.43862113080353898 0 -0.1542314322419544 -0.44116527676583861 0 -0.1524102441137255 -0.43550872580402411 0 -0.1542314322419544 -0.44116527676583861 0 -0.1496135490486839 -0.44495860876112397 0 -0.14799710563284271 -0.43938620025518582 0 -0.15477562512256429 -0.45605691457887049 0 -0.1496135490486839 -0.44495860876112397 0 -0.14576671656806389 -0.45223109158222752 0 -0.15780988893592451 -0.44605818029488742 0 -0.15477562512256429 -0.45605691457887049 0 -0.1496135490486839 -0.44495860876112397 0 -0.14576671656806389 -0.45223109158222752 0 -0.1440064833925358 -0.44717919107449378 0 -0.13854311312440401 -0.44913886541262998 0 -0.1440064833925358 -0.44717919107449378 0 -0.14210255482899159 -0.44238819854199379 0 -0.13854311312440401 -0.44913886541262998 0 -0.1496135490486839 -0.44495860876112397 0 -0.14576671656806389 -0.45223109158222752 0 -0.1440064833925358 -0.44717919107449378 0 -0.1496135490486839 -0.44495860876112397 0 -0.1440064833925358 -0.44717919107449378 0 -0.14210255482899159 -0.44238819854199379 0 -0.1496135490486839 -0.44495860876112397 0 -0.14210255482899159 -0.44238819854199379 0 -0.14799710563284271 -0.43938620025518582 0 -0.14210255482899159 -0.44238819854199379 0 -0.14377775276494109 -0.4376737925579921 0 -0.13801462543334089 -0.43599077020522742 0 -0.14210255482899159 -0.44238819854199379 0 -0.14377775276494109 -0.4376737925579921 0 -0.14799710563284271 -0.43938620025518582 0 -0.13507801760544949 -0.44274290849272291 0 -0.1274090510109222 -0.43501470534713199 0 -0.13801462543334089 -0.43599077020522742 0 -0.14210255482899159 -0.44238819854199379 0 -0.13507801760544949 -0.44274290849272291 0 -0.13801462543334089 -0.43599077020522742 0 -0.14210255482899159 -0.44238819854199379 0 -0.13507801760544949 -0.44274290849272291 0 -0.13854311312440401 -0.44913886541262998 0 -0.13507801760544949 -0.44274290849272291 0 -0.13854311312440401 -0.44913886541262998 0 -0.12804398640508299 -0.44606764521613212 0 -0.12804398640508299 -0.44606764521613212 0 -0.13082640368139661 -0.4555171926380952 0 -0.11955743515716551 -0.45322699138103462 0 -0.13854311312440401 -0.44913886541262998 0 -0.12804398640508299 -0.44606764521613212 0 -0.13082640368139661 -0.4555171926380952 0 -0.13507801760544949 -0.44274290849272291 0 -0.12804398640508299 -0.44606764521613212 0 -0.1274090510109222 -0.43501470534713199 0 -0.14260971202994671 -0.45996291498239328 0 -0.1327525062727456 -0.46523754252343669 0 -0.1403222844445641 -0.47426483659786522 0 -0.14260971202994671 -0.45996291498239328 0 -0.13854311312440401 -0.44913886541262998 0 -0.13082640368139661 -0.4555171926380952 0 -0.14260971202994671 -0.45996291498239328 0 -0.13082640368139661 -0.4555171926380952 0 -0.1327525062727456 -0.46523754252343669 0 -0.13082640368139661 -0.4555171926380952 0 -0.1327525062727456 -0.46523754252343669 0 -0.1223047479992148 -0.46332734308218942 0 -0.1327525062727456 -0.46523754252343669 0 -0.12737411612710409 -0.47460823670743341 0 -0.1223047479992148 -0.46332734308218942 0 -0.1327525062727456 -0.46523754252343669 0 -0.12737411612710409 -0.47460823670743341 0 -0.1403222844445641 -0.47426483659786522 0 -0.1403222844445641 -0.47426483659786522 0 -0.1327359678226791 -0.48449880986857158 0 -0.14739137855452469 -0.48557905113659239 0 -0.12737411612710409 -0.47460823670743341 0 -0.1403222844445641 -0.47426483659786522 0 -0.1327359678226791 -0.48449880986857158 0 -0.12737411612710409 -0.47460823670743341 0 -0.1327359678226791 -0.48449880986857158 0 -0.118491584617789 -0.48706094497513452 0 -0.1327359678226791 -0.48449880986857158 0 -0.12796795438002789 -0.5 0 -0.118491584617789 -0.48706094497513452 0 -0.1327359678226791 -0.48449880986857158 0 -0.12796795438002789 -0.5 0 -0.14739137855452469 -0.48557905113659239 0 -0.15695415945288191 -0.5 0 -0.12796795438002789 -0.5 0 -0.14739137855452469 -0.48557905113659239 0 -0.15695415945288191 -0.5 0 -0.16172603145128431 -0.47995756342664758 0 -0.14739137855452469 -0.48557905113659239 0 -0.16172603145128431 -0.47995756342664758 0 -0.14739137855452469 -0.48557905113659239 0 -0.1523585528768493 -0.46910265255367561 0 -0.1403222844445641 -0.47426483659786522 0 -0.14739137855452469 -0.48557905113659239 0 -0.1523585528768493 -0.46910265255367561 0 -0.1472482493309209 -0.39179457439409809 0 -0.14236016248080161 -0.39865454248409649 0 -0.13373844474852281 -0.39400193586950638 0 -0.1472482493309209 -0.39179457439409809 0 -0.14236016248080161 -0.39865454248409649 0 -0.14966555620797969 -0.40346540751819632 0 -0.14236016248080161 -0.39865454248409649 0 -0.14966555620797969 -0.40346540751819632 0 -0.1413612924911628 -0.40730832288100011 0 -0.14966555620797969 -0.40346540751819632 0 -0.1413612924911628 -0.40730832288100011 0 -0.1566959239299669 -0.40733526653777768 0 -0.14966555620797969 -0.40346540751819632 0 -0.15604793317702359 -0.4031177466685858 0 -0.1566959239299669 -0.40733526653777768 0 -0.14966555620797969 -0.40346540751819632 0 -0.15604793317702359 -0.4031177466685858 0 -0.1567204371067896 -0.39771385142200277 0 -0.1472482493309209 -0.39179457439409809 0 -0.1567204371067896 -0.39771385142200277 0 -0.1577175704024105 -0.38844019113165079 0 -0.1472482493309209 -0.39179457439409809 0 -0.14966555620797969 -0.40346540751819632 0 -0.1567204371067896 -0.39771385142200277 0 -0.1472482493309209 -0.39179457439409809 0 -0.15162985357186659 -0.37990521226733182 0 -0.1577175704024105 -0.38844019113165079 0 -0.15162985357186659 -0.37990521226733182 0 -0.13832429216814701 -0.38087282595510669 0 -0.1439900106380019 -0.37080836766606229 0 -0.1472482493309209 -0.39179457439409809 0 -0.15162985357186659 -0.37990521226733182 0 -0.13832429216814701 -0.38087282595510669 0 -0.1472482493309209 -0.39179457439409809 0 -0.13832429216814701 -0.38087282595510669 0 -0.13373844474852281 -0.39400193586950638 0 -0.13832429216814701 -0.38087282595510669 0 -0.126168368271352 -0.38066559442732212 0 -0.13258555609951819 -0.36457720710337282 0 -0.126168368271352 -0.38066559442732212 0 -0.13373844474852281 -0.39400193586950638 0 -0.126168368271352 -0.38066559442732212 0 -0.13373844474852281 -0.39400193586950638 0 -0.12317939383513141 -0.38815918503413471 0 -0.13832429216814701 -0.38087282595510669 0 -0.126168368271352 -0.38066559442732212 0 -0.13373844474852281 -0.39400193586950638 0 -0.1413612924911628 -0.40730832288100011 0 -0.1172861271536071 -0.40293406143086768 0 -0.12317939383513141 -0.38815918503413471 0 -0.1413612924911628 -0.40730832288100011 0 -0.12317939383513141 -0.38815918503413471 0 -0.13373844474852281 -0.39400193586950638 0 -0.1413612924911628 -0.40730832288100011 0 -0.12317939383513141 -0.38815918503413471 0 -0.1413612924911628 -0.40730832288100011 0 -0.1172861271536071 -0.40293406143086768 0 -0.13373844474852281 -0.39400193586950638 0 -0.1413612924911628 -0.40730832288100011 0 -0.14236016248080161 -0.39865454248409649 0 -0.13373844474852281 -0.39400193586950638 0 -0.1413612924911628 -0.40730832288100011 0 -0.12902734681837591 -0.4179988991795644 0 -0.14701780152087721 -0.4173964202690687 0 -0.12902734681837591 -0.4179988991795644 0 -0.14222813320902231 -0.4239121197732405 0 -0.14701780152087721 -0.4173964202690687 0 -0.12902734681837591 -0.4179988991795644 0 -0.1413612924911628 -0.40730832288100011 0 -0.14701780152087721 -0.4173964202690687 0 -0.12902734681837591 -0.4179988991795644 0 -0.1413612924911628 -0.40730832288100011 0 -0.1172861271536071 -0.40293406143086768 0 -0.12902734681837591 -0.4179988991795644 0 -0.1274090510109222 -0.43501470534713199 0 -0.13469845812129999 -0.42921282470955657 0 -0.12902734681837591 -0.4179988991795644 0 -0.13469845812129999 -0.42921282470955657 0 -0.14222813320902231 -0.4239121197732405 0 -0.13469845812129999 -0.42921282470955657 0 -0.13959604128506889 -0.43101802720495691 0 -0.14222813320902231 -0.4239121197732405 0 -0.1274090510109222 -0.43501470534713199 0 -0.13469845812129999 -0.42921282470955657 0 -0.13801462543334089 -0.43599077020522742 0 -0.13959604128506889 -0.43101802720495691 0 -0.13801462543334089 -0.43599077020522742 0 -0.1436039927255979 -0.43351439140225823 0 -0.13469845812129999 -0.42921282470955657 0 -0.13959604128506889 -0.43101802720495691 0 -0.13801462543334089 -0.43599077020522742 0 -0.14377775276494109 -0.4376737925579921 0 -0.14799710563284271 -0.43938620025518582 0 -0.14795523868657939 -0.43531079512139381 0 -0.14377775276494109 -0.4376737925579921 0 -0.14795523868657939 -0.43531079512139381 0 -0.1436039927255979 -0.43351439140225823 0 -0.14377775276494109 -0.4376737925579921 0 -0.13801462543334089 -0.43599077020522742 0 -0.1436039927255979 -0.43351439140225823 0 -0.13959604128506889 -0.43101802720495691 0 -0.1436039927255979 -0.43351439140225823 0 -0.1449821792084221 -0.42969270567019402 0 -0.1449821792084221 -0.42969270567019402 0 -0.14857677022322341 -0.42831183440838722 0 -0.14903045051146899 -0.43132735129223049 0 -0.1436039927255979 -0.43351439140225823 0 -0.1449821792084221 -0.42969270567019402 0 -0.14903045051146899 -0.43132735129223049 0 -0.14795523868657939 -0.43531079512139381 0 -0.1436039927255979 -0.43351439140225823 0 -0.14903045051146899 -0.43132735129223049 0 -0.1449821792084221 -0.42969270567019402 0 -0.14669198542783091 -0.42616059956973479 0 -0.14222813320902231 -0.4239121197732405 0 -0.1449821792084221 -0.42969270567019402 0 -0.14669198542783091 -0.42616059956973479 0 -0.14857677022322341 -0.42831183440838722 0 -0.13959604128506889 -0.43101802720495691 0 -0.1449821792084221 -0.42969270567019402 0 -0.14222813320902231 -0.4239121197732405 0 -0.14669198542783091 -0.42616059956973479 0 -0.14222813320902231 -0.4239121197732405 0 -0.1484455420522294 -0.42180814243593417 0 -0.14669198542783091 -0.42616059956973479 0 -0.1495324975580429 -0.42405949483391381 0 -0.1484455420522294 -0.42180814243593417 0 -0.1495324975580429 -0.42405949483391381 0 -0.15419237092106869 -0.42270641107850399 0 -0.1484455420522294 -0.42180814243593417 0 -0.1495324975580429 -0.42405949483391381 0 -0.15419237092106869 -0.42270641107850399 0 -0.1507891768649304 -0.42649924457400568 0 -0.14669198542783091 -0.42616059956973479 0 -0.1495324975580429 -0.42405949483391381 0 -0.1507891768649304 -0.42649924457400568 0 -0.15419237092106869 -0.42270641107850399 0 -0.15476532388116829 -0.4280348518665068 0 -0.1507891768649304 -0.42649924457400568 0 -0.15476532388116829 -0.4280348518665068 0 -0.15123400510088431 -0.42929869394494391 0 -0.15316688797612221 -0.43146779173172611 0 -0.15476532388116829 -0.4280348518665068 0 -0.15123400510088431 -0.42929869394494391 0 -0.1507891768649304 -0.42649924457400568 0 -0.14669198542783091 -0.42616059956973479 0 -0.1507891768649304 -0.42649924457400568 0 -0.14857677022322341 -0.42831183440838722 0 -0.15123400510088431 -0.42929869394494391 0 -0.14857677022322341 -0.42831183440838722 0 -0.14903045051146899 -0.43132735129223049 0 -0.15123400510088431 -0.42929869394494391 0 -0.1507891768649304 -0.42649924457400568 0 -0.14857677022322341 -0.42831183440838722 0 -0.14903045051146899 -0.43132735129223049 0 -0.15316688797612221 -0.43146779173172611 0 -0.1524102441137255 -0.43550872580402411 0 -0.15123400510088431 -0.42929869394494391 0 -0.14903045051146899 -0.43132735129223049 0 -0.15316688797612221 -0.43146779173172611 0 -0.15316688797612221 -0.43146779173172611 0 -0.1524102441137255 -0.43550872580402411 0 -0.15791682571888241 -0.43287353691446939 0 -0.15476532388116829 -0.4280348518665068 0 -0.15316688797612221 -0.43146779173172611 0 -0.15791682571888241 -0.43287353691446939 0 -0.14799710563284271 -0.43938620025518582 0 -0.14795523868657939 -0.43531079512139381 0 -0.1524102441137255 -0.43550872580402411 0 -0.14795523868657939 -0.43531079512139381 0 -0.14903045051146899 -0.43132735129223049 0 -0.1524102441137255 -0.43550872580402411 0 -0.1413612924911628 -0.40730832288100011 0 -0.1566959239299669 -0.40733526653777768 0 -0.16744295643614759 -0.41451936937010192 0 -0.1413612924911628 -0.40730832288100011 0 -0.14701780152087721 -0.4173964202690687 0 -0.16744295643614759 -0.41451936937010192 0 -0.1413612924911628 -0.40730832288100011 0 -0.16744295643614759 -0.41451936937010192 0 -0.1413612924911628 -0.40730832288100011 0 -0.14701780152087721 -0.4173964202690687 0 -0.14222813320902231 -0.4239121197732405 0 -0.14701780152087721 -0.4173964202690687 0 -0.1484455420522294 -0.42180814243593417 0 -0.15419237092106869 -0.42270641107850399 0 -0.14701780152087721 -0.4173964202690687 0 -0.1484455420522294 -0.42180814243593417 0 -0.14701780152087721 -0.4173964202690687 0 -0.16744295643614759 -0.41451936937010192 0 -0.1721924499575514 -0.41655335126313991 0 -0.1566959239299669 -0.40733526653777768 0 -0.16744295643614759 -0.41451936937010192 0 -0.1658100231858117 -0.40767224391216472 0 -0.14701780152087721 -0.4173964202690687 0 -0.1721924499575514 -0.41655335126313991 0 -0.15419237092106869 -0.42270641107850399 0 -0.14701780152087721 -0.4173964202690687 0 -0.1721924499575514 -0.41655335126313991 0 -0.1566959239299669 -0.40733526653777768 0 -0.1658100231858117 -0.40767224391216472 0 -0.16110981546335831 -0.40395646119636641 0 -0.16744295643614759 -0.41451936937010192 0 -0.1658100231858117 -0.40767224391216472 0 -0.17707060251479581 -0.40752576005524738 0 -0.15419237092106869 -0.42270641107850399 0 -0.16257690093098401 -0.42750668649243101 0 -0.1721924499575514 -0.41655335126313991 0 -0.1599739659533366 -0.43862113080353898 0 -0.15791682571888241 -0.43287353691446939 0 -0.1647377194052406 -0.43377381137767401 0 -0.1599739659533366 -0.43862113080353898 0 -0.1524102441137255 -0.43550872580402411 0 -0.15791682571888241 -0.43287353691446939 0 -0.15791682571888241 -0.43287353691446939 0 -0.16257690093098401 -0.42750668649243101 0 -0.1647377194052406 -0.43377381137767401 0 -0.15419237092106869 -0.42270641107850399 0 -0.15476532388116829 -0.4280348518665068 0 -0.16257690093098401 -0.42750668649243101 0 -0.15476532388116829 -0.4280348518665068 0 -0.15791682571888241 -0.43287353691446939 0 -0.16257690093098401 -0.42750668649243101 0 -0.16257690093098401 -0.42750668649243101 0 -0.17150042507540339 -0.43125372204658707 0 -0.1721924499575514 -0.41655335126313991 0 -0.16949990212501881 -0.44082425656667279 0 -0.17150042507540339 -0.43125372204658707 0 -0.1647377194052406 -0.43377381137767401 0 -0.16257690093098401 -0.42750668649243101 0 -0.17150042507540339 -0.43125372204658707 0 -0.1647377194052406 -0.43377381137767401 0 -0.1850251633990376 -0.43695061378878097 0 -0.1721924499575514 -0.41655335126313991 0 -0.1973670983942257 -0.41571028225721118 0 -0.17150042507540339 -0.43125372204658707 0 -0.1850251633990376 -0.43695061378878097 0 -0.1721924499575514 -0.41655335126313991 0 -0.16949990212501881 -0.44082425656667279 0 -0.17150042507540339 -0.43125372204658707 0 -0.1850251633990376 -0.43695061378878097 0 -0.17707060251479581 -0.40752576005524738 0 -0.1721924499575514 -0.41655335126313991 0 -0.1973670983942257 -0.41571028225721118 0 -0.1721924499575514 -0.41655335126313991 0 -0.1973670983942257 -0.41571028225721118 0 -0.16744295643614759 -0.41451936937010192 0 -0.17707060251479581 -0.40752576005524738 0 -0.1721924499575514 -0.41655335126313991 0 -0.17707060251479581 -0.40752576005524738 0 -0.1776360015645761 -0.39728007319183561 0 -0.19003772482010961 -0.40069349342410138 0 -0.1776360015645761 -0.39728007319183561 0 -0.18787528154938729 -0.38689766810238257 0 -0.19003772482010961 -0.40069349342410138 0 -0.17707060251479581 -0.40752576005524738 0 -0.1776360015645761 -0.39728007319183561 0 -0.16926333716013159 -0.40238007170511758 0 -0.16926333716013159 -0.40238007170511758 0 -0.16521137829802901 -0.3945665608300486 0 -0.16110981546335831 -0.40395646119636641 0 -0.1658100231858117 -0.40767224391216472 0 -0.17707060251479581 -0.40752576005524738 0 -0.16926333716013159 -0.40238007170511758 0 -0.1658100231858117 -0.40767224391216472 0 -0.16926333716013159 -0.40238007170511758 0 -0.16110981546335831 -0.40395646119636641 0 -0.1776360015645761 -0.39728007319183561 0 -0.16926333716013159 -0.40238007170511758 0 -0.16521137829802901 -0.3945665608300486 0 -0.16521137829802901 -0.3945665608300486 0 -0.1567204371067896 -0.39771385142200277 0 -0.1577175704024105 -0.38844019113165079 0 -0.16521137829802901 -0.3945665608300486 0 -0.1567204371067896 -0.39771385142200277 0 -0.16110981546335831 -0.40395646119636641 0 -0.15604793317702359 -0.4031177466685858 0 -0.1567204371067896 -0.39771385142200277 0 -0.16110981546335831 -0.40395646119636641 0 -0.15604793317702359 -0.4031177466685858 0 -0.1566959239299669 -0.40733526653777768 0 -0.16110981546335831 -0.40395646119636641 0 -0.1776360015645761 -0.39728007319183561 0 -0.16521137829802901 -0.3945665608300486 0 -0.1670328091426882 -0.37864364275295442 0 -0.16521137829802901 -0.3945665608300486 0 -0.1577175704024105 -0.38844019113165079 0 -0.1670328091426882 -0.37864364275295442 0 -0.15162985357186659 -0.37990521226733182 0 -0.1577175704024105 -0.38844019113165079 0 -0.1670328091426882 -0.37864364275295442 0 -0.15162985357186659 -0.37990521226733182 0 -0.1670328091426882 -0.37864364275295442 0 -0.15428757007223101 -0.36736768727427238 0 -0.1776360015645761 -0.39728007319183561 0 -0.1670328091426882 -0.37864364275295442 0 -0.18787528154938729 -0.38689766810238257 0 -0.1670328091426882 -0.37864364275295442 0 -0.18787528154938729 -0.38689766810238257 0 -0.1810882788868656 -0.37247700758800489 0 -0.18787528154938729 -0.38689766810238257 0 -0.20586894059479099 -0.39458908684427552 0 -0.1962078789757685 -0.37420653987989849 0 -0.18787528154938729 -0.38689766810238257 0 -0.1962078789757685 -0.37420653987989849 0 -0.1810882788868656 -0.37247700758800489 0 -0.18787528154938729 -0.38689766810238257 0 -0.19003772482010961 -0.40069349342410138 0 -0.20586894059479099 -0.39458908684427552 0 -0.19003772482010961 -0.40069349342410138 0 -0.20586894059479099 -0.39458908684427552 0 -0.1973670983942257 -0.41571028225721118 0 -0.20586894059479099 -0.39458908684427552 0 -0.22819600886339531 -0.39345091887458039 0 -0.2151325866999419 -0.37349478434491767 0 -0.20586894059479099 -0.39458908684427552 0 -0.1962078789757685 -0.37420653987989849 0 -0.2151325866999419 -0.37349478434491767 0 -0.1850251633990376 -0.43695061378878097 0 -0.2016810817665442 -0.43525449010426709 0 -0.1973670983942257 -0.41571028225721118 0 -0.17707060251479581 -0.40752576005524738 0 -0.19003772482010961 -0.40069349342410138 0 -0.1973670983942257 -0.41571028225721118 0 -0.1973670983942257 -0.41571028225721118 0 -0.22254174683089981 -0.41486721325128179 0 -0.20586894059479099 -0.39458908684427552 0 -0.1973670983942257 -0.41571028225721118 0 -0.22254174683089981 -0.41486721325128179 0 -0.1973670983942257 -0.41571028225721118 0 -0.21829160708543871 -0.4309652015312232 0 -0.22254174683089981 -0.41486721325128179 0 -0.2016810817665442 -0.43525449010426709 0 -0.1973670983942257 -0.41571028225721118 0 -0.21829160708543871 -0.4309652015312232 0 -0.21829160708543871 -0.4309652015312232 0 -0.22254174683089981 -0.41486721325128179 0 -0.21829160708543871 -0.4309652015312232 0 -0.22254174683089981 -0.41486721325128179 0 -0.23575834800659601 -0.42927761381759239 0 -0.22936745406304709 -0.44599940566483542 0 -0.21829160708543871 -0.4309652015312232 0 -0.23575834800659601 -0.42927761381759239 0 -0.22254174683089981 -0.41486721325128179 0 -0.24728761268765681 -0.41403850366349298 0 -0.22819600886339531 -0.39345091887458039 0 -0.22254174683089981 -0.41486721325128179 0 -0.24728761268765681 -0.41403850366349298 0 -0.23575834800659601 -0.42927761381759239 0 -0.22254174683089981 -0.41486721325128179 0 -0.24728761268765681 -0.41403850366349298 0 -0.25362671964213218 -0.43204106342196069 0 -0.24398413824983331 -0.44353265416309029 0 -0.23575834800659601 -0.42927761381759239 0 -0.25362671964213218 -0.43204106342196069 0 -0.24728761268765681 -0.41403850366349298 0 -0.23575834800659601 -0.42927761381759239 0 -0.22819600886339531 -0.39345091887458039 0 -0.233850270895893 -0.3720346244978795 0 -0.22819600886339531 -0.39345091887458039 0 -0.233850270895893 -0.3720346244978795 0 -0.2151325866999419 -0.37349478434491767 0 -0.20586894059479099 -0.39458908684427552 0 -0.22254174683089981 -0.41486721325128179 0 -0.22819600886339531 -0.39345091887458039 0 -0.22254174683089981 -0.41486721325128179 0 -0.22819600886339531 -0.39345091887458039 0 -0.24728761268765681 -0.41403850366349298 0 -0.22819600886339531 -0.39345091887458039 0 -0.2494264406445981 -0.38570149830623152 0 -0.22819600886339531 -0.39345091887458039 0 -0.2494264406445981 -0.38570149830623152 0 -0.233850270895893 -0.3720346244978795 0 -0.25234099474177929 -0.3645829912548777 0 -0.233850270895893 -0.3720346244978795 0 -0.23950453292839061 -0.3506183301211786 0 -0.233850270895893 -0.3720346244978795 0 -0.23950453292839061 -0.3506183301211786 0 -0.25234099474177929 -0.3645829912548777 0 -0.2494264406445981 -0.38570149830623152 0 -0.233850270895893 -0.3720346244978795 0 -0.233850270895893 -0.3720346244978795 0 -0.2245976124389657 -0.35412985980595968 0 -0.2151325866999419 -0.37349478434491767 0 -0.2245976124389657 -0.35412985980595968 0 -0.23325676238755161 -0.34149790661680318 0 -0.2131478566562218 -0.34395881208605128 0 -0.233850270895893 -0.3720346244978795 0 -0.2245976124389657 -0.35412985980595968 0 -0.23950453292839061 -0.3506183301211786 0 -0.2245976124389657 -0.35412985980595968 0 -0.23950453292839061 -0.3506183301211786 0 -0.23325676238755161 -0.34149790661680318 0 -0.25234099474177929 -0.3645829912548777 0 -0.25366849844647138 -0.34784678421434451 0 -0.23950453292839061 -0.3506183301211786 0 -0.23950453292839061 -0.3506183301211786 0 -0.24356101792195331 -0.34038019872427411 0 -0.23325676238755161 -0.34149790661680318 0 -0.25366849844647138 -0.34784678421434451 0 -0.23950453292839061 -0.3506183301211786 0 -0.24356101792195331 -0.34038019872427411 0 -0.25366849844647138 -0.34784678421434451 0 -0.25257272060382863 -0.33347201750691319 0 -0.24356101792195331 -0.34038019872427411 0 -0.25257272060382863 -0.33347201750691319 0 -0.24356101792195331 -0.34038019872427411 0 -0.23880257524352419 -0.32846595516213112 0 -0.24356101792195331 -0.34038019872427411 0 -0.23880257524352419 -0.32846595516213112 0 -0.23325676238755161 -0.34149790661680318 0 -0.25147377537078452 -0.31548627993528078 0 -0.23880257524352419 -0.32846595516213112 0 -0.23130798247761319 -0.31139752482105071 0 -0.25257272060382863 -0.33347201750691319 0 -0.25147377537078452 -0.31548627993528078 0 -0.23880257524352419 -0.32846595516213112 0 -0.23880257524352419 -0.32846595516213112 0 -0.22118346532032171 -0.32743255478302352 0 -0.23130798247761319 -0.31139752482105071 0 -0.22118346532032171 -0.32743255478302352 0 -0.20747352036348049 -0.31437221743640409 0 -0.23130798247761319 -0.31139752482105071 0 -0.23880257524352419 -0.32846595516213112 0 -0.22118346532032171 -0.32743255478302352 0 -0.23325676238755161 -0.34149790661680318 0 -0.22118346532032171 -0.32743255478302352 0 -0.23325676238755161 -0.34149790661680318 0 -0.2131478566562218 -0.34395881208605128 0 -0.23325676238755161 -0.34149790661680318 0 -0.2131478566562218 -0.34395881208605128 0 -0.22118346532032171 -0.32743255478302352 0 -0.20291016704765921 -0.33009785204570707 0 -0.2131478566562218 -0.34395881208605128 0 -0.22118346532032171 -0.32743255478302352 0 -0.20747352036348049 -0.31437221743640409 0 -0.20291016704765921 -0.33009785204570707 0 -0.20747352036348049 -0.31437221743640409 0 -0.19485220272502221 -0.32029321125088511 0 -0.20291016704765921 -0.33009785204570707 0 -0.20747352036348049 -0.31437221743640409 0 -0.19485220272502221 -0.32029321125088511 0 -0.1921203585624485 -0.30897557781538321 0 -0.19485220272502221 -0.32029321125088511 0 -0.20291016704765921 -0.33009785204570707 0 -0.19033713182565101 -0.32924832025784961 0 -0.19485220272502221 -0.32029321125088511 0 -0.19033713182565101 -0.32924832025784961 0 -0.18434897438438549 -0.31874603953535779 0 -0.19485220272502221 -0.32029321125088511 0 -0.1921203585624485 -0.30897557781538321 0 -0.18434897438438549 -0.31874603953535779 0 -0.20291016704765921 -0.33009785204570707 0 -0.1930389509248919 -0.34641971755529938 0 -0.2131478566562218 -0.34395881208605128 0 -0.20291016704765921 -0.33009785204570707 0 -0.19033713182565101 -0.32924832025784961 0 -0.1930389509248919 -0.34641971755529938 0 -0.1930389509248919 -0.34641971755529938 0 -0.2131478566562218 -0.34395881208605128 0 -0.1930389509248919 -0.34641971755529938 0 -0.20441148054902469 -0.3585141279980274 0 -0.18434399759835871 -0.35887505431603789 0 -0.1962078789757685 -0.37420653987989849 0 -0.20441148054902469 -0.3585141279980274 0 -0.18434399759835871 -0.35887505431603789 0 -0.2245976124389657 -0.35412985980595968 0 -0.2151325866999419 -0.37349478434491767 0 -0.20441148054902469 -0.3585141279980274 0 -0.1962078789757685 -0.37420653987989849 0 -0.2151325866999419 -0.37349478434491767 0 -0.20441148054902469 -0.3585141279980274 0 -0.1930389509248919 -0.34641971755529938 0 -0.2131478566562218 -0.34395881208605128 0 -0.20441148054902469 -0.3585141279980274 0 -0.2245976124389657 -0.35412985980595968 0 -0.2131478566562218 -0.34395881208605128 0 -0.20441148054902469 -0.3585141279980274 0 -0.2328663940516385 -0.25226737724788167 0 -0.22214925794950779 -0.26427572959012452 0 -0.21328338570417679 -0.2440988160028281 0 -0.2328663940516385 -0.25226737724788167 0 -0.22214925794950779 -0.26427572959012452 0 -0.2358858568306971 -0.27104117470380829 0 -0.25244940239910019 -0.26043593849293539 0 -0.2328663940516385 -0.25226737724788167 0 -0.2358858568306971 -0.27104117470380829 0 -0.25244940239910019 -0.26043593849293539 0 -0.2328663940516385 -0.25226737724788167 0 -0.25167019661209061 -0.29000101227952502 0 -0.25244940239910019 -0.26043593849293539 0 -0.2358858568306971 -0.27104117470380829 0 -0.22214925794950779 -0.26427572959012452 0 -0.2358858568306971 -0.27104117470380829 0 -0.22049200700239249 -0.28466014829609848 0 -0.25167019661209061 -0.29000101227952502 0 -0.2358858568306971 -0.27104117470380829 0 -0.22049200700239249 -0.28466014829609848 0 -0.25167019661209061 -0.29000101227952502 0 -0.22049200700239249 -0.28466014829609848 0 -0.23130798247761319 -0.31139752482105071 0 -0.25167019661209061 -0.29000101227952502 0 -0.23130798247761319 -0.31139752482105071 0 -0.25147377537078452 -0.31548627993528078 0 -0.25167019661209061 -0.29000101227952502 0 -0.23130798247761319 -0.31139752482105071 0 -0.22049200700239249 -0.28466014829609848 0 -0.23130798247761319 -0.31139752482105071 0 -0.2087418472241096 -0.29802386132467162 0 -0.20747352036348049 -0.31437221743640409 0 -0.2087418472241096 -0.29802386132467162 0 -0.2000475509264952 -0.3034244389975187 0 -0.20747352036348049 -0.31437221743640409 0 -0.23130798247761319 -0.31139752482105071 0 -0.2087418472241096 -0.29802386132467162 0 -0.1921203585624485 -0.30897557781538321 0 -0.19226985681608899 -0.29649222952509302 0 -0.1801406828990299 -0.31248893877944978 0 -0.2087418472241096 -0.29802386132467162 0 -0.2000475509264952 -0.3034244389975187 0 -0.19226985681608899 -0.29649222952509302 0 -0.20747352036348049 -0.31437221743640409 0 -0.1921203585624485 -0.30897557781538321 0 -0.2000475509264952 -0.3034244389975187 0 -0.1921203585624485 -0.30897557781538321 0 -0.2000475509264952 -0.3034244389975187 0 -0.19226985681608899 -0.29649222952509302 0 -0.20119031118225469 -0.28370434867687211 0 -0.19226985681608899 -0.29649222952509302 0 -0.18478636074706131 -0.28904246313392251 0 -0.2087418472241096 -0.29802386132467162 0 -0.20119031118225469 -0.28370434867687211 0 -0.19226985681608899 -0.29649222952509302 0 -0.19226985681608899 -0.29649222952509302 0 -0.18478636074706131 -0.28904246313392251 0 -0.22049200700239249 -0.28466014829609848 0 -0.2087418472241096 -0.29802386132467162 0 -0.20119031118225469 -0.28370434867687211 0 -0.22049200700239249 -0.28466014829609848 0 -0.20119031118225469 -0.28370434867687211 0 -0.2081884586026852 -0.27078838270072569 0 -0.22214925794950779 -0.26427572959012452 0 -0.22049200700239249 -0.28466014829609848 0 -0.2081884586026852 -0.27078838270072569 0 -0.20119031118225469 -0.28370434867687211 0 -0.18998674056478279 -0.26279643774595629 0 -0.18478636074706131 -0.28904246313392251 0 -0.20119031118225469 -0.28370434867687211 0 -0.2081884586026852 -0.27078838270072569 0 -0.18998674056478279 -0.26279643774595629 0 -0.2081884586026852 -0.27078838270072569 0 -0.18998674056478279 -0.26279643774595629 0 -0.20712397631448839 -0.25850524919457729 0 -0.18998674056478279 -0.26279643774595629 0 -0.20139530574148681 -0.25048772882533799 0 -0.20712397631448839 -0.25850524919457729 0 -0.20139530574148681 -0.25048772882533799 0 -0.20712397631448839 -0.25850524919457729 0 -0.21328338570417679 -0.2440988160028281 0 -0.22214925794950779 -0.26427572959012452 0 -0.20712397631448839 -0.25850524919457729 0 -0.21328338570417679 -0.2440988160028281 0 -0.20712397631448839 -0.25850524919457729 0 -0.21328338570417679 -0.2440988160028281 0 -0.22214925794950779 -0.26427572959012452 0 -0.2081884586026852 -0.27078838270072569 0 -0.20712397631448839 -0.25850524919457729 0 -0.17637727673339379 -0.25132354081323011 0 -0.164743579589504 -0.2690900189720079 0 -0.16315446049666699 -0.2529892402972011 0 -0.17637727673339379 -0.25132354081323011 0 -0.164743579589504 -0.2690900189720079 0 -0.16315446049666699 -0.2529892402972011 0 -0.164743579589504 -0.2690900189720079 0 -0.15390017896574759 -0.25829549181682049 0 -0.16315446049666699 -0.2529892402972011 0 -0.15390017896574759 -0.25829549181682049 0 -0.1545873459861043 -0.2472905373035425 0 -0.164743579589504 -0.2690900189720079 0 -0.15390017896574759 -0.25829549181682049 0 -0.18998674056478279 -0.26279643774595629 0 -0.17637727673339379 -0.25132354081323011 0 -0.164743579589504 -0.2690900189720079 0 -0.18998674056478279 -0.26279643774595629 0 -0.17637727673339379 -0.25132354081323011 0 -0.1951871203824995 -0.2365504123579894 0 -0.164743579589504 -0.2690900189720079 0 -0.18478636074706131 -0.28904246313392251 0 -0.18998674056478279 -0.26279643774595629 0 -0.164743579589504 -0.2690900189720079 0 -0.18478636074706131 -0.28904246313392251 0 -0.18998674056478279 -0.26279643774595629 0 -0.18478636074706131 -0.28904246313392251 0 -0.164743579589504 -0.2690900189720079 0 -0.15794010318576529 -0.27947999332287538 0 -0.18478636074706131 -0.28904246313392251 0 -0.164743579589504 -0.2690900189720079 0 -0.15794010318576529 -0.27947999332287538 0 -0.14790581079269241 -0.26456049957198602 0 -0.164743579589504 -0.2690900189720079 0 -0.15794010318576529 -0.27947999332287538 0 -0.15794010318576529 -0.27947999332287538 0 -0.159412225561917 -0.29381109677244421 0 -0.1690403930423969 -0.29598446605116308 0 -0.15794010318576529 -0.27947999332287538 0 -0.1690403930423969 -0.29598446605116308 0 -0.15794010318576529 -0.27947999332287538 0 -0.1690403930423969 -0.29598446605116308 0 -0.18478636074706131 -0.28904246313392251 0 -0.15794010318576529 -0.27947999332287538 0 -0.159412225561917 -0.29381109677244421 0 -0.15393104318575179 -0.2856024560315506 0 -0.1690403930423969 -0.29598446605116308 0 -0.1801406828990299 -0.31248893877944978 0 -0.16681019930983021 -0.30919990479427412 0 -0.19226985681608899 -0.29649222952509302 0 -0.18478636074706131 -0.28904246313392251 0 -0.1801406828990299 -0.31248893877944978 0 -0.1690403930423969 -0.29598446605116308 0 -0.18478636074706131 -0.28904246313392251 0 -0.1801406828990299 -0.31248893877944978 0 -0.18478636074706131 -0.28904246313392251 0 -0.1801406828990299 -0.31248893877944978 0 -0.1690403930423969 -0.29598446605116308 0 -0.1801406828990299 -0.31248893877944978 0 -0.159412225561917 -0.29381109677244421 0 -0.1690403930423969 -0.29598446605116308 0 -0.1561818624219965 -0.30567494095277109 0 -0.1690403930423969 -0.29598446605116308 0 -0.16681019930983021 -0.30919990479427412 0 -0.1561818624219965 -0.30567494095277109 0 -0.16681019930983021 -0.30919990479427412 0 -0.1561818624219965 -0.30567494095277109 0 -0.15621705858594229 -0.31486752126510448 0 -0.1561818624219965 -0.30567494095277109 0 -0.14947081675509011 -0.30196501825019528 0 -0.14407568243272251 -0.3101758155072768 0 -0.1561818624219965 -0.30567494095277109 0 -0.14407568243272251 -0.3101758155072768 0 -0.15621705858594229 -0.31486752126510448 0 -0.159412225561917 -0.29381109677244421 0 -0.1561818624219965 -0.30567494095277109 0 -0.14947081675509011 -0.30196501825019528 0 -0.14947081675509011 -0.30196501825019528 0 -0.14222065893966351 -0.30111269410423841 0 -0.14407568243272251 -0.3101758155072768 0 -0.14947081675509011 -0.30196501825019528 0 -0.14222065893966351 -0.30111269410423841 0 -0.14956700028340969 -0.29451585365909161 0 -0.14407568243272251 -0.3101758155072768 0 -0.13303040085628931 -0.30129547133136902 0 -0.12968558679647779 -0.31450855965589758 0 -0.13303040085628931 -0.30129547133136902 0 -0.12968558679647779 -0.31450855965589758 0 -0.12233316326902841 -0.30103037414042599 0 -0.13303040085628931 -0.30129547133136902 0 -0.1246045066632743 -0.29422206461887102 0 -0.12233316326902841 -0.30103037414042599 0 -0.14222065893966351 -0.30111269410423841 0 -0.13303040085628931 -0.30129547133136902 0 -0.13910062717850261 -0.29497961296969571 0 -0.14222065893966351 -0.30111269410423841 0 -0.14407568243272251 -0.3101758155072768 0 -0.13303040085628931 -0.30129547133136902 0 -0.13303040085628931 -0.30129547133136902 0 -0.13910062717850261 -0.29497961296969571 0 -0.13178842165296401 -0.29339164160478959 0 -0.13910062717850261 -0.29497961296969571 0 -0.13178842165296401 -0.29339164160478959 0 -0.14100226975458999 -0.28810415781344478 0 -0.13303040085628931 -0.30129547133136902 0 -0.13178842165296401 -0.29339164160478959 0 -0.1246045066632743 -0.29422206461887102 0 -0.13178842165296401 -0.29339164160478959 0 -0.1224787533838451 -0.28711889910875588 0 -0.1246045066632743 -0.29422206461887102 0 -0.13178842165296401 -0.29339164160478959 0 -0.13205682892913609 -0.28087366121714652 0 -0.1224787533838451 -0.28711889910875588 0 -0.14100226975458999 -0.28810415781344478 0 -0.1454283644552116 -0.27992358900656228 0 -0.13205682892913609 -0.28087366121714652 0 -0.13178842165296401 -0.29339164160478959 0 -0.14100226975458999 -0.28810415781344478 0 -0.13205682892913609 -0.28087366121714652 0 -0.14100226975458999 -0.28810415781344478 0 -0.14785289345382471 -0.2876752807247861 0 -0.1454283644552116 -0.27992358900656228 0 -0.13910062717850261 -0.29497961296969571 0 -0.14100226975458999 -0.28810415781344478 0 -0.14956700028340969 -0.29451585365909161 0 -0.14100226975458999 -0.28810415781344478 0 -0.14785289345382471 -0.2876752807247861 0 -0.14956700028340969 -0.29451585365909161 0 -0.14222065893966351 -0.30111269410423841 0 -0.13910062717850261 -0.29497961296969571 0 -0.14956700028340969 -0.29451585365909161 0 -0.159412225561917 -0.29381109677244421 0 -0.14956700028340969 -0.29451585365909161 0 -0.15393104318575179 -0.2856024560315506 0 -0.14785289345382471 -0.2876752807247861 0 -0.14956700028340969 -0.29451585365909161 0 -0.15393104318575179 -0.2856024560315506 0 -0.159412225561917 -0.29381109677244421 0 -0.14947081675509011 -0.30196501825019528 0 -0.14956700028340969 -0.29451585365909161 0 -0.15794010318576529 -0.27947999332287538 0 -0.15393104318575179 -0.2856024560315506 0 -0.1454283644552116 -0.27992358900656228 0 -0.14785289345382471 -0.2876752807247861 0 -0.15393104318575179 -0.2856024560315506 0 -0.1454283644552116 -0.27992358900656228 0 -0.15794010318576529 -0.27947999332287538 0 -0.15393104318575179 -0.2856024560315506 0 -0.15794010318576529 -0.27947999332287538 0 -0.1454283644552116 -0.27992358900656228 0 -0.14790581079269241 -0.26456049957198602 0 -0.15794010318576529 -0.27947999332287538 0 -0.14790581079269241 -0.26456049957198602 0 -0.1454283644552116 -0.27992358900656228 0 -0.13765416393926169 -0.27148564128082658 0 -0.14790581079269241 -0.26456049957198602 0 -0.1454283644552116 -0.27992358900656228 0 -0.13205682892913609 -0.28087366121714652 0 -0.13765416393926169 -0.27148564128082658 0 -0.13205682892913609 -0.28087366121714652 0 -0.12685353509018421 -0.26831423021916689 0 -0.13765416393926169 -0.27148564128082658 0 -0.13205682892913609 -0.28087366121714652 0 -0.12685353509018421 -0.26831423021916689 0 -0.1185368999224941 -0.27502816842907257 0 -0.12685353509018421 -0.26831423021916689 0 -0.13765416393926169 -0.27148564128082658 0 -0.1350927692113687 -0.26203054803453618 0 -0.13765416393926169 -0.27148564128082658 0 -0.1350927692113687 -0.26203054803453618 0 -0.14790581079269241 -0.26456049957198602 0 -0.120388863706147 -0.25677221141539519 0 -0.13787151839962 -0.24964100582109611 0 -0.1350927692113687 -0.26203054803453618 0 -0.120388863706147 -0.25677221141539519 0 -0.13787151839962 -0.24964100582109611 0 -0.1350927692113687 -0.26203054803453618 0 -0.14790581079269241 -0.26456049957198602 0 -0.13787151839962 -0.24964100582109611 0 -0.12685353509018421 -0.26831423021916689 0 -0.1350927692113687 -0.26203054803453618 0 -0.120388863706147 -0.25677221141539519 0 -0.14790581079269241 -0.26456049957198602 0 -0.15390017896574759 -0.25829549181682049 0 -0.1430149355188356 -0.24754299693300361 0 -0.14790581079269241 -0.26456049957198602 0 -0.1430149355188356 -0.24754299693300361 0 -0.13787151839962 -0.24964100582109611 0 -0.164743579589504 -0.2690900189720079 0 -0.14790581079269241 -0.26456049957198602 0 -0.15390017896574759 -0.25829549181682049 0 -0.14790581079269241 -0.26456049957198602 0 -0.13787151839962 -0.24964100582109611 0 -0.15390017896574759 -0.25829549181682049 0 -0.1430149355188356 -0.24754299693300361 0 -0.15390017896574759 -0.25829549181682049 0 -0.1545873459861043 -0.2472905373035425 0 -0.1430149355188356 -0.24754299693300361 0 -0.16219909126575421 -0.35787543525532312 0 -0.17293004519356209 -0.34888062302454748 0 -0.15159732262909831 -0.35149129783372163 0 -0.17293004519356209 -0.34888062302454748 0 -0.15159732262909831 -0.35149129783372163 0 -0.17293004519356209 -0.34888062302454748 0 -0.15887479889042239 -0.34213258338296781 0 -0.15159732262909831 -0.35149129783372163 0 -0.16219909126575421 -0.35787543525532312 0 -0.16998142716812531 -0.36376213288875098 0 -0.17293004519356209 -0.34888062302454748 0 -0.16998142716812531 -0.36376213288875098 0 -0.17293004519356209 -0.34888062302454748 0 -0.1670328091426882 -0.37864364275295442 0 -0.16998142716812531 -0.36376213288875098 0 -0.15428757007223101 -0.36736768727427238 0 -0.16219909126575421 -0.35787543525532312 0 -0.16998142716812531 -0.36376213288875098 0 -0.15428757007223101 -0.36736768727427238 0 -0.1670328091426882 -0.37864364275295442 0 -0.16998142716812531 -0.36376213288875098 0 -0.16998142716812531 -0.36376213288875098 0 -0.1810882788868656 -0.37247700758800489 0 -0.18434399759835871 -0.35887505431603789 0 -0.1670328091426882 -0.37864364275295442 0 -0.16998142716812531 -0.36376213288875098 0 -0.1810882788868656 -0.37247700758800489 0 -0.1962078789757685 -0.37420653987989849 0 -0.1810882788868656 -0.37247700758800489 0 -0.18434399759835871 -0.35887505431603789 0 -0.1930389509248919 -0.34641971755529938 0 -0.18434399759835871 -0.35887505431603789 0 -0.17293004519356209 -0.34888062302454748 0 -0.1930389509248919 -0.34641971755529938 0 -0.17293004519356209 -0.34888062302454748 0 -0.16998142716812531 -0.36376213288875098 0 -0.18434399759835871 -0.35887505431603789 0 -0.17293004519356209 -0.34888062302454748 0 -0.19033713182565101 -0.32924832025784961 0 -0.1930389509248919 -0.34641971755529938 0 -0.1765353640462963 -0.33068478090199871 0 -0.17293004519356209 -0.34888062302454748 0 -0.1765353640462963 -0.33068478090199871 0 -0.1666300169255861 -0.33730172022372118 0 -0.1930389509248919 -0.34641971755529938 0 -0.17293004519356209 -0.34888062302454748 0 -0.1765353640462963 -0.33068478090199871 0 -0.17293004519356209 -0.34888062302454748 0 -0.1765353640462963 -0.33068478090199871 0 -0.1801406828990299 -0.31248893877944978 0 -0.1765353640462963 -0.33068478090199871 0 -0.16751701036426311 -0.3197764007566225 0 -0.1801406828990299 -0.31248893877944978 0 -0.1765353640462963 -0.33068478090199871 0 -0.18434897438438549 -0.31874603953535779 0 -0.1801406828990299 -0.31248893877944978 0 -0.1765353640462963 -0.33068478090199871 0 -0.1921203585624485 -0.30897557781538321 0 -0.1801406828990299 -0.31248893877944978 0 -0.18434897438438549 -0.31874603953535779 0 -0.1801406828990299 -0.31248893877944978 0 -0.18434897438438549 -0.31874603953535779 0 -0.19033713182565101 -0.32924832025784961 0 -0.1765353640462963 -0.33068478090199871 0 -0.18434897438438549 -0.31874603953535779 0 -0.1801406828990299 -0.31248893877944978 0 -0.16681019930983021 -0.30919990479427412 0 -0.16751701036426311 -0.3197764007566225 0 -0.1765353640462963 -0.33068478090199871 0 -0.16751701036426311 -0.3197764007566225 0 -0.16541051701769341 -0.32896499648985128 0 -0.16751701036426311 -0.3197764007566225 0 -0.15666337679074449 -0.32420559028975982 0 -0.16541051701769341 -0.32896499648985128 0 -0.16681019930983021 -0.30919990479427412 0 -0.16751701036426311 -0.3197764007566225 0 -0.15621705858594229 -0.31486752126510448 0 -0.16751701036426311 -0.3197764007566225 0 -0.15666337679074449 -0.32420559028975982 0 -0.15621705858594229 -0.31486752126510448 0 -0.17293004519356209 -0.34888062302454748 0 -0.1666300169255861 -0.33730172022372118 0 -0.15887479889042239 -0.34213258338296781 0 -0.1765353640462963 -0.33068478090199871 0 -0.1666300169255861 -0.33730172022372118 0 -0.16541051701769341 -0.32896499648985128 0 -0.15666337679074449 -0.32420559028975982 0 -0.16541051701769341 -0.32896499648985128 0 -0.15719050020752279 -0.33371433475781798 0 -0.1666300169255861 -0.33730172022372118 0 -0.16541051701769341 -0.32896499648985128 0 -0.15719050020752279 -0.33371433475781798 0 -0.1666300169255861 -0.33730172022372118 0 -0.15719050020752279 -0.33371433475781798 0 -0.15887479889042239 -0.34213258338296781 0 -0.15719050020752279 -0.33371433475781798 0 -0.15887479889042239 -0.34213258338296781 0 -0.1460261094963427 -0.33927494107503048 0 -0.15719050020752279 -0.33371433475781798 0 -0.1468950695016733 -0.32832518809261968 0 -0.1460261094963427 -0.33927494107503048 0 -0.15666337679074449 -0.32420559028975982 0 -0.15719050020752279 -0.33371433475781798 0 -0.1468950695016733 -0.32832518809261968 0 -0.1468950695016733 -0.32832518809261968 0 -0.1460261094963427 -0.33927494107503048 0 -0.13540545489295189 -0.33121144101319733 0 -0.15666337679074449 -0.32420559028975982 0 -0.15621705858594229 -0.31486752126510448 0 -0.14769260694832531 -0.31993311063550289 0 -0.14407568243272251 -0.3101758155072768 0 -0.15621705858594229 -0.31486752126510448 0 -0.14769260694832531 -0.31993311063550289 0 -0.15666337679074449 -0.32420559028975982 0 -0.1468950695016733 -0.32832518809261968 0 -0.14769260694832531 -0.31993311063550289 0 -0.1468950695016733 -0.32832518809261968 0 -0.14769260694832531 -0.31993311063550289 0 -0.13839236867415261 -0.32161171078440992 0 -0.14407568243272251 -0.3101758155072768 0 -0.14769260694832531 -0.31993311063550289 0 -0.13839236867415261 -0.32161171078440992 0 -0.14407568243272251 -0.3101758155072768 0 -0.13839236867415261 -0.32161171078440992 0 -0.12968558679647779 -0.31450855965589758 0 -0.1468950695016733 -0.32832518809261968 0 -0.13839236867415261 -0.32161171078440992 0 -0.13540545489295189 -0.33121144101319733 0 -0.13839236867415261 -0.32161171078440992 0 -0.12808272420974631 -0.32483255862911781 0 -0.13540545489295189 -0.33121144101319733 0 -0.13839236867415261 -0.32161171078440992 0 -0.12808272420974631 -0.32483255862911781 0 -0.12968558679647779 -0.31450855965589758 0 -0.12808272420974631 -0.32483255862911781 0 -0.13540545489295189 -0.33121144101319733 0 -0.1237633463997343 -0.34147941585873531 0 -0.1460261094963427 -0.33927494107503048 0 -0.1334168052387866 -0.34142499506929203 0 -0.13900274392768261 -0.3484888197794227 0 -0.1460261094963427 -0.33927494107503048 0 -0.1334168052387866 -0.34142499506929203 0 -0.13540545489295189 -0.33121144101319733 0 -0.1334168052387866 -0.34142499506929203 0 -0.13540545489295189 -0.33121144101319733 0 -0.1237633463997343 -0.34147941585873531 0 -0.1334168052387866 -0.34142499506929203 0 -0.12547808950737971 -0.35298744807426191 0 -0.1237633463997343 -0.34147941585873531 0 -0.13900274392768261 -0.3484888197794227 0 -0.13258555609951819 -0.36457720710337282 0 -0.1334168052387866 -0.34142499506929203 0 -0.12547808950737971 -0.35298744807426191 0 -0.13900274392768261 -0.3484888197794227 0 -0.12547808950737971 -0.35298744807426191 0 -0.13900274392768261 -0.3484888197794227 0 -0.13258555609951819 -0.36457720710337282 0 -0.13900274392768261 -0.3484888197794227 0 -0.1440628385093751 -0.36071403350749431 0 -0.13258555609951819 -0.36457720710337282 0 -0.16219909126575421 -0.35787543525532312 0 -0.15159732262909831 -0.35149129783372163 0 -0.15428757007223101 -0.36736768727427238 0 -0.1460261094963427 -0.33927494107503048 0 -0.13900274392768261 -0.3484888197794227 0 -0.15159732262909831 -0.35149129783372163 0 -0.13900274392768261 -0.3484888197794227 0 -0.15159732262909831 -0.35149129783372163 0 -0.1440628385093751 -0.36071403350749431 0 -0.15887479889042239 -0.34213258338296781 0 -0.1460261094963427 -0.33927494107503048 0 -0.15159732262909831 -0.35149129783372163 0 -0.15159732262909831 -0.35149129783372163 0 -0.15428757007223101 -0.36736768727427238 0 -0.1440628385093751 -0.36071403350749431 0 -0.15162985357186659 -0.37990521226733182 0 -0.15428757007223101 -0.36736768727427238 0 -0.1439900106380019 -0.37080836766606229 0 -0.15428757007223101 -0.36736768727427238 0 -0.1440628385093751 -0.36071403350749431 0 -0.1439900106380019 -0.37080836766606229 0 -0.13832429216814701 -0.38087282595510669 0 -0.1439900106380019 -0.37080836766606229 0 -0.13258555609951819 -0.36457720710337282 0 -0.126168368271352 -0.38066559442732212 0 -0.13258555609951819 -0.36457720710337282 0 -0.126168368271352 -0.38066559442732212 0 -0.13258555609951819 -0.36457720710337282 0 -0.1178441094004801 -0.36600059614232078 0 -0.1440628385093751 -0.36071403350749431 0 -0.1439900106380019 -0.37080836766606229 0 -0.13258555609951819 -0.36457720710337282 0 -0.12547808950737971 -0.35298744807426191 0 -0.13258555609951819 -0.36457720710337282 0 -0.1178441094004801 -0.36600059614232078 0 -0.126168368271352 -0.38066559442732212 0 -0.1178441094004801 -0.36600059614232078 0 -0.1178441094004801 -0.36600059614232078 0 -0.1050136369972699 -0.36902704771659361 0 -0.1095198505296112 -0.35133559785731783 0 -0.126168368271352 -0.38066559442732212 0 -0.1178441094004801 -0.36600059614232078 0 -0.1050136369972699 -0.36902704771659361 0 -0.1050136369972699 -0.36902704771659361 0 -0.1095198505296112 -0.35133559785731783 0 -0.1050136369972699 -0.36902704771659361 0 -0.084674669349739939 -0.34760608929450842 0 -0.1050136369972699 -0.36902704771659361 0 -0.1095198505296112 -0.35133559785731783 0 -0.084674669349739939 -0.34760608929450842 0 -0.12547808950737971 -0.35298744807426191 0 -0.1095198505296112 -0.35133559785731783 0 -0.1237633463997343 -0.34147941585873531 0 -0.12547808950737971 -0.35298744807426191 0 -0.1178441094004801 -0.36600059614232078 0 -0.1095198505296112 -0.35133559785731783 0 -0.1178441094004801 -0.36600059614232078 0 -0.1095198505296112 -0.35133559785731783 0 -0.12808272420974631 -0.32483255862911781 0 -0.1237633463997343 -0.34147941585873531 0 -0.1159265068993213 -0.32618298599887241 0 -0.1095198505296112 -0.35133559785731783 0 -0.1237633463997343 -0.34147941585873531 0 -0.1159265068993213 -0.32618298599887241 0 -0.1095198505296112 -0.35133559785731783 0 -0.1159265068993213 -0.32618298599887241 0 -0.1159265068993213 -0.32618298599887241 0 -0.12233316326902841 -0.30103037414042599 0 -0.12968558679647779 -0.31450855965589758 0 -0.1159265068993213 -0.32618298599887241 0 -0.12233316326902841 -0.30103037414042599 0 -0.1159265068993213 -0.32618298599887241 0 -0.1134354799599358 -0.3064307688684893 0 -0.1058624816958942 -0.30984422449238319 0 -0.12808272420974631 -0.32483255862911781 0 -0.12968558679647779 -0.31450855965589758 0 -0.1159265068993213 -0.32618298599887241 0 -0.10270064766070219 -0.31951390579569411 0 -0.096360416677253063 -0.32815238384751538 0 -0.097015967615415907 -0.31205887199511051 0 -0.1159265068993213 -0.32618298599887241 0 -0.10270064766070219 -0.31951390579569411 0 -0.1058624816958942 -0.30984422449238319 0 -0.1159265068993213 -0.32618298599887241 0 -0.10270064766070219 -0.31951390579569411 0 -0.096360416677253063 -0.32815238384751538 0 -0.10270064766070219 -0.31951390579569411 0 -0.1058624816958942 -0.30984422449238319 0 -0.097015967615415907 -0.31205887199511051 0 -0.1095198505296112 -0.35133559785731783 0 -0.096360416677253063 -0.32815238384751538 0 -0.1095198505296112 -0.35133559785731783 0 -0.1159265068993213 -0.32618298599887241 0 -0.096360416677253063 -0.32815238384751538 0 -0.1095198505296112 -0.35133559785731783 0 -0.096360416677253063 -0.32815238384751538 0 -0.084674669349739939 -0.34760608929450842 0 -0.096360416677253063 -0.32815238384751538 0 -0.080770564006679285 -0.32469183678628583 0 -0.084674669349739939 -0.34760608929450842 0 -0.096360416677253063 -0.32815238384751538 0 -0.080770564006679285 -0.32469183678628583 0 -0.083200982824896727 -0.30496916983771188 0 -0.096360416677253063 -0.32815238384751538 0 -0.097015967615415907 -0.31205887199511051 0 -0.083200982824896727 -0.30496916983771188 0 -0.096360416677253063 -0.32815238384751538 0 -0.083200982824896727 -0.30496916983771188 0 -0.080770564006679285 -0.32469183678628583 0 -0.064335701702210951 -0.32618513087242251 0 -0.064219522619856223 -0.30183469695439358 0 -0.080770564006679285 -0.32469183678628583 0 -0.064219522619856223 -0.30183469695439358 0 -0.080770564006679285 -0.32469183678628583 0 -0.064335701702210951 -0.32618513087242251 0 -0.084674669349739939 -0.34760608929450842 0 -0.064335701702210951 -0.32618513087242251 0 -0.084674669349739939 -0.34760608929450842 0 -0.064335701702210951 -0.32618513087242251 0 -0.084674669349739939 -0.34760608929450842 0 -0.054056694322044171 -0.35811705878731709 0 -0.076316706956076175 -0.36957095537380602 0 -0.084674669349739939 -0.34760608929450842 0 -0.054056694322044171 -0.35811705878731709 0 -0.1050136369972699 -0.36902704771659361 0 -0.076316706956076175 -0.36957095537380602 0 -0.088257975579922029 -0.38248603698086558 0 -0.1050136369972699 -0.36902704771659361 0 -0.076316706956076175 -0.36957095537380602 0 -0.084674669349739939 -0.34760608929450842 0 -0.099538649950749764 -0.26527705027321258 0 -0.120388863706147 -0.25677221141539519 0 -0.104328086066999 -0.2478987508450152 0 -0.099538649950749764 -0.26527705027321258 0 -0.087379472336805278 -0.24187516102157619 0 -0.104328086066999 -0.2478987508450152 0 -0.099538649950749764 -0.26527705027321258 0 -0.120388863706147 -0.25677221141539519 0 -0.099538649950749764 -0.26527705027321258 0 -0.120388863706147 -0.25677221141539519 0 -0.1157274406916054 -0.26298752379460433 0 -0.12685353509018421 -0.26831423021916689 0 -0.120388863706147 -0.25677221141539519 0 -0.1157274406916054 -0.26298752379460433 0 -0.120388863706147 -0.25677221141539519 0 -0.1157274406916054 -0.26298752379460433 0 -0.1157274406916054 -0.26298752379460433 0 -0.1103205043748029 -0.27096301543577511 0 -0.1185368999224941 -0.27502816842907257 0 -0.12685353509018421 -0.26831423021916689 0 -0.1157274406916054 -0.26298752379460433 0 -0.1185368999224941 -0.27502816842907257 0 -0.13205682892913609 -0.28087366121714652 0 -0.1185368999224941 -0.27502816842907257 0 -0.1224787533838451 -0.28711889910875588 0 -0.1185368999224941 -0.27502816842907257 0 -0.10747902693436261 -0.28055931924621103 0 -0.1224787533838451 -0.28711889910875588 0 -0.1103205043748029 -0.27096301543577511 0 -0.1185368999224941 -0.27502816842907257 0 -0.10747902693436261 -0.28055931924621103 0 -0.099538649950749764 -0.26527705027321258 0 -0.1157274406916054 -0.26298752379460433 0 -0.1103205043748029 -0.27096301543577511 0 -0.099538649950749764 -0.26527705027321258 0 -0.10747902693436261 -0.28055931924621103 0 -0.094221163002447025 -0.2821006669507431 0 -0.099538649950749764 -0.26527705027321258 0 -0.10747902693436261 -0.28055931924621103 0 -0.099538649950749764 -0.26527705027321258 0 -0.1103205043748029 -0.27096301543577511 0 -0.10747902693436261 -0.28055931924621103 0 -0.094221163002447025 -0.2821006669507431 0 -0.1053829763357931 -0.29069685479616902 0 -0.096955309218333285 -0.29781467600224781 0 -0.1053829763357931 -0.29069685479616902 0 -0.10763584401745969 -0.2992546714915556 0 -0.096955309218333285 -0.29781467600224781 0 -0.10747902693436261 -0.28055931924621103 0 -0.094221163002447025 -0.2821006669507431 0 -0.1053829763357931 -0.29069685479616902 0 -0.10747902693436261 -0.28055931924621103 0 -0.1053829763357931 -0.29069685479616902 0 -0.1154194039179757 -0.2958415882192092 0 -0.10747902693436261 -0.28055931924621103 0 -0.1154194039179757 -0.2958415882192092 0 -0.10747902693436261 -0.28055931924621103 0 -0.1224787533838451 -0.28711889910875588 0 -0.1154194039179757 -0.2958415882192092 0 -0.1224787533838451 -0.28711889910875588 0 -0.1246045066632743 -0.29422206461887102 0 -0.1154194039179757 -0.2958415882192092 0 -0.1053829763357931 -0.29069685479616902 0 -0.1154194039179757 -0.2958415882192092 0 -0.10763584401745969 -0.2992546714915556 0 -0.1154194039179757 -0.2958415882192092 0 -0.1134354799599358 -0.3064307688684893 0 -0.10763584401745969 -0.2992546714915556 0 -0.1154194039179757 -0.2958415882192092 0 -0.12233316326902841 -0.30103037414042599 0 -0.1134354799599358 -0.3064307688684893 0 -0.1159265068993213 -0.32618298599887241 0 -0.12233316326902841 -0.30103037414042599 0 -0.1134354799599358 -0.3064307688684893 0 -0.1246045066632743 -0.29422206461887102 0 -0.1154194039179757 -0.2958415882192092 0 -0.12233316326902841 -0.30103037414042599 0 -0.1134354799599358 -0.3064307688684893 0 -0.1058624816958942 -0.30984422449238319 0 -0.10763584401745969 -0.2992546714915556 0 -0.1058624816958942 -0.30984422449238319 0 -0.10763584401745969 -0.2992546714915556 0 -0.096955309218333285 -0.29781467600224781 0 -0.1058624816958942 -0.30984422449238319 0 -0.096955309218333285 -0.29781467600224781 0 -0.097015967615415907 -0.31205887199511051 0 -0.096955309218333285 -0.29781467600224781 0 -0.083200982824896727 -0.30496916983771188 0 -0.085382070991837755 -0.28888680608567829 0 -0.096955309218333285 -0.29781467600224781 0 -0.097015967615415907 -0.31205887199511051 0 -0.083200982824896727 -0.30496916983771188 0 -0.080770564006679285 -0.32469183678628583 0 -0.083200982824896727 -0.30496916983771188 0 -0.064219522619856223 -0.30183469695439358 0 -0.083200982824896727 -0.30496916983771188 0 -0.064219522619856223 -0.30183469695439358 0 -0.070041548972540391 -0.28178595582790839 0 -0.083200982824896727 -0.30496916983771188 0 -0.070041548972540391 -0.28178595582790839 0 -0.083200982824896727 -0.30496916983771188 0 -0.070041548972540391 -0.28178595582790839 0 -0.085382070991837755 -0.28888680608567829 0 -0.070041548972540391 -0.28178595582790839 0 -0.085382070991837755 -0.28888680608567829 0 -0.079830981917719132 -0.28025405641943352 0 -0.094221163002447025 -0.2821006669507431 0 -0.096955309218333285 -0.29781467600224781 0 -0.085382070991837755 -0.28888680608567829 0 -0.094221163002447025 -0.2821006669507431 0 -0.085382070991837755 -0.28888680608567829 0 -0.079830981917719132 -0.28025405641943352 0 -0.099538649950749764 -0.26527705027321258 0 -0.094221163002447025 -0.2821006669507431 0 -0.084979125668333724 -0.27121590583224919 0 -0.094221163002447025 -0.2821006669507431 0 -0.084979125668333724 -0.27121590583224919 0 -0.079830981917719132 -0.28025405641943352 0 -0.099538649950749764 -0.26527705027321258 0 -0.084979125668333724 -0.27121590583224919 0 -0.084979125668333724 -0.27121590583224919 0 -0.079830981917719132 -0.28025405641943352 0 -0.070419601385918545 -0.27715476139128792 0 -0.070041548972540391 -0.28178595582790839 0 -0.079830981917719132 -0.28025405641943352 0 -0.070419601385918545 -0.27715476139128792 0 -0.084979125668333724 -0.27121590583224919 0 -0.070419601385918545 -0.27715476139128792 0 -0.073051277314283458 -0.25743571846949831 0 -0.084979125668333724 -0.27121590583224919 0 -0.070419601385918545 -0.27715476139128792 0 -0.070041548972540391 -0.28178595582790839 0 -0.056882115120184068 -0.258602741818105 0 -0.070041548972540391 -0.28178595582790839 0 -0.070419601385918545 -0.27715476139128792 0 -0.056882115120184068 -0.258602741818105 0 -0.070419601385918545 -0.27715476139128792 0 -0.073051277314283458 -0.25743571846949831 0 -0.056882115120184068 -0.258602741818105 0 -0.073051277314283458 -0.25743571846949831 0 -0.056882115120184068 -0.258602741818105 0 -0.065732442467890423 -0.23904355289009571 0 -0.099538649950749764 -0.26527705027321258 0 -0.084979125668333724 -0.27121590583224919 0 -0.087379472336805278 -0.24187516102157619 0 -0.099538649950749764 -0.26527705027321258 0 -0.087379472336805278 -0.24187516102157619 0 -0.084979125668333724 -0.27121590583224919 0 -0.073051277314283458 -0.25743571846949831 0 -0.087379472336805278 -0.24187516102157619 0 -0.056882115120184068 -0.258602741818105 0 -0.047668481233033133 -0.27897755712250139 0 -0.03111743984621005 -0.25612041729060908 0 -0.056882115120184068 -0.258602741818105 0 -0.03111743984621005 -0.25612041729060908 0 -0.043722681267827752 -0.2354195278083015 0 -0.070041548972540391 -0.28178595582790839 0 -0.056882115120184068 -0.258602741818105 0 -0.047668481233033133 -0.27897755712250139 0 -0.047668481233033133 -0.27897755712250139 0 -0.032037489614230398 -0.27724632623476131 0 -0.03111743984621005 -0.25612041729060908 0 -0.047668481233033133 -0.27897755712250139 0 -0.03111743984621005 -0.25612041729060908 0 -0.043996734054681789 -0.30476417245033638 0 -0.02365776640715191 -0.28334321402825102 0 -0.032037489614230398 -0.27724632623476131 0 -0.043996734054681789 -0.30476417245033638 0 -0.02365776640715191 -0.28334321402825102 0 -0.047668481233033133 -0.27897755712250139 0 -0.032037489614230398 -0.27724632623476131 0 -0.043996734054681789 -0.30476417245033638 0 -0.064219522619856223 -0.30183469695439358 0 -0.047668481233033133 -0.27897755712250139 0 -0.043996734054681789 -0.30476417245033638 0 -0.064219522619856223 -0.30183469695439358 0 -0.047668481233033133 -0.27897755712250139 0 -0.064219522619856223 -0.30183469695439358 0 -0.070041548972540391 -0.28178595582790839 0 -0.047668481233033133 -0.27897755712250139 0 -0.064335701702210951 -0.32618513087242251 0 -0.064219522619856223 -0.30183469695439358 0 -0.043996734054681789 -0.30476417245033638 0 -0.043996734054681789 -0.30476417245033638 0 -0.02211923296340669 -0.30833166215363389 0 -0.035928911585227277 -0.32175330848517009 0 -0.043996734054681789 -0.30476417245033638 0 -0.02211923296340669 -0.30833166215363389 0 -0.02365776640715191 -0.28334321402825102 0 -0.02211923296340669 -0.30833166215363389 0 -0.0039300337893912567 -0.29769664423330311 0 -0.0053491287304535916 -0.31543705698788238 0 -0.0039300337893912567 -0.29769664423330311 0 -0.02365776640715191 -0.28334321402825102 0 -0.007981009471871324 -0.26683248623107969 0 -0.0039300337893912567 -0.29769664423330311 0 -0.02365776640715191 -0.28334321402825102 0 -0.02211923296340669 -0.30833166215363389 0 -0.0039300337893912567 -0.29769664423330311 0 -0.02365776640715191 -0.28334321402825102 0 -0.02365776640715191 -0.28334321402825102 0 -0.007981009471871324 -0.26683248623107969 0 -0.032037489614230398 -0.27724632623476131 0 -0.007981009471871324 -0.26683248623107969 0 -0.03111743984621005 -0.25612041729060908 0 -0.032037489614230398 -0.27724632623476131 0 -0.02365776640715191 -0.28334321402825102 0 -0.007981009471871324 -0.26683248623107969 0 -0.032037489614230398 -0.27724632623476131 0 -0.02365776640715191 -0.28334321402825102 0 -0.007981009471871324 -0.26683248623107969 0 -0.01445638115462268 -0.25038859752307729 0 0.0076957474634097864 -0.25032175843390908 0 -0.007981009471871324 -0.26683248623107969 0 0.0076957474634097864 -0.25032175843390908 0 -0.007981009471871324 -0.26683248623107969 0 -0.01445638115462268 -0.25038859752307729 0 -0.03111743984621005 -0.25612041729060908 0 -0.054056694322044171 -0.35811705878731709 0 -0.039117038328186138 -0.34028858162800651 0 -0.025834338370200261 -0.36060196247285847 0 -0.037332092200604697 -0.37499286815449662 0 -0.054056694322044171 -0.35811705878731709 0 -0.025834338370200261 -0.36060196247285847 0 -0.037332092200604697 -0.37499286815449662 0 -0.054056694322044171 -0.35811705878731709 0 -0.050786313347291057 -0.38757382371512211 0 -0.076316706956076175 -0.36957095537380602 0 -0.054056694322044171 -0.35811705878731709 0 -0.050786313347291057 -0.38757382371512211 0 -0.064335701702210951 -0.32618513087242251 0 -0.054056694322044171 -0.35811705878731709 0 -0.039117038328186138 -0.34028858162800651 0 -0.064335701702210951 -0.32618513087242251 0 -0.043996734054681789 -0.30476417245033638 0 -0.064335701702210951 -0.32618513087242251 0 -0.043996734054681789 -0.30476417245033638 0 -0.035928911585227277 -0.32175330848517009 0 -0.064335701702210951 -0.32618513087242251 0 -0.035928911585227277 -0.32175330848517009 0 -0.039117038328186138 -0.34028858162800651 0 -0.039117038328186138 -0.34028858162800651 0 -0.018319393637321331 -0.32761994592793309 0 -0.01277017349587671 -0.34586959148178342 0 -0.035928911585227277 -0.32175330848517009 0 -0.039117038328186138 -0.34028858162800651 0 -0.018319393637321331 -0.32761994592793309 0 -0.02211923296340669 -0.30833166215363389 0 -0.035928911585227277 -0.32175330848517009 0 -0.018319393637321331 -0.32761994592793309 0 -0.02211923296340669 -0.30833166215363389 0 -0.018319393637321331 -0.32761994592793309 0 -0.0053491287304535916 -0.31543705698788238 0 -0.018319393637321331 -0.32761994592793309 0 -0.0053491287304535916 -0.31543705698788238 0 0.0018253179094817561 -0.33148695818618618 0 -0.018319393637321331 -0.32761994592793309 0 -0.01277017349587671 -0.34586959148178342 0 0.0018253179094817561 -0.33148695818618618 0 -0.01277017349587671 -0.34586959148178342 0 0.0086771610778249852 -0.34799090542048389 0 0.0018253179094817561 -0.33148695818618618 0 -0.01277017349587671 -0.34586959148178342 0 -0.0038527496268592589 -0.3672291952552324 0 0.0086771610778249852 -0.34799090542048389 0 -0.01277017349587671 -0.34586959148178342 0 -0.025834338370200261 -0.36060196247285847 0 -0.0038527496268592589 -0.3672291952552324 0 -0.039117038328186138 -0.34028858162800651 0 -0.01277017349587671 -0.34586959148178342 0 -0.025834338370200261 -0.36060196247285847 0 -0.037332092200604697 -0.37499286815449662 0 -0.025834338370200261 -0.36060196247285847 0 -0.01926479122976564 -0.37858022722650209 0 -0.025834338370200261 -0.36060196247285847 0 -0.0038527496268592589 -0.3672291952552324 0 -0.01926479122976564 -0.37858022722650209 0 -0.0038527496268592589 -0.3672291952552324 0 -0.0040446306882286412 -0.39018727966337591 0 -0.01926479122976564 -0.37858022722650209 0 -0.0040446306882286412 -0.39018727966337591 0 -0.0069820897190364401 -0.4086769801487235 0 0.010306551863908201 -0.40149362704505198 0 -0.0040446306882286412 -0.39018727966337591 0 -0.028529296278592131 -0.40300076965004439 0 -0.0069820897190364401 -0.4086769801487235 0 -0.0040446306882286412 -0.39018727966337591 0 -0.028529296278592131 -0.40300076965004439 0 -0.0040446306882286412 -0.39018727966337591 0 -0.028529296278592131 -0.40300076965004439 0 -0.01926479122976564 -0.37858022722650209 0 -0.037332092200604697 -0.37499286815449662 0 -0.028529296278592131 -0.40300076965004439 0 -0.01926479122976564 -0.37858022722650209 0 -0.037332092200604697 -0.37499286815449662 0 -0.028529296278592131 -0.40300076965004439 0 -0.050786313347291057 -0.38757382371512211 0 -0.028529296278592131 -0.40300076965004439 0 -0.050786313347291057 -0.38757382371512211 0 -0.053013961868955677 -0.41581425963671309 0 -0.050786313347291057 -0.38757382371512211 0 -0.053013961868955677 -0.41581425963671309 0 -0.06523265082227328 -0.40656853244093749 0 -0.050786313347291057 -0.38757382371512211 0 -0.074162623904542577 -0.39297332284939451 0 -0.053013961868955677 -0.41581425963671309 0 -0.052013624860056687 -0.43929667391929778 0 -0.071414284470912873 -0.42644423009157001 0 -0.028529296278592131 -0.40300076965004439 0 -0.053013961868955677 -0.41581425963671309 0 -0.031884683115090538 -0.42667667883930283 0 -0.028529296278592131 -0.40300076965004439 0 -0.053013961868955677 -0.41581425963671309 0 -0.031884683115090538 -0.42667667883930283 0 -0.037892016349406608 -0.4448549012162637 0 -0.052013624860056687 -0.43929667391929778 0 -0.053013961868955677 -0.41581425963671309 0 -0.031884683115090538 -0.42667667883930283 0 -0.052013624860056687 -0.43929667391929778 0 -0.031884683115090538 -0.42667667883930283 0 -0.01925748506247708 -0.41690821346219409 0 -0.009633871137189191 -0.42927842521070569 0 -0.031884683115090538 -0.42667667883930283 0 -0.009633871137189191 -0.42927842521070569 0 -0.02301151517750501 -0.44211288244784208 0 -0.028529296278592131 -0.40300076965004439 0 -0.01925748506247708 -0.41690821346219409 0 -0.0069820897190364401 -0.4086769801487235 0 -0.028529296278592131 -0.40300076965004439 0 -0.031884683115090538 -0.42667667883930283 0 -0.01925748506247708 -0.41690821346219409 0 -0.01925748506247708 -0.41690821346219409 0 -0.0069820897190364401 -0.4086769801487235 0 -0.009633871137189191 -0.42927842521070569 0 -0.0069820897190364401 -0.4086769801487235 0 -0.009633871137189191 -0.42927842521070569 0 0.01273534387527378 -0.42484218371901528 0 -0.009633871137189191 -0.42927842521070569 0 -0.009398380369456661 -0.45385650424950202 0 0.0024577522408671922 -0.43896216099892871 0 -0.009633871137189191 -0.42927842521070569 0 -0.009398380369456661 -0.45385650424950202 0 -0.02301151517750501 -0.44211288244784208 0 -0.009398380369456661 -0.45385650424950202 0 -0.01269979997855125 -0.47887270166548351 0 0.0069670417537066919 -0.46493374492892559 0 -0.009398380369456661 -0.45385650424950202 0 -0.029508607725859452 -0.45797627690382808 0 -0.025976974476436099 -0.47177866068334112 0 -0.009398380369456661 -0.45385650424950202 0 -0.01269979997855125 -0.47887270166548351 0 -0.025976974476436099 -0.47177866068334112 0 -0.029508607725859452 -0.45797627690382808 0 -0.02301151517750501 -0.44211288244784208 0 -0.037892016349406608 -0.4448549012162637 0 -0.009398380369456661 -0.45385650424950202 0 -0.029508607725859452 -0.45797627690382808 0 -0.02301151517750501 -0.44211288244784208 0 -0.031884683115090538 -0.42667667883930283 0 -0.02301151517750501 -0.44211288244784208 0 -0.037892016349406608 -0.4448549012162637 0 -0.01269979997855125 -0.47887270166548351 0 -0.0276263821484658 -0.5 0 0.002177945731232533 -0.5 0 -0.01269979997855125 -0.47887270166548351 0 -0.025976974476436099 -0.47177866068334112 0 -0.030276450434867829 -0.48379763980664842 0 -0.01269979997855125 -0.47887270166548351 0 -0.030276450434867829 -0.48379763980664842 0 -0.0276263821484658 -0.5 0 -0.030276450434867829 -0.48379763980664842 0 -0.0276263821484658 -0.5 0 -0.045108099878259651 -0.48898094498124117 0 -0.0276263821484658 -0.5 0 -0.045108099878259651 -0.48898094498124117 0 -0.057430710028164127 -0.50000000000000078 0 -0.029508607725859452 -0.45797627690382808 0 -0.025976974476436099 -0.47177866068334112 0 -0.039362982505102229 -0.47897473716894928 0 -0.029508607725859452 -0.45797627690382808 0 -0.039362982505102229 -0.47897473716894928 0 -0.048870908055367063 -0.47807352351526622 0 -0.045108099878259651 -0.48898094498124117 0 -0.039362982505102229 -0.47897473716894928 0 -0.048870908055367063 -0.47807352351526622 0 -0.039362982505102229 -0.47897473716894928 0 -0.048870908055367063 -0.47807352351526622 0 -0.025976974476436099 -0.47177866068334112 0 -0.030276450434867829 -0.48379763980664842 0 -0.039362982505102229 -0.47897473716894928 0 -0.030276450434867829 -0.48379763980664842 0 -0.045108099878259651 -0.48898094498124117 0 -0.039362982505102229 -0.47897473716894928 0 -0.055418635850584243 -0.47745289374082622 0 -0.048870908055367063 -0.47807352351526622 0 -0.053716130355319441 -0.45837478383006208 0 -0.055418635850584243 -0.47745289374082622 0 -0.056148074680235111 -0.48562691385647772 0 -0.055418635850584243 -0.47745289374082622 0 -0.056148074680235111 -0.48562691385647772 0 -0.070848109927920205 -0.48532153188615751 0 -0.055418635850584243 -0.47745289374082622 0 -0.048870908055367063 -0.47807352351526622 0 -0.056148074680235111 -0.48562691385647772 0 -0.045108099878259651 -0.48898094498124117 0 -0.048870908055367063 -0.47807352351526622 0 -0.056148074680235111 -0.48562691385647772 0 -0.048870908055367063 -0.47807352351526622 0 -0.056148074680235111 -0.48562691385647772 0 -0.055418635850584243 -0.47745289374082622 0 -0.048870908055367063 -0.47807352351526622 0 -0.045108099878259651 -0.48898094498124117 0 -0.056148074680235111 -0.48562691385647772 0 -0.057430710028164127 -0.50000000000000078 0 -0.056148074680235111 -0.48562691385647772 0 -0.057430710028164127 -0.50000000000000078 0 -0.056148074680235111 -0.48562691385647772 0 -0.057430710028164127 -0.50000000000000078 0 -0.069995544234320084 -0.50000000000000122 0 -0.029508607725859452 -0.45797627690382808 0 -0.048870908055367063 -0.47807352351526622 0 -0.053716130355319441 -0.45837478383006208 0 -0.029508607725859452 -0.45797627690382808 0 -0.048870908055367063 -0.47807352351526622 0 -0.029508607725859452 -0.45797627690382808 0 -0.037892016349406608 -0.4448549012162637 0 -0.053716130355319441 -0.45837478383006208 0 -0.055418635850584243 -0.47745289374082622 0 -0.053716130355319441 -0.45837478383006208 0 -0.0660366940006306 -0.46544901646949488 0 -0.055418635850584243 -0.47745289374082622 0 -0.053716130355319441 -0.45837478383006208 0 -0.037892016349406608 -0.4448549012162637 0 -0.053716130355319441 -0.45837478383006208 0 -0.052013624860056687 -0.43929667391929778 0 -0.053716130355319441 -0.45837478383006208 0 -0.052013624860056687 -0.43929667391929778 0 -0.069098447270702176 -0.45128973437806552 0 -0.053716130355319441 -0.45837478383006208 0 -0.052013624860056687 -0.43929667391929778 0 -0.052013624860056687 -0.43929667391929778 0 -0.06990769056802687 -0.4393332654769565 0 -0.069098447270702176 -0.45128973437806552 0 -0.06990769056802687 -0.4393332654769565 0 -0.069098447270702176 -0.45128973437806552 0 -0.083469868242036754 -0.44196699545681439 0 -0.069098447270702176 -0.45128973437806552 0 -0.076277840770884633 -0.46174322238342169 0 -0.084763699625080263 -0.45340495612438142 0 -0.053716130355319441 -0.45837478383006208 0 -0.069098447270702176 -0.45128973437806552 0 -0.0660366940006306 -0.46544901646949488 0 -0.0660366940006306 -0.46544901646949488 0 -0.076277840770884633 -0.46174322238342169 0 -0.081317588283525838 -0.47499804810438639 0 -0.069098447270702176 -0.45128973437806552 0 -0.0660366940006306 -0.46544901646949488 0 -0.076277840770884633 -0.46174322238342169 0 -0.076277840770884633 -0.46174322238342169 0 -0.084763699625080263 -0.45340495612438142 0 -0.086886195250291259 -0.46426838790167307 0 -0.076277840770884633 -0.46174322238342169 0 -0.086886195250291259 -0.46426838790167307 0 -0.081317588283525838 -0.47499804810438639 0 -0.084763699625080263 -0.45340495612438142 0 -0.086886195250291259 -0.46426838790167307 0 -0.090639455107592248 -0.45825283094524838 0 -0.084763699625080263 -0.45340495612438142 0 -0.090639455107592248 -0.45825283094524838 0 -0.095525452013161233 -0.45748976082205828 0 -0.086886195250291259 -0.46426838790167307 0 -0.090639455107592248 -0.45825283094524838 0 -0.095525452013161233 -0.45748976082205828 0 -0.069098447270702176 -0.45128973437806552 0 -0.084763699625080263 -0.45340495612438142 0 -0.083469868242036754 -0.44196699545681439 0 -0.093643700462225476 -0.44409717683444189 0 -0.083469868242036754 -0.44196699545681439 0 -0.095525452013161233 -0.45748976082205828 0 -0.083469868242036754 -0.44196699545681439 0 -0.095525452013161233 -0.45748976082205828 0 -0.084763699625080263 -0.45340495612438142 0 -0.083469868242036754 -0.44196699545681439 0 -0.095525452013161233 -0.45748976082205828 0 -0.093643700462225476 -0.44409717683444189 0 -0.083469868242036754 -0.44196699545681439 0 -0.088907254810932576 -0.43226090266350897 0 -0.056148074680235111 -0.48562691385647772 0 -0.069995544234320084 -0.50000000000000122 0 -0.056148074680235111 -0.48562691385647772 0 -0.069995544234320084 -0.50000000000000122 0 -0.070848109927920205 -0.48532153188615751 0 -0.055418635850584243 -0.47745289374082622 0 -0.070848109927920205 -0.48532153188615751 0 -0.081317588283525838 -0.47499804810438639 0 -0.055418635850584243 -0.47745289374082622 0 -0.081317588283525838 -0.47499804810438639 0 -0.055418635850584243 -0.47745289374082622 0 -0.0660366940006306 -0.46544901646949488 0 -0.081317588283525838 -0.47499804810438639 0 -0.086886195250291259 -0.46426838790167307 0 -0.081317588283525838 -0.47499804810438639 0 -0.1072165407164675 -0.4725432024679459 0 -0.069995544234320084 -0.50000000000000122 0 -0.070848109927920205 -0.48532153188615751 0 -0.098981749307174016 -0.5 0 -0.070848109927920205 -0.48532153188615751 0 -0.081317588283525838 -0.47499804810438639 0 -0.098981749307174016 -0.5 0 -0.098981749307174016 -0.5 0 -0.10225189790698951 -0.48448749694405713 0 -0.118491584617789 -0.48706094497513452 0 -0.081317588283525838 -0.47499804810438639 0 -0.098981749307174016 -0.5 0 -0.10225189790698951 -0.48448749694405713 0 -0.081317588283525838 -0.47499804810438639 0 -0.10225189790698951 -0.48448749694405713 0 -0.1072165407164675 -0.4725432024679459 0 -0.10225189790698951 -0.48448749694405713 0 -0.1072165407164675 -0.4725432024679459 0 -0.118491584617789 -0.48706094497513452 0 -0.081317588283525838 -0.47499804810438639 0 -0.1072165407164675 -0.4725432024679459 0 -0.1072165407164675 -0.4725432024679459 0 -0.1151388309767921 -0.47179228407746249 0 -0.12737411612710409 -0.47460823670743341 0 -0.1151388309767921 -0.47179228407746249 0 -0.1223047479992148 -0.46332734308218942 0 -0.12737411612710409 -0.47460823670743341 0 -0.1151388309767921 -0.47179228407746249 0 -0.118491584617789 -0.48706094497513452 0 -0.1072165407164675 -0.4725432024679459 0 -0.118491584617789 -0.48706094497513452 0 -0.1072165407164675 -0.4725432024679459 0 -0.1151388309767921 -0.47179228407746249 0 -0.118491584617789 -0.48706094497513452 0 -0.12796795438002789 -0.5 0 -0.098981749307174016 -0.5 0 -0.118491584617789 -0.48706094497513452 0 -0.093643700462225476 -0.44409717683444189 0 -0.10328117206451989 -0.43804556945606082 0 -0.095525452013161233 -0.45748976082205828 0 -0.10328117206451989 -0.43804556945606082 0 -0.095525452013161233 -0.45748976082205828 0 -0.10917998432133839 -0.45032966613463099 0 -0.10328117206451989 -0.43804556945606082 0 -0.095525452013161233 -0.45748976082205828 0 -0.093643700462225476 -0.44409717683444189 0 -0.10328117206451989 -0.43804556945606082 0 -0.088907254810932576 -0.43226090266350897 0 -0.086886195250291259 -0.46426838790167307 0 -0.1072165407164675 -0.4725432024679459 0 -0.095525452013161233 -0.45748976082205828 0 -0.1072165407164675 -0.4725432024679459 0 -0.095525452013161233 -0.45748976082205828 0 -0.1072165407164675 -0.4725432024679459 0 -0.095525452013161233 -0.45748976082205828 0 -0.11051964853317819 -0.46099137926840827 0 -0.10917998432133839 -0.45032966613463099 0 -0.095525452013161233 -0.45748976082205828 0 -0.11051964853317819 -0.46099137926840827 0 -0.10917998432133839 -0.45032966613463099 0 -0.11051964853317819 -0.46099137926840827 0 -0.11955743515716551 -0.45322699138103462 0 -0.1151388309767921 -0.47179228407746249 0 -0.11051964853317819 -0.46099137926840827 0 -0.1223047479992148 -0.46332734308218942 0 -0.1072165407164675 -0.4725432024679459 0 -0.1151388309767921 -0.47179228407746249 0 -0.11051964853317819 -0.46099137926840827 0 -0.13082640368139661 -0.4555171926380952 0 -0.1223047479992148 -0.46332734308218942 0 -0.11955743515716551 -0.45322699138103462 0 -0.11051964853317819 -0.46099137926840827 0 -0.1223047479992148 -0.46332734308218942 0 -0.11955743515716551 -0.45322699138103462 0 -0.12804398640508299 -0.44606764521613212 0 -0.11955743515716551 -0.45322699138103462 0 -0.1170162138386666 -0.44189462974559279 0 -0.10917998432133839 -0.45032966613463099 0 -0.11955743515716551 -0.45322699138103462 0 -0.1170162138386666 -0.44189462974559279 0 -0.10917998432133839 -0.45032966613463099 0 -0.10328117206451989 -0.43804556945606082 0 -0.1170162138386666 -0.44189462974559279 0 -0.12804398640508299 -0.44606764521613212 0 -0.1274090510109222 -0.43501470534713199 0 -0.1170162138386666 -0.44189462974559279 0 -0.12902734681837591 -0.4179988991795644 0 -0.1171146551884157 -0.4301471200137813 0 -0.1110368921158746 -0.41860137809006182 0 -0.10328117206451989 -0.43804556945606082 0 -0.1171146551884157 -0.4301471200137813 0 -0.1110368921158746 -0.41860137809006182 0 -0.12902734681837591 -0.4179988991795644 0 -0.1274090510109222 -0.43501470534713199 0 -0.1171146551884157 -0.4301471200137813 0 -0.1274090510109222 -0.43501470534713199 0 -0.1170162138386666 -0.44189462974559279 0 -0.1171146551884157 -0.4301471200137813 0 -0.10328117206451989 -0.43804556945606082 0 -0.1170162138386666 -0.44189462974559279 0 -0.1171146551884157 -0.4301471200137813 0 -0.10328117206451989 -0.43804556945606082 0 -0.1110368921158746 -0.41860137809006182 0 -0.10328117206451989 -0.43804556945606082 0 -0.099063380922944339 -0.42722142584313583 0 -0.1110368921158746 -0.41860137809006182 0 -0.10328117206451989 -0.43804556945606082 0 -0.099063380922944339 -0.42722142584313583 0 -0.088907254810932576 -0.43226090266350897 0 -0.097538934461794041 -0.39837282198366702 0 -0.093223094636364995 -0.41531686232358839 0 -0.105213271382229 -0.409245333697143 0 -0.097538934461794041 -0.39837282198366702 0 -0.093223094636364995 -0.41531686232358839 0 -0.099063380922944339 -0.42722142584313583 0 -0.1021496520014242 -0.41889900118130569 0 -0.093223094636364995 -0.41531686232358839 0 -0.1021496520014242 -0.41889900118130569 0 -0.105213271382229 -0.409245333697143 0 -0.093223094636364995 -0.41531686232358839 0 -0.099063380922944339 -0.42722142584313583 0 -0.1021496520014242 -0.41889900118130569 0 -0.1110368921158746 -0.41860137809006182 0 -0.1021496520014242 -0.41889900118130569 0 -0.105213271382229 -0.409245333697143 0 -0.1110368921158746 -0.41860137809006182 0 -0.1021496520014242 -0.41889900118130569 0 -0.1110368921158746 -0.41860137809006182 0 -0.105213271382229 -0.409245333697143 0 -0.1110368921158746 -0.41860137809006182 0 -0.1172861271536071 -0.40293406143086768 0 -0.12902734681837591 -0.4179988991795644 0 -0.1110368921158746 -0.41860137809006182 0 -0.12902734681837591 -0.4179988991795644 0 -0.1110368921158746 -0.41860137809006182 0 -0.1172861271536071 -0.40293406143086768 0 -0.1110368921158746 -0.41860137809006182 0 -0.1172861271536071 -0.40293406143086768 0 -0.1172861271536071 -0.40293406143086768 0 -0.12317939383513141 -0.38815918503413471 0 -0.1172861271536071 -0.40293406143086768 0 -0.12317939383513141 -0.38815918503413471 0 -0.1104172630928054 -0.3901009707609418 0 -0.1050136369972699 -0.36902704771659361 0 -0.12317939383513141 -0.38815918503413471 0 -0.1050136369972699 -0.36902704771659361 0 -0.12317939383513141 -0.38815918503413471 0 -0.1104172630928054 -0.3901009707609418 0 -0.126168368271352 -0.38066559442732212 0 -0.1050136369972699 -0.36902704771659361 0 -0.12317939383513141 -0.38815918503413471 0 -0.126168368271352 -0.38066559442732212 0 -0.12317939383513141 -0.38815918503413471 0 -0.1050136369972699 -0.36902704771659361 0 -0.097538934461794041 -0.39837282198366702 0 -0.088257975579922029 -0.38248603698086558 0 -0.1050136369972699 -0.36902704771659361 0 -0.097538934461794041 -0.39837282198366702 0 -0.1050136369972699 -0.36902704771659361 0 -0.1104172630928054 -0.3901009707609418 0 -0.097538934461794041 -0.39837282198366702 0 -0.1172861271536071 -0.40293406143086768 0 -0.097538934461794041 -0.39837282198366702 0 -0.105213271382229 -0.409245333697143 0 -0.1172861271536071 -0.40293406143086768 0 -0.097538934461794041 -0.39837282198366702 0 -0.1172861271536071 -0.40293406143086768 0 -0.1104172630928054 -0.3901009707609418 0 -0.097538934461794041 -0.39837282198366702 0 -0.097538934461794041 -0.39837282198366702 0 -0.085427680880592285 -0.40417500826713471 0 -0.074162623904542577 -0.39297332284939451 0 -0.097538934461794041 -0.39837282198366702 0 -0.088257975579922029 -0.38248603698086558 0 -0.074162623904542577 -0.39297332284939451 0 -0.085427680880592285 -0.40417500826713471 0 -0.074162623904542577 -0.39297332284939451 0 -0.076786070519664171 -0.4100370259118879 0 -0.097538934461794041 -0.39837282198366702 0 -0.085427680880592285 -0.40417500826713471 0 -0.093223094636364995 -0.41531686232358839 0 -0.097538934461794041 -0.39837282198366702 0 -0.074162623904542577 -0.39297332284939451 0 -0.076316706956076175 -0.36957095537380602 0 -0.088257975579922029 -0.38248603698086558 0 -0.074162623904542577 -0.39297332284939451 0 -0.076316706956076175 -0.36957095537380602 0 -0.050786313347291057 -0.38757382371512211 0 -0.074162623904542577 -0.39297332284939451 0 -0.074162623904542577 -0.39297332284939451 0 -0.06523265082227328 -0.40656853244093749 0 -0.076786070519664171 -0.4100370259118879 0 -0.050786313347291057 -0.38757382371512211 0 -0.074162623904542577 -0.39297332284939451 0 -0.06523265082227328 -0.40656853244093749 0 -0.076786070519664171 -0.4100370259118879 0 -0.071414284470912873 -0.42644423009157001 0 -0.08258267610946865 -0.42101475524763882 0 -0.053013961868955677 -0.41581425963671309 0 -0.06523265082227328 -0.40656853244093749 0 -0.071414284470912873 -0.42644423009157001 0 -0.06523265082227328 -0.40656853244093749 0 -0.076786070519664171 -0.4100370259118879 0 -0.071414284470912873 -0.42644423009157001 0 -0.052013624860056687 -0.43929667391929778 0 -0.06990769056802687 -0.4393332654769565 0 -0.071414284470912873 -0.42644423009157001 0 -0.06990769056802687 -0.4393332654769565 0 -0.083469868242036754 -0.44196699545681439 0 -0.071414284470912873 -0.42644423009157001 0 -0.083469868242036754 -0.44196699545681439 0 -0.071414284470912873 -0.42644423009157001 0 -0.088907254810932576 -0.43226090266350897 0 -0.093223094636364995 -0.41531686232358839 0 -0.08258267610946865 -0.42101475524763882 0 -0.088907254810932576 -0.43226090266350897 0 -0.093223094636364995 -0.41531686232358839 0 -0.099063380922944339 -0.42722142584313583 0 -0.088907254810932576 -0.43226090266350897 0 -0.093223094636364995 -0.41531686232358839 0 -0.071414284470912873 -0.42644423009157001 0 -0.088907254810932576 -0.43226090266350897 0 -0.08258267610946865 -0.42101475524763882 0 -0.083469868242036754 -0.44196699545681439 0 -0.071414284470912873 -0.42644423009157001 0 -0.088907254810932576 -0.43226090266350897 0 -0.076786070519664171 -0.4100370259118879 0 -0.093223094636364995 -0.41531686232358839 0 -0.08258267610946865 -0.42101475524763882 0 -0.085427680880592285 -0.40417500826713471 0 -0.076786070519664171 -0.4100370259118879 0 -0.093223094636364995 -0.41531686232358839 0 -0.081225753173658002 -0.084006797003343084 0 -0.095632031824211094 -0.094438542115714397 0 -0.1016292760429377 -0.080496249443534951 0 -0.081225753173658002 -0.084006797003343084 0 -0.090252815792780938 -0.065505705594480906 0 -0.1016292760429377 -0.080496249443534951 0 -0.081225753173658002 -0.084006797003343084 0 -0.090252815792780938 -0.065505705594480906 0 -0.072111891192653516 -0.063506558866985904 0 -0.081225753173658002 -0.084006797003343084 0 -0.072111891192653516 -0.063506558866985904 0 -0.066702270639482225 -0.077555691398917312 0 -0.072111891192653516 -0.063506558866985904 0 -0.066702270639482225 -0.077555691398917312 0 -0.059366015161298823 -0.06263410352752799 0 -0.081225753173658002 -0.084006797003343084 0 -0.066702270639482225 -0.077555691398917312 0 -0.060583195732539882 -0.093439561556354522 0 -0.07245974137677666 -0.1058574187684419 0 -0.060583195732539882 -0.093439561556354522 0 -0.054938755171724953 -0.11026451938386329 0 -0.081225753173658002 -0.084006797003343084 0 -0.07245974137677666 -0.1058574187684419 0 -0.060583195732539882 -0.093439561556354522 0 -0.07245974137677666 -0.1058574187684419 0 -0.054938755171724953 -0.11026451938386329 0 -0.062658126441694939 -0.12541336612296419 0 -0.07245974137677666 -0.1058574187684419 0 -0.088717342743484362 -0.11142032376319549 0 -0.062658126441694939 -0.12541336612296419 0 -0.088717342743484362 -0.11142032376319549 0 -0.062658126441694939 -0.12541336612296419 0 -0.088717342743484362 -0.11142032376319549 0 -0.089033754231069406 -0.13391802693028609 0 -0.062658126441694939 -0.12541336612296419 0 -0.081225753173658002 -0.084006797003343084 0 -0.07245974137677666 -0.1058574187684419 0 -0.095632031824211094 -0.094438542115714397 0 -0.07245974137677666 -0.1058574187684419 0 -0.088717342743484362 -0.11142032376319549 0 -0.095632031824211094 -0.094438542115714397 0 -0.088717342743484362 -0.11142032376319549 0 -0.1147765590452736 -0.097427281403426852 0 -0.088717342743484362 -0.11142032376319549 0 -0.095632031824211094 -0.094438542115714397 0 -0.1147765590452736 -0.097427281403426852 0 -0.088717342743484362 -0.11142032376319549 0 -0.1110663418054073 -0.1246208076941883 0 -0.1147765590452736 -0.097427281403426852 0 -0.088717342743484362 -0.11142032376319549 0 -0.1110663418054073 -0.1246208076941883 0 -0.089033754231069406 -0.13391802693028609 0 -0.1110663418054073 -0.1246208076941883 0 -0.1147765590452736 -0.097427281403426852 0 -0.12682245530800421 -0.1162709151799925 0 -0.1110663418054073 -0.1246208076941883 0 -0.12986188190646511 -0.13074954693054719 0 -0.12682245530800421 -0.1162709151799925 0 -0.1147765590452736 -0.097427281403426852 0 -0.11596582733755539 -0.077164787090216236 0 -0.12863804936774489 -0.076802340418861664 0 -0.1147765590452736 -0.097427281403426852 0 -0.1016292760429377 -0.080496249443534951 0 -0.11596582733755539 -0.077164787090216236 0 -0.095632031824211094 -0.094438542115714397 0 -0.1147765590452736 -0.097427281403426852 0 -0.1016292760429377 -0.080496249443534951 0 -0.090252815792780938 -0.065505705594480906 0 -0.1016292760429377 -0.080496249443534951 0 -0.1101256135401574 -0.065056769903576894 0 -0.1016292760429377 -0.080496249443534951 0 -0.1101256135401574 -0.065056769903576894 0 -0.11596582733755539 -0.077164787090216236 0 -0.1101256135401574 -0.065056769903576894 0 -0.11596582733755539 -0.077164787090216236 0 -0.1238326932692472 -0.065594553641175501 0 -0.1101256135401574 -0.065056769903576894 0 -0.1238326932692472 -0.065594553641175501 0 -0.12623174269787471 -0.061121217968830147 0 -0.11596582733755539 -0.077164787090216236 0 -0.1238326932692472 -0.065594553641175501 0 -0.12863804936774489 -0.076802340418861664 0 -0.1101256135401574 -0.065056769903576894 0 -0.1027278544381629 -0.053504869353584672 0 -0.12623174269787471 -0.061121217968830147 0 -0.117779992582904 -0.051221143311289408 0 -0.1027278544381629 -0.053504869353584672 0 -0.12623174269787471 -0.061121217968830147 0 -0.117779992582904 -0.051221143311289408 0 -0.12623174269787471 -0.061121217968830147 0 -0.12727364551370651 -0.054041068104789577 0 -0.1027278544381629 -0.053504869353584672 0 -0.12623174269787471 -0.061121217968830147 0 -0.117779992582904 -0.051221143311289408 0 -0.1083675453440146 -0.040387491088950497 0 -0.1027278544381629 -0.053504869353584672 0 -0.117779992582904 -0.051221143311289408 0 -0.12727364551370651 -0.054041068104789577 0 -0.12821861588022959 -0.047235600070347973 0 -0.117779992582904 -0.051221143311289408 0 -0.1083675453440146 -0.040387491088950497 0 -0.12821861588022959 -0.047235600070347973 0 -0.1083675453440146 -0.040387491088950497 0 -0.1375111245095775 -0.034886461439568667 0 -0.1083675453440146 -0.040387491088950497 0 -0.1375111245095775 -0.034886461439568667 0 -0.12821861588022959 -0.047235600070347973 0 -0.1083675453440146 -0.040387491088950497 0 -0.07922396617845226 -0.045888520738335603 0 -0.1083675453440146 -0.040387491088950497 0 -0.1027278544381629 -0.053504869353584672 0 -0.07922396617845226 -0.045888520738335603 0 -0.090252815792780938 -0.065505705594480906 0 -0.1101256135401574 -0.065056769903576894 0 -0.1027278544381629 -0.053504869353584672 0 -0.1083675453440146 -0.040387491088950497 0 -0.1093222308133128 -0.0073945743824425439 0 -0.12901753950566691 -0.01634088936833427 0 -0.1083675453440146 -0.040387491088950497 0 -0.1093222308133128 -0.0073945743824425439 0 -0.082971233662191723 -0.024967444309590279 0 -0.1083675453440146 -0.040387491088950497 0 -0.12901753950566691 -0.01634088936833427 0 -0.1375111245095775 -0.034886461439568667 0 -0.1093222308133128 -0.0073945743824425439 0 -0.089687955323212706 -0.006495897421763857 0 -0.084686698285836762 0.01251199100243771 0 -0.1093222308133128 -0.0073945743824425439 0 -0.089687955323212706 -0.006495897421763857 0 -0.082971233662191723 -0.024967444309590279 0 -0.089687955323212706 -0.006495897421763857 0 -0.082971233662191723 -0.024967444309590279 0 -0.06799887551270356 -0.0098822878975503917 0 -0.089687955323212706 -0.006495897421763857 0 -0.06799887551270356 -0.0098822878975503917 0 -0.084686698285836762 0.01251199100243771 0 -0.082971233662191723 -0.024967444309590279 0 -0.06807603075435395 -0.027237072101608761 0 -0.06799887551270356 -0.0098822878975503917 0 -0.090252815792780938 -0.065505705594480906 0 -0.072111891192653516 -0.063506558866985904 0 -0.07922396617845226 -0.045888520738335603 0 -0.090252815792780938 -0.065505705594480906 0 -0.1027278544381629 -0.053504869353584672 0 -0.07922396617845226 -0.045888520738335603 0 -0.1027278544381629 -0.053504869353584672 0 -0.07922396617845226 -0.045888520738335603 0 -0.1083675453440146 -0.040387491088950497 0 -0.082971233662191723 -0.024967444309590279 0 -0.07922396617845226 -0.045888520738335603 0 -0.082971233662191723 -0.024967444309590279 0 -0.06807603075435395 -0.027237072101608761 0 -0.070022961102950143 -0.041821989401755903 0 -0.07922396617845226 -0.045888520738335603 0 -0.063896897833227717 -0.040921840567083707 0 -0.070022961102950143 -0.041821989401755903 0 -0.07922396617845226 -0.045888520738335603 0 -0.063896897833227717 -0.040921840567083707 0 -0.056684607307303243 -0.050142963225436092 0 -0.06807603075435395 -0.027237072101608761 0 -0.070022961102950143 -0.041821989401755903 0 -0.051311052739570893 -0.032276566797538819 0 -0.07922396617845226 -0.045888520738335603 0 -0.063896897833227717 -0.040921840567083707 0 -0.082971233662191723 -0.024967444309590279 0 -0.07922396617845226 -0.045888520738335603 0 -0.070022961102950143 -0.041821989401755903 0 -0.07922396617845226 -0.045888520738335603 0 -0.056684607307303243 -0.050142963225436092 0 -0.072111891192653516 -0.063506558866985904 0 -0.07922396617845226 -0.045888520738335603 0 -0.056684607307303243 -0.050142963225436092 0 -0.072111891192653516 -0.063506558866985904 0 -0.056684607307303243 -0.050142963225436092 0 -0.072111891192653516 -0.063506558866985904 0 -0.056684607307303243 -0.050142963225436092 0 -0.059366015161298823 -0.06263410352752799 0 -0.047521754164677042 -0.051872508060137587 0 -0.056684607307303243 -0.050142963225436092 0 -0.059366015161298823 -0.06263410352752799 0 -0.047521754164677042 -0.051872508060137587 0 -0.056684607307303243 -0.050142963225436092 0 -0.047521754164677042 -0.051872508060137587 0 -0.056684607307303243 -0.050142963225436092 0 -0.0449743541729202 -0.040780120372850961 0 -0.063896897833227717 -0.040921840567083707 0 -0.070022961102950143 -0.041821989401755903 0 -0.051311052739570893 -0.032276566797538819 0 -0.063896897833227717 -0.040921840567083707 0 -0.056684607307303243 -0.050142963225436092 0 -0.048569829488003383 -0.035955160395831368 0 -0.070022961102950143 -0.041821989401755903 0 -0.051311052739570893 -0.032276566797538819 0 -0.063896897833227717 -0.040921840567083707 0 -0.048569829488003383 -0.035955160395831368 0 -0.051311052739570893 -0.032276566797538819 0 -0.048569829488003383 -0.035955160395831368 0 -0.043488115657530482 -0.034308449704042572 0 -0.063896897833227717 -0.040921840567083707 0 -0.051311052739570893 -0.032276566797538819 0 -0.048569829488003383 -0.035955160395831368 0 -0.051311052739570893 -0.032276566797538819 0 -0.048569829488003383 -0.035955160395831368 0 -0.056684607307303243 -0.050142963225436092 0 -0.048569829488003383 -0.035955160395831368 0 -0.0449743541729202 -0.040780120372850961 0 -0.056684607307303243 -0.050142963225436092 0 -0.0449743541729202 -0.040780120372850961 0 -0.047521754164677042 -0.051872508060137587 0 -0.0449743541729202 -0.040780120372850961 0 -0.0449743541729202 -0.040780120372850961 0 -0.035366717342363338 -0.031676740425642863 0 -0.051311052739570893 -0.032276566797538819 0 -0.043488115657530482 -0.034308449704042572 0 -0.04192148201559695 -0.027486706838203191 0 -0.043488115657530482 -0.034308449704042572 0 -0.035366717342363338 -0.031676740425642863 0 -0.0449743541729202 -0.040780120372850961 0 -0.043488115657530482 -0.034308449704042572 0 -0.035366717342363338 -0.031676740425642863 0 -0.048569829488003383 -0.035955160395831368 0 -0.043488115657530482 -0.034308449704042572 0 -0.048569829488003383 -0.035955160395831368 0 -0.0449743541729202 -0.040780120372850961 0 -0.043488115657530482 -0.034308449704042572 0 -0.048569829488003383 -0.035955160395831368 0 -0.0449743541729202 -0.040780120372850961 0 -0.0449743541729202 -0.040780120372850961 0 -0.043488115657530482 -0.034308449704042572 0 -0.0449743541729202 -0.040780120372850961 0 -0.035366717342363338 -0.031676740425642863 0 -0.036273134256075153 -0.04124477743403393 0 -0.035366717342363338 -0.031676740425642863 0 -0.036273134256075153 -0.04124477743403393 0 -0.024996062097433439 -0.041203022836856958 0 -0.036273134256075153 -0.04124477743403393 0 -0.034938581017370803 -0.05424765931294924 0 -0.024996062097433439 -0.041203022836856958 0 -0.0449743541729202 -0.040780120372850961 0 -0.036273134256075153 -0.04124477743403393 0 -0.034938581017370803 -0.05424765931294924 0 -0.047521754164677042 -0.051872508060137587 0 -0.034938581017370803 -0.05424765931294924 0 -0.043325164594448892 -0.064159044228977585 0 -0.047521754164677042 -0.051872508060137587 0 -0.034938581017370803 -0.05424765931294924 0 -0.0449743541729202 -0.040780120372850961 0 -0.034938581017370803 -0.05424765931294924 0 -0.047521754164677042 -0.051872508060137587 0 -0.0449743541729202 -0.040780120372850961 0 -0.034938581017370803 -0.05424765931294924 0 -0.06799887551270356 -0.0098822878975503917 0 -0.048554677609470361 -0.012553741708034199 0 -0.058884230972225227 0.00062989583273729373 0 -0.06799887551270356 -0.0098822878975503917 0 -0.048554677609470361 -0.012553741708034199 0 -0.052446521969335337 -0.020549825810331501 0 -0.048554677609470361 -0.012553741708034199 0 -0.058884230972225227 0.00062989583273729373 0 -0.048088803599084781 0.0012871322310296421 0 -0.06807603075435395 -0.027237072101608761 0 -0.06799887551270356 -0.0098822878975503917 0 -0.051311052739570893 -0.032276566797538819 0 -0.06799887551270356 -0.0098822878975503917 0 -0.051311052739570893 -0.032276566797538819 0 -0.06799887551270356 -0.0098822878975503917 0 -0.051311052739570893 -0.032276566797538819 0 -0.052446521969335337 -0.020549825810331501 0 -0.048554677609470361 -0.012553741708034199 0 -0.052446521969335337 -0.020549825810331501 0 -0.04192148201559695 -0.027486706838203191 0 -0.051311052739570893 -0.032276566797538819 0 -0.052446521969335337 -0.020549825810331501 0 -0.04192148201559695 -0.027486706838203191 0 -0.04192148201559695 -0.027486706838203191 0 -0.036900906851176453 -0.0056251357002208924 0 -0.04192148201559695 -0.027486706838203191 0 -0.038802610474106367 -0.020609200632726352 0 -0.036900906851176453 -0.0056251357002208924 0 -0.051311052739570893 -0.032276566797538819 0 -0.04192148201559695 -0.027486706838203191 0 -0.043488115657530482 -0.034308449704042572 0 -0.035366717342363338 -0.031676740425642863 0 -0.04192148201559695 -0.027486706838203191 0 -0.043488115657530482 -0.034308449704042572 0 -0.04192148201559695 -0.027486706838203191 0 -0.04192148201559695 -0.027486706838203191 0 -0.02806607989024501 -0.020418712164998701 0 -0.035366717342363338 -0.031676740425642863 0 -0.04192148201559695 -0.027486706838203191 0 -0.02806607989024501 -0.020418712164998701 0 -0.04192148201559695 -0.027486706838203191 0 -0.038802610474106367 -0.020609200632726352 0 -0.02806607989024501 -0.020418712164998701 0 -0.048554677609470361 -0.012553741708034199 0 -0.04192148201559695 -0.027486706838203191 0 -0.036900906851176453 -0.0056251357002208924 0 -0.048554677609470361 -0.012553741708034199 0 -0.036900906851176453 -0.0056251357002208924 0 -0.048554677609470361 -0.012553741708034199 0 -0.036900906851176453 -0.0056251357002208924 0 -0.048088803599084781 0.0012871322310296421 0 -0.038802610474106367 -0.020609200632726352 0 -0.0139647653065136 -0.0075473042418993039 0 -0.038802610474106367 -0.020609200632726352 0 -0.036900906851176453 -0.0056251357002208924 0 -0.0139647653065136 -0.0075473042418993039 0 -0.036900906851176453 -0.0056251357002208924 0 -0.0139647653065136 -0.0075473042418993039 0 -0.01192571365644148 0.0092235581006408288 0 -0.02806607989024501 -0.020418712164998701 0 -0.01421067776489305 -0.013350717491794379 0 -0.0139647653065136 -0.0075473042418993039 0 -0.035366717342363338 -0.031676740425642863 0 -0.01421067776489305 -0.013350717491794379 0 -0.038802610474106367 -0.020609200632726352 0 -0.02806607989024501 -0.020418712164998701 0 -0.0139647653065136 -0.0075473042418993039 0 -0.035366717342363338 -0.031676740425642863 0 -0.02806607989024501 -0.020418712164998701 0 -0.01421067776489305 -0.013350717491794379 0 -0.035366717342363338 -0.031676740425642863 0 -0.020252559172930881 -0.026779053014419751 0 -0.01421067776489305 -0.013350717491794379 0 -0.02806607989024501 -0.020418712164998701 0 -0.01421067776489305 -0.013350717491794379 0 -0.035366717342363338 -0.031676740425642863 0 -0.020252559172930881 -0.026779053014419751 0 -0.0051384010034980984 -0.02188136560319769 0 -0.01421067776489305 -0.013350717491794379 0 0.001416984003155328 -0.019216769960212959 0 -0.020252559172930881 -0.026779053014419751 0 -0.0051384010034980984 -0.02188136560319769 0 -0.0092198582660788196 -0.035055903610271548 0 -0.020252559172930881 -0.026779053014419751 0 -0.0051384010034980984 -0.02188136560319769 0 -0.0051384010034980984 -0.02188136560319769 0 -0.0092198582660788196 -0.035055903610271548 0 0.0014308770969664081 -0.026292994201149229 0 -0.0051384010034980984 -0.02188136560319769 0 0.001416984003155328 -0.019216769960212959 0 0.0014308770969664081 -0.026292994201149229 0 -0.020252559172930881 -0.026779053014419751 0 -0.0051384010034980984 -0.02188136560319769 0 -0.01421067776489305 -0.013350717491794379 0 -0.01421067776489305 -0.013350717491794379 0 0.010417021748207351 -0.00078749865505162858 0 0.0037321413375690821 -0.01238002763455166 0 -0.01421067776489305 -0.013350717491794379 0 0.010417021748207351 -0.00078749865505162858 0 -0.0010690213167974039 -0.0019670037974292669 0 -0.0139647653065136 -0.0075473042418993039 0 0.010873079861079091 0.0055145921489277057 0 -0.0139647653065136 -0.0075473042418993039 0 0.010873079861079091 0.0055145921489277057 0 -0.01421067776489305 -0.013350717491794379 0 0.0037321413375690821 -0.01238002763455166 0 0.001416984003155328 -0.019216769960212959 0 -0.01421067776489305 -0.013350717491794379 0 -0.0010690213167974039 -0.0019670037974292669 0 0.010417021748207351 -0.00078749865505162858 0 -0.01421067776489305 -0.013350717491794379 0 -0.0010690213167974039 -0.0019670037974292669 0 -0.01421067776489305 -0.013350717491794379 0 -0.0010690213167974039 -0.0019670037974292669 0 -0.0139647653065136 -0.0075473042418993039 0 -0.034938581017370803 -0.05424765931294924 0 -0.013925522529787579 -0.05821400322382763 0 -0.034938581017370803 -0.05424765931294924 0 -0.024996062097433439 -0.041203022836856958 0 -0.013925522529787579 -0.05821400322382763 0 -0.034938581017370803 -0.05424765931294924 0 -0.013925522529787579 -0.05821400322382763 0 -0.025867182701907389 -0.066421052250477772 0 -0.034938581017370803 -0.05424765931294924 0 -0.025867182701907389 -0.066421052250477772 0 -0.024996062097433439 -0.041203022836856958 0 -0.0092198582660788196 -0.035055903610271548 0 -0.013925522529787579 -0.05821400322382763 0 -0.020252559172930881 -0.026779053014419751 0 -0.024996062097433439 -0.041203022836856958 0 -0.0092198582660788196 -0.035055903610271548 0 -0.035366717342363338 -0.031676740425642863 0 -0.020252559172930881 -0.026779053014419751 0 -0.024996062097433439 -0.041203022836856958 0 -0.0092198582660788196 -0.035055903610271548 0 0.0014308770969664081 -0.026292994201149229 0 0.0042592065273816164 -0.044236670667924971 0 -0.0092198582660788196 -0.035055903610271548 0 -0.013925522529787579 -0.05821400322382763 0 0.0042592065273816164 -0.044236670667924971 0 -0.013925522529787579 -0.05821400322382763 0 0.0070875359577966344 -0.062180347134700713 0 -0.013925522529787579 -0.05821400322382763 0 0.0042592065273816164 -0.044236670667924971 0 0.0070875359577966344 -0.062180347134700713 0 -0.0060173714802337049 -0.068191951659488145 0 -0.01679578438645072 -0.078594445188011425 0 0.008881715009281383 -0.073563097700138733 0 -0.013925522529787579 -0.05821400322382763 0 -0.0060173714802337049 -0.068191951659488145 0 0.0070875359577966344 -0.062180347134700713 0 -0.01679578438645072 -0.078594445188011425 0 0.008881715009281383 -0.073563097700138733 0 -0.0060173714802337049 -0.068191951659488145 0 -0.01679578438645072 -0.078594445188011425 0 -0.015651465274594462 -0.067855363080450953 0 -0.013925522529787579 -0.05821400322382763 0 -0.0060173714802337049 -0.068191951659488145 0 -0.015651465274594462 -0.067855363080450953 0 -0.01679578438645072 -0.078594445188011425 0 -0.019833481328412859 -0.095509774008096252 0 -9.9257394721649628e-06 -0.10112028365277261 0 -0.01679578438645072 -0.078594445188011425 0 -9.9257394721649628e-06 -0.10112028365277261 0 -0.01679578438645072 -0.078594445188011425 0 -9.9257394721649628e-06 -0.10112028365277261 0 0.008881715009281383 -0.073563097700138733 0 -0.029030352963196469 -0.080991733371145264 0 -0.034697982028337571 -0.1041354664872416 0 -0.019833481328412859 -0.095509774008096252 0 -0.01679578438645072 -0.078594445188011425 0 -0.029030352963196469 -0.080991733371145264 0 -0.019833481328412859 -0.095509774008096252 0 -0.01679578438645072 -0.078594445188011425 0 -0.029030352963196469 -0.080991733371145264 0 -0.013925522529787579 -0.05821400322382763 0 -0.015651465274594462 -0.067855363080450953 0 -0.025867182701907389 -0.066421052250477772 0 -0.01679578438645072 -0.078594445188011425 0 -0.025867182701907389 -0.066421052250477772 0 -0.01679578438645072 -0.078594445188011425 0 -0.015651465274594462 -0.067855363080450953 0 -0.025867182701907389 -0.066421052250477772 0 -0.01679578438645072 -0.078594445188011425 0 -0.029030352963196469 -0.080991733371145264 0 -0.025867182701907389 -0.066421052250477772 0 -0.029030352963196469 -0.080991733371145264 0 -0.025867182701907389 -0.066421052250477772 0 -0.035461290188651157 -0.071966942731242031 0 -0.043325164594448892 -0.064159044228977585 0 -0.035461290188651157 -0.071966942731242031 0 -0.05246183115018753 -0.073383558270291777 0 -0.034938581017370803 -0.05424765931294924 0 -0.025867182701907389 -0.066421052250477772 0 -0.035461290188651157 -0.071966942731242031 0 -0.035461290188651157 -0.071966942731242031 0 -0.04338660130706077 -0.086522683518078763 0 -0.05246183115018753 -0.073383558270291777 0 -0.034938581017370803 -0.05424765931294924 0 -0.043325164594448892 -0.064159044228977585 0 -0.035461290188651157 -0.071966942731242031 0 -0.029030352963196469 -0.080991733371145264 0 -0.04338660130706077 -0.086522683518078763 0 -0.034697982028337571 -0.1041354664872416 0 -0.029030352963196469 -0.080991733371145264 0 -0.035461290188651157 -0.071966942731242031 0 -0.04338660130706077 -0.086522683518078763 0 -0.04338660130706077 -0.086522683518078763 0 -0.060583195732539882 -0.093439561556354522 0 -0.05246183115018753 -0.073383558270291777 0 -0.066702270639482225 -0.077555691398917312 0 -0.060583195732539882 -0.093439561556354522 0 -0.05246183115018753 -0.073383558270291777 0 -0.066702270639482225 -0.077555691398917312 0 -0.059366015161298823 -0.06263410352752799 0 -0.05246183115018753 -0.073383558270291777 0 -0.047521754164677042 -0.051872508060137587 0 -0.05246183115018753 -0.073383558270291777 0 -0.047521754164677042 -0.051872508060137587 0 -0.043325164594448892 -0.064159044228977585 0 -0.05246183115018753 -0.073383558270291777 0 -0.047521754164677042 -0.051872508060137587 0 -0.059366015161298823 -0.06263410352752799 0 -0.05246183115018753 -0.073383558270291777 0 -0.054938755171724953 -0.11026451938386329 0 -0.044294730279275697 -0.1224767839843143 0 -0.062658126441694939 -0.12541336612296419 0 -0.060583195732539882 -0.093439561556354522 0 -0.034697982028337571 -0.1041354664872416 0 -0.060583195732539882 -0.093439561556354522 0 -0.054938755171724953 -0.11026451938386329 0 -0.034697982028337571 -0.1041354664872416 0 -0.04338660130706077 -0.086522683518078763 0 -0.060583195732539882 -0.093439561556354522 0 -0.034697982028337571 -0.1041354664872416 0 -0.034697982028337571 -0.1041354664872416 0 -0.044294730279275697 -0.1224767839843143 0 -0.027298474928649182 -0.1222539541941474 0 -0.044294730279275697 -0.1224767839843143 0 -0.027298474928649182 -0.1222539541941474 0 -0.033726321861933577 -0.12971271038418911 0 -0.054938755171724953 -0.11026451938386329 0 -0.034697982028337571 -0.1041354664872416 0 -0.044294730279275697 -0.1224767839843143 0 -0.027298474928649182 -0.1222539541941474 0 -0.0088127683241351288 -0.1148313714181288 0 -0.014488074790145401 -0.13076902335625379 0 -0.034697982028337571 -0.1041354664872416 0 -0.027298474928649182 -0.1222539541941474 0 -0.0088127683241351288 -0.1148313714181288 0 -0.034697982028337571 -0.1041354664872416 0 -0.0088127683241351288 -0.1148313714181288 0 -0.034697982028337571 -0.1041354664872416 0 -0.019833481328412859 -0.095509774008096252 0 -0.0088127683241351288 -0.1148313714181288 0 -0.019833481328412859 -0.095509774008096252 0 -9.9257394721649628e-06 -0.10112028365277261 0 -0.0088127683241351288 -0.1148313714181288 0 -0.0088127683241351288 -0.1148313714181288 0 -0.002907425846701919 -0.1320095854426846 0 0.0066140884893323548 -0.1307148826355457 0 -0.0088127683241351288 -0.1148313714181288 0 -0.002907425846701919 -0.1320095854426846 0 -0.014488074790145401 -0.13076902335625379 0 -0.002907425846701919 -0.1320095854426846 0 -0.0054537170625873922 -0.14476509036948029 0 0.003567896516931476 -0.1387464326858992 0 -0.002907425846701919 -0.1320095854426846 0 -0.014488074790145401 -0.13076902335625379 0 -0.0054537170625873922 -0.14476509036948029 0 -0.014488074790145401 -0.13076902335625379 0 -0.017905002320557469 -0.1411148005054807 0 -0.0054537170625873922 -0.14476509036948029 0 -0.027298474928649182 -0.1222539541941474 0 -0.014488074790145401 -0.13076902335625379 0 -0.026713172099903881 -0.13471369487556201 0 -0.014488074790145401 -0.13076902335625379 0 -0.026713172099903881 -0.13471369487556201 0 -0.017905002320557469 -0.1411148005054807 0 -0.026713172099903881 -0.13471369487556201 0 -0.027931832238556348 -0.1477000793095935 0 -0.036598910139905537 -0.13940640848273281 0 -0.027298474928649182 -0.1222539541941474 0 -0.026713172099903881 -0.13471369487556201 0 -0.033726321861933577 -0.12971271038418911 0 -0.027931832238556348 -0.1477000793095935 0 -0.017494241364392472 -0.1523436602536139 0 -0.029457876208252531 -0.159606685141789 0 -0.026713172099903881 -0.13471369487556201 0 -0.027931832238556348 -0.1477000793095935 0 -0.017905002320557469 -0.1411148005054807 0 -0.027931832238556348 -0.1477000793095935 0 -0.017905002320557469 -0.1411148005054807 0 -0.017494241364392472 -0.1523436602536139 0 -0.017494241364392472 -0.1523436602536139 0 -0.0054537170625873922 -0.14476509036948029 0 -0.0071857211005803374 -0.15652511532993241 0 -0.017905002320557469 -0.1411148005054807 0 -0.017494241364392472 -0.1523436602536139 0 -0.0054537170625873922 -0.14476509036948029 0 -0.0054537170625873922 -0.14476509036948029 0 -0.0071857211005803374 -0.15652511532993241 0 0.0043218265361713573 -0.15896927279267381 0 -0.0071857211005803374 -0.15652511532993241 0 -0.0014132101915579399 -0.1698976651757427 0 0.0043218265361713573 -0.15896927279267381 0 -0.0014132101915579399 -0.1698976651757427 0 -0.01539058991360529 -0.17568373022428521 0 -0.017031299255820729 -0.1643501908654077 0 -0.017494241364392472 -0.1523436602536139 0 -0.0071857211005803374 -0.15652511532993241 0 -0.017031299255820729 -0.1643501908654077 0 -0.0071857211005803374 -0.15652511532993241 0 -0.0014132101915579399 -0.1698976651757427 0 -0.017031299255820729 -0.1643501908654077 0 -0.0014132101915579399 -0.1698976651757427 0 -0.0076674425692238608 -0.1819829379196311 0 0.006868393305995495 -0.17616281559889649 0 -0.0014132101915579399 -0.1698976651757427 0 -0.0076674425692238608 -0.1819829379196311 0 -0.01539058991360529 -0.17568373022428521 0 -0.0076674425692238608 -0.1819829379196311 0 -0.01539058991360529 -0.17568373022428521 0 -0.02246058751139899 -0.18376816186634709 0 -0.02246058751139899 -0.18376816186634709 0 -0.030051961540221921 -0.17315900300594489 0 -0.03854522839030599 -0.19010875467139779 0 -0.01539058991360529 -0.17568373022428521 0 -0.02246058751139899 -0.18376816186634709 0 -0.030051961540221921 -0.17315900300594489 0 -0.017494241364392472 -0.1523436602536139 0 -0.017031299255820729 -0.1643501908654077 0 -0.029457876208252531 -0.159606685141789 0 -0.01539058991360529 -0.17568373022428521 0 -0.030051961540221921 -0.17315900300594489 0 -0.017031299255820729 -0.1643501908654077 0 -0.030051961540221921 -0.17315900300594489 0 -0.017031299255820729 -0.1643501908654077 0 -0.029457876208252531 -0.159606685141789 0 -0.038078741710765661 -0.16461649682685239 0 -0.046851751776272627 -0.17258147271513999 0 -0.044373996066445522 -0.15410502409631349 0 -0.030051961540221921 -0.17315900300594489 0 -0.038078741710765661 -0.16461649682685239 0 -0.046851751776272627 -0.17258147271513999 0 -0.029457876208252531 -0.159606685141789 0 -0.038078741710765661 -0.16461649682685239 0 -0.044373996066445522 -0.15410502409631349 0 -0.030051961540221921 -0.17315900300594489 0 -0.029457876208252531 -0.159606685141789 0 -0.038078741710765661 -0.16461649682685239 0 -0.030051961540221921 -0.17315900300594489 0 -0.046851751776272627 -0.17258147271513999 0 -0.03854522839030599 -0.19010875467139779 0 -0.046851751776272627 -0.17258147271513999 0 -0.06037138828061335 -0.17593163183430721 0 -0.055602064563934309 -0.18869046690157781 0 -0.046851751776272627 -0.17258147271513999 0 -0.03854522839030599 -0.19010875467139779 0 -0.055602064563934309 -0.18869046690157781 0 -0.046851751776272627 -0.17258147271513999 0 -0.060769725623205553 -0.1619466337708966 0 -0.044373996066445522 -0.15410502409631349 0 -0.046851751776272627 -0.17258147271513999 0 -0.06037138828061335 -0.17593163183430721 0 -0.060769725623205553 -0.1619466337708966 0 -0.060769725623205553 -0.1619466337708966 0 -0.056367226439172829 -0.15013772315776969 0 -0.044373996066445522 -0.15410502409631349 0 -0.049417017759433982 -0.1382598609755083 0 -0.070908166307606241 -0.1462393737883603 0 -0.056367226439172829 -0.15013772315776969 0 -0.049417017759433982 -0.1382598609755083 0 -0.044373996066445522 -0.15410502409631349 0 -0.056367226439172829 -0.15013772315776969 0 -0.049417017759433982 -0.1382598609755083 0 -0.070908166307606241 -0.1462393737883603 0 -0.049417017759433982 -0.1382598609755083 0 -0.036598910139905537 -0.13940640848273281 0 -0.062658126441694939 -0.12541336612296419 0 -0.049417017759433982 -0.1382598609755083 0 -0.062658126441694939 -0.12541336612296419 0 -0.070908166307606241 -0.1462393737883603 0 -0.036598910139905537 -0.13940640848273281 0 -0.062658126441694939 -0.12541336612296419 0 -0.044294730279275697 -0.1224767839843143 0 -0.036598910139905537 -0.13940640848273281 0 -0.062658126441694939 -0.12541336612296419 0 -0.044294730279275697 -0.1224767839843143 0 -0.033726321861933577 -0.12971271038418911 0 -0.036598910139905537 -0.13940640848273281 0 -0.026713172099903881 -0.13471369487556201 0 -0.033726321861933577 -0.12971271038418911 0 -0.036598910139905537 -0.13940640848273281 0 -0.027931832238556348 -0.1477000793095935 0 -0.036598910139905537 -0.13940640848273281 0 -0.044373996066445522 -0.15410502409631349 0 -0.049417017759433982 -0.1382598609755083 0 -0.036598910139905537 -0.13940640848273281 0 -0.044373996066445522 -0.15410502409631349 0 -0.027931832238556348 -0.1477000793095935 0 -0.029457876208252531 -0.159606685141789 0 -0.044373996066445522 -0.15410502409631349 0 -0.01445638115462268 -0.25038859752307729 0 -0.0097925411917082275 -0.2350620727506374 0 -0.025761323178947991 -0.23085273317288479 0 -0.01445638115462268 -0.25038859752307729 0 -0.03111743984621005 -0.25612041729060908 0 -0.025761323178947991 -0.23085273317288479 0 -0.01445638115462268 -0.25038859752307729 0 -0.0097925411917082275 -0.2350620727506374 0 0.0076957474634097864 -0.25032175843390908 0 -0.0097925411917082275 -0.2350620727506374 0 0.0076957474634097864 -0.25032175843390908 0 -0.0097925411917082275 -0.2350620727506374 0 -0.0065574519470419533 -0.214820418438218 0 0.0052482380929481766 -0.23255468427204029 0 -0.0097925411917082275 -0.2350620727506374 0 -0.025761323178947991 -0.23085273317288479 0 -0.0065574519470419533 -0.214820418438218 0 -0.025761323178947991 -0.23085273317288479 0 -0.030563247415471419 -0.21223631379849811 0 -0.0065574519470419533 -0.214820418438218 0 -0.030563247415471419 -0.21223631379849811 0 -0.0065574519470419533 -0.214820418438218 0 -0.020647715143637901 -0.19790638351047671 0 -0.0065574519470419533 -0.214820418438218 0 -0.0020010690508425301 -0.2007389962191608 0 -0.020647715143637901 -0.19790638351047671 0 -0.0076674425692238608 -0.1819829379196311 0 -0.020647715143637901 -0.19790638351047671 0 0.0066385746459730471 -0.18762293938074459 0 -0.0020010690508425301 -0.2007389962191608 0 -0.020647715143637901 -0.19790638351047671 0 0.0066385746459730471 -0.18762293938074459 0 -0.020647715143637901 -0.19790638351047671 0 0.0066385746459730471 -0.18762293938074459 0 -0.0076674425692238608 -0.1819829379196311 0 -0.02246058751139899 -0.18376816186634709 0 -0.020647715143637901 -0.19790638351047671 0 -0.02246058751139899 -0.18376816186634709 0 -0.020647715143637901 -0.19790638351047671 0 -0.03854522839030599 -0.19010875467139779 0 -0.020647715143637901 -0.19790638351047671 0 -0.03854522839030599 -0.19010875467139779 0 -0.047934004933248862 -0.20818982764020891 0 -0.020647715143637901 -0.19790638351047671 0 -0.047934004933248862 -0.20818982764020891 0 -0.055602064563934309 -0.18869046690157781 0 -0.047934004933248862 -0.20818982764020891 0 -0.066173874124916029 -0.2010622806915589 0 -0.03854522839030599 -0.19010875467139779 0 -0.055602064563934309 -0.18869046690157781 0 -0.047934004933248862 -0.20818982764020891 0 -0.047934004933248862 -0.20818982764020891 0 -0.058152355847957013 -0.22528154502713649 0 -0.075220294722860237 -0.21847327176994 0 -0.047934004933248862 -0.20818982764020891 0 -0.075220294722860237 -0.21847327176994 0 -0.030563247415471419 -0.21223631379849811 0 -0.047934004933248862 -0.20818982764020891 0 -0.043722681267827752 -0.2354195278083015 0 -0.030563247415471419 -0.21223631379849811 0 -0.020647715143637901 -0.19790638351047671 0 -0.047934004933248862 -0.20818982764020891 0 -0.030563247415471419 -0.21223631379849811 0 -0.043722681267827752 -0.2354195278083015 0 -0.025761323178947991 -0.23085273317288479 0 -0.030563247415471419 -0.21223631379849811 0 -0.043722681267827752 -0.2354195278083015 0 -0.047934004933248862 -0.20818982764020891 0 -0.058152355847957013 -0.22528154502713649 0 -0.043722681267827752 -0.2354195278083015 0 -0.058152355847957013 -0.22528154502713649 0 -0.043722681267827752 -0.2354195278083015 0 -0.065732442467890423 -0.23904355289009571 0 -0.056882115120184068 -0.258602741818105 0 -0.043722681267827752 -0.2354195278083015 0 -0.056882115120184068 -0.258602741818105 0 -0.043722681267827752 -0.2354195278083015 0 -0.065732442467890423 -0.23904355289009571 0 -0.03111743984621005 -0.25612041729060908 0 -0.025761323178947991 -0.23085273317288479 0 -0.043722681267827752 -0.2354195278083015 0 -0.073051277314283458 -0.25743571846949831 0 -0.087379472336805278 -0.24187516102157619 0 -0.065732442467890423 -0.23904355289009571 0 -0.058152355847957013 -0.22528154502713649 0 -0.065732442467890423 -0.23904355289009571 0 -0.075220294722860237 -0.21847327176994 0 -0.087379472336805278 -0.24187516102157619 0 -0.065732442467890423 -0.23904355289009571 0 -0.075220294722860237 -0.21847327176994 0 -0.075220294722860237 -0.21847327176994 0 -0.096055783299258859 -0.2120027395863581 0 -0.10314213340836111 -0.22899623661183291 0 -0.087379472336805278 -0.24187516102157619 0 -0.075220294722860237 -0.21847327176994 0 -0.087379472336805278 -0.24187516102157619 0 -0.075220294722860237 -0.21847327176994 0 -0.10314213340836111 -0.22899623661183291 0 -0.075220294722860237 -0.21847327176994 0 -0.10314213340836111 -0.22899623661183291 0 -0.075220294722860237 -0.21847327176994 0 -0.083057441930065021 -0.2011961248333641 0 -0.096055783299258859 -0.2120027395863581 0 -0.083057441930065021 -0.2011961248333641 0 -0.096328982928179485 -0.19866049789303239 0 -0.096055783299258859 -0.2120027395863581 0 -0.075220294722860237 -0.21847327176994 0 -0.066173874124916029 -0.2010622806915589 0 -0.075220294722860237 -0.21847327176994 0 -0.066173874124916029 -0.2010622806915589 0 -0.083057441930065021 -0.2011961248333641 0 -0.047934004933248862 -0.20818982764020891 0 -0.075220294722860237 -0.21847327176994 0 -0.066173874124916029 -0.2010622806915589 0 -0.066173874124916029 -0.2010622806915589 0 -0.072315068246660896 -0.1880870943354398 0 -0.083057441930065021 -0.2011961248333641 0 -0.055602064563934309 -0.18869046690157781 0 -0.066173874124916029 -0.2010622806915589 0 -0.072315068246660896 -0.1880870943354398 0 -0.072315068246660896 -0.1880870943354398 0 -0.083057441930065021 -0.2011961248333641 0 -0.089526915440454574 -0.18602114145624671 0 -0.083057441930065021 -0.2011961248333641 0 -0.096328982928179485 -0.19866049789303239 0 -0.089526915440454574 -0.18602114145624671 0 -0.096328982928179485 -0.19866049789303239 0 -0.10538432339520851 -0.18774355575532761 0 -0.10762045057591051 -0.20633892783386551 0 -0.096328982928179485 -0.19866049789303239 0 -0.10538432339520851 -0.18774355575532761 0 -0.089526915440454574 -0.18602114145624671 0 -0.10538432339520851 -0.18774355575532761 0 -0.12524202110302241 -0.2052122296632844 0 -0.11956624225348809 -0.1837053145386737 0 -0.12524202110302241 -0.2052122296632844 0 -0.12847810832223719 -0.18953501883725729 0 -0.10538432339520851 -0.18774355575532761 0 -0.10762045057591051 -0.20633892783386551 0 -0.12524202110302241 -0.2052122296632844 0 -0.10538432339520851 -0.18774355575532761 0 -0.11956624225348809 -0.1837053145386737 0 -0.12524202110302241 -0.2052122296632844 0 -0.11956624225348809 -0.1837053145386737 0 -0.12524202110302241 -0.2052122296632844 0 -0.1169872391490453 -0.2129500748051176 0 -0.10762045057591051 -0.20633892783386551 0 -0.12524202110302241 -0.2052122296632844 0 -0.1169872391490453 -0.2129500748051176 0 -0.1191831498085504 -0.22185419360887371 0 -0.12916614905953369 -0.2200817108633267 0 -0.1169872391490453 -0.2129500748051176 0 -0.12916614905953369 -0.2200817108633267 0 -0.12524202110302241 -0.2052122296632844 0 -0.1169872391490453 -0.2129500748051176 0 -0.1085977512482252 -0.21642843448920951 0 -0.1191831498085504 -0.22185419360887371 0 -0.1169872391490453 -0.2129500748051176 0 -0.1085977512482252 -0.21642843448920951 0 -0.10762045057591051 -0.20633892783386551 0 -0.1085977512482252 -0.21642843448920951 0 -0.10762045057591051 -0.20633892783386551 0 -0.096055783299258859 -0.2120027395863581 0 -0.096328982928179485 -0.19866049789303239 0 -0.10762045057591051 -0.20633892783386551 0 -0.096055783299258859 -0.2120027395863581 0 -0.1085977512482252 -0.21642843448920951 0 -0.096055783299258859 -0.2120027395863581 0 -0.10314213340836111 -0.22899623661183291 0 -0.10314213340836111 -0.22899623661183291 0 -0.1191831498085504 -0.22185419360887371 0 -0.1230108002042514 -0.22754533792899351 0 -0.10314213340836111 -0.22899623661183291 0 -0.1230108002042514 -0.22754533792899351 0 -0.13106397209386211 -0.23951920145372499 0 -0.10314213340836111 -0.22899623661183291 0 -0.13106397209386211 -0.23951920145372499 0 -0.1085977512482252 -0.21642843448920951 0 -0.10314213340836111 -0.22899623661183291 0 -0.1191831498085504 -0.22185419360887371 0 -0.1191831498085504 -0.22185419360887371 0 -0.1230108002042514 -0.22754533792899351 0 -0.12916614905953369 -0.2200817108633267 0 -0.1191831498085504 -0.22185419360887371 0 -0.1230108002042514 -0.22754533792899351 0 -0.120388863706147 -0.25677221141539519 0 -0.11757332655895231 -0.24319708930481029 0 -0.1321345853324031 -0.24111104339895839 0 -0.10314213340836111 -0.22899623661183291 0 -0.11757332655895231 -0.24319708930481029 0 -0.13106397209386211 -0.23951920145372499 0 -0.120388863706147 -0.25677221141539519 0 -0.11757332655895231 -0.24319708930481029 0 -0.104328086066999 -0.2478987508450152 0 -0.10314213340836111 -0.22899623661183291 0 -0.11757332655895231 -0.24319708930481029 0 -0.104328086066999 -0.2478987508450152 0 -0.087379472336805278 -0.24187516102157619 0 -0.10314213340836111 -0.22899623661183291 0 -0.104328086066999 -0.2478987508450152 0 -0.092399314855778542 -0.15421888660121241 0 -0.089033754231069406 -0.13391802693028609 0 -0.070908166307606241 -0.1462393737883603 0 -0.092399314855778542 -0.15421888660121241 0 -0.070908166307606241 -0.1462393737883603 0 -0.078103108604607688 -0.1597920146777233 0 -0.092399314855778542 -0.15421888660121241 0 -0.070908166307606241 -0.1462393737883603 0 -0.089033754231069406 -0.13391802693028609 0 -0.062658126441694939 -0.12541336612296419 0 -0.070908166307606241 -0.1462393737883603 0 -0.060769725623205553 -0.1619466337708966 0 -0.056367226439172829 -0.15013772315776969 0 -0.070908166307606241 -0.1462393737883603 0 -0.060769725623205553 -0.1619466337708966 0 -0.070908166307606241 -0.1462393737883603 0 -0.078103108604607688 -0.1597920146777233 0 -0.060769725623205553 -0.1619466337708966 0 -0.078103108604607688 -0.1597920146777233 0 -0.074491943533893656 -0.17421081206637529 0 -0.06037138828061335 -0.17593163183430721 0 -0.060769725623205553 -0.1619466337708966 0 -0.074491943533893656 -0.17421081206637529 0 -0.06037138828061335 -0.17593163183430721 0 -0.055602064563934309 -0.18869046690157781 0 -0.072315068246660896 -0.1880870943354398 0 -0.06037138828061335 -0.17593163183430721 0 -0.072315068246660896 -0.1880870943354398 0 -0.074491943533893656 -0.17421081206637529 0 -0.072315068246660896 -0.1880870943354398 0 -0.074491943533893656 -0.17421081206637529 0 -0.089526915440454574 -0.18602114145624671 0 -0.074491943533893656 -0.17421081206637529 0 -0.089526915440454574 -0.18602114145624671 0 -0.096076064092828747 -0.17102587676020531 0 -0.092399314855778542 -0.15421888660121241 0 -0.078103108604607688 -0.1597920146777233 0 -0.096076064092828747 -0.17102587676020531 0 -0.078103108604607688 -0.1597920146777233 0 -0.074491943533893656 -0.17421081206637529 0 -0.096076064092828747 -0.17102587676020531 0 -0.092399314855778542 -0.15421888660121241 0 -0.096076064092828747 -0.17102587676020531 0 -0.1138904634039512 -0.16219839941406369 0 -0.092399314855778542 -0.15421888660121241 0 -0.1138904634039512 -0.16219839941406369 0 -0.096076064092828747 -0.17102587676020531 0 -0.1087292732863691 -0.1761682866170676 0 -0.1138904634039512 -0.16219839941406369 0 -0.10538432339520851 -0.18774355575532761 0 -0.089526915440454574 -0.18602114145624671 0 -0.096076064092828747 -0.17102587676020531 0 -0.10538432339520851 -0.18774355575532761 0 -0.096076064092828747 -0.17102587676020531 0 -0.1087292732863691 -0.1761682866170676 0 -0.1087292732863691 -0.1761682866170676 0 -0.11956624225348809 -0.1837053145386737 0 -0.1138904634039512 -0.16219839941406369 0 -0.11956624225348809 -0.1837053145386737 0 -0.1138904634039512 -0.16219839941406369 0 -0.11956624225348809 -0.1837053145386737 0 -0.1138904634039512 -0.16219839941406369 0 -0.12726881071525489 -0.17743599815338529 0 -0.10538432339520851 -0.18774355575532761 0 -0.1087292732863691 -0.1761682866170676 0 -0.11956624225348809 -0.1837053145386737 0 -0.1138904634039512 -0.16219839941406369 0 -0.13123074467385451 -0.16863672430216919 0 -0.1138904634039512 -0.16219839941406369 0 -0.1278426897103889 -0.162217330065622 0 -0.13123074467385451 -0.16863672430216919 0 -0.1138904634039512 -0.16219839941406369 0 -0.13123074467385451 -0.16863672430216919 0 -0.12726881071525489 -0.17743599815338529 0 -0.1138904634039512 -0.16219839941406369 0 -0.1213894289007262 -0.15181876176418879 0 -0.1278426897103889 -0.162217330065622 0 -0.1138904634039512 -0.16219839941406369 0 -0.1084532332324451 -0.14159540361179579 0 -0.1138904634039512 -0.16219839941406369 0 -0.1213894289007262 -0.15181876176418879 0 -0.1084532332324451 -0.14159540361179579 0 -0.1213894289007262 -0.15181876176418879 0 -0.12024428358111269 -0.13969250987145579 0 -0.13059679912568939 -0.14659537862621649 0 -0.1213894289007262 -0.15181876176418879 0 -0.1084532332324451 -0.14159540361179579 0 -0.12024428358111269 -0.13969250987145579 0 -0.092399314855778542 -0.15421888660121241 0 -0.1138904634039512 -0.16219839941406369 0 -0.1084532332324451 -0.14159540361179579 0 -0.092399314855778542 -0.15421888660121241 0 -0.089033754231069406 -0.13391802693028609 0 -0.1084532332324451 -0.14159540361179579 0 -0.1110663418054073 -0.1246208076941883 0 -0.089033754231069406 -0.13391802693028609 0 -0.1084532332324451 -0.14159540361179579 0 -0.1110663418054073 -0.1246208076941883 0 -0.1084532332324451 -0.14159540361179579 0 -0.12024428358111269 -0.13969250987145579 0 -0.1110663418054073 -0.1246208076941883 0 -0.12024428358111269 -0.13969250987145579 0 -0.12986188190646511 -0.13074954693054719 0 -0.12024428358111269 -0.13969250987145579 0 -0.12986188190646511 -0.13074954693054719 0 -0.13059679912568939 -0.14659537862621649 0 -0.12986188190646511 -0.13074954693054719 0 -0.1428076032650413 -0.13567212202383319 0 -0.13059679912568939 -0.14659537862621649 0 -0.12986188190646511 -0.13074954693054719 0 -0.1428076032650413 -0.13567212202383319 0 -0.14028391624781639 -0.1208831083471215 0 -0.1428076032650413 -0.13567212202383319 0 -0.15337953675811519 -0.12596595461133181 0 -0.14028391624781639 -0.1208831083471215 0 -0.1428076032650413 -0.13567212202383319 0 -0.15337953675811519 -0.12596595461133181 0 -0.1579384384451698 -0.14249663598369081 0 -0.1525497797299111 -0.15331904853560949 0 -0.14444960910046051 -0.14894156321718691 0 -0.1579384384451698 -0.14249663598369081 0 -0.1428076032650413 -0.13567212202383319 0 -0.14444960910046051 -0.14894156321718691 0 -0.1579384384451698 -0.14249663598369081 0 -0.1525497797299111 -0.15331904853560949 0 -0.14444960910046051 -0.14894156321718691 0 -0.14430952267320321 -0.15906267633841339 0 -0.14444960910046051 -0.14894156321718691 0 -0.13516110226010181 -0.1542415934040535 0 -0.14430952267320321 -0.15906267633841339 0 -0.14444960910046051 -0.14894156321718691 0 -0.13516110226010181 -0.1542415934040535 0 -0.13059679912568939 -0.14659537862621649 0 -0.1428076032650413 -0.13567212202383319 0 -0.14444960910046051 -0.14894156321718691 0 -0.13059679912568939 -0.14659537862621649 0 -0.1213894289007262 -0.15181876176418879 0 -0.13059679912568939 -0.14659537862621649 0 -0.128606890690767 -0.1543910187728289 0 -0.1213894289007262 -0.15181876176418879 0 -0.128606890690767 -0.1543910187728289 0 -0.1278426897103889 -0.162217330065622 0 -0.13516110226010181 -0.1542415934040535 0 -0.13059679912568939 -0.14659537862621649 0 -0.128606890690767 -0.1543910187728289 0 -0.13123074467385451 -0.16863672430216919 0 -0.14857102594375801 -0.175075049190274 0 -0.1278426897103889 -0.162217330065622 0 -0.13123074467385451 -0.16863672430216919 0 -0.15350496055655169 -0.17030867721986889 0 -0.13516110226010181 -0.1542415934040535 0 -0.128606890690767 -0.1543910187728289 0 -0.1278426897103889 -0.162217330065622 0 -0.13516110226010181 -0.1542415934040535 0 -0.1278426897103889 -0.162217330065622 0 -0.14430952267320321 -0.15906267633841339 0 -0.13123074467385451 -0.16863672430216919 0 -0.1366257147928836 -0.17674804848193679 0 -0.14857102594375801 -0.175075049190274 0 -0.11956624225348809 -0.1837053145386737 0 -0.12726881071525489 -0.17743599815338529 0 -0.12847810832223719 -0.18953501883725729 0 -0.12726881071525489 -0.17743599815338529 0 -0.13597905295387239 -0.1848371920429068 0 -0.12847810832223719 -0.18953501883725729 0 -0.13123074467385451 -0.16863672430216919 0 -0.12726881071525489 -0.17743599815338529 0 -0.1366257147928836 -0.17674804848193679 0 -0.12726881071525489 -0.17743599815338529 0 -0.1366257147928836 -0.17674804848193679 0 -0.13597905295387239 -0.1848371920429068 0 -0.1366257147928836 -0.17674804848193679 0 -0.13597905295387239 -0.1848371920429068 0 -0.14237447817308649 -0.18074142878917829 0 -0.13597905295387239 -0.1848371920429068 0 -0.14237447817308649 -0.18074142878917829 0 -0.1487559829886351 -0.18954632389234069 0 -0.14237447817308649 -0.18074142878917829 0 -0.14857102594375801 -0.175075049190274 0 -0.1487559829886351 -0.18954632389234069 0 -0.1366257147928836 -0.17674804848193679 0 -0.14237447817308649 -0.18074142878917829 0 -0.14857102594375801 -0.175075049190274 0 -0.14857102594375801 -0.175075049190274 0 -0.15350496055655169 -0.17030867721986889 0 -0.15847818659667229 -0.18281954509243981 0 -0.14857102594375801 -0.175075049190274 0 -0.15847818659667229 -0.18281954509243981 0 -0.1487559829886351 -0.18954632389234069 0 -0.13123074467385451 -0.16863672430216919 0 -0.14857102594375801 -0.175075049190274 0 -0.15350496055655169 -0.17030867721986889 0 -0.1278426897103889 -0.162217330065622 0 -0.14430952267320321 -0.15906267633841339 0 -0.15350496055655169 -0.17030867721986889 0 -0.1278426897103889 -0.162217330065622 0 -0.15350496055655169 -0.17030867721986889 0 -0.14430952267320321 -0.15906267633841339 0 -0.15350496055655169 -0.17030867721986889 0 -0.15529233107264859 -0.1606128900749268 0 -0.1525497797299111 -0.15331904853560949 0 -0.15529233107264859 -0.1606128900749268 0 -0.1607589973580735 -0.1554814770638297 0 -0.1525497797299111 -0.15331904853560949 0 -0.14430952267320321 -0.15906267633841339 0 -0.15529233107264859 -0.1606128900749268 0 -0.15529233107264859 -0.1606128900749268 0 -0.16737187677167581 -0.16372844542638951 0 -0.1607589973580735 -0.1554814770638297 0 -0.15350496055655169 -0.17030867721986889 0 -0.16737187677167581 -0.16372844542638951 0 -0.17916723140271421 -0.17840002437411639 0 -0.15350496055655169 -0.17030867721986889 0 -0.15529233107264859 -0.1606128900749268 0 -0.16737187677167581 -0.16372844542638951 0 -0.16737187677167581 -0.16372844542638951 0 -0.1607589973580735 -0.1554814770638297 0 -0.17130206776368651 -0.15112408121805071 0 -0.15847818659667229 -0.18281954509243981 0 -0.17916723140271421 -0.17840002437411639 0 -0.16239173209170249 -0.2007676507855993 0 -0.15350496055655169 -0.17030867721986889 0 -0.15847818659667229 -0.18281954509243981 0 -0.17916723140271421 -0.17840002437411639 0 -0.15350496055655169 -0.17030867721986889 0 -0.17916723140271421 -0.17840002437411639 0 -0.17916723140271421 -0.17840002437411639 0 -0.179876639179296 -0.1582778815790335 0 -0.19631651477357939 -0.15553401266546529 0 -0.16737187677167581 -0.16372844542638951 0 -0.17916723140271421 -0.17840002437411639 0 -0.179876639179296 -0.1582778815790335 0 -0.16737187677167581 -0.16372844542638951 0 -0.179876639179296 -0.1582778815790335 0 -0.17130206776368651 -0.15112408121805071 0 -0.179876639179296 -0.1582778815790335 0 -0.18522550518482389 -0.14260284421114641 0 -0.19631651477357939 -0.15553401266546529 0 -0.179876639179296 -0.1582778815790335 0 -0.18522550518482389 -0.14260284421114641 0 -0.17130206776368651 -0.15112408121805071 0 -0.18522550518482389 -0.14260284421114641 0 -0.1726304190002956 -0.1395721100844334 0 -0.17130206776368651 -0.15112408121805071 0 -0.18522550518482389 -0.14260284421114641 0 -0.18177795587056031 -0.12683496289893381 0 -0.1726304190002956 -0.1395721100844334 0 -0.18177795587056031 -0.12683496289893381 0 -0.1726304190002956 -0.1395721100844334 0 -0.16888661091080351 -0.12613169669527621 0 -0.1726304190002956 -0.1395721100844334 0 -0.16888661091080351 -0.12613169669527621 0 -0.1579384384451698 -0.14249663598369081 0 -0.15337953675811519 -0.12596595461133181 0 -0.16888661091080351 -0.12613169669527621 0 -0.1579384384451698 -0.14249663598369081 0 -0.1525497797299111 -0.15331904853560949 0 -0.1579384384451698 -0.14249663598369081 0 -0.1607589973580735 -0.1554814770638297 0 -0.1579384384451698 -0.14249663598369081 0 -0.1607589973580735 -0.1554814770638297 0 -0.17130206776368651 -0.15112408121805071 0 -0.1726304190002956 -0.1395721100844334 0 -0.1579384384451698 -0.14249663598369081 0 -0.17130206776368651 -0.15112408121805071 0 -0.1545873459861043 -0.2472905373035425 0 -0.1481308262668774 -0.2388808696738422 0 -0.1430149355188356 -0.24754299693300361 0 -0.1545873459861043 -0.2472905373035425 0 -0.1481308262668774 -0.2388808696738422 0 -0.1632250505098907 -0.23862562755602779 0 -0.1481308262668774 -0.2388808696738422 0 -0.1430149355188356 -0.24754299693300361 0 -0.13405959354170799 -0.23854433205007569 0 -0.13787151839962 -0.24964100582109611 0 -0.1321345853324031 -0.24111104339895839 0 -0.13405959354170799 -0.23854433205007569 0 -0.1430149355188356 -0.24754299693300361 0 -0.13405959354170799 -0.23854433205007569 0 -0.1430149355188356 -0.24754299693300361 0 -0.13787151839962 -0.24964100582109611 0 -0.13787151839962 -0.24964100582109611 0 -0.1321345853324031 -0.24111104339895839 0 -0.120388863706147 -0.25677221141539519 0 -0.1321345853324031 -0.24111104339895839 0 -0.1430149355188356 -0.24754299693300361 0 -0.13787151839962 -0.24964100582109611 0 -0.13405959354170799 -0.23854433205007569 0 -0.120388863706147 -0.25677221141539519 0 -0.13787151839962 -0.24964100582109611 0 -0.1321345853324031 -0.24111104339895839 0 -0.11757332655895231 -0.24319708930481029 0 -0.1321345853324031 -0.24111104339895839 0 -0.13106397209386211 -0.23951920145372499 0 -0.1230108002042514 -0.22754533792899351 0 -0.13106397209386211 -0.23951920145372499 0 -0.13405959354170799 -0.23854433205007569 0 -0.1321345853324031 -0.24111104339895839 0 -0.13106397209386211 -0.23951920145372499 0 -0.1321345853324031 -0.24111104339895839 0 -0.13106397209386211 -0.23951920145372499 0 -0.13405959354170799 -0.23854433205007569 0 -0.1321345853324031 -0.24111104339895839 0 -0.13405959354170799 -0.23854433205007569 0 -0.132725851155574 -0.22818718398046231 0 -0.12916614905953369 -0.2200817108633267 0 -0.14561623278069019 -0.22313527719708179 0 -0.13405959354170799 -0.23854433205007569 0 -0.132725851155574 -0.22818718398046231 0 -0.14561623278069019 -0.22313527719708179 0 -0.13405959354170799 -0.23854433205007569 0 -0.14561623278069019 -0.22313527719708179 0 -0.1230108002042514 -0.22754533792899351 0 -0.13106397209386211 -0.23951920145372499 0 -0.1230108002042514 -0.22754533792899351 0 -0.13405959354170799 -0.23854433205007569 0 -0.132725851155574 -0.22818718398046231 0 -0.1230108002042514 -0.22754533792899351 0 -0.13405959354170799 -0.23854433205007569 0 -0.1230108002042514 -0.22754533792899351 0 -0.132725851155574 -0.22818718398046231 0 -0.12916614905953369 -0.2200817108633267 0 -0.1481308262668774 -0.2388808696738422 0 -0.13405959354170799 -0.23854433205007569 0 -0.14561623278069019 -0.22313527719708179 0 -0.14561623278069019 -0.22313527719708179 0 -0.1632250505098907 -0.23862562755602779 0 -0.1481308262668774 -0.2388808696738422 0 -0.14561623278069019 -0.22313527719708179 0 -0.1632250505098907 -0.23862562755602779 0 -0.14561623278069019 -0.22313527719708179 0 -0.1588217871418181 -0.2213815247947172 0 -0.1632250505098907 -0.23862562755602779 0 -0.14561623278069019 -0.22313527719708179 0 -0.16239173209170249 -0.2007676507855993 0 -0.14561623278069019 -0.22313527719708179 0 -0.1429846808024666 -0.204445318451623 0 -0.16239173209170249 -0.2007676507855993 0 -0.14561623278069019 -0.22313527719708179 0 -0.16239173209170249 -0.2007676507855993 0 -0.1588217871418181 -0.2213815247947172 0 -0.14561623278069019 -0.22313527719708179 0 -0.12524202110302241 -0.2052122296632844 0 -0.14561623278069019 -0.22313527719708179 0 -0.1429846808024666 -0.204445318451623 0 -0.12524202110302241 -0.2052122296632844 0 -0.12916614905953369 -0.2200817108633267 0 -0.14561623278069019 -0.22313527719708179 0 -0.12524202110302241 -0.2052122296632844 0 -0.12916614905953369 -0.2200817108633267 0 -0.12524202110302241 -0.2052122296632844 0 -0.12524202110302241 -0.2052122296632844 0 -0.13433441458554829 -0.19648435978803649 0 -0.12847810832223719 -0.18953501883725729 0 -0.1429846808024666 -0.204445318451623 0 -0.12524202110302241 -0.2052122296632844 0 -0.13433441458554829 -0.19648435978803649 0 -0.13597905295387239 -0.1848371920429068 0 -0.13433441458554829 -0.19648435978803649 0 -0.12847810832223719 -0.18953501883725729 0 -0.13597905295387239 -0.1848371920429068 0 -0.13433441458554829 -0.19648435978803649 0 -0.1487559829886351 -0.18954632389234069 0 -0.1429846808024666 -0.204445318451623 0 -0.1487559829886351 -0.18954632389234069 0 -0.16239173209170249 -0.2007676507855993 0 -0.1429846808024666 -0.204445318451623 0 -0.13433441458554829 -0.19648435978803649 0 -0.1487559829886351 -0.18954632389234069 0 -0.15847818659667229 -0.18281954509243981 0 -0.1487559829886351 -0.18954632389234069 0 -0.16239173209170249 -0.2007676507855993 0 -0.17916723140271421 -0.17840002437411639 0 -0.16239173209170249 -0.2007676507855993 0 -0.17916723140271421 -0.17840002437411639 0 -0.16239173209170249 -0.2007676507855993 0 -0.18024571315628821 -0.20291913897854719 0 -0.17916723140271421 -0.17840002437411639 0 -0.18024571315628821 -0.20291913897854719 0 -0.19398690136803029 -0.1988610726103944 0 -0.18024571315628821 -0.20291913897854719 0 -0.18179398691960269 -0.21306010144320681 0 -0.17291385426693801 -0.21383659773140451 0 -0.18024571315628821 -0.20291913897854719 0 -0.18179398691960269 -0.21306010144320681 0 -0.1903617827462977 -0.2108340014449801 0 -0.18179398691960269 -0.21306010144320681 0 -0.1892735351187502 -0.218584997407618 0 -0.1903617827462977 -0.2108340014449801 0 -0.18179398691960269 -0.21306010144320681 0 -0.18137880365463999 -0.22010736470931469 0 -0.1892735351187502 -0.218584997407618 0 -0.18179398691960269 -0.21306010144320681 0 -0.17291385426693801 -0.21383659773140451 0 -0.18137880365463999 -0.22010736470931469 0 -0.16239173209170249 -0.2007676507855993 0 -0.18024571315628821 -0.20291913897854719 0 -0.17291385426693801 -0.21383659773140451 0 -0.16239173209170249 -0.2007676507855993 0 -0.17291385426693801 -0.21383659773140451 0 -0.1588217871418181 -0.2213815247947172 0 -0.1588217871418181 -0.2213815247947172 0 -0.17341638050954741 -0.22746929372458149 0 -0.1632250505098907 -0.23862562755602779 0 -0.17291385426693801 -0.21383659773140451 0 -0.1588217871418181 -0.2213815247947172 0 -0.17341638050954741 -0.22746929372458149 0 -0.1588217871418181 -0.2213815247947172 0 -0.17341638050954741 -0.22746929372458149 0 -0.17291385426693801 -0.21383659773140451 0 -0.18137880365463999 -0.22010736470931469 0 -0.17341638050954741 -0.22746929372458149 0 -0.18137880365463999 -0.22010736470931469 0 -0.18656482885541731 -0.22487143914364949 0 -0.1892735351187502 -0.218584997407618 0 -0.18137880365463999 -0.22010736470931469 0 -0.18656482885541731 -0.22487143914364949 0 -0.17341638050954741 -0.22746929372458149 0 -0.17341638050954741 -0.22746929372458149 0 -0.18801097387727589 -0.23355706265444731 0 -0.18656482885541731 -0.22487143914364949 0 -0.17341638050954741 -0.22746929372458149 0 -0.18801097387727589 -0.23355706265444731 0 -0.17341638050954741 -0.22746929372458149 0 -0.17525742040752709 -0.23774388118707129 0 -0.18801097387727589 -0.23355706265444731 0 -0.17637727673339379 -0.25132354081323011 0 -0.17525742040752709 -0.23774388118707129 0 -0.18801097387727589 -0.23355706265444731 0 -0.17637727673339379 -0.25132354081323011 0 -0.18801097387727589 -0.23355706265444731 0 -0.17637727673339379 -0.25132354081323011 0 -0.1951871203824995 -0.2365504123579894 0 -0.18801097387727589 -0.23355706265444731 0 -0.17637727673339379 -0.25132354081323011 0 -0.17525742040752709 -0.23774388118707129 0 -0.1632250505098907 -0.23862562755602779 0 -0.16315446049666699 -0.2529892402972011 0 -0.17637727673339379 -0.25132354081323011 0 -0.1632250505098907 -0.23862562755602779 0 -0.17341638050954741 -0.22746929372458149 0 -0.17525742040752709 -0.23774388118707129 0 -0.1632250505098907 -0.23862562755602779 0 -0.16315446049666699 -0.2529892402972011 0 -0.1545873459861043 -0.2472905373035425 0 -0.1632250505098907 -0.23862562755602779 0 -0.21328338570417679 -0.2440988160028281 0 -0.1951871203824995 -0.2365504123579894 0 -0.21328338570417679 -0.2440988160028281 0 -0.1951871203824995 -0.2365504123579894 0 -0.20855951036462081 -0.22995779869371291 0 -0.20139530574148681 -0.25048772882533799 0 -0.21328338570417679 -0.2440988160028281 0 -0.1951871203824995 -0.2365504123579894 0 -0.18998674056478279 -0.26279643774595629 0 -0.20139530574148681 -0.25048772882533799 0 -0.1951871203824995 -0.2365504123579894 0 -0.18998674056478279 -0.26279643774595629 0 -0.1951871203824995 -0.2365504123579894 0 -0.1951871203824995 -0.2365504123579894 0 -0.18801097387727589 -0.23355706265444731 0 -0.1951871203824995 -0.2365504123579894 0 -0.20090381621664019 -0.22811455922117041 0 -0.1987112644161049 -0.21876425499665669 0 -0.1951871203824995 -0.2365504123579894 0 -0.20090381621664019 -0.22811455922117041 0 -0.20855951036462081 -0.22995779869371291 0 -0.1951871203824995 -0.2365504123579894 0 -0.18801097387727589 -0.23355706265444731 0 -0.19649878115773761 -0.22059485117524849 0 -0.1951871203824995 -0.2365504123579894 0 -0.1987112644161049 -0.21876425499665669 0 -0.1951871203824995 -0.2365504123579894 0 -0.19649878115773761 -0.22059485117524849 0 -0.1987112644161049 -0.21876425499665669 0 -0.18801097387727589 -0.23355706265444731 0 -0.19649878115773761 -0.22059485117524849 0 -0.18656482885541731 -0.22487143914364949 0 -0.18801097387727589 -0.23355706265444731 0 -0.19649878115773761 -0.22059485117524849 0 -0.18656482885541731 -0.22487143914364949 0 -0.19649878115773761 -0.22059485117524849 0 -0.1892735351187502 -0.218584997407618 0 -0.20090381621664019 -0.22811455922117041 0 -0.1987112644161049 -0.21876425499665669 0 -0.20456788120889099 -0.22191920467195941 0 -0.20456788120889099 -0.22191920467195941 0 -0.20855951036462081 -0.22995779869371291 0 -0.21098309712108909 -0.21783888475757979 0 -0.21328338570417679 -0.2440988160028281 0 -0.20855951036462081 -0.22995779869371291 0 -0.2236332570232305 -0.21989118175291711 0 -0.21328338570417679 -0.2440988160028281 0 -0.2236332570232305 -0.21989118175291711 0 -0.20090381621664019 -0.22811455922117041 0 -0.20456788120889099 -0.22191920467195941 0 -0.20855951036462081 -0.22995779869371291 0 -0.20855951036462081 -0.22995779869371291 0 -0.21098309712108909 -0.21783888475757979 0 -0.2236332570232305 -0.21989118175291711 0 -0.21098309712108909 -0.21783888475757979 0 -0.20901225026099671 -0.20546174141574761 0 -0.2236332570232305 -0.21989118175291711 0 -0.20901225026099671 -0.20546174141574761 0 -0.20456987196390469 -0.21354902408537449 0 -0.1985236372420271 -0.20994835831692579 0 -0.21098309712108909 -0.21783888475757979 0 -0.20901225026099671 -0.20546174141574761 0 -0.20456987196390469 -0.21354902408537449 0 -0.20456788120889099 -0.22191920467195941 0 -0.21098309712108909 -0.21783888475757979 0 -0.20456987196390469 -0.21354902408537449 0 -0.1987112644161049 -0.21876425499665669 0 -0.20456788120889099 -0.22191920467195941 0 -0.20456987196390469 -0.21354902408537449 0 -0.1987112644161049 -0.21876425499665669 0 -0.20456987196390469 -0.21354902408537449 0 -0.1985236372420271 -0.20994835831692579 0 -0.1987112644161049 -0.21876425499665669 0 -0.19441428023116339 -0.2156727308840248 0 -0.1985236372420271 -0.20994835831692579 0 -0.19649878115773761 -0.22059485117524849 0 -0.1987112644161049 -0.21876425499665669 0 -0.19441428023116339 -0.2156727308840248 0 -0.19649878115773761 -0.22059485117524849 0 -0.19441428023116339 -0.2156727308840248 0 -0.1892735351187502 -0.218584997407618 0 -0.19441428023116339 -0.2156727308840248 0 -0.1903617827462977 -0.2108340014449801 0 -0.1985236372420271 -0.20994835831692579 0 -0.19441428023116339 -0.2156727308840248 0 -0.1892735351187502 -0.218584997407618 0 -0.1903617827462977 -0.2108340014449801 0 -0.18024571315628821 -0.20291913897854719 0 -0.1903617827462977 -0.2108340014449801 0 -0.19398690136803029 -0.1988610726103944 0 -0.1903617827462977 -0.2108340014449801 0 -0.1985236372420271 -0.20994835831692579 0 -0.19398690136803029 -0.1988610726103944 0 -0.20901225026099671 -0.20546174141574761 0 -0.1985236372420271 -0.20994835831692579 0 -0.19398690136803029 -0.1988610726103944 0 -0.17916723140271421 -0.17840002437411639 0 -0.19398690136803029 -0.1988610726103944 0 -0.20657517987249699 -0.18704178593855969 0 -0.20901225026099671 -0.20546174141574761 0 -0.19398690136803029 -0.1988610726103944 0 -0.20657517987249699 -0.18704178593855969 0 -0.20901225026099671 -0.20546174141574761 0 -0.23398312834227941 -0.1956835475030039 0 -0.20657517987249699 -0.18704178593855969 0 -0.23398312834227941 -0.1956835475030039 0 -0.20657517987249699 -0.18704178593855969 0 -0.23398312834227941 -0.1956835475030039 0 -0.24504024716200021 -0.19264976878867901 0 -0.24222288572303641 -0.17641132402963619 0 -0.23398312834227941 -0.1956835475030039 0 -0.25235756446763818 -0.201477030953672 0 -0.23398312834227941 -0.1956835475030039 0 -0.24504024716200021 -0.19264976878867901 0 -0.25235756446763818 -0.201477030953672 0 -0.23398312834227941 -0.1956835475030039 0 -0.24394874291565219 -0.21675591692375329 0 -0.25235756446763818 -0.201477030953672 0 -0.20901225026099671 -0.20546174141574761 0 -0.23398312834227941 -0.1956835475030039 0 -0.2236332570232305 -0.21989118175291711 0 -0.23398312834227941 -0.1956835475030039 0 -0.24394874291565219 -0.21675591692375329 0 -0.2236332570232305 -0.21989118175291711 0 -0.23398312834227941 -0.1956835475030039 0 -0.2236332570232305 -0.21989118175291711 0 -0.21328338570417679 -0.2440988160028281 0 -0.2236332570232305 -0.21989118175291711 0 -0.24002632773827151 -0.23693900435056189 0 -0.24394874291565219 -0.21675591692375329 0 -0.24002632773827151 -0.23693900435056189 0 -0.25737524138608681 -0.23056732834211319 0 -0.24394874291565219 -0.21675591692375329 0 -0.2236332570232305 -0.21989118175291711 0 -0.24002632773827151 -0.23693900435056189 0 -0.25244940239910019 -0.26043593849293539 0 -0.2328663940516385 -0.25226737724788167 0 -0.24002632773827151 -0.23693900435056189 0 -0.2328663940516385 -0.25226737724788167 0 -0.21328338570417679 -0.2440988160028281 0 -0.2328663940516385 -0.25226737724788167 0 -0.21328338570417679 -0.2440988160028281 0 -0.24002632773827151 -0.23693900435056189 0 -0.20872368169478281 -0.1401506993408593 0 -0.20984716032453479 -0.16802825931762189 0 -0.22547328370890929 -0.15828101168524811 0 -0.20872368169478281 -0.1401506993408593 0 -0.19631651477357939 -0.15553401266546529 0 -0.20984716032453479 -0.16802825931762189 0 -0.20872368169478281 -0.1401506993408593 0 -0.22547328370890929 -0.15828101168524811 0 -0.20872368169478281 -0.1401506993408593 0 -0.2190385450891664 -0.12140794937950571 0 -0.19744881141458229 -0.12457945009389371 0 -0.18522550518482389 -0.14260284421114641 0 -0.20872368169478281 -0.1401506993408593 0 -0.19744881141458229 -0.12457945009389371 0 -0.18522550518482389 -0.14260284421114641 0 -0.18177795587056031 -0.12683496289893381 0 -0.19744881141458229 -0.12457945009389371 0 -0.18522550518482389 -0.14260284421114641 0 -0.20872368169478281 -0.1401506993408593 0 -0.19631651477357939 -0.15553401266546529 0 -0.17916723140271421 -0.17840002437411639 0 -0.19631651477357939 -0.15553401266546529 0 -0.17916723140271421 -0.17840002437411639 0 -0.19631651477357939 -0.15553401266546529 0 -0.20984716032453479 -0.16802825931762189 0 -0.17916723140271421 -0.17840002437411639 0 -0.20657517987249699 -0.18704178593855969 0 -0.20984716032453479 -0.16802825931762189 0 -0.17916723140271421 -0.17840002437411639 0 -0.20657517987249699 -0.18704178593855969 0 -0.20657517987249699 -0.18704178593855969 0 -0.20984716032453479 -0.16802825931762189 0 -0.22362032759425179 -0.17708918569481411 0 -0.22547328370890929 -0.15828101168524811 0 -0.24222288572303641 -0.17641132402963619 0 -0.20984716032453479 -0.16802825931762189 0 -0.22547328370890929 -0.15828101168524811 0 -0.22362032759425179 -0.17708918569481411 0 -0.22547328370890929 -0.15828101168524811 0 -0.22362032759425179 -0.17708918569481411 0 -0.24222288572303641 -0.17641132402963619 0 -0.23398312834227941 -0.1956835475030039 0 -0.22362032759425179 -0.17708918569481411 0 -0.24222288572303641 -0.17641132402963619 0 -0.23398312834227941 -0.1956835475030039 0 -0.20657517987249699 -0.18704178593855969 0 -0.22362032759425179 -0.17708918569481411 0 -0.24504024716200021 -0.19264976878867901 0 -0.24222288572303641 -0.17641132402963619 0 -0.25647744315801629 -0.1918409192169887 0 -0.23398312834227941 -0.1956835475030039 0 -0.24222288572303641 -0.17641132402963619 0 -0.24222288572303641 -0.17641132402963619 0 -0.25647744315801629 -0.1918409192169887 0 -0.22547328370890929 -0.15828101168524811 0 -0.24222288572303641 -0.17641132402963619 0 -0.25247834534795749 -0.15242451221220529 0 -0.24222288572303641 -0.17641132402963619 0 -0.25247834534795749 -0.15242451221220529 0 -0.23575844521856229 -0.13691623079585519 0 -0.25247834534795749 -0.15242451221220529 0 -0.22547328370890929 -0.15828101168524811 0 -0.23575844521856229 -0.13691623079585519 0 -0.25247834534795749 -0.15242451221220529 0 -0.20872368169478281 -0.1401506993408593 0 -0.22547328370890929 -0.15828101168524811 0 -0.23575844521856229 -0.13691623079585519 0 -0.23575844521856229 -0.13691623079585519 0 -0.2190385450891664 -0.12140794937950571 0 -0.20872368169478281 -0.1401506993408593 0 -0.23575844521856229 -0.13691623079585519 0 -0.2190385450891664 -0.12140794937950571 0 -0.23575844521856229 -0.13691623079585519 0 -0.2388587585210471 -0.1154889826266227 0 -0.26320209547441559 -0.12734240125195009 0 -0.2388587585210471 -0.1154889826266227 0 -0.2424488268228237 -0.095069973537377062 0 -0.22396370301556279 -0.10182134705103341 0 -0.2388587585210471 -0.1154889826266227 0 -0.2424488268228237 -0.095069973537377062 0 -0.25485205480712741 -0.1050993971302407 0 -0.2424488268228237 -0.095069973537377062 0 -0.22396370301556279 -0.10182134705103341 0 -0.23101478203134879 -0.085842567727191982 0 -0.23575844521856229 -0.13691623079585519 0 -0.2388587585210471 -0.1154889826266227 0 -0.2190385450891664 -0.12140794937950571 0 -0.2388587585210471 -0.1154889826266227 0 -0.22396370301556279 -0.10182134705103341 0 -0.2190385450891664 -0.12140794937950571 0 -0.23706814196845991 -0.058727718000564449 0 -0.25435412317631328 -0.057439415585967837 0 -0.25135042489119219 -0.073388271780483294 0 -0.22346781773761121 -0.070792702405703317 0 -0.23706814196845991 -0.058727718000564449 0 -0.25135042489119219 -0.073388271780483294 0 -0.23101478203134879 -0.085842567727191982 0 -0.22346781773761121 -0.070792702405703317 0 -0.25135042489119219 -0.073388271780483294 0 -0.22346781773761121 -0.070792702405703317 0 -0.25135042489119219 -0.073388271780483294 0 -0.2424488268228237 -0.095069973537377062 0 -0.23101478203134879 -0.085842567727191982 0 -0.25135042489119219 -0.073388271780483294 0 -0.22396370301556279 -0.10182134705103341 0 -0.23101478203134879 -0.085842567727191982 0 -0.2138431376895541 -0.088140543861362844 0 -0.23101478203134879 -0.085842567727191982 0 -0.22346781773761121 -0.070792702405703317 0 -0.2138431376895541 -0.088140543861362844 0 -0.22346781773761121 -0.070792702405703317 0 -0.20897509672737691 -0.062621783359424615 0 -0.22383408816135239 -0.058893339907846558 0 -0.22346781773761121 -0.070792702405703317 0 -0.22383408816135239 -0.058893339907846558 0 -0.23706814196845991 -0.058727718000564449 0 -0.22346781773761121 -0.070792702405703317 0 -0.20954582970461699 -0.074490590753222882 0 -0.2138431376895541 -0.088140543861362844 0 -0.22346781773761121 -0.070792702405703317 0 -0.20954582970461699 -0.074490590753222882 0 -0.19558521058403011 -0.068197133030924645 0 -0.22346781773761121 -0.070792702405703317 0 -0.20897509672737691 -0.062621783359424615 0 -0.19558521058403011 -0.068197133030924645 0 -0.22346781773761121 -0.070792702405703317 0 -0.19558521058403011 -0.068197133030924645 0 -0.2138431376895541 -0.088140543861362844 0 -0.19984261120375599 -0.085806470873255727 0 -0.20231864495977059 -0.1058996679631561 0 -0.20954582970461699 -0.074490590753222882 0 -0.2138431376895541 -0.088140543861362844 0 -0.19984261120375599 -0.085806470873255727 0 -0.20954582970461699 -0.074490590753222882 0 -0.19984261120375599 -0.085806470873255727 0 -0.20060417953638809 -0.075577391947457759 0 -0.1884748162232513 -0.084485650401353377 0 -0.19984261120375599 -0.085806470873255727 0 -0.18738270871644869 -0.09672235426832386 0 -0.1884748162232513 -0.084485650401353377 0 -0.19984261120375599 -0.085806470873255727 0 -0.19553878650145051 -0.077851969893722728 0 -0.1884748162232513 -0.084485650401353377 0 -0.19553878650145051 -0.077851969893722728 0 -0.1871131269012091 -0.075045366467340169 0 -0.19984261120375599 -0.085806470873255727 0 -0.19553878650145051 -0.077851969893722728 0 -0.20060417953638809 -0.075577391947457759 0 -0.20954582970461699 -0.074490590753222882 0 -0.20060417953638809 -0.075577391947457759 0 -0.19558521058403011 -0.068197133030924645 0 -0.19553878650145051 -0.077851969893722728 0 -0.19558521058403011 -0.068197133030924645 0 -0.19553878650145051 -0.077851969893722728 0 -0.20060417953638809 -0.075577391947457759 0 -0.19558521058403011 -0.068197133030924645 0 -0.19553878650145051 -0.077851969893722728 0 -0.19203387275826789 -0.072190554688036257 0 -0.19558521058403011 -0.068197133030924645 0 -0.19553878650145051 -0.077851969893722728 0 -0.19203387275826789 -0.072190554688036257 0 -0.1871131269012091 -0.075045366467340169 0 -0.19203387275826789 -0.072190554688036257 0 -0.18989836704638199 -0.0676677493601575 0 -0.1871131269012091 -0.075045366467340169 0 -0.18989836704638199 -0.0676677493601575 0 -0.19558521058403011 -0.068197133030924645 0 -0.19203387275826789 -0.072190554688036257 0 -0.18989836704638199 -0.0676677493601575 0 -0.19558521058403011 -0.068197133030924645 0 -0.2190385450891664 -0.12140794937950571 0 -0.20231864495977059 -0.1058996679631561 0 -0.19744881141458229 -0.12457945009389371 0 -0.22396370301556279 -0.10182134705103341 0 -0.2190385450891664 -0.12140794937950571 0 -0.20231864495977059 -0.1058996679631561 0 -0.2190385450891664 -0.12140794937950571 0 -0.20231864495977059 -0.1058996679631561 0 -0.22396370301556279 -0.10182134705103341 0 -0.2138431376895541 -0.088140543861362844 0 -0.20231864495977059 -0.1058996679631561 0 -0.19984261120375599 -0.085806470873255727 0 -0.20231864495977059 -0.1058996679631561 0 -0.18738270871644869 -0.09672235426832386 0 -0.20231864495977059 -0.1058996679631561 0 -0.18122438943255531 -0.1118817444430695 0 -0.18738270871644869 -0.09672235426832386 0 -0.20231864495977059 -0.1058996679631561 0 -0.19744881141458229 -0.12457945009389371 0 -0.18122438943255531 -0.1118817444430695 0 -0.16888661091080351 -0.12613169669527621 0 -0.18122438943255531 -0.1118817444430695 0 -0.16650817730761611 -0.1094285293704213 0 -0.18177795587056031 -0.12683496289893381 0 -0.19744881141458229 -0.12457945009389371 0 -0.18122438943255531 -0.1118817444430695 0 -0.18177795587056031 -0.12683496289893381 0 -0.16888661091080351 -0.12613169669527621 0 -0.18122438943255531 -0.1118817444430695 0 -0.15337953675811519 -0.12596595461133181 0 -0.16650817730761611 -0.1094285293704213 0 -0.1506045199642228 -0.11150442852423641 0 -0.15337953675811519 -0.12596595461133181 0 -0.16888661091080351 -0.12613169669527621 0 -0.16650817730761611 -0.1094285293704213 0 -0.16650817730761611 -0.1094285293704213 0 -0.1711937948674388 -0.097433906485085833 0 -0.15459371518640319 -0.096463408549400637 0 -0.16650817730761611 -0.1094285293704213 0 -0.1506045199642228 -0.11150442852423641 0 -0.15459371518640319 -0.096463408549400637 0 -0.18122438943255531 -0.1118817444430695 0 -0.1711937948674388 -0.097433906485085833 0 -0.18738270871644869 -0.09672235426832386 0 -0.1711937948674388 -0.097433906485085833 0 -0.18738270871644869 -0.09672235426832386 0 -0.17920664998699001 -0.088971107458240273 0 -0.18122438943255531 -0.1118817444430695 0 -0.16650817730761611 -0.1094285293704213 0 -0.1711937948674388 -0.097433906485085833 0 -0.1884748162232513 -0.084485650401353377 0 -0.18738270871644869 -0.09672235426832386 0 -0.17920664998699001 -0.088971107458240273 0 -0.1884748162232513 -0.084485650401353377 0 -0.17945757817403599 -0.079668266612598904 0 -0.1871131269012091 -0.075045366467340169 0 -0.1884748162232513 -0.084485650401353377 0 -0.17945757817403599 -0.079668266612598904 0 -0.17920664998699001 -0.088971107458240273 0 -0.17945757817403599 -0.079668266612598904 0 -0.17118170438914751 -0.075964782909519468 0 -0.16757977247710931 -0.084644604647166596 0 -0.17945757817403599 -0.079668266612598904 0 -0.17920664998699001 -0.088971107458240273 0 -0.16757977247710931 -0.084644604647166596 0 -0.1711937948674388 -0.097433906485085833 0 -0.17920664998699001 -0.088971107458240273 0 -0.16757977247710931 -0.084644604647166596 0 -0.18989836704638199 -0.0676677493601575 0 -0.17697006215818711 -0.068340833925598005 0 -0.1717260904099239 -0.055187128190487433 0 -0.18989836704638199 -0.0676677493601575 0 -0.1871131269012091 -0.075045366467340169 0 -0.17697006215818711 -0.068340833925598005 0 -0.17945757817403599 -0.079668266612598904 0 -0.1871131269012091 -0.075045366467340169 0 -0.17697006215818711 -0.068340833925598005 0 -0.17945757817403599 -0.079668266612598904 0 -0.17697006215818711 -0.068340833925598005 0 -0.17118170438914751 -0.075964782909519468 0 -0.17697006215818711 -0.068340833925598005 0 -0.16071940474725749 -0.071205426452714396 0 -0.1717260904099239 -0.055187128190487433 0 -0.17697006215818711 -0.068340833925598005 0 -0.17118170438914751 -0.075964782909519468 0 -0.16071940474725749 -0.071205426452714396 0 -0.17118170438914751 -0.075964782909519468 0 -0.16071940474725749 -0.071205426452714396 0 -0.16757977247710931 -0.084644604647166596 0 -0.1711937948674388 -0.097433906485085833 0 -0.16757977247710931 -0.084644604647166596 0 -0.15459371518640319 -0.096463408549400637 0 -0.16071940474725749 -0.071205426452714396 0 -0.16757977247710931 -0.084644604647166596 0 -0.15593216693945819 -0.08393691967323498 0 -0.16757977247710931 -0.084644604647166596 0 -0.15593216693945819 -0.08393691967323498 0 -0.15459371518640319 -0.096463408549400637 0 -0.16071940474725749 -0.071205426452714396 0 -0.15593216693945819 -0.08393691967323498 0 -0.14083577534706279 -0.083434239043658265 0 -0.15593216693945819 -0.08393691967323498 0 -0.14083577534706279 -0.083434239043658265 0 -0.15459371518640319 -0.096463408549400637 0 -0.16071940474725749 -0.071205426452714396 0 -0.14083577534706279 -0.083434239043658265 0 -0.14777939183958561 -0.06039084091583146 0 -0.1238326932692472 -0.065594553641175501 0 -0.12863804936774489 -0.076802340418861664 0 -0.14777939183958561 -0.06039084091583146 0 -0.14083577534706279 -0.083434239043658265 0 -0.12863804936774489 -0.076802340418861664 0 -0.14777939183958561 -0.06039084091583146 0 -0.1238326932692472 -0.065594553641175501 0 -0.14777939183958561 -0.06039084091583146 0 -0.1147765590452736 -0.097427281403426852 0 -0.14083577534706279 -0.083434239043658265 0 -0.12863804936774489 -0.076802340418861664 0 -0.1147765590452736 -0.097427281403426852 0 -0.14083577534706279 -0.083434239043658265 0 -0.1147765590452736 -0.097427281403426852 0 -0.14083577534706279 -0.083434239043658265 0 -0.13825484837715321 -0.1044677489412378 0 -0.1147765590452736 -0.097427281403426852 0 -0.13825484837715321 -0.1044677489412378 0 -0.12682245530800421 -0.1162709151799925 0 -0.13825484837715321 -0.1044677489412378 0 -0.12682245530800421 -0.1162709151799925 0 -0.14028391624781639 -0.1208831083471215 0 -0.12986188190646511 -0.13074954693054719 0 -0.12682245530800421 -0.1162709151799925 0 -0.14028391624781639 -0.1208831083471215 0 -0.13825484837715321 -0.1044677489412378 0 -0.14028391624781639 -0.1208831083471215 0 -0.1506045199642228 -0.11150442852423641 0 -0.15337953675811519 -0.12596595461133181 0 -0.14028391624781639 -0.1208831083471215 0 -0.1506045199642228 -0.11150442852423641 0 -0.14083577534706279 -0.083434239043658265 0 -0.13825484837715321 -0.1044677489412378 0 -0.15459371518640319 -0.096463408549400637 0 -0.13825484837715321 -0.1044677489412378 0 -0.1506045199642228 -0.11150442852423641 0 -0.15459371518640319 -0.096463408549400637 0 -0.15108448360991891 -0.012011959110182791 0 -0.1375111245095775 -0.034886461439568667 0 -0.16665470367514029 -0.029385431790186829 0 -0.15108448360991891 -0.012011959110182791 0 -0.12901753950566691 -0.01634088936833427 0 -0.13711919296946221 0.0059281162406943227 0 -0.1093222308133128 -0.0073945743824425439 0 -0.12901753950566691 -0.01634088936833427 0 -0.13711919296946221 0.0059281162406943227 0 -0.15108448360991891 -0.012011959110182791 0 -0.12901753950566691 -0.01634088936833427 0 -0.1375111245095775 -0.034886461439568667 0 -0.1375111245095775 -0.034886461439568667 0 -0.12821861588022959 -0.047235600070347973 0 -0.13686423089381769 -0.056586311068690803 0 -0.1238326932692472 -0.065594553641175501 0 -0.13686423089381769 -0.056586311068690803 0 -0.14777939183958561 -0.06039084091583146 0 -0.1238326932692472 -0.065594553641175501 0 -0.12623174269787471 -0.061121217968830147 0 -0.13686423089381769 -0.056586311068690803 0 -0.12623174269787471 -0.061121217968830147 0 -0.12727364551370651 -0.054041068104789577 0 -0.13686423089381769 -0.056586311068690803 0 -0.12727364551370651 -0.054041068104789577 0 -0.12821861588022959 -0.047235600070347973 0 -0.13686423089381769 -0.056586311068690803 0 -0.13686423089381769 -0.056586311068690803 0 -0.14777939183958561 -0.06039084091583146 0 -0.1569157203892915 -0.046068224775286881 0 -0.1375111245095775 -0.034886461439568667 0 -0.16665470367514029 -0.029385431790186829 0 -0.1375111245095775 -0.034886461439568667 0 -0.13686423089381769 -0.056586311068690803 0 -0.1569157203892915 -0.046068224775286881 0 -0.1375111245095775 -0.034886461439568667 0 -0.1569157203892915 -0.046068224775286881 0 -0.16665470367514029 -0.029385431790186829 0 -0.1569157203892915 -0.046068224775286881 0 -0.18095878100770391 -0.039973175246956143 0 -0.16665470367514029 -0.029385431790186829 0 -0.1569157203892915 -0.046068224775286881 0 -0.1717260904099239 -0.055187128190487433 0 -0.18095878100770391 -0.039973175246956143 0 -0.16071940474725749 -0.071205426452714396 0 -0.14777939183958561 -0.06039084091583146 0 -0.1717260904099239 -0.055187128190487433 0 -0.14777939183958561 -0.06039084091583146 0 -0.1717260904099239 -0.055187128190487433 0 -0.14777939183958561 -0.06039084091583146 0 -0.1569157203892915 -0.046068224775286881 0 -0.1717260904099239 -0.055187128190487433 0 -0.18989836704638199 -0.0676677493601575 0 -0.1717260904099239 -0.055187128190487433 0 -0.19567278898026219 -0.049983415465143982 0 -0.1717260904099239 -0.055187128190487433 0 -0.18095878100770391 -0.039973175246956143 0 -0.19567278898026219 -0.049983415465143982 0 -0.1717260904099239 -0.055187128190487433 0 -0.19567278898026219 -0.049983415465143982 0 -0.18095878100770391 -0.039973175246956143 0 -0.16665470367514029 -0.029385431790186829 0 -0.19579828284070311 -0.023884402140804461 0 -0.16665470367514029 -0.029385431790186829 0 -0.1781260474450464 -0.01153259009031803 0 -0.19579828284070311 -0.023884402140804461 0 -0.16665470367514029 -0.029385431790186829 0 -0.19579828284070311 -0.023884402140804461 0 -0.15108448360991891 -0.012011959110182791 0 -0.16665470367514029 -0.029385431790186829 0 -0.1781260474450464 -0.01153259009031803 0 -0.15108448360991891 -0.012011959110182791 0 -0.1781260474450464 -0.01153259009031803 0 -0.1671266295075636 0.0072413763392705629 0 -0.1781260474450464 -0.01153259009031803 0 -0.1671266295075636 0.0072413763392705629 0 -0.1959160645214538 0.00061070578357951683 0 -0.1781260474450464 -0.01153259009031803 0 -0.19579828284070311 -0.023884402140804461 0 -0.1959160645214538 0.00061070578357951683 0 -0.19579828284070311 -0.023884402140804461 0 -0.206216024381665 -0.021917989409861321 0 -0.1959160645214538 0.00061070578357951683 0 -0.19579828284070311 -0.023884402140804461 0 -0.1959160645214538 0.00061070578357951683 0 -0.19579828284070311 -0.023884402140804461 0 -0.206216024381665 -0.021917989409861321 0 -0.20461705089012969 -0.034641747977182259 0 -0.19579828284070311 -0.023884402140804461 0 -0.206216024381665 -0.021917989409861321 0 -0.206216024381665 -0.021917989409861321 0 -0.20461705089012969 -0.034641747977182259 0 -0.2150234198460837 -0.031264265215874977 0 -0.206216024381665 -0.021917989409861321 0 -0.21647262002942361 -0.016943677323925189 0 -0.2150234198460837 -0.031264265215874977 0 -0.206216024381665 -0.021917989409861321 0 -0.21647262002942361 -0.016943677323925189 0 -0.21305867300918269 -0.0060677175615454293 0 -0.206216024381665 -0.021917989409861321 0 -0.21305867300918269 -0.0060677175615454293 0 -0.1959160645214538 0.00061070578357951683 0 -0.18989836704638199 -0.0676677493601575 0 -0.19558521058403011 -0.068197133030924645 0 -0.19567278898026219 -0.049983415465143982 0 -0.19558521058403011 -0.068197133030924645 0 -0.19567278898026219 -0.049983415465143982 0 -0.20897509672737691 -0.062621783359424615 0 -0.19558521058403011 -0.068197133030924645 0 -0.19567278898026219 -0.049983415465143982 0 -0.19579828284070311 -0.023884402140804461 0 -0.19567278898026219 -0.049983415465143982 0 -0.20461705089012969 -0.034641747977182259 0 -0.18095878100770391 -0.039973175246956143 0 -0.19579828284070311 -0.023884402140804461 0 -0.19567278898026219 -0.049983415465143982 0 -0.19579828284070311 -0.023884402140804461 0 -0.19567278898026219 -0.049983415465143982 0 -0.20461705089012969 -0.034641747977182259 0 -0.2150234198460837 -0.031264265215874977 0 -0.21074904259611199 -0.046707285665418638 0 -0.2150234198460837 -0.031264265215874977 0 -0.21074904259611199 -0.046707285665418638 0 -0.22582529621196151 -0.043431155865692073 0 -0.21074904259611199 -0.046707285665418638 0 -0.22582529621196151 -0.043431155865692073 0 -0.19567278898026219 -0.049983415465143982 0 -0.20461705089012969 -0.034641747977182259 0 -0.21074904259611199 -0.046707285665418638 0 -0.20897509672737691 -0.062621783359424615 0 -0.22582529621196151 -0.043431155865692073 0 -0.20897509672737691 -0.062621783359424615 0 -0.19567278898026219 -0.049983415465143982 0 -0.21074904259611199 -0.046707285665418638 0 -0.20897509672737691 -0.062621783359424615 0 -0.21074904259611199 -0.046707285665418638 0 -0.22582529621196151 -0.043431155865692073 0 -0.19567278898026219 -0.049983415465143982 0 -0.21074904259611199 -0.046707285665418638 0 -0.20897509672737691 -0.062621783359424615 0 -0.22383408816135239 -0.058893339907846558 0 -0.22582529621196151 -0.043431155865692073 0 -0.22383408816135239 -0.058893339907846558 0 -0.22582529621196151 -0.043431155865692073 0 -0.23706814196845991 -0.058727718000564449 0 -0.2150234198460837 -0.031264265215874977 0 -0.22582529621196151 -0.043431155865692073 0 -0.22626048496721021 -0.023943735053168672 0 -0.22582529621196151 -0.043431155865692073 0 -0.2407565603838521 -0.040186532848098491 0 -0.22582529621196151 -0.043431155865692073 0 -0.24403302935753249 -0.022694438497941449 0 -0.22582529621196151 -0.043431155865692073 0 -0.2407565603838521 -0.040186532848098491 0 -0.24403302935753249 -0.022694438497941449 0 -0.2407565603838521 -0.040186532848098491 0 -0.24403302935753249 -0.022694438497941449 0 -0.25568782455574252 -0.036941909830504313 0 -0.22582529621196151 -0.043431155865692073 0 -0.2407565603838521 -0.040186532848098491 0 -0.24418220592985579 -0.050324971724095682 0 -0.2407565603838521 -0.040186532848098491 0 -0.25568782455574252 -0.036941909830504313 0 -0.2407565603838521 -0.040186532848098491 0 -0.24418220592985579 -0.050324971724095682 0 -0.25251482674017051 -0.045305150956696849 0 -0.2407565603838521 -0.040186532848098491 0 -0.25251482674017051 -0.045305150956696849 0 -0.25568782455574252 -0.036941909830504313 0 -0.24418220592985579 -0.050324971724095682 0 -0.23706814196845991 -0.058727718000564449 0 -0.25435412317631328 -0.057439415585967837 0 -0.22582529621196151 -0.043431155865692073 0 -0.24418220592985579 -0.050324971724095682 0 -0.23706814196845991 -0.058727718000564449 0 -0.21647262002942361 -0.016943677323925189 0 -0.23032236358522429 -0.0059337563736012074 0 -0.22626048496721021 -0.023943735053168672 0 -0.21647262002942361 -0.016943677323925189 0 -0.21305867300918269 -0.0060677175615454293 0 -0.23032236358522429 -0.0059337563736012074 0 -0.21305867300918269 -0.0060677175615454293 0 -0.23032236358522429 -0.0059337563736012074 0 -0.2166116978129177 0.01082692575074028 0 -0.22582529621196151 -0.043431155865692073 0 -0.22626048496721021 -0.023943735053168672 0 -0.24403302935753249 -0.022694438497941449 0 -0.23032236358522429 -0.0059337563736012074 0 -0.22626048496721021 -0.023943735053168672 0 -0.24403302935753249 -0.022694438497941449 0 -0.21647262002942361 -0.016943677323925189 0 -0.2150234198460837 -0.031264265215874977 0 -0.22626048496721021 -0.023943735053168672 0 -0.24403302935753249 -0.022694438497941449 0 -0.25568782455574252 -0.036941909830504313 0 -0.25807201738883828 -0.0067054889342117539 0 -0.23734185760087881 0.0020607184082661809 0 -0.24403302935753249 -0.022694438497941449 0 -0.24274351442336881 -0.0097611162907823429 0 -0.25807201738883828 -0.0067054889342117539 0 -0.23032236358522429 -0.0059337563736012074 0 -0.24403302935753249 -0.022694438497941449 0 -0.24274351442336881 -0.0097611162907823429 0 -0.23032236358522429 -0.0059337563736012074 0 -0.24403302935753249 -0.022694438497941449 0 -0.24274351442336881 -0.0097611162907823429 0 -0.25807201738883828 -0.0067054889342117539 0 -0.23734185760087881 0.0020607184082661809 0 -0.23032236358522429 -0.0059337563736012074 0 -0.24274351442336881 -0.0097611162907823429 0 -0.23734185760087881 0.0020607184082661809 0 -0.24403302935753249 -0.022694438497941449 0 -0.25807201738883828 -0.0067054889342117539 0 -0.24403302935753249 -0.022694438497941449 0 -0.25807201738883828 -0.0067054889342117539 0 -0.26540881696594631 -0.022875190497903451 0 -0.24403302935753249 -0.022694438497941449 0 -0.26540881696594631 -0.022875190497903451 0 -0.25568782455574252 -0.036941909830504313 0 -0.26540881696594631 -0.022875190497903451 0 -0.28009097575211611 -0.0316390081363064 0 -0.25568782455574252 -0.036941909830504313 0 -0.26540881696594631 -0.022875190497903451 0 -0.28128307216866377 -0.0165207976881632 0 -0.28009097575211611 -0.0316390081363064 0 -0.25807201738883828 -0.0067054889342117539 0 -0.26540881696594631 -0.022875190497903451 0 -0.28128307216866377 -0.0165207976881632 0 -0.25807201738883828 -0.0067054889342117539 0 -0.28128307216866377 -0.0165207976881632 0 -0.25807201738883828 -0.0067054889342117539 0 -0.28128307216866377 -0.0165207976881632 0 -0.27077045769226621 0.0077567159695035651 0 -0.28128307216866377 -0.0165207976881632 0 -0.30449412694849032 -0.02633610644211189 0 -0.29788531652794809 -0.001210280655613488 0 -0.28128307216866377 -0.0165207976881632 0 -0.29788531652794809 -0.001210280655613488 0 -0.27077045769226621 0.0077567159695035651 0 -0.30449412694849032 -0.02633610644211189 0 -0.28009097575211611 -0.0316390081363064 0 -0.28128307216866377 -0.0165207976881632 0 -0.30449412694849032 -0.02633610644211189 0 -0.28128307216866377 -0.0165207976881632 0 -0.30449412694849032 -0.02633610644211189 0 -0.28009097575211611 -0.0316390081363064 0 -0.30449412694849032 -0.02633610644211189 0 -0.30658077314070409 -0.02588266993553719 0 -0.29788531652794809 -0.001210280655613488 0 -0.30658077314070409 -0.02588266993553719 0 -0.31230173506020248 -0.024639482184445581 0 -0.29788531652794809 -0.001210280655613488 0 -0.30658077314070409 -0.02588266993553719 0 -0.31230173506020248 -0.024639482184445581 0 -0.31645896114226563 -0.03139570166153835 0 -0.30658077314070409 -0.02588266993553719 0 -0.31645896114226563 -0.03139570166153835 0 -0.30449412694849032 -0.02633610644211189 0 -0.30658077314070409 -0.02588266993553719 0 -0.30658077314070409 -0.02588266993553719 0 -0.31230173506020248 -0.024639482184445581 0 -0.31230173506020248 -0.024639482184445581 0 -0.29788531652794809 -0.001210280655613488 0 -0.31576693495074748 -0.0094507015710058578 0 -0.31230173506020248 -0.024639482184445581 0 -0.29788531652794809 -0.001210280655613488 0 -0.29788531652794809 -0.001210280655613488 0 -0.31576693495074748 -0.0094507015710058578 0 -0.31812509627846491 0.0064589535239619484 0 -0.30359434423959869 -0.061323070187857383 0 -0.29537334585379671 -0.052096068371187763 0 -0.29480598093990812 -0.069864498002154912 0 -0.30700593521419389 -0.053048386447658608 0 -0.30831018647425729 -0.042804937645395953 0 -0.29537334585379671 -0.052096068371187763 0 -0.30359434423959869 -0.061323070187857383 0 -0.30700593521419389 -0.053048386447658608 0 -0.29537334585379671 -0.052096068371187763 0 -0.30359434423959869 -0.061323070187857383 0 -0.30700593521419389 -0.053048386447658608 0 -0.31255956037629562 -0.061538115634515077 0 -0.30700593521419389 -0.053048386447658608 0 -0.31661559418077279 -0.050470574335662877 0 -0.31255956037629562 -0.061538115634515077 0 -0.30700593521419389 -0.053048386447658608 0 -0.30831018647425729 -0.042804937645395953 0 -0.31661559418077279 -0.050470574335662877 0 -0.30658077314070409 -0.02588266993553719 0 -0.29537334585379671 -0.052096068371187763 0 -0.30658077314070409 -0.02588266993553719 0 -0.30831018647425729 -0.042804937645395953 0 -0.29537334585379671 -0.052096068371187763 0 -0.30449412694849032 -0.02633610644211189 0 -0.30658077314070409 -0.02588266993553719 0 -0.29537334585379671 -0.052096068371187763 0 -0.30658077314070409 -0.02588266993553719 0 -0.30831018647425729 -0.042804937645395953 0 -0.31645896114226563 -0.03139570166153835 0 -0.29537334585379671 -0.052096068371187763 0 -0.28009097575211611 -0.0316390081363064 0 -0.27549319006493761 -0.046867527200876842 0 -0.30449412694849032 -0.02633610644211189 0 -0.29537334585379671 -0.052096068371187763 0 -0.28009097575211611 -0.0316390081363064 0 -0.29537334585379671 -0.052096068371187763 0 -0.28320839382113172 -0.057252506371788928 0 -0.28464959572733628 -0.077178179331441832 0 -0.29537334585379671 -0.052096068371187763 0 -0.28320839382113172 -0.057252506371788928 0 -0.27549319006493761 -0.046867527200876842 0 -0.28320839382113172 -0.057252506371788928 0 -0.27293489987212621 -0.054331695366237991 0 -0.27674954736535862 -0.064964165293487572 0 -0.28320839382113172 -0.057252506371788928 0 -0.27293489987212621 -0.054331695366237991 0 -0.27549319006493761 -0.046867527200876842 0 -0.27293489987212621 -0.054331695366237991 0 -0.27549319006493761 -0.046867527200876842 0 -0.263184282147918 -0.048485039854903919 0 -0.27293489987212621 -0.054331695366237991 0 -0.26428824824573161 -0.056934619983308912 0 -0.263184282147918 -0.048485039854903919 0 -0.27008471622495861 -0.060742563657445528 0 -0.26428824824573161 -0.056934619983308912 0 -0.26600623039907628 -0.065889336417882777 0 -0.27293489987212621 -0.054331695366237991 0 -0.27008471622495861 -0.060742563657445528 0 -0.26428824824573161 -0.056934619983308912 0 -0.27293489987212621 -0.054331695366237991 0 -0.27008471622495861 -0.060742563657445528 0 -0.27674954736535862 -0.064964165293487572 0 -0.28009097575211611 -0.0316390081363064 0 -0.25568782455574252 -0.036941909830504313 0 -0.28009097575211611 -0.0316390081363064 0 -0.27549319006493761 -0.046867527200876842 0 -0.2569239642473416 -0.038453035896612073 0 -0.27549319006493761 -0.046867527200876842 0 -0.2569239642473416 -0.038453035896612073 0 -0.263184282147918 -0.048485039854903919 0 -0.28009097575211611 -0.0316390081363064 0 -0.2569239642473416 -0.038453035896612073 0 -0.25568782455574252 -0.036941909830504313 0 -0.25251482674017051 -0.045305150956696849 0 -0.2569239642473416 -0.038453035896612073 0 -0.263184282147918 -0.048485039854903919 0 -0.25251482674017051 -0.045305150956696849 0 -0.2569239642473416 -0.038453035896612073 0 -0.25568782455574252 -0.036941909830504313 0 -0.2569239642473416 -0.038453035896612073 0 -0.25568782455574252 -0.036941909830504313 0 -0.26428824824573161 -0.056934619983308912 0 -0.25435412317631328 -0.057439415585967837 0 -0.26600623039907628 -0.065889336417882777 0 -0.26428824824573161 -0.056934619983308912 0 -0.263184282147918 -0.048485039854903919 0 -0.25435412317631328 -0.057439415585967837 0 -0.24418220592985579 -0.050324971724095682 0 -0.25251482674017051 -0.045305150956696849 0 -0.25435412317631328 -0.057439415585967837 0 -0.25251482674017051 -0.045305150956696849 0 -0.263184282147918 -0.048485039854903919 0 -0.25435412317631328 -0.057439415585967837 0 -0.25135042489119219 -0.073388271780483294 0 -0.27923303204477312 -0.075983841155263257 0 -0.25135042489119219 -0.073388271780483294 0 -0.27923303204477312 -0.075983841155263257 0 -0.26600623039907628 -0.065889336417882777 0 -0.25435412317631328 -0.057439415585967837 0 -0.25135042489119219 -0.073388271780483294 0 -0.26600623039907628 -0.065889336417882777 0 -0.2424488268228237 -0.095069973537377062 0 -0.25135042489119219 -0.073388271780483294 0 -0.26018054526468309 -0.090159354105593878 0 -0.25135042489119219 -0.073388271780483294 0 -0.26018054526468309 -0.090159354105593878 0 -0.27923303204477312 -0.075983841155263257 0 -0.26018054526468309 -0.090159354105593878 0 -0.27923303204477312 -0.075983841155263257 0 -0.27392584560087602 -0.10226029029169589 0 -0.27923303204477312 -0.075983841155263257 0 -0.27392584560087602 -0.10226029029169589 0 -0.28464959572733628 -0.077178179331441832 0 -0.27392584560087602 -0.10226029029169589 0 -0.28464959572733628 -0.077178179331441832 0 -0.27923303204477312 -0.075983841155263257 0 -0.27674954736535862 -0.064964165293487572 0 -0.28464959572733628 -0.077178179331441832 0 -0.27923303204477312 -0.075983841155263257 0 -0.27674954736535862 -0.064964165293487572 0 -0.26600623039907628 -0.065889336417882777 0 -0.27008471622495861 -0.060742563657445528 0 -0.27674954736535862 -0.064964165293487572 0 -0.26600623039907628 -0.065889336417882777 0 -0.25485205480712741 -0.1050993971302407 0 -0.27392584560087602 -0.10226029029169589 0 -0.26320209547441559 -0.12734240125195009 0 -0.2388587585210471 -0.1154889826266227 0 -0.25485205480712741 -0.1050993971302407 0 -0.26320209547441559 -0.12734240125195009 0 -0.26018054526468309 -0.090159354105593878 0 -0.25485205480712741 -0.1050993971302407 0 -0.27392584560087602 -0.10226029029169589 0 -0.2424488268228237 -0.095069973537377062 0 -0.26018054526468309 -0.090159354105593878 0 -0.25485205480712741 -0.1050993971302407 0 -0.27392584560087602 -0.10226029029169589 0 -0.28590485593654302 -0.1162217813546591 0 -0.26320209547441559 -0.12734240125195009 0 -0.27392584560087602 -0.10226029029169589 0 -0.26320209547441559 -0.12734240125195009 0 -0.28590485593654302 -0.1162217813546591 0 -0.29366328997302682 -0.095865448479101181 0 -0.30382234878046682 -0.123065486480607 0 -0.28590485593654302 -0.1162217813546591 0 -0.30382234878046682 -0.123065486480607 0 -0.28640073985259012 -0.1347470667266609 0 -0.27392584560087602 -0.10226029029169589 0 -0.28590485593654302 -0.1162217813546591 0 -0.29366328997302682 -0.095865448479101181 0 -0.29366328997302682 -0.095865448479101181 0 -0.31401849081056987 -0.091849665739069997 0 -0.31745655814297152 -0.1150407927092225 0 -0.29366328997302682 -0.095865448479101181 0 -0.30382234878046682 -0.123065486480607 0 -0.31745655814297152 -0.1150407927092225 0 -0.28320839382113172 -0.057252506371788928 0 -0.27674954736535862 -0.064964165293487572 0 -0.28464959572733628 -0.077178179331441832 0 -0.29537334585379671 -0.052096068371187763 0 -0.28464959572733628 -0.077178179331441832 0 -0.29537334585379671 -0.052096068371187763 0 -0.29480598093990812 -0.069864498002154912 0 -0.28464959572733628 -0.077178179331441832 0 -0.29366328997302682 -0.095865448479101181 0 -0.29480598093990812 -0.069864498002154912 0 -0.28464959572733628 -0.077178179331441832 0 -0.27392584560087602 -0.10226029029169589 0 -0.29366328997302682 -0.095865448479101181 0 -0.28464959572733628 -0.077178179331441832 0 -0.29366328997302682 -0.095865448479101181 0 -0.29480598093990812 -0.069864498002154912 0 -0.31401849081056987 -0.091849665739069997 0 -0.29480598093990812 -0.069864498002154912 0 -0.31401849081056987 -0.091849665739069997 0 -0.30359434423959869 -0.061323070187857383 0 -0.29480598093990812 -0.069864498002154912 0 -0.3122843794520852 -0.070340289106939152 0 -0.29480598093990812 -0.069864498002154912 0 -0.3122843794520852 -0.070340289106939152 0 -0.31401849081056987 -0.091849665739069997 0 -0.30359434423959869 -0.061323070187857383 0 -0.3122843794520852 -0.070340289106939152 0 -0.31255956037629562 -0.061538115634515077 0 -0.3122843794520852 -0.070340289106939152 0 -0.32098918369973872 -0.062669840065253696 0 -0.32717699483532758 -0.074101087148137804 0 -0.32098918369973872 -0.062669840065253696 0 -0.32717699483532758 -0.074101087148137804 0 -0.33112846539377988 -0.055236211748552651 0 -0.3122843794520852 -0.070340289106939152 0 -0.32098918369973872 -0.062669840065253696 0 -0.31255956037629562 -0.061538115634515077 0 -0.3122843794520852 -0.070340289106939152 0 -0.32717699483532758 -0.074101087148137804 0 -0.31401849081056987 -0.091849665739069997 0 -0.32717699483532758 -0.074101087148137804 0 -0.31401849081056987 -0.091849665739069997 0 -0.33274707512614832 -0.090027079850373504 0 -0.32717699483532758 -0.074101087148137804 0 -0.33274707512614832 -0.090027079850373504 0 -0.34579796964529519 -0.079076721835565994 0 -0.33274707512614832 -0.090027079850373504 0 -0.34351091965831682 -0.091273091053108629 0 -0.34579796964529519 -0.079076721835565994 0 -0.34579796964529519 -0.079076721835565994 0 -0.34544790865462349 -0.058156445657082799 0 -0.33112846539377988 -0.055236211748552651 0 -0.34579796964529519 -0.079076721835565994 0 -0.33112846539377988 -0.055236211748552651 0 -0.32717699483532758 -0.074101087148137804 0 -0.34579796964529519 -0.079076721835565994 0 -0.33112846539377988 -0.055236211748552651 0 -0.30382234878046682 -0.123065486480607 0 -0.31745655814297152 -0.1150407927092225 0 -0.31755518711615088 -0.13086095855508989 0 -0.31745655814297152 -0.1150407927092225 0 -0.33323100068123163 -0.11383483347598509 0 -0.31755518711615088 -0.13086095855508989 0 -0.31401849081056987 -0.091849665739069997 0 -0.33274707512614832 -0.090027079850373504 0 -0.33323100068123163 -0.11383483347598509 0 -0.31401849081056987 -0.091849665739069997 0 -0.31745655814297152 -0.1150407927092225 0 -0.33323100068123163 -0.11383483347598509 0 -0.31401849081056987 -0.091849665739069997 0 -0.33323100068123163 -0.11383483347598509 0 -0.33274707512614832 -0.090027079850373504 0 -0.34351091965831682 -0.091273091053108629 0 -0.33323100068123163 -0.11383483347598509 0 -0.34351091965831682 -0.091273091053108629 0 -0.33323100068123163 -0.11383483347598509 0 -0.34799621073203102 -0.106656851024408 0 -0.33323100068123163 -0.11383483347598509 0 -0.35244351055189332 -0.13582000121290011 0 -0.35477544869176492 -0.11860224764595891 0 -0.34799621073203102 -0.106656851024408 0 -0.36046747389681072 -0.1029172319225794 0 -0.33323100068123163 -0.11383483347598509 0 -0.35477544869176492 -0.11860224764595891 0 -0.34799621073203102 -0.106656851024408 0 -0.33323100068123163 -0.11383483347598509 0 -0.35477544869176492 -0.11860224764595891 0 -0.35244351055189332 -0.13582000121290011 0 -0.34351091965831682 -0.091273091053108629 0 -0.36046747389681072 -0.1029172319225794 0 -0.34351091965831682 -0.091273091053108629 0 -0.34799621073203102 -0.106656851024408 0 -0.36046747389681072 -0.1029172319225794 0 -0.37094166605301421 -0.11010990604995829 0 -0.36968027855177682 -0.080604785138471718 0 -0.36046747389681072 -0.1029172319225794 0 -0.37094166605301421 -0.11010990604995829 0 -0.36210597993665677 -0.09010388224082258 0 -0.37094166605301421 -0.11010990604995829 0 -0.36968027855177682 -0.080604785138471718 0 -0.37977089098186589 -0.095030352648071706 0 -0.36046747389681072 -0.1029172319225794 0 -0.37094166605301421 -0.11010990604995829 0 -0.36046747389681072 -0.1029172319225794 0 -0.37139327851899689 -0.1206735753434543 0 -0.35477544869176492 -0.11860224764595891 0 -0.36046747389681072 -0.1029172319225794 0 -0.37139327851899689 -0.1206735753434543 0 -0.35477544869176492 -0.11860224764595891 0 -0.37139327851899689 -0.1206735753434543 0 -0.3627457173198757 -0.1296576670166775 0 -0.36046747389681072 -0.1029172319225794 0 -0.37094166605301421 -0.11010990604995829 0 -0.37139327851899689 -0.1206735753434543 0 -0.37094166605301421 -0.11010990604995829 0 -0.37139327851899689 -0.1206735753434543 0 -0.35644230170932478 -0.067784401968771724 0 -0.34579796964529519 -0.079076721835565994 0 -0.34544790865462349 -0.058156445657082799 0 -0.35644230170932478 -0.067784401968771724 0 -0.35774944412546522 -0.079679460384449854 0 -0.36375586437706231 -0.076880968671442868 0 -0.35644230170932478 -0.067784401968771724 0 -0.34579796964529519 -0.079076721835565994 0 -0.35774944412546522 -0.079679460384449854 0 -0.36046747389681072 -0.1029172319225794 0 -0.34579796964529519 -0.079076721835565994 0 -0.36210597993665677 -0.09010388224082258 0 -0.36046747389681072 -0.1029172319225794 0 -0.34579796964529519 -0.079076721835565994 0 -0.34351091965831682 -0.091273091053108629 0 -0.36046747389681072 -0.1029172319225794 0 -0.34579796964529519 -0.079076721835565994 0 -0.34579796964529519 -0.079076721835565994 0 -0.35774944412546522 -0.079679460384449854 0 -0.36210597993665677 -0.09010388224082258 0 -0.37094166605301421 -0.11010990604995829 0 -0.36210597993665677 -0.09010388224082258 0 -0.36968027855177682 -0.080604785138471718 0 -0.35774944412546522 -0.079679460384449854 0 -0.36332289174774018 -0.081817274108796773 0 -0.36210597993665677 -0.09010388224082258 0 -0.35774944412546522 -0.079679460384449854 0 -0.36332289174774018 -0.081817274108796773 0 -0.36375586437706231 -0.076880968671442868 0 -0.36332289174774018 -0.081817274108796773 0 -0.36210597993665677 -0.09010388224082258 0 -0.36968027855177682 -0.080604785138471718 0 -0.36332289174774018 -0.081817274108796773 0 -0.36968027855177682 -0.080604785138471718 0 -0.36375586437706231 -0.076880968671442868 0 -0.36842737964278238 -0.07179880614865175 0 -0.3741991750753233 -0.05581243035603628 0 -0.36518138913774878 -0.061591732823419981 0 -0.36968027855177682 -0.080604785138471718 0 -0.36842737964278238 -0.07179880614865175 0 -0.38463213909761829 -0.073046525154530167 0 -0.36968027855177682 -0.080604785138471718 0 -0.36842737964278238 -0.07179880614865175 0 -0.36375586437706231 -0.076880968671442868 0 -0.35644230170932478 -0.067784401968771724 0 -0.36842737964278238 -0.07179880614865175 0 -0.36375586437706231 -0.076880968671442868 0 -0.35644230170932478 -0.067784401968771724 0 -0.36842737964278238 -0.07179880614865175 0 -0.36518138913774878 -0.061591732823419981 0 -0.3741991750753233 -0.05581243035603628 0 -0.36518138913774878 -0.061591732823419981 0 -0.35611198151912532 -0.048163859839503102 0 -0.3741991750753233 -0.05581243035603628 0 -0.35611198151912532 -0.048163859839503102 0 -0.36496310433840379 -0.040555469984515487 0 -0.3741991750753233 -0.05581243035603628 0 -0.35611198151912532 -0.048163859839503102 0 -0.3741991750753233 -0.05581243035603628 0 -0.36496310433840379 -0.040555469984515487 0 -0.35644230170932478 -0.067784401968771724 0 -0.35611198151912532 -0.048163859839503102 0 -0.34544790865462349 -0.058156445657082799 0 -0.35644230170932478 -0.067784401968771724 0 -0.36518138913774878 -0.061591732823419981 0 -0.35611198151912532 -0.048163859839503102 0 -0.35611198151912532 -0.048163859839503102 0 -0.34544790865462349 -0.058156445657082799 0 -0.33628547133069547 -0.039779780750520653 0 -0.35644230170932478 -0.067784401968771724 0 -0.35611198151912532 -0.048163859839503102 0 -0.35611198151912532 -0.048163859839503102 0 -0.34220315445687949 -0.02842192328530704 0 -0.33628547133069547 -0.039779780750520653 0 -0.35611198151912532 -0.048163859839503102 0 -0.35572703360148472 -0.025298509612994461 0 -0.35611198151912532 -0.048163859839503102 0 -0.35572703360148472 -0.025298509612994461 0 -0.34220315445687949 -0.02842192328530704 0 -0.35611198151912532 -0.048163859839503102 0 -0.33628547133069547 -0.039779780750520653 0 -0.35611198151912532 -0.048163859839503102 0 -0.36496310433840379 -0.040555469984515487 0 -0.35572703360148472 -0.025298509612994461 0 -0.36496310433840379 -0.040555469984515487 0 -0.35572703360148472 -0.025298509612994461 0 -0.3741991750753233 -0.05581243035603628 0 -0.36496310433840379 -0.040555469984515487 0 -0.37408921323493 -0.041816230709288152 0 -0.36496310433840379 -0.040555469984515487 0 -0.37408921323493 -0.041816230709288152 0 -0.37088339729497882 -0.026691286259717961 0 -0.37088339729497882 -0.026691286259717961 0 -0.35545561835894401 -0.0091768362825527475 0 -0.35572703360148472 -0.025298509612994461 0 -0.37088339729497882 -0.026691286259717961 0 -0.35545561835894401 -0.0091768362825527475 0 -0.37088339729497882 -0.026691286259717961 0 -0.36759554044300879 -0.01311597971742829 0 -0.35545561835894401 -0.0091768362825527475 0 -0.37088339729497882 -0.026691286259717961 0 -0.36759554044300879 -0.01311597971742829 0 -0.3774980877731845 -0.017962849169193901 0 -0.36496310433840379 -0.040555469984515487 0 -0.37088339729497882 -0.026691286259717961 0 -0.35572703360148472 -0.025298509612994461 0 -0.35539349731452408 -0.0054869359816589686 0 -0.38003189033049622 -0.0053871107684163432 0 -0.35539349731452408 -0.0054869359816589686 0 -0.38003189033049622 -0.0053871107684163432 0 -0.36281503973688012 0.0071193466643548094 0 -0.36759554044300879 -0.01311597971742829 0 -0.35539349731452408 -0.0054869359816589686 0 -0.38003189033049622 -0.0053871107684163432 0 -0.36759554044300879 -0.01311597971742829 0 -0.35539349731452408 -0.0054869359816589686 0 -0.35545561835894401 -0.0091768362825527475 0 -0.35539349731452408 -0.0054869359816589686 0 -0.35545561835894401 -0.0091768362825527475 0 -0.3522166704560451 -0.0054998072520526901 0 -0.35545561835894401 -0.0091768362825527475 0 -0.35539349731452408 -0.0054869359816589686 0 -0.3522166704560451 -0.0054998072520526901 0 -0.35545561835894401 -0.0091768362825527475 0 -0.35539349731452408 -0.0054869359816589686 0 -0.3522166704560451 -0.0054998072520526901 0 -0.35545561835894401 -0.0091768362825527475 0 -0.35063109634199219 -0.01193283810660953 0 -0.35033169560296512 -0.017084888515397009 0 -0.3522166704560451 -0.0054998072520526901 0 -0.35545561835894401 -0.0091768362825527475 0 -0.35063109634199219 -0.01193283810660953 0 -0.3522166704560451 -0.0054998072520526901 0 -0.35063109634199219 -0.01193283810660953 0 -0.34482107903482778 -0.01422058248514068 0 -0.35063109634199219 -0.01193283810660953 0 -0.34482107903482778 -0.01422058248514068 0 -0.35033169560296512 -0.017084888515397009 0 -0.35545561835894401 -0.0091768362825527475 0 -0.35572703360148472 -0.025298509612994461 0 -0.35545561835894401 -0.0091768362825527475 0 -0.35572703360148472 -0.025298509612994461 0 -0.35389278648843608 -0.022268537635463971 0 -0.35572703360148472 -0.025298509612994461 0 -0.35389278648843608 -0.022268537635463971 0 -0.35572703360148472 -0.025298509612994461 0 -0.35389278648843608 -0.022268537635463971 0 -0.34650283433678009 -0.021968812583474499 0 -0.35545561835894401 -0.0091768362825527475 0 -0.35389278648843608 -0.022268537635463971 0 -0.35033169560296512 -0.017084888515397009 0 -0.35389278648843608 -0.022268537635463971 0 -0.35033169560296512 -0.017084888515397009 0 -0.34650283433678009 -0.021968812583474499 0 -0.34482107903482778 -0.01422058248514068 0 -0.35033169560296512 -0.017084888515397009 0 -0.34650283433678009 -0.021968812583474499 0 -0.35572703360148472 -0.025298509612994461 0 -0.34650283433678009 -0.021968812583474499 0 -0.34220315445687949 -0.02842192328530704 0 -0.34220315445687949 -0.02842192328530704 0 -0.33428062770895522 -0.018103143632294819 0 -0.33157954364060271 -0.02766059646674987 0 -0.34650283433678009 -0.021968812583474499 0 -0.34220315445687949 -0.02842192328530704 0 -0.33428062770895522 -0.018103143632294819 0 -0.34482107903482778 -0.01422058248514068 0 -0.34650283433678009 -0.021968812583474499 0 -0.33428062770895522 -0.018103143632294819 0 -0.33428062770895522 -0.018103143632294819 0 -0.33157954364060271 -0.02766059646674987 0 -0.32324321663358258 -0.022261854774542341 0 -0.33428062770895522 -0.018103143632294819 0 -0.32727931025353929 -0.0056008437643897671 0 -0.32324321663358258 -0.022261854774542341 0 -0.3522166704560451 -0.0054998072520526901 0 -0.34482107903482778 -0.01422058248514068 0 -0.32727931025353929 -0.0056008437643897671 0 -0.3522166704560451 -0.0054998072520526901 0 -0.32727931025353929 -0.0056008437643897671 0 -0.34482107903482778 -0.01422058248514068 0 -0.33428062770895522 -0.018103143632294819 0 -0.32727931025353929 -0.0056008437643897671 0 -0.3522166704560451 -0.0054998072520526901 0 -0.32727931025353929 -0.0056008437643897671 0 -0.33659006994528012 0.0098055517785405645 0 -0.32727931025353929 -0.0056008437643897671 0 -0.31576693495074748 -0.0094507015710058578 0 -0.31812509627846491 0.0064589535239619484 0 -0.32727931025353929 -0.0056008437643897671 0 -0.31576693495074748 -0.0094507015710058578 0 -0.32324321663358258 -0.022261854774542341 0 -0.33157954364060271 -0.02766059646674987 0 -0.32324321663358258 -0.022261854774542341 0 -0.31645896114226563 -0.03139570166153835 0 -0.31230173506020248 -0.024639482184445581 0 -0.31576693495074748 -0.0094507015710058578 0 -0.32324321663358258 -0.022261854774542341 0 -0.31230173506020248 -0.024639482184445581 0 -0.32324321663358258 -0.022261854774542341 0 -0.31230173506020248 -0.024639482184445581 0 -0.32324321663358258 -0.022261854774542341 0 -0.31645896114226563 -0.03139570166153835 0 -0.31230173506020248 -0.024639482184445581 0 -0.31645896114226563 -0.03139570166153835 0 -0.30831018647425729 -0.042804937645395953 0 -0.31645896114226563 -0.03139570166153835 0 -0.31661559418077279 -0.050470574335662877 0 -0.33157954364060271 -0.02766059646674987 0 -0.31645896114226563 -0.03139570166153835 0 -0.33628547133069547 -0.039779780750520653 0 -0.31645896114226563 -0.03139570166153835 0 -0.33112846539377988 -0.055236211748552651 0 -0.31645896114226563 -0.03139570166153835 0 -0.31661559418077279 -0.050470574335662877 0 -0.33112846539377988 -0.055236211748552651 0 -0.31645896114226563 -0.03139570166153835 0 -0.33112846539377988 -0.055236211748552651 0 -0.33628547133069547 -0.039779780750520653 0 -0.31645896114226563 -0.03139570166153835 0 -0.33628547133069547 -0.039779780750520653 0 -0.32098918369973872 -0.062669840065253696 0 -0.31661559418077279 -0.050470574335662877 0 -0.31255956037629562 -0.061538115634515077 0 -0.32098918369973872 -0.062669840065253696 0 -0.31661559418077279 -0.050470574335662877 0 -0.33112846539377988 -0.055236211748552651 0 -0.34544790865462349 -0.058156445657082799 0 -0.33112846539377988 -0.055236211748552651 0 -0.33628547133069547 -0.039779780750520653 0 -0.34220315445687949 -0.02842192328530704 0 -0.33157954364060271 -0.02766059646674987 0 -0.33628547133069547 -0.039779780750520653 0 -0.31049353829928178 -0.23997410907081471 0 -0.29500501705048793 -0.2335444144972289 0 -0.29109069816673733 -0.24857814685159099 0 -0.31049353829928178 -0.23997410907081471 0 -0.3067358868353155 -0.2227699632388512 0 -0.29500501705048793 -0.2335444144972289 0 -0.3067358868353155 -0.2227699632388512 0 -0.29500501705048793 -0.2335444144972289 0 -0.29419437300603291 -0.21466823074028521 0 -0.31049353829928178 -0.23997410907081471 0 -0.3067358868353155 -0.2227699632388512 0 -0.32014948120962089 -0.2220961344728033 0 -0.29500501705048793 -0.2335444144972289 0 -0.28286850882174241 -0.2204074644507848 0 -0.29419437300603291 -0.21466823074028521 0 -0.29500501705048793 -0.2335444144972289 0 -0.28286850882174241 -0.2204074644507848 0 -0.29500501705048793 -0.2335444144972289 0 -0.28286850882174241 -0.2204074644507848 0 -0.28370062343104052 -0.23180059666241079 0 -0.29500501705048793 -0.2335444144972289 0 -0.28370062343104052 -0.23180059666241079 0 -0.29109069816673733 -0.24857814685159099 0 -0.28370062343104052 -0.23180059666241079 0 -0.29109069816673733 -0.24857814685159099 0 -0.27319852873046951 -0.2388028089854945 0 -0.2751333524927278 -0.25148720473187502 0 -0.29109069816673733 -0.24857814685159099 0 -0.27319852873046951 -0.2388028089854945 0 -0.2751333524927278 -0.25148720473187502 0 -0.27319852873046951 -0.2388028089854945 0 -0.26201260759904971 -0.24716288073615961 0 -0.24002632773827151 -0.23693900435056189 0 -0.26201260759904971 -0.24716288073615961 0 -0.25737524138608681 -0.23056732834211319 0 -0.27319852873046951 -0.2388028089854945 0 -0.26201260759904971 -0.24716288073615961 0 -0.25737524138608681 -0.23056732834211319 0 -0.25244940239910019 -0.26043593849293539 0 -0.24002632773827151 -0.23693900435056189 0 -0.26201260759904971 -0.24716288073615961 0 -0.24394874291565219 -0.21675591692375329 0 -0.25737524138608681 -0.23056732834211319 0 -0.25893636814605758 -0.21583395913301859 0 -0.25737524138608681 -0.23056732834211319 0 -0.27026829136791403 -0.22309900504121349 0 -0.25893636814605758 -0.21583395913301859 0 -0.27319852873046951 -0.2388028089854945 0 -0.25737524138608681 -0.23056732834211319 0 -0.27026829136791403 -0.22309900504121349 0 -0.28370062343104052 -0.23180059666241079 0 -0.27319852873046951 -0.2388028089854945 0 -0.27026829136791403 -0.22309900504121349 0 -0.28286850882174241 -0.2204074644507848 0 -0.28370062343104052 -0.23180059666241079 0 -0.27026829136791403 -0.22309900504121349 0 -0.28286850882174241 -0.2204074644507848 0 -0.27026829136791403 -0.22309900504121349 0 -0.27073200059299712 -0.20727051440434061 0 -0.27026829136791403 -0.22309900504121349 0 -0.27073200059299712 -0.20727051440434061 0 -0.25893636814605758 -0.21583395913301859 0 -0.28286850882174241 -0.2204074644507848 0 -0.27073200059299712 -0.20727051440434061 0 -0.27073200059299712 -0.20727051440434061 0 -0.25235756446763818 -0.201477030953672 0 -0.27073200059299712 -0.20727051440434061 0 -0.25893636814605758 -0.21583395913301859 0 -0.25235756446763818 -0.201477030953672 0 -0.24394874291565219 -0.21675591692375329 0 -0.25893636814605758 -0.21583395913301859 0 -0.25235756446763818 -0.201477030953672 0 -0.27073200059299712 -0.20727051440434061 0 -0.25647744315801629 -0.1918409192169887 0 -0.25235756446763818 -0.201477030953672 0 -0.24504024716200021 -0.19264976878867901 0 -0.25647744315801629 -0.1918409192169887 0 -0.25235756446763818 -0.201477030953672 0 -0.27073200059299712 -0.20727051440434061 0 -0.25647744315801629 -0.1918409192169887 0 -0.27073200059299712 -0.20727051440434061 0 -0.25647744315801629 -0.1918409192169887 0 -0.27490978588342119 -0.19080641156372269 0 -0.27073200059299712 -0.20727051440434061 0 -0.27490978588342119 -0.19080641156372269 0 -0.28501812845003832 -0.20286619724415339 0 -0.29388182722071071 -0.19082766315988769 0 -0.28501812845003832 -0.20286619724415339 0 -0.29419437300603291 -0.21466823074028521 0 -0.27490978588342119 -0.19080641156372269 0 -0.29388182722071071 -0.19082766315988769 0 -0.28501812845003832 -0.20286619724415339 0 -0.29388182722071071 -0.19082766315988769 0 -0.29419437300603291 -0.21466823074028521 0 -0.30234891380478651 -0.2095737739431883 0 -0.28286850882174241 -0.2204074644507848 0 -0.27073200059299712 -0.20727051440434061 0 -0.29419437300603291 -0.21466823074028521 0 -0.27073200059299712 -0.20727051440434061 0 -0.29419437300603291 -0.21466823074028521 0 -0.27073200059299712 -0.20727051440434061 0 -0.28501812845003832 -0.20286619724415339 0 -0.29419437300603291 -0.21466823074028521 0 -0.29388182722071071 -0.19082766315988769 0 -0.30234891380478651 -0.2095737739431883 0 -0.31458356815708688 -0.21002923863372919 0 -0.3067358868353155 -0.2227699632388512 0 -0.29419437300603291 -0.21466823074028521 0 -0.30234891380478651 -0.2095737739431883 0 -0.3067358868353155 -0.2227699632388512 0 -0.30234891380478651 -0.2095737739431883 0 -0.31458356815708688 -0.21002923863372919 0 -0.29388182722071071 -0.19082766315988769 0 -0.31458356815708688 -0.21002923863372919 0 -0.29388182722071071 -0.19082766315988769 0 -0.31870702661498029 -0.1870567516539231 0 -0.31458356815708688 -0.21002923863372919 0 -0.29388182722071071 -0.19082766315988769 0 -0.3049085696432669 -0.17796461328976571 0 -0.31870702661498029 -0.1870567516539231 0 -0.29388182722071071 -0.19082766315988769 0 -0.3049085696432669 -0.17796461328976571 0 -0.29352279049891161 -0.1692056983732324 0 -0.3049085696432669 -0.17796461328976571 0 -0.31352263423846499 -0.16476833997201959 0 -0.31870702661498029 -0.1870567516539231 0 -0.29352279049891161 -0.1692056983732324 0 -0.29996168704552778 -0.14975770334933999 0 -0.31352263423846499 -0.16476833997201959 0 -0.3049085696432669 -0.17796461328976571 0 -0.29352279049891161 -0.1692056983732324 0 -0.31352263423846499 -0.16476833997201959 0 -0.29996168704552778 -0.14975770334933999 0 -0.31352263423846499 -0.16476833997201959 0 -0.29352279049891161 -0.1692056983732324 0 -0.27318008628433432 -0.17162608768604609 0 -0.27812429075062239 -0.1508505782665723 0 -0.29352279049891161 -0.1692056983732324 0 -0.27812429075062239 -0.1508505782665723 0 -0.29996168704552778 -0.14975770334933999 0 -0.29388182722071071 -0.19082766315988769 0 -0.27318008628433432 -0.17162608768604609 0 -0.29388182722071071 -0.19082766315988769 0 -0.29352279049891161 -0.1692056983732324 0 -0.27318008628433432 -0.17162608768604609 0 -0.27490978588342119 -0.19080641156372269 0 -0.29388182722071071 -0.19082766315988769 0 -0.27318008628433432 -0.17162608768604609 0 -0.25647744315801629 -0.1918409192169887 0 -0.27490978588342119 -0.19080641156372269 0 -0.27318008628433432 -0.17162608768604609 0 -0.24222288572303641 -0.17641132402963619 0 -0.25647744315801629 -0.1918409192169887 0 -0.27318008628433432 -0.17162608768604609 0 -0.24222288572303641 -0.17641132402963619 0 -0.27318008628433432 -0.17162608768604609 0 -0.25247834534795749 -0.15242451221220529 0 -0.27318008628433432 -0.17162608768604609 0 -0.25247834534795749 -0.15242451221220529 0 -0.27318008628433432 -0.17162608768604609 0 -0.27812429075062239 -0.1508505782665723 0 -0.25247834534795749 -0.15242451221220529 0 -0.27812429075062239 -0.1508505782665723 0 -0.25247834534795749 -0.15242451221220529 0 -0.26320209547441559 -0.12734240125195009 0 -0.23575844521856229 -0.13691623079585519 0 -0.25247834534795749 -0.15242451221220529 0 -0.26320209547441559 -0.12734240125195009 0 -0.25247834534795749 -0.15242451221220529 0 -0.26320209547441559 -0.12734240125195009 0 -0.28590485593654302 -0.1162217813546591 0 -0.26320209547441559 -0.12734240125195009 0 -0.28640073985259012 -0.1347470667266609 0 -0.27812429075062239 -0.1508505782665723 0 -0.26320209547441559 -0.12734240125195009 0 -0.28640073985259012 -0.1347470667266609 0 -0.30382234878046682 -0.123065486480607 0 -0.28640073985259012 -0.1347470667266609 0 -0.29820161261199601 -0.13771684336529119 0 -0.27812429075062239 -0.1508505782665723 0 -0.28640073985259012 -0.1347470667266609 0 -0.29996168704552778 -0.14975770334933999 0 -0.28640073985259012 -0.1347470667266609 0 -0.29996168704552778 -0.14975770334933999 0 -0.29820161261199601 -0.13771684336529119 0 -0.28640073985259012 -0.1347470667266609 0 -0.29996168704552778 -0.14975770334933999 0 -0.29996168704552778 -0.14975770334933999 0 -0.30867249150946557 -0.14391691322631339 0 -0.29820161261199601 -0.13771684336529119 0 -0.30867249150946557 -0.14391691322631339 0 -0.31352263423846499 -0.16476833997201959 0 -0.29996168704552778 -0.14975770334933999 0 -0.30867249150946557 -0.14391691322631339 0 -0.31352263423846499 -0.16476833997201959 0 -0.30382234878046682 -0.123065486480607 0 -0.30867249150946557 -0.14391691322631339 0 -0.30382234878046682 -0.123065486480607 0 -0.30867249150946557 -0.14391691322631339 0 -0.29820161261199601 -0.13771684336529119 0 -0.30382234878046682 -0.123065486480607 0 -0.30867249150946557 -0.14391691322631339 0 -0.31755518711615088 -0.13086095855508989 0 -0.31755518711615088 -0.13086095855508989 0 -0.3262323366034498 -0.15095493184920439 0 -0.33272515904869038 -0.13707490451870161 0 -0.33323100068123163 -0.11383483347598509 0 -0.31755518711615088 -0.13086095855508989 0 -0.33272515904869038 -0.13707490451870161 0 -0.30867249150946557 -0.14391691322631339 0 -0.3262323366034498 -0.15095493184920439 0 -0.31352263423846499 -0.16476833997201959 0 -0.30867249150946557 -0.14391691322631339 0 -0.31755518711615088 -0.13086095855508989 0 -0.3262323366034498 -0.15095493184920439 0 -0.3262323366034498 -0.15095493184920439 0 -0.34265058624306188 -0.14749666456428609 0 -0.33841502100819321 -0.1612226034886492 0 -0.3262323366034498 -0.15095493184920439 0 -0.34265058624306188 -0.14749666456428609 0 -0.33272515904869038 -0.13707490451870161 0 -0.33323100068123163 -0.11383483347598509 0 -0.33272515904869038 -0.13707490451870161 0 -0.35244351055189332 -0.13582000121290011 0 -0.34265058624306188 -0.14749666456428609 0 -0.33272515904869038 -0.13707490451870161 0 -0.35244351055189332 -0.13582000121290011 0 -0.35477544869176492 -0.11860224764595891 0 -0.35244351055189332 -0.13582000121290011 0 -0.3627457173198757 -0.1296576670166775 0 -0.35244351055189332 -0.13582000121290011 0 -0.3627457173198757 -0.1296576670166775 0 -0.37237063151685013 -0.14353484386439511 0 -0.37139327851899689 -0.1206735753434543 0 -0.3627457173198757 -0.1296576670166775 0 -0.37237063151685013 -0.14353484386439511 0 -0.37139327851899689 -0.1206735753434543 0 -0.37237063151685013 -0.14353484386439511 0 -0.37139327851899689 -0.1206735753434543 0 -0.37237063151685013 -0.14353484386439511 0 -0.37966017135080599 -0.13410872206456589 0 -0.35244351055189332 -0.13582000121290011 0 -0.37237063151685013 -0.14353484386439511 0 -0.35484460922450389 -0.1534932446274796 0 -0.37237063151685013 -0.14353484386439511 0 -0.35484460922450389 -0.1534932446274796 0 -0.37334798451470003 -0.16639611238533611 0 -0.37237063151685013 -0.14353484386439511 0 -0.37334798451470003 -0.16639611238533611 0 -0.34265058624306188 -0.14749666456428609 0 -0.35484460922450389 -0.1534932446274796 0 -0.33841502100819321 -0.1612226034886492 0 -0.34265058624306188 -0.14749666456428609 0 -0.35244351055189332 -0.13582000121290011 0 -0.35484460922450389 -0.1534932446274796 0 -0.35484460922450389 -0.1534932446274796 0 -0.35297494319981282 -0.1679020342308592 0 -0.33841502100819321 -0.1612226034886492 0 -0.35297494319981282 -0.1679020342308592 0 -0.34155929012548442 -0.17616235978865399 0 -0.33841502100819321 -0.1612226034886492 0 -0.35484460922450389 -0.1534932446274796 0 -0.35297494319981282 -0.1679020342308592 0 -0.37334798451470003 -0.16639611238533611 0 -0.35297494319981282 -0.1679020342308592 0 -0.37334798451470003 -0.16639611238533611 0 -0.35670781112618283 -0.1822358508641771 0 -0.37334798451470003 -0.16639611238533611 0 -0.35670781112618283 -0.1822358508641771 0 -0.37432533751254993 -0.1892573809062772 0 -0.37334798451470003 -0.16639611238533611 0 -0.37432533751254993 -0.1892573809062772 0 -0.35670781112618283 -0.1822358508641771 0 -0.34565649317730351 -0.186462155851505 0 -0.35268833080292011 -0.19287119884456619 0 -0.35297494319981282 -0.1679020342308592 0 -0.35670781112618283 -0.1822358508641771 0 -0.34155929012548442 -0.17616235978865399 0 -0.35670781112618283 -0.1822358508641771 0 -0.34565649317730351 -0.186462155851505 0 -0.34155929012548442 -0.17616235978865399 0 -0.34565649317730351 -0.186462155851505 0 -0.33123988897130913 -0.18437960081998259 0 -0.34155929012548442 -0.17616235978865399 0 -0.33123988897130913 -0.18437960081998259 0 -0.34155929012548442 -0.17616235978865399 0 -0.33019383418938031 -0.16749756718370201 0 -0.3262323366034498 -0.15095493184920439 0 -0.33841502100819321 -0.1612226034886492 0 -0.33019383418938031 -0.16749756718370201 0 -0.34155929012548442 -0.17616235978865399 0 -0.33841502100819321 -0.1612226034886492 0 -0.33019383418938031 -0.16749756718370201 0 -0.3262323366034498 -0.15095493184920439 0 -0.33019383418938031 -0.16749756718370201 0 -0.31352263423846499 -0.16476833997201959 0 -0.33123988897130913 -0.18437960081998259 0 -0.31352263423846499 -0.16476833997201959 0 -0.33123988897130913 -0.18437960081998259 0 -0.31352263423846499 -0.16476833997201959 0 -0.31870702661498029 -0.1870567516539231 0 -0.33123988897130913 -0.18437960081998259 0 -0.33019383418938031 -0.16749756718370201 0 -0.31352263423846499 -0.16476833997201959 0 -0.31352263423846499 -0.16476833997201959 0 -0.31870702661498029 -0.1870567516539231 0 -0.31870702661498029 -0.1870567516539231 0 -0.32741999355817158 -0.19975078899560289 0 -0.32389141899149609 -0.2093451633358264 0 -0.31870702661498029 -0.1870567516539231 0 -0.31458356815708688 -0.21002923863372919 0 -0.32389141899149609 -0.2093451633358264 0 -0.31870702661498029 -0.1870567516539231 0 -0.32389141899149609 -0.2093451633358264 0 -0.31870702661498029 -0.1870567516539231 0 -0.32741999355817158 -0.19975078899560289 0 -0.32789890551859052 -0.19299740288855199 0 -0.33123988897130913 -0.18437960081998259 0 -0.31870702661498029 -0.1870567516539231 0 -0.32789890551859052 -0.19299740288855199 0 -0.31458356815708688 -0.21002923863372919 0 -0.32389141899149609 -0.2093451633358264 0 -0.32014948120962089 -0.2220961344728033 0 -0.3067358868353155 -0.2227699632388512 0 -0.31458356815708688 -0.21002923863372919 0 -0.32014948120962089 -0.2220961344728033 0 -0.32389141899149609 -0.2093451633358264 0 -0.3290807553271855 -0.2177925870018356 0 -0.32014948120962089 -0.2220961344728033 0 -0.32741999355817158 -0.19975078899560289 0 -0.32389141899149609 -0.2093451633358264 0 -0.33221103094888749 -0.20717707609989541 0 -0.33729151294630683 -0.21266352929198271 0 -0.34895714370415382 -0.20399086166794519 0 -0.334691970024041 -0.23027412288569341 0 -0.33221103094888749 -0.20717707609989541 0 -0.33831080172079092 -0.20570459658652759 0 -0.33478351928381561 -0.19898691928628701 0 -0.34895714370415382 -0.20399086166794519 0 -0.334691970024041 -0.23027412288569341 0 -0.33221103094888749 -0.20717707609989541 0 -0.3290807553271855 -0.2177925870018356 0 -0.33729151294630683 -0.21266352929198271 0 -0.32389141899149609 -0.2093451633358264 0 -0.33221103094888749 -0.20717707609989541 0 -0.3290807553271855 -0.2177925870018356 0 -0.33729151294630683 -0.21266352929198271 0 -0.33831080172079092 -0.20570459658652759 0 -0.34895714370415382 -0.20399086166794519 0 -0.33221103094888749 -0.20717707609989541 0 -0.33729151294630683 -0.21266352929198271 0 -0.33831080172079092 -0.20570459658652759 0 -0.33123988897130913 -0.18437960081998259 0 -0.33478351928381561 -0.19898691928628701 0 -0.34895714370415382 -0.20399086166794519 0 -0.33831080172079092 -0.20570459658652759 0 -0.33478351928381561 -0.19898691928628701 0 -0.34895714370415382 -0.20399086166794519 0 -0.33123988897130913 -0.18437960081998259 0 -0.34895714370415382 -0.20399086166794519 0 -0.33123988897130913 -0.18437960081998259 0 -0.34591284952074619 -0.19444425564117521 0 -0.34895714370415382 -0.20399086166794519 0 -0.32741999355817158 -0.19975078899560289 0 -0.33221103094888749 -0.20717707609989541 0 -0.33478351928381561 -0.19898691928628701 0 -0.32741999355817158 -0.19975078899560289 0 -0.32789890551859052 -0.19299740288855199 0 -0.33478351928381561 -0.19898691928628701 0 -0.33123988897130913 -0.18437960081998259 0 -0.32789890551859052 -0.19299740288855199 0 -0.33478351928381561 -0.19898691928628701 0 -0.34565649317730351 -0.186462155851505 0 -0.33123988897130913 -0.18437960081998259 0 -0.34591284952074619 -0.19444425564117521 0 -0.34565649317730351 -0.186462155851505 0 -0.34591284952074619 -0.19444425564117521 0 -0.35268833080292011 -0.19287119884456619 0 -0.34591284952074619 -0.19444425564117521 0 -0.35019492139734448 -0.20171028414613229 0 -0.35268833080292011 -0.19287119884456619 0 -0.34591284952074619 -0.19444425564117521 0 -0.35019492139734448 -0.20171028414613229 0 -0.34895714370415382 -0.20399086166794519 0 -0.35019492139734448 -0.20171028414613229 0 -0.35377664297568118 -0.20345888513293531 0 -0.34895714370415382 -0.20399086166794519 0 -0.35019492139734448 -0.20171028414613229 0 -0.34895714370415382 -0.20399086166794519 0 -0.35743623768949678 -0.20043044548969111 0 -0.35268833080292011 -0.19287119884456619 0 -0.36165051548310118 -0.19377950203585409 0 -0.35019492139734448 -0.20171028414613229 0 -0.35743623768949678 -0.20043044548969111 0 -0.35268833080292011 -0.19287119884456619 0 -0.35019492139734448 -0.20171028414613229 0 -0.35743623768949678 -0.20043044548969111 0 -0.35377664297568118 -0.20345888513293531 0 -0.35670781112618283 -0.1822358508641771 0 -0.35268833080292011 -0.19287119884456619 0 -0.36165051548310118 -0.19377950203585409 0 -0.36613365985236401 -0.2030069097260325 0 -0.37432533751254993 -0.1892573809062772 0 -0.37530269051039977 -0.2121186494272182 0 -0.37432533751254993 -0.1892573809062772 0 -0.37530269051039977 -0.2121186494272182 0 -0.35670781112618283 -0.1822358508641771 0 -0.36165051548310118 -0.19377950203585409 0 -0.37432533751254993 -0.1892573809062772 0 -0.35743623768949678 -0.20043044548969111 0 -0.36165051548310118 -0.19377950203585409 0 -0.36613365985236401 -0.2030069097260325 0 -0.36165051548310118 -0.19377950203585409 0 -0.36613365985236401 -0.2030069097260325 0 -0.37432533751254993 -0.1892573809062772 0 -0.36613365985236401 -0.2030069097260325 0 -0.3612445378920438 -0.21759180019900279 0 -0.37530269051039977 -0.2121186494272182 0 -0.36613365985236401 -0.2030069097260325 0 -0.3612445378920438 -0.21759180019900279 0 -0.35851826911172968 -0.20770394922797261 0 -0.35743623768949678 -0.20043044548969111 0 -0.36613365985236401 -0.2030069097260325 0 -0.35851826911172968 -0.20770394922797261 0 -0.3612445378920438 -0.21759180019900279 0 -0.34895714370415382 -0.20399086166794519 0 -0.35039260485742829 -0.22169645353265871 0 -0.34895714370415382 -0.20399086166794519 0 -0.35039260485742829 -0.22169645353265871 0 -0.334691970024041 -0.23027412288569341 0 -0.3612445378920438 -0.21759180019900279 0 -0.35851826911172968 -0.20770394922797261 0 -0.34895714370415382 -0.20399086166794519 0 -0.3612445378920438 -0.21759180019900279 0 -0.34895714370415382 -0.20399086166794519 0 -0.35851826911172968 -0.20770394922797261 0 -0.35377664297568118 -0.20345888513293531 0 -0.34895714370415382 -0.20399086166794519 0 -0.35743623768949678 -0.20043044548969111 0 -0.35851826911172968 -0.20770394922797261 0 -0.35377664297568118 -0.20345888513293531 0 -0.3612445378920438 -0.21759180019900279 0 -0.35039260485742829 -0.22169645353265871 0 -0.35667676780947483 -0.23492902937799351 0 -0.35039260485742829 -0.22169645353265871 0 -0.35667676780947483 -0.23492902937799351 0 -0.334691970024041 -0.23027412288569341 0 -0.3612445378920438 -0.21759180019900279 0 -0.37353193207993479 -0.23119273873005949 0 -0.35667676780947483 -0.23492902937799351 0 -0.3612445378920438 -0.21759180019900279 0 -0.37353193207993479 -0.23119273873005949 0 -0.37530269051039977 -0.2121186494272182 0 -0.3612445378920438 -0.21759180019900279 0 -0.37353193207993479 -0.23119273873005949 0 -0.35360226502151387 -0.25460535315068938 0 -0.37296094896050469 -0.25131874535835808 0 -0.35667676780947483 -0.23492902937799351 0 -0.37296094896050469 -0.25131874535835808 0 -0.37353193207993479 -0.23119273873005949 0 -0.35667676780947483 -0.23492902937799351 0 -0.35360226502151387 -0.25460535315068938 0 -0.35667676780947483 -0.23492902937799351 0 -0.334691970024041 -0.23027412288569341 0 -0.3204267963439279 -0.25655738410344142 0 -0.35360226502151387 -0.25460535315068938 0 -0.334691970024041 -0.23027412288569341 0 -0.3290807553271855 -0.2177925870018356 0 -0.33729151294630683 -0.21266352929198271 0 -0.334691970024041 -0.23027412288569341 0 -0.31049353829928178 -0.23997410907081471 0 -0.334691970024041 -0.23027412288569341 0 -0.32014948120962089 -0.2220961344728033 0 -0.3290807553271855 -0.2177925870018356 0 -0.334691970024041 -0.23027412288569341 0 -0.32014948120962089 -0.2220961344728033 0 -0.3204267963439279 -0.25655738410344142 0 -0.31049353829928178 -0.23997410907081471 0 -0.334691970024041 -0.23027412288569341 0 -0.3204267963439279 -0.25655738410344142 0 -0.334691970024041 -0.23027412288569341 0 -0.43287135929340759 -0.22041573128612771 0 -0.41633050832669871 -0.24435537747453029 0 -0.44515169611381661 -0.24178921517315011 0 -0.42686892815175892 -0.26320261671309481 0 -0.41633050832669871 -0.24435537747453029 0 -0.44515169611381661 -0.24178921517315011 0 -0.43287135929340759 -0.22041573128612771 0 -0.41633050832669871 -0.24435537747453029 0 -0.40579208850163773 -0.2255081382359661 0 -0.41633050832669871 -0.24435537747453029 0 -0.40579208850163773 -0.2255081382359661 0 -0.41633050832669871 -0.24435537747453029 0 -0.39305878154435231 -0.2433936727470595 0 -0.40579208850163773 -0.2255081382359661 0 -0.37296094896050469 -0.25131874535835808 0 -0.37353193207993479 -0.23119273873005949 0 -0.39305878154435231 -0.2433936727470595 0 -0.37353193207993479 -0.23119273873005949 0 -0.39305878154435231 -0.2433936727470595 0 -0.38857073715349921 -0.21971570734245319 0 -0.37353193207993479 -0.23119273873005949 0 -0.38857073715349921 -0.21971570734245319 0 -0.37530269051039977 -0.2121186494272182 0 -0.39305878154435231 -0.2433936727470595 0 -0.38857073715349921 -0.21971570734245319 0 -0.40579208850163773 -0.2255081382359661 0 -0.38857073715349921 -0.21971570734245319 0 -0.40579208850163773 -0.2255081382359661 0 -0.39978998916694752 -0.20578356137474099 0 -0.38857073715349921 -0.21971570734245319 0 -0.39978998916694752 -0.20578356137474099 0 -0.38607938997474711 -0.20237807396439589 0 -0.38857073715349921 -0.21971570734245319 0 -0.37530269051039977 -0.2121186494272182 0 -0.38607938997474711 -0.20237807396439589 0 -0.37432533751254993 -0.1892573809062772 0 -0.38607938997474711 -0.20237807396439589 0 -0.39240819553033879 -0.18501507077129009 0 -0.37432533751254993 -0.1892573809062772 0 -0.37530269051039977 -0.2121186494272182 0 -0.38607938997474711 -0.20237807396439589 0 -0.39978998916694752 -0.20578356137474099 0 -0.41247463626214348 -0.19302151974813331 0 -0.39240819553033879 -0.18501507077129009 0 -0.39978998916694752 -0.20578356137474099 0 -0.38607938997474711 -0.20237807396439589 0 -0.39240819553033879 -0.18501507077129009 0 -0.41247463626214348 -0.19302151974813331 0 -0.41633200151561039 -0.20893387584232631 0 -0.42944534851916238 -0.20120338289103271 0 -0.39978998916694752 -0.20578356137474099 0 -0.41247463626214348 -0.19302151974813331 0 -0.41633200151561039 -0.20893387584232631 0 -0.43287135929340759 -0.22041573128612771 0 -0.40579208850163773 -0.2255081382359661 0 -0.41633200151561039 -0.20893387584232631 0 -0.40579208850163773 -0.2255081382359661 0 -0.39978998916694752 -0.20578356137474099 0 -0.41633200151561039 -0.20893387584232631 0 -0.43287135929340759 -0.22041573128612771 0 -0.42944534851916238 -0.20120338289103271 0 -0.44912717071362451 -0.1992405331853894 0 -0.43287135929340759 -0.22041573128612771 0 -0.41633200151561039 -0.20893387584232631 0 -0.42944534851916238 -0.20120338289103271 0 -0.42944534851916238 -0.20120338289103271 0 -0.42969091218428063 -0.1804544422561094 0 -0.44912717071362451 -0.1992405331853894 0 -0.41247463626214348 -0.19302151974813331 0 -0.42944534851916238 -0.20120338289103271 0 -0.42969091218428063 -0.1804544422561094 0 -0.42969091218428063 -0.1804544422561094 0 -0.41239212251863039 -0.1597259847723036 0 -0.43784641888610382 -0.16065200832791321 0 -0.41247463626214348 -0.19302151974813331 0 -0.42969091218428063 -0.1804544422561094 0 -0.40718137065652182 -0.1767387853533002 0 -0.42969091218428063 -0.1804544422561094 0 -0.41239212251863039 -0.1597259847723036 0 -0.40718137065652182 -0.1767387853533002 0 -0.40718137065652182 -0.1767387853533002 0 -0.39240819553033879 -0.18501507077129009 0 -0.39450252364703248 -0.16487360641593729 0 -0.41247463626214348 -0.19302151974813331 0 -0.40718137065652182 -0.1767387853533002 0 -0.39240819553033879 -0.18501507077129009 0 -0.37334798451470003 -0.16639611238533611 0 -0.37432533751254993 -0.1892573809062772 0 -0.39240819553033879 -0.18501507077129009 0 -0.37334798451470003 -0.16639611238533611 0 -0.39240819553033879 -0.18501507077129009 0 -0.39450252364703248 -0.16487360641593729 0 -0.37334798451470003 -0.16639611238533611 0 -0.39450252364703248 -0.16487360641593729 0 -0.38493694455659488 -0.15032027496372161 0 -0.41239212251863039 -0.1597259847723036 0 -0.40718137065652182 -0.1767387853533002 0 -0.39450252364703248 -0.16487360641593729 0 -0.41239212251863039 -0.1597259847723036 0 -0.39450252364703248 -0.16487360641593729 0 -0.39811587805082532 -0.151082675212317 0 -0.41239212251863039 -0.1597259847723036 0 -0.40379604121366869 -0.1445407262926369 0 -0.39811587805082532 -0.151082675212317 0 -0.39306691054342419 -0.1411873019768537 0 -0.39811587805082532 -0.151082675212317 0 -0.38493694455659488 -0.15032027496372161 0 -0.40379604121366869 -0.1445407262926369 0 -0.39306691054342419 -0.1411873019768537 0 -0.39811587805082532 -0.151082675212317 0 -0.39450252364703248 -0.16487360641593729 0 -0.39811587805082532 -0.151082675212317 0 -0.38493694455659488 -0.15032027496372161 0 -0.39306691054342419 -0.1411873019768537 0 -0.38493694455659488 -0.15032027496372161 0 -0.37966017135080599 -0.13410872206456589 0 -0.37237063151685013 -0.14353484386439511 0 -0.38493694455659488 -0.15032027496372161 0 -0.37966017135080599 -0.13410872206456589 0 -0.37237063151685013 -0.14353484386439511 0 -0.37334798451470003 -0.16639611238533611 0 -0.38493694455659488 -0.15032027496372161 0 -0.39306691054342419 -0.1411873019768537 0 -0.37966017135080599 -0.13410872206456589 0 -0.39544898700282571 -0.12693919185055649 0 -0.37139327851899689 -0.1206735753434543 0 -0.37966017135080599 -0.13410872206456589 0 -0.39544898700282571 -0.12693919185055649 0 -0.37139327851899689 -0.1206735753434543 0 -0.37966017135080599 -0.13410872206456589 0 -0.40379604121366869 -0.1445407262926369 0 -0.39306691054342419 -0.1411873019768537 0 -0.39544898700282571 -0.12693919185055649 0 -0.40379604121366869 -0.1445407262926369 0 -0.39544898700282571 -0.12693919185055649 0 -0.41995630795263778 -0.1437684776511538 0 -0.39544898700282571 -0.12693919185055649 0 -0.4149149380030589 -0.12590791161719739 0 -0.41995630795263778 -0.1437684776511538 0 -0.39544898700282571 -0.12693919185055649 0 -0.41995630795263778 -0.1437684776511538 0 -0.41239212251863039 -0.1597259847723036 0 -0.40379604121366869 -0.1445407262926369 0 -0.41995630795263778 -0.1437684776511538 0 -0.41995630795263778 -0.1437684776511538 0 -0.43097061873399028 -0.13521545405804819 0 -0.43784641888610382 -0.16065200832791321 0 -0.43097061873399028 -0.13521545405804819 0 -0.43784641888610382 -0.16065200832791321 0 -0.41239212251863039 -0.1597259847723036 0 -0.41995630795263778 -0.1437684776511538 0 -0.43784641888610382 -0.16065200832791321 0 -0.4149149380030589 -0.12590791161719739 0 -0.41995630795263778 -0.1437684776511538 0 -0.43097061873399028 -0.13521545405804819 0 -0.45071173407042547 -0.1409246841432257 0 -0.44121032455866332 -0.1224397345803445 0 -0.45619814371136419 -0.1213202456852264 0 -0.43097061873399028 -0.13521545405804819 0 -0.45071173407042547 -0.1409246841432257 0 -0.44121032455866332 -0.1224397345803445 0 -0.45071173407042547 -0.1409246841432257 0 -0.45326010824970209 -0.15664539016804699 0 -0.43784641888610382 -0.16065200832791321 0 -0.43097061873399028 -0.13521545405804819 0 -0.45071173407042547 -0.1409246841432257 0 -0.43784641888610382 -0.16065200832791321 0 -0.45071173407042547 -0.1409246841432257 0 -0.46833191195928248 -0.15149995123474519 0 -0.45326010824970209 -0.15664539016804699 0 -0.45071173407042547 -0.1409246841432257 0 -0.46833191195928248 -0.15149995123474519 0 -0.46768311102431398 -0.1328513609391159 0 -0.45071173407042547 -0.1409246841432257 0 -0.46768311102431398 -0.1328513609391159 0 -0.45619814371136419 -0.1213202456852264 0 -0.46768311102431398 -0.1328513609391159 0 -0.48334430842673493 -0.14035356797073939 0 -0.48269293919420159 -0.1218798034032053 0 -0.48334430842673493 -0.14035356797073939 0 -0.5 -0.13185640104403079 0 -0.48269293919420159 -0.1218798034032053 0 -0.48334430842673493 -0.14035356797073939 0 -0.5 -0.1547027057986764 0 -0.48076360099550891 -0.16805990391241349 0 -0.48334430842673493 -0.14035356797073939 0 -0.5 -0.13185640104403079 0 -0.5 -0.1547027057986764 0 -0.46833191195928248 -0.15149995123474519 0 -0.46768311102431398 -0.1328513609391159 0 -0.48334430842673493 -0.14035356797073939 0 -0.46833191195928248 -0.15149995123474519 0 -0.48334430842673493 -0.14035356797073939 0 -0.48076360099550891 -0.16805990391241349 0 -0.46833191195928248 -0.15149995123474519 0 -0.48076360099550891 -0.16805990391241349 0 -0.45760370817108648 -0.17403141695259669 0 -0.5 -0.1547027057986764 0 -0.48076360099550891 -0.16805990391241349 0 -0.499999999999996 -0.17754901055332181 0 -0.48076360099550891 -0.16805990391241349 0 -0.499999999999996 -0.17754901055332181 0 -0.48171723203793471 -0.19896241209326329 0 -0.48076360099550891 -0.16805990391241349 0 -0.45760370817108648 -0.17403141695259669 0 -0.48171723203793471 -0.19896241209326329 0 -0.46833191195928248 -0.15149995123474519 0 -0.45760370817108648 -0.17403141695259669 0 -0.45326010824970209 -0.15664539016804699 0 -0.42969091218428063 -0.1804544422561094 0 -0.45760370817108648 -0.17403141695259669 0 -0.43784641888610382 -0.16065200832791321 0 -0.45760370817108648 -0.17403141695259669 0 -0.45326010824970209 -0.15664539016804699 0 -0.43784641888610382 -0.16065200832791321 0 -0.42969091218428063 -0.1804544422561094 0 -0.45760370817108648 -0.17403141695259669 0 -0.44912717071362451 -0.1992405331853894 0 -0.45760370817108648 -0.17403141695259669 0 -0.44912717071362451 -0.1992405331853894 0 -0.48171723203793471 -0.19896241209326329 0 -0.44912717071362451 -0.1992405331853894 0 -0.48171723203793471 -0.19896241209326329 0 -0.46343446407587557 -0.22037581363320671 0 -0.43287135929340759 -0.22041573128612771 0 -0.44912717071362451 -0.1992405331853894 0 -0.46343446407587557 -0.22037581363320671 0 -0.499999999999996 -0.17754901055332181 0 -0.48171723203793471 -0.19896241209326329 0 -0.5 -0.20671371931256199 0 -0.499999999999996 -0.17754901055332181 0 -0.48171723203793471 -0.19896241209326329 0 -0.48171723203793471 -0.19896241209326329 0 -0.5 -0.20671371931256199 0 -0.48396333837931149 -0.22133827698425579 0 -0.48171723203793471 -0.19896241209326329 0 -0.46343446407587557 -0.22037581363320671 0 -0.48171723203793471 -0.19896241209326329 0 -0.48396333837931149 -0.22133827698425579 0 -0.46343446407587557 -0.22037581363320671 0 -0.48396333837931149 -0.22133827698425579 0 -0.47466499578274712 -0.24476101181044499 0 -0.46343446407587557 -0.22037581363320671 0 -0.5 -0.20671371931256199 0 -0.48396333837931149 -0.22133827698425579 0 -0.5 -0.23587842807180201 0 -0.48396333837931149 -0.22133827698425579 0 -0.5 -0.23587842807180201 0 -0.47466499578274712 -0.24476101181044499 0 -0.5 -0.2650431368310423 0 -0.5 -0.23587842807180201 0 -0.47466499578274712 -0.24476101181044499 0 -0.47466499578274712 -0.24476101181044499 0 -0.46343446407587557 -0.22037581363320671 0 -0.44515169611381661 -0.24178921517315011 0 -0.45783752861143301 -0.25509380603075732 0 -0.47466499578274712 -0.24476101181044499 0 -0.44515169611381661 -0.24178921517315011 0 -0.46343446407587557 -0.22037581363320671 0 -0.44515169611381661 -0.24178921517315011 0 -0.43287135929340759 -0.22041573128612771 0 -0.46343446407587557 -0.22037581363320671 0 -0.44515169611381661 -0.24178921517315011 0 -0.40944753408752499 -0.036075741430514063 0 -0.42440789343215979 -0.042260950272140087 0 -0.40533287367367399 -0.047695638741884927 0 -0.42440789343215979 -0.042260950272140087 0 -0.40533287367367399 -0.047695638741884927 0 -0.40944753408752499 -0.036075741430514063 0 -0.42440789343215979 -0.042260950272140087 0 -0.41765641187760377 -0.029521517631915892 0 -0.40944753408752499 -0.036075741430514063 0 -0.41765641187760377 -0.029521517631915892 0 -0.40935068615233772 -0.028234762808113829 0 -0.40839074884625087 -0.059712732008462228 0 -0.40533287367367399 -0.047695638741884927 0 -0.42290237844700101 -0.062520830305147018 0 -0.40533287367367399 -0.047695638741884927 0 -0.42290237844700101 -0.062520830305147018 0 -0.42440789343215979 -0.042260950272140087 0 -0.40533287367367399 -0.047695638741884927 0 -0.42290237844700101 -0.062520830305147018 0 -0.43424658253425741 -0.056760931933519602 0 -0.42440789343215979 -0.042260950272140087 0 -0.4402181843441666 -0.047140755831702852 0 -0.43424658253425741 -0.056760931933519602 0 -0.42440789343215979 -0.042260950272140087 0 -0.42290237844700101 -0.062520830305147018 0 -0.43424658253425741 -0.056760931933519602 0 -0.42290237844700101 -0.062520830305147018 0 -0.4363838137766583 -0.065579409832916657 0 -0.42440789343215979 -0.042260950272140087 0 -0.44348291319064631 -0.036826261802397738 0 -0.4402181843441666 -0.047140755831702852 0 -0.42440789343215979 -0.042260950272140087 0 -0.44348291319064631 -0.036826261802397738 0 -0.42440789343215979 -0.042260950272140087 0 -0.42745553242730122 -0.026270301620696119 0 -0.44348291319064631 -0.036826261802397738 0 -0.42440789343215979 -0.042260950272140087 0 -0.42745553242730122 -0.026270301620696119 0 -0.41765641187760377 -0.029521517631915892 0 -0.43631094902786122 -0.015851764134622959 0 -0.42745553242730122 -0.026270301620696119 0 -0.44348291319064631 -0.036826261802397738 0 -0.43631094902786122 -0.015851764134622959 0 -0.42745553242730122 -0.026270301620696119 0 -0.42689597376699562 -0.015382299840453421 0 -0.42745553242730122 -0.026270301620696119 0 -0.42689597376699562 -0.015382299840453421 0 -0.41957895608171941 -0.016087823779878531 0 -0.43631094902786122 -0.015851764134622959 0 -0.42975921676070322 -0.0085758581086522161 0 -0.43817197183071049 0.0015455403038448581 0 -0.42975921676070322 -0.0085758581086522161 0 -0.42656569450450321 -0.0019859141793893498 0 -0.43817197183071049 0.0015455403038448581 0 -0.43631094902786122 -0.015851764134622959 0 -0.42975921676070322 -0.0085758581086522161 0 -0.42689597376699562 -0.015382299840453421 0 -0.42689597376699562 -0.015382299840453421 0 -0.42379115954964552 -0.0096354452312114452 0 -0.41957895608171941 -0.016087823779878531 0 -0.42975921676070322 -0.0085758581086522161 0 -0.42689597376699562 -0.015382299840453421 0 -0.42379115954964552 -0.0096354452312114452 0 -0.42379115954964552 -0.0096354452312114452 0 -0.42656569450450321 -0.0019859141793893498 0 -0.41782183006214652 -0.005234000588313332 0 -0.42975921676070322 -0.0085758581086522161 0 -0.42379115954964552 -0.0096354452312114452 0 -0.42656569450450321 -0.0019859141793893498 0 -0.41782183006214652 -0.005234000588313332 0 -0.4163290912294062 -0.005240048587150316 0 -0.41782183006214652 -0.005234000588313332 0 -0.4163290912294062 -0.005240048587150316 0 -0.41957895608171941 -0.016087823779878531 0 -0.4163290912294062 -0.005240048587150316 0 -0.41957895608171941 -0.016087823779878531 0 -0.40859942234497409 -0.01986359679066672 0 -0.42379115954964552 -0.0096354452312114452 0 -0.41782183006214652 -0.005234000588313332 0 -0.41957895608171941 -0.016087823779878531 0 -0.4163290912294062 -0.005240048587150316 0 -0.40859942234497409 -0.01986359679066672 0 -0.4163290912294062 -0.005240048587150316 0 -0.40859942234497409 -0.01986359679066672 0 -0.40540206046375737 -0.0096856385033508852 0 -0.4163290912294062 -0.005240048587150316 0 -0.40566852868012448 -0.0052832410522216568 0 -0.40540206046375737 -0.0096856385033508852 0 -0.4163290912294062 -0.005240048587150316 0 -0.40566852868012448 -0.0052832410522216568 0 -0.42745553242730122 -0.026270301620696119 0 -0.41765641187760377 -0.029521517631915892 0 -0.41957895608171941 -0.016087823779878531 0 -0.41765641187760377 -0.029521517631915892 0 -0.41957895608171941 -0.016087823779878531 0 -0.40859942234497409 -0.01986359679066672 0 -0.40944753408752499 -0.036075741430514063 0 -0.40935068615233772 -0.028234762808113829 0 -0.40179402359408961 -0.027632817373128071 0 -0.41765641187760377 -0.029521517631915892 0 -0.40859942234497409 -0.01986359679066672 0 -0.40935068615233772 -0.028234762808113829 0 -0.40859942234497409 -0.01986359679066672 0 -0.40935068615233772 -0.028234762808113829 0 -0.40179402359408961 -0.027632817373128071 0 -0.40179402359408961 -0.027632817373128071 0 -0.39249299327384629 -0.028917931244280881 0 -0.40111659189591259 -0.03653124152592109 0 -0.40859942234497409 -0.01986359679066672 0 -0.40179402359408961 -0.027632817373128071 0 -0.4021567107437094 -0.01664207540695305 0 -0.40179402359408961 -0.027632817373128071 0 -0.4021567107437094 -0.01664207540695305 0 -0.3953948200972025 -0.019332176563196132 0 -0.4021567107437094 -0.01664207540695305 0 -0.3953948200972025 -0.019332176563196132 0 -0.39682146432224152 -0.011188134604484061 0 -0.3953948200972025 -0.019332176563196132 0 -0.38946989423126932 -0.01313534461047268 0 -0.38755763981967561 -0.019293576783791962 0 -0.3953948200972025 -0.019332176563196132 0 -0.39249299327384629 -0.028917931244280881 0 -0.38755763981967561 -0.019293576783791962 0 -0.40179402359408961 -0.027632817373128071 0 -0.3953948200972025 -0.019332176563196132 0 -0.39249299327384629 -0.028917931244280881 0 -0.40566852868012448 -0.0052832410522216568 0 -0.38003189033049622 -0.0053871107684163432 0 -0.40566852868012448 -0.0052832410522216568 0 -0.39682146432224152 -0.011188134604484061 0 -0.38003189033049622 -0.0053871107684163432 0 -0.40566852868012448 -0.0052832410522216568 0 -0.40540206046375737 -0.0096856385033508852 0 -0.40566852868012448 -0.0052832410522216568 0 -0.40540206046375737 -0.0096856385033508852 0 -0.39682146432224152 -0.011188134604484061 0 -0.4021567107437094 -0.01664207540695305 0 -0.40540206046375737 -0.0096856385033508852 0 -0.39682146432224152 -0.011188134604484061 0 -0.40859942234497409 -0.01986359679066672 0 -0.4021567107437094 -0.01664207540695305 0 -0.40540206046375737 -0.0096856385033508852 0 -0.3953948200972025 -0.019332176563196132 0 -0.39682146432224152 -0.011188134604484061 0 -0.38946989423126932 -0.01313534461047268 0 -0.39682146432224152 -0.011188134604484061 0 -0.38946989423126932 -0.01313534461047268 0 -0.38003189033049622 -0.0053871107684163432 0 -0.38946989423126932 -0.01313534461047268 0 -0.38347881418141089 -0.01273047981391599 0 -0.38003189033049622 -0.0053871107684163432 0 -0.38946989423126932 -0.01313534461047268 0 -0.38347881418141089 -0.01273047981391599 0 -0.38755763981967561 -0.019293576783791962 0 -0.36759554044300879 -0.01311597971742829 0 -0.38003189033049622 -0.0053871107684163432 0 -0.3774980877731845 -0.017962849169193901 0 -0.38347881418141089 -0.01273047981391599 0 -0.38003189033049622 -0.0053871107684163432 0 -0.3774980877731845 -0.017962849169193901 0 -0.38347881418141089 -0.01273047981391599 0 -0.38003189033049622 -0.0053871107684163432 0 -0.39249299327384629 -0.028917931244280881 0 -0.38267205842440061 -0.025593878873220021 0 -0.38514547853272402 -0.032601657027043762 0 -0.39249299327384629 -0.028917931244280881 0 -0.38755763981967561 -0.019293576783791962 0 -0.38267205842440061 -0.025593878873220021 0 -0.38347881418141089 -0.01273047981391599 0 -0.38755763981967561 -0.019293576783791962 0 -0.3774980877731845 -0.017962849169193901 0 -0.38755763981967561 -0.019293576783791962 0 -0.3774980877731845 -0.017962849169193901 0 -0.38267205842440061 -0.025593878873220021 0 -0.37088339729497882 -0.026691286259717961 0 -0.3774980877731845 -0.017962849169193901 0 -0.38267205842440061 -0.025593878873220021 0 -0.37088339729497882 -0.026691286259717961 0 -0.38267205842440061 -0.025593878873220021 0 -0.38514547853272402 -0.032601657027043762 0 -0.37088339729497882 -0.026691286259717961 0 -0.3863111762310143 -0.044205736236882731 0 -0.38514547853272402 -0.032601657027043762 0 -0.37408921323493 -0.041816230709288152 0 -0.37088339729497882 -0.026691286259717961 0 -0.3863111762310143 -0.044205736236882731 0 -0.37088339729497882 -0.026691286259717961 0 -0.3863111762310143 -0.044205736236882731 0 -0.39249299327384629 -0.028917931244280881 0 -0.38514547853272402 -0.032601657027043762 0 -0.39336776743937951 -0.037599452521117203 0 -0.3863111762310143 -0.044205736236882731 0 -0.38514547853272402 -0.032601657027043762 0 -0.39336776743937951 -0.037599452521117203 0 -0.39249299327384629 -0.028917931244280881 0 -0.39336776743937951 -0.037599452521117203 0 -0.40111659189591259 -0.03653124152592109 0 -0.3863111762310143 -0.044205736236882731 0 -0.39336776743937951 -0.037599452521117203 0 -0.3957076298960277 -0.046924357884338713 0 -0.39336776743937951 -0.037599452521117203 0 -0.40533287367367399 -0.047695638741884927 0 -0.3957076298960277 -0.046924357884338713 0 -0.39336776743937951 -0.037599452521117203 0 -0.40533287367367399 -0.047695638741884927 0 -0.39336776743937951 -0.037599452521117203 0 -0.40111659189591259 -0.03653124152592109 0 -0.40533287367367399 -0.047695638741884927 0 -0.40944753408752499 -0.036075741430514063 0 -0.40111659189591259 -0.03653124152592109 0 -0.40533287367367399 -0.047695638741884927 0 -0.40944753408752499 -0.036075741430514063 0 -0.40179402359408961 -0.027632817373128071 0 -0.40111659189591259 -0.03653124152592109 0 -0.40839074884625087 -0.059712732008462228 0 -0.39645130758857222 -0.054562828558609722 0 -0.39795166241691687 -0.065856695864154768 0 -0.40839074884625087 -0.059712732008462228 0 -0.40363337184870418 -0.052780402279697602 0 -0.39645130758857222 -0.054562828558609722 0 -0.40533287367367399 -0.047695638741884927 0 -0.40010407729093572 -0.050541298406260773 0 -0.3957076298960277 -0.046924357884338713 0 -0.40839074884625087 -0.059712732008462228 0 -0.40363337184870418 -0.052780402279697602 0 -0.40533287367367399 -0.047695638741884927 0 -0.40363337184870418 -0.052780402279697602 0 -0.40533287367367399 -0.047695638741884927 0 -0.40010407729093572 -0.050541298406260773 0 -0.40363337184870418 -0.052780402279697602 0 -0.40010407729093572 -0.050541298406260773 0 -0.39645130758857222 -0.054562828558609722 0 -0.3863111762310143 -0.044205736236882731 0 -0.39645130758857222 -0.054562828558609722 0 -0.3957076298960277 -0.046924357884338713 0 -0.40010407729093572 -0.050541298406260773 0 -0.39645130758857222 -0.054562828558609722 0 -0.3957076298960277 -0.046924357884338713 0 -0.3741991750753233 -0.05581243035603628 0 -0.39645130758857222 -0.054562828558609722 0 -0.39795166241691687 -0.065856695864154768 0 -0.3741991750753233 -0.05581243035603628 0 -0.3863111762310143 -0.044205736236882731 0 -0.39645130758857222 -0.054562828558609722 0 -0.3741991750753233 -0.05581243035603628 0 -0.39795166241691687 -0.065856695864154768 0 -0.3741991750753233 -0.05581243035603628 0 -0.37408921323493 -0.041816230709288152 0 -0.3863111762310143 -0.044205736236882731 0 -0.36842737964278238 -0.07179880614865175 0 -0.38463213909761829 -0.073046525154530167 0 -0.3741991750753233 -0.05581243035603628 0 -0.38463213909761829 -0.073046525154530167 0 -0.3741991750753233 -0.05581243035603628 0 -0.38463213909761829 -0.073046525154530167 0 -0.39795166241691687 -0.065856695864154768 0 -0.36842737964278238 -0.07179880614865175 0 -0.3741991750753233 -0.05581243035603628 0 -0.38463213909761829 -0.073046525154530167 0 -0.36968027855177682 -0.080604785138471718 0 -0.38463213909761829 -0.073046525154530167 0 -0.38190928540974012 -0.084116458239182332 0 -0.36968027855177682 -0.080604785138471718 0 -0.38190928540974012 -0.084116458239182332 0 -0.37977089098186589 -0.095030352648071706 0 -0.38190928540974012 -0.084116458239182332 0 -0.39355383300769958 -0.087784170015655777 0 -0.37977089098186589 -0.095030352648071706 0 -0.39355383300769958 -0.087784170015655777 0 -0.37977089098186589 -0.095030352648071706 0 -0.3919554662692174 -0.0980417248531682 0 -0.38463213909761829 -0.073046525154530167 0 -0.39355383300769958 -0.087784170015655777 0 -0.38463213909761829 -0.073046525154530167 0 -0.38190928540974012 -0.084116458239182332 0 -0.39355383300769958 -0.087784170015655777 0 -0.38463213909761829 -0.073046525154530167 0 -0.39355383300769958 -0.087784170015655777 0 -0.40316814442806431 -0.07447374326340242 0 -0.39355383300769958 -0.087784170015655777 0 -0.40480093021326718 -0.086555598405858455 0 -0.40526272498754118 -0.099622134826057224 0 -0.39355383300769958 -0.087784170015655777 0 -0.40480093021326718 -0.086555598405858455 0 -0.40316814442806431 -0.07447374326340242 0 -0.38463213909761829 -0.073046525154530167 0 -0.40316814442806431 -0.07447374326340242 0 -0.38463213909761829 -0.073046525154530167 0 -0.40316814442806431 -0.07447374326340242 0 -0.39795166241691687 -0.065856695864154768 0 -0.37094166605301421 -0.11010990604995829 0 -0.39544898700282571 -0.12693919185055649 0 -0.38923441609976278 -0.10973024192288811 0 -0.37094166605301421 -0.11010990604995829 0 -0.37139327851899689 -0.1206735753434543 0 -0.39544898700282571 -0.12693919185055649 0 -0.37094166605301421 -0.11010990604995829 0 -0.39544898700282571 -0.12693919185055649 0 -0.37094166605301421 -0.11010990604995829 0 -0.38923441609976278 -0.10973024192288811 0 -0.37977089098186589 -0.095030352648071706 0 -0.38923441609976278 -0.10973024192288811 0 -0.37977089098186589 -0.095030352648071706 0 -0.3919554662692174 -0.0980417248531682 0 -0.38923441609976278 -0.10973024192288811 0 -0.3919554662692174 -0.0980417248531682 0 -0.40526272498754118 -0.099622134826057224 0 -0.38923441609976278 -0.10973024192288811 0 -0.40526272498754118 -0.099622134826057224 0 -0.4057911769350131 -0.1143956760009765 0 -0.39355383300769958 -0.087784170015655777 0 -0.3919554662692174 -0.0980417248531682 0 -0.40526272498754118 -0.099622134826057224 0 -0.39544898700282571 -0.12693919185055649 0 -0.38923441609976278 -0.10973024192288811 0 -0.4057911769350131 -0.1143956760009765 0 -0.39544898700282571 -0.12693919185055649 0 -0.4149149380030589 -0.12590791161719739 0 -0.4057911769350131 -0.1143956760009765 0 -0.4149149380030589 -0.12590791161719739 0 -0.4057911769350131 -0.1143956760009765 0 -0.42409481858187692 -0.10977889978818341 0 -0.40526272498754118 -0.099622134826057224 0 -0.4057911769350131 -0.1143956760009765 0 -0.42409481858187692 -0.10977889978818341 0 -0.40526272498754118 -0.099622134826057224 0 -0.42409481858187692 -0.10977889978818341 0 -0.41721901842976339 -0.084342345518318373 0 -0.42409481858187692 -0.10977889978818341 0 -0.41721901842976339 -0.084342345518318373 0 -0.42409481858187692 -0.10977889978818341 0 -0.4302578211619707 -0.09319654139512884 0 -0.4429960793743915 -0.10708722725866079 0 -0.42409481858187692 -0.10977889978818341 0 -0.41721901842976339 -0.084342345518318373 0 -0.4302578211619707 -0.09319654139512884 0 -0.4149149380030589 -0.12590791161719739 0 -0.43097061873399028 -0.13521545405804819 0 -0.42409481858187692 -0.10977889978818341 0 -0.42409481858187692 -0.10977889978818341 0 -0.44121032455866332 -0.1224397345803445 0 -0.4429960793743915 -0.10708722725866079 0 -0.43097061873399028 -0.13521545405804819 0 -0.42409481858187692 -0.10977889978818341 0 -0.43097061873399028 -0.13521545405804819 0 -0.42409481858187692 -0.10977889978818341 0 -0.44121032455866332 -0.1224397345803445 0 -0.40316814442806431 -0.07447374326340242 0 -0.39795166241691687 -0.065856695864154768 0 -0.42170414975851028 -0.075900961372274214 0 -0.39795166241691687 -0.065856695864154768 0 -0.42170414975851028 -0.075900961372274214 0 -0.40839074884625087 -0.059712732008462228 0 -0.42170414975851028 -0.075900961372274214 0 -0.42290237844700101 -0.062520830305147018 0 -0.40316814442806431 -0.07447374326340242 0 -0.42170414975851028 -0.075900961372274214 0 -0.40839074884625087 -0.059712732008462228 0 -0.39795166241691687 -0.065856695864154768 0 -0.42170414975851028 -0.075900961372274214 0 -0.40480093021326718 -0.086555598405858455 0 -0.40316814442806431 -0.07447374326340242 0 -0.41721901842976339 -0.084342345518318373 0 -0.40316814442806431 -0.07447374326340242 0 -0.42170414975851028 -0.075900961372274214 0 -0.41721901842976339 -0.084342345518318373 0 -0.40480093021326718 -0.086555598405858455 0 -0.40526272498754118 -0.099622134826057224 0 -0.41721901842976339 -0.084342345518318373 0 -0.42170414975851028 -0.075900961372274214 0 -0.43879866494000808 -0.083129755845299733 0 -0.42170414975851028 -0.075900961372274214 0 -0.41721901842976339 -0.084342345518318373 0 -0.4302578211619707 -0.09319654139512884 0 -0.42170414975851028 -0.075900961372274214 0 -0.4302578211619707 -0.09319654139512884 0 -0.43879866494000808 -0.083129755845299733 0 -0.42170414975851028 -0.075900961372274214 0 -0.4404718832203276 -0.07734602186840947 0 -0.43879866494000808 -0.083129755845299733 0 -0.42170414975851028 -0.075900961372274214 0 -0.42290237844700101 -0.062520830305147018 0 -0.4404718832203276 -0.07734602186840947 0 -0.42290237844700101 -0.062520830305147018 0 -0.4363838137766583 -0.065579409832916657 0 -0.4404718832203276 -0.07734602186840947 0 -0.42290237844700101 -0.062520830305147018 0 -0.4404718832203276 -0.07734602186840947 0 -0.42170414975851028 -0.075900961372274214 0 -0.4404718832203276 -0.07734602186840947 0 -0.4363838137766583 -0.065579409832916657 0 -0.44467143839749651 -0.062548752177346637 0 -0.44393349229753032 -0.070160465944621511 0 -0.44467143839749651 -0.062548752177346637 0 -0.45355360212199231 -0.06910574799147283 0 -0.45192182950859849 -0.057813894844264732 0 -0.44467143839749651 -0.062548752177346637 0 -0.44393349229753032 -0.070160465944621511 0 -0.45355360212199231 -0.06910574799147283 0 -0.44393349229753032 -0.070160465944621511 0 -0.44625428660191518 -0.077791249989134781 0 -0.45355360212199231 -0.06910574799147283 0 -0.44625428660191518 -0.077791249989134781 0 -0.45630413989224561 -0.078510569321342288 0 -0.45355360212199231 -0.06910574799147283 0 -0.44393349229753032 -0.070160465944621511 0 -0.44625428660191518 -0.077791249989134781 0 -0.4404718832203276 -0.07734602186840947 0 -0.44625428660191518 -0.077791249989134781 0 -0.4404718832203276 -0.07734602186840947 0 -0.4363838137766583 -0.065579409832916657 0 -0.44393349229753032 -0.070160465944621511 0 -0.4404718832203276 -0.07734602186840947 0 -0.4404718832203276 -0.07734602186840947 0 -0.43879866494000808 -0.083129755845299733 0 -0.45589318012150559 -0.090358550318326097 0 -0.43879866494000808 -0.083129755845299733 0 -0.45589318012150559 -0.090358550318326097 0 -0.43879866494000808 -0.083129755845299733 0 -0.45589318012150559 -0.090358550318326097 0 -0.44554599224332159 -0.095095863591440705 0 -0.4302578211619707 -0.09319654139512884 0 -0.43879866494000808 -0.083129755845299733 0 -0.44554599224332159 -0.095095863591440705 0 -0.4404718832203276 -0.07734602186840947 0 -0.45589318012150559 -0.090358550318326097 0 -0.44625428660191518 -0.077791249989134781 0 -0.45630413989224561 -0.078510569321342288 0 -0.45589318012150559 -0.090358550318326097 0 -0.44625428660191518 -0.077791249989134781 0 -0.4404718832203276 -0.07734602186840947 0 -0.45589318012150559 -0.090358550318326097 0 -0.45630413989224561 -0.078510569321342288 0 -0.45589318012150559 -0.090358550318326097 0 -0.47011738965508038 -0.087460039054486557 0 -0.45589318012150559 -0.090358550318326097 0 -0.47794659006076351 -0.099684323303852282 0 -0.47011738965508038 -0.087460039054486557 0 -0.45589318012150559 -0.090358550318326097 0 -0.45742852973212111 -0.091654082115472532 0 -0.45428194207685341 -0.095896123595157506 0 -0.45589318012150559 -0.090358550318326097 0 -0.45742852973212111 -0.091654082115472532 0 -0.45630413989224561 -0.078510569321342288 0 -0.46517856856700529 -0.073039837380481171 0 -0.47011738965508038 -0.087460039054486557 0 -0.46517856856700529 -0.073039837380481171 0 -0.45355360212199231 -0.06910574799147283 0 -0.46594782812841667 -0.055149958384131698 0 -0.45630413989224561 -0.078510569321342288 0 -0.46517856856700529 -0.073039837380481171 0 -0.45355360212199231 -0.06910574799147283 0 -0.4429960793743915 -0.10708722725866079 0 -0.45779345763713131 -0.1075267297020653 0 -0.45619814371136419 -0.1213202456852264 0 -0.44121032455866332 -0.1224397345803445 0 -0.4429960793743915 -0.10708722725866079 0 -0.45619814371136419 -0.1213202456852264 0 -0.4429960793743915 -0.10708722725866079 0 -0.45104826578520019 -0.1009069831360717 0 -0.45779345763713131 -0.1075267297020653 0 -0.4302578211619707 -0.09319654139512884 0 -0.4429960793743915 -0.10708722725866079 0 -0.44554599224332159 -0.095095863591440705 0 -0.45589318012150559 -0.090358550318326097 0 -0.44554599224332159 -0.095095863591440705 0 -0.45428194207685341 -0.095896123595157506 0 -0.4429960793743915 -0.10708722725866079 0 -0.44554599224332159 -0.095095863591440705 0 -0.45104826578520019 -0.1009069831360717 0 -0.44554599224332159 -0.095095863591440705 0 -0.45104826578520019 -0.1009069831360717 0 -0.45428194207685341 -0.095896123595157506 0 -0.45589318012150559 -0.090358550318326097 0 -0.47794659006076351 -0.099684323303852282 0 -0.45742852973212111 -0.091654082115472532 0 -0.46516420649271678 -0.1027331008927206 0 -0.47794659006076351 -0.099684323303852282 0 -0.45589318012150559 -0.090358550318326097 0 -0.45742852973212111 -0.091654082115472532 0 -0.47794659006076351 -0.099684323303852282 0 -0.45742852973212111 -0.091654082115472532 0 -0.45789498943948592 -0.099828963512966662 0 -0.46516420649271678 -0.1027331008927206 0 -0.45742852973212111 -0.091654082115472532 0 -0.45428194207685341 -0.095896123595157506 0 -0.45789498943948592 -0.099828963512966662 0 -0.45104826578520019 -0.1009069831360717 0 -0.45428194207685341 -0.095896123595157506 0 -0.45789498943948592 -0.099828963512966662 0 -0.46516420649271678 -0.1027331008927206 0 -0.45779345763713131 -0.1075267297020653 0 -0.46843956629500499 -0.1143817333601245 0 -0.45789498943948592 -0.099828963512966662 0 -0.46516420649271678 -0.1027331008927206 0 -0.45779345763713131 -0.1075267297020653 0 -0.45104826578520019 -0.1009069831360717 0 -0.45789498943948592 -0.099828963512966662 0 -0.45779345763713131 -0.1075267297020653 0 -0.46768311102431398 -0.1328513609391159 0 -0.46843956629500499 -0.1143817333601245 0 -0.45619814371136419 -0.1213202456852264 0 -0.45779345763713131 -0.1075267297020653 0 -0.46843956629500499 -0.1143817333601245 0 -0.45619814371136419 -0.1213202456852264 0 -0.46768311102431398 -0.1328513609391159 0 -0.46843956629500499 -0.1143817333601245 0 -0.48269293919420159 -0.1218798034032053 0 -0.46843956629500499 -0.1143817333601245 0 -0.48269293919420159 -0.1218798034032053 0 -0.47794659006076351 -0.099684323303852282 0 -0.46516420649271678 -0.1027331008927206 0 -0.46843956629500499 -0.1143817333601245 0 -0.47794659006076351 -0.099684323303852282 0 -0.47794659006076351 -0.099684323303852282 0 -0.49616540758063282 -0.095989037781847752 0 -0.50000000000001843 -0.10901009628938541 0 -0.49616540758063282 -0.095989037781847752 0 -0.50000000000001843 -0.10901009628938541 0 -0.5 -0.086367553570403599 0 -0.47794659006076351 -0.099684323303852282 0 -0.50000000000001843 -0.10901009628938541 0 -0.5 -0.13185640104403079 0 -0.48269293919420159 -0.1218798034032053 0 -0.50000000000001843 -0.10901009628938541 0 -0.48269293919420159 -0.1218798034032053 0 -0.47794659006076351 -0.099684323303852282 0 -0.50000000000001843 -0.10901009628938541 0 -0.46517856856700529 -0.073039837380481171 0 -0.48105661785452469 -0.075569498082989725 0 -0.46594782812841667 -0.055149958384131698 0 -0.48105661785452469 -0.075569498082989725 0 -0.46594782812841667 -0.055149958384131698 0 -0.47794659006076351 -0.099684323303852282 0 -0.48105661785452469 -0.075569498082989725 0 -0.47011738965508038 -0.087460039054486557 0 -0.46517856856700529 -0.073039837380481171 0 -0.48105661785452469 -0.075569498082989725 0 -0.47011738965508038 -0.087460039054486557 0 -0.49616540758063282 -0.095989037781847752 0 -0.48105661785452469 -0.075569498082989725 0 -0.47794659006076351 -0.099684323303852282 0 -0.49616540758063282 -0.095989037781847752 0 -0.48105661785452469 -0.075569498082989725 0 -0.49616540758063282 -0.095989037781847752 0 -0.48105661785452469 -0.075569498082989725 0 -0.5 -0.086367553570403599 0 -0.48105661785452469 -0.075569498082989725 0 -0.50000000000000022 -0.063725010851421932 0 -0.48414350860509031 -0.056089683214702667 0 -0.48105661785452469 -0.075569498082989725 0 -0.5 -0.086367553570403599 0 -0.50000000000000022 -0.063725010851421932 0 -0.50000000000000022 -0.063725010851421932 0 -0.5 -0.035409028499999273 0 -0.4938843043875526 -0.043820947458874021 0 -0.50000000000000022 -0.063725010851421932 0 -0.4938843043875526 -0.043820947458874021 0 -0.48414350860509031 -0.056089683214702667 0 -0.50000000000000022 -0.063725010851421932 0 -0.4938843043875526 -0.043820947458874021 0 -0.4938843043875526 -0.043820947458874021 0 -0.4798287926549577 -0.042183001296095993 0 -0.48414350860509031 -0.056089683214702667 0 -0.4938843043875526 -0.043820947458874021 0 -0.48776860877510492 -0.023916884066326121 0 -0.5 -0.035409028499999273 0 -0.4938843043875526 -0.043820947458874021 0 -0.48776860877510492 -0.023916884066326121 0 -0.4938843043875526 -0.043820947458874021 0 -0.4798287926549577 -0.042183001296095993 0 -0.48776860877510492 -0.023916884066326121 0 -0.4798287926549577 -0.042183001296095993 0 -0.46594782812841667 -0.055149958384131698 0 -0.4689341021628185 -0.029574930742211802 0 -0.4798287926549577 -0.042183001296095993 0 -0.4689341021628185 -0.029574930742211802 0 -0.48776860877510492 -0.023916884066326121 0 -0.4798287926549577 -0.042183001296095993 0 -0.48414350860509031 -0.056089683214702667 0 -0.46594782812841667 -0.055149958384131698 0 -0.48105661785452469 -0.075569498082989725 0 -0.48414350860509031 -0.056089683214702667 0 -0.46594782812841667 -0.055149958384131698 0 -0.46594782812841667 -0.055149958384131698 0 -0.45192182950859849 -0.057813894844264732 0 -0.45016607808788017 -0.047851940286179902 0 -0.45355360212199231 -0.06910574799147283 0 -0.46594782812841667 -0.055149958384131698 0 -0.45192182950859849 -0.057813894844264732 0 -0.46594782812841667 -0.055149958384131698 0 -0.45083903840230988 -0.034730418685272893 0 -0.45016607808788017 -0.047851940286179902 0 -0.46594782812841667 -0.055149958384131698 0 -0.45083903840230988 -0.034730418685272893 0 -0.45083903840230988 -0.034730418685272893 0 -0.4689341021628185 -0.029574930742211802 0 -0.46594782812841667 -0.055149958384131698 0 -0.45083903840230988 -0.034730418685272893 0 -0.4689341021628185 -0.029574930742211802 0 -0.45083903840230988 -0.034730418685272893 0 -0.44348291319064631 -0.036826261802397738 0 -0.45016607808788017 -0.047851940286179902 0 -0.45083903840230988 -0.034730418685272893 0 -0.44348291319064631 -0.036826261802397738 0 -0.45083903840230988 -0.034730418685272893 0 -0.44348291319064631 -0.036826261802397738 0 -0.44720480868502732 -0.029818754724621369 0 -0.45083903840230988 -0.034730418685272893 0 -0.44720480868502732 -0.029818754724621369 0 -0.44348291319064631 -0.036826261802397738 0 -0.4402181843441666 -0.047140755831702852 0 -0.44348291319064631 -0.036826261802397738 0 -0.4402181843441666 -0.047140755831702852 0 -0.45016607808788017 -0.047851940286179902 0 -0.44527020080720692 -0.054413075382192568 0 -0.4402181843441666 -0.047140755831702852 0 -0.45016607808788017 -0.047851940286179902 0 -0.43424658253425741 -0.056760931933519602 0 -0.44527020080720692 -0.054413075382192568 0 -0.4402181843441666 -0.047140755831702852 0 -0.43424658253425741 -0.056760931933519602 0 -0.44467143839749651 -0.062548752177346637 0 -0.44527020080720692 -0.054413075382192568 0 -0.43424658253425741 -0.056760931933519602 0 -0.4363838137766583 -0.065579409832916657 0 -0.44467143839749651 -0.062548752177346637 0 -0.44467143839749651 -0.062548752177346637 0 -0.44527020080720692 -0.054413075382192568 0 -0.45192182950859849 -0.057813894844264732 0 -0.44527020080720692 -0.054413075382192568 0 -0.45192182950859849 -0.057813894844264732 0 -0.45016607808788017 -0.047851940286179902 0 -0.43631094902786122 -0.015851764134622959 0 -0.45210008619080971 -0.0096014037393828758 0 -0.43817197183071049 0.0015455403038448581 0 -0.44348291319064631 -0.036826261802397738 0 -0.45210008619080971 -0.0096014037393828758 0 -0.44720480868502732 -0.029818754724621369 0 -0.44348291319064631 -0.036826261802397738 0 -0.45210008619080971 -0.0096014037393828758 0 -0.43631094902786122 -0.015851764134622959 0 -0.44348291319064631 -0.036826261802397738 0 -0.45210008619080971 -0.0096014037393828758 0 -0.45210008619080971 -0.0096014037393828758 0 -0.44720480868502732 -0.029818754724621369 0 -0.45802364249369409 -0.025614050728363459 0 -0.45083903840230988 -0.034730418685272893 0 -0.44720480868502732 -0.029818754724621369 0 -0.45802364249369409 -0.025614050728363459 0 -0.45802364249369409 -0.025614050728363459 0 -0.46558694688774538 -0.01313754930493059 0 -0.47371767714772173 -0.020757378858910061 0 -0.45083903840230988 -0.034730418685272893 0 -0.45802364249369409 -0.025614050728363459 0 -0.4689341021628185 -0.029574930742211802 0 -0.45210008619080971 -0.0096014037393828758 0 -0.45802364249369409 -0.025614050728363459 0 -0.46558694688774538 -0.01313754930493059 0 -0.45802364249369409 -0.025614050728363459 0 -0.4689341021628185 -0.029574930742211802 0 -0.47371767714772173 -0.020757378858910061 0 -0.45210008619080971 -0.0096014037393828758 0 -0.46558694688774538 -0.01313754930493059 0 -0.47197730088166739 -0.00074549084995030601 0 -0.47197730088166739 -0.00074549084995030601 0 -0.48103800640022049 -0.0059264161676169632 0 -0.48762482889352238 0.0047889207249312603 0 -0.47197730088166739 -0.00074549084995030601 0 -0.47338375543259181 -0.0097432816290745263 0 -0.48103800640022049 -0.0059264161676169632 0 -0.46558694688774538 -0.01313754930493059 0 -0.47197730088166739 -0.00074549084995030601 0 -0.47338375543259181 -0.0097432816290745263 0 -0.47338375543259181 -0.0097432816290745263 0 -0.47937710494377422 -0.0126718040008556 0 -0.47371767714772173 -0.020757378858910061 0 -0.46558694688774538 -0.01313754930493059 0 -0.47338375543259181 -0.0097432816290745263 0 -0.47371767714772173 -0.020757378858910061 0 -0.47338375543259181 -0.0097432816290745263 0 -0.47937710494377422 -0.0126718040008556 0 -0.48103800640022049 -0.0059264161676169632 0 -0.47937710494377422 -0.0126718040008556 0 -0.48346256993676512 -0.018376438838465559 0 -0.48613423181770149 -0.012236927867042269 0 -0.47937710494377422 -0.0126718040008556 0 -0.48103800640022049 -0.0059264161676169632 0 -0.48613423181770149 -0.012236927867042269 0 -0.4689341021628185 -0.029574930742211802 0 -0.47371767714772173 -0.020757378858910061 0 -0.48776860877510492 -0.023916884066326121 0 -0.4689341021628185 -0.029574930742211802 0 -0.48776860877510492 -0.023916884066326121 0 -0.47937710494377422 -0.0126718040008556 0 -0.47371767714772173 -0.020757378858910061 0 -0.48346256993676512 -0.018376438838465559 0 -0.47371767714772173 -0.020757378858910061 0 -0.48346256993676512 -0.018376438838465559 0 -0.48776860877510492 -0.023916884066326121 0 -0.5 -0.035409028499999273 0 -0.49297516896084831 -0.0156129924542803 0 -0.5 -0.0070930461485767538 0 -0.5 -0.035409028499999273 0 -0.48776860877510492 -0.023916884066326121 0 -0.49297516896084831 -0.0156129924542803 0 -0.48776860877510492 -0.023916884066326121 0 -0.48815699867988921 -0.018333355049300011 0 -0.49297516896084831 -0.0156129924542803 0 -0.48776860877510492 -0.023916884066326121 0 -0.48660433582877161 -0.021261530188310711 0 -0.48815699867988921 -0.018333355049300011 0 -0.48346256993676512 -0.018376438838465559 0 -0.48776860877510492 -0.023916884066326121 0 -0.48660433582877161 -0.021261530188310711 0 -0.48346256993676512 -0.018376438838465559 0 -0.48660433582877161 -0.021261530188310711 0 -0.48815699867988921 -0.018333355049300011 0 -0.48346256993676512 -0.018376438838465559 0 -0.48815699867988921 -0.018333355049300011 0 -0.48613423181770149 -0.012236927867042269 0 -0.48103800640022049 -0.0059264161676169632 0 -0.48872628707751808 -0.0058920448497292799 0 -0.48762482889352238 0.0047889207249312603 0 -0.48872628707751808 -0.0058920448497292799 0 -0.5 -0.0070930461485767538 0 -0.48762482889352238 0.0047889207249312603 0 -0.48872628707751808 -0.0058920448497292799 0 -0.48613423181770149 -0.012236927867042269 0 -0.49297516896084831 -0.0156129924542803 0 -0.48103800640022049 -0.0059264161676169632 0 -0.48872628707751808 -0.0058920448497292799 0 -0.48613423181770149 -0.012236927867042269 0 -0.48815699867988921 -0.018333355049300011 0 -0.48613423181770149 -0.012236927867042269 0 -0.49297516896084831 -0.0156129924542803 0 -0.48872628707751808 -0.0058920448497292799 0 -0.49297516896084831 -0.0156129924542803 0 -0.5 -0.0070930461485767538 0 -0.5 -0.0070930461485767538 0 -0.48762482889352238 0.0047889207249312603 0 -0.5 0.02122293620284588 0 -0.48762482889352238 0.0047889207249312603 0 -0.5 0.02122293620284588 0 -0.4859886504408335 0.024396713852159121 0 -0.4859886504408335 0.024396713852159121 0 -0.46889616666534162 0.01224352063171673 0 -0.48410591838107692 0.03172353501784022 0 -0.46889616666534162 0.01224352063171673 0 -0.48410591838107692 0.03172353501784022 0 -0.47183864700206191 0.02562386796373313 0 -0.46889616666534162 0.01224352063171673 0 -0.48410591838107692 0.03172353501784022 0 -0.47183864700206191 0.02562386796373313 0 -0.48410591838107692 0.03172353501784022 0 -0.47680168897409209 0.036199996030529508 0 -0.47197730088166739 -0.00074549084995030601 0 -0.48762482889352238 0.0047889207249312603 0 -0.4859886504408335 0.024396713852159121 0 -0.47197730088166739 -0.00074549084995030601 0 -0.4859886504408335 0.024396713852159121 0 -0.47197730088166739 -0.00074549084995030601 0 -0.4859886504408335 0.024396713852159121 0 -0.46889616666534162 0.01224352063171673 0 -0.4993156700968141 0.051203549403962323 0 -0.49092570550608777 0.044368902148698257 0 -0.47328821245831132 0.057339776418326063 0 -0.48904631343154192 0.061886173141576517 0 -0.4993156700968141 0.051203549403962323 0 -0.47328821245831132 0.057339776418326063 0 -0.4993156700968141 0.051203549403962323 0 -0.47328821245831132 0.057339776418326063 0 -0.4993156700968141 0.051203549403962323 0 -0.49999999999999978 0.049538918554268438 0 -0.48410591838107692 0.03172353501784022 0 -0.4859886504408335 0.024396713852159121 0 -0.49999999999999978 0.049538918554268438 0 -0.5 0.02122293620284588 0 -0.4859886504408335 0.024396713852159121 0 -0.49999999999999978 0.049538918554268438 0 -0.4993156700968141 0.051203549403962323 0 -0.49092570550608777 0.044368902148698257 0 -0.48410591838107692 0.03172353501784022 0 -0.4993156700968141 0.051203549403962323 0 -0.48410591838107692 0.03172353501784022 0 -0.4859886504408335 0.024396713852159121 0 -0.49999999999999978 0.049538918554268438 0 -0.48410591838107692 0.03172353501784022 0 -0.49092570550608777 0.044368902148698257 0 -0.47680168897409209 0.036199996030529508 0 -0.46933443219113452 0.044848312386647549 0 -0.47183864700206191 0.02562386796373313 0 -0.47680168897409209 0.036199996030529508 0 -0.46933443219113452 0.044848312386647549 0 -0.49092570550608777 0.044368902148698257 0 -0.46933443219113452 0.044848312386647549 0 -0.49092570550608777 0.044368902148698257 0 -0.48410591838107692 0.03172353501784022 0 -0.47680168897409209 0.036199996030529508 0 -0.49092570550608777 0.044368902148698257 0 -0.46933443219113452 0.044848312386647549 0 -0.47328821245831132 0.057339776418326063 0 -0.46933443219113452 0.044848312386647549 0 -0.47328821245831132 0.057339776418326063 0 -0.46933443219113452 0.044848312386647549 0 -0.46148929110586179 0.05420289962700179 0 -0.44311239270093827 0.045430543643143501 0 -0.47328821245831132 0.057339776418326063 0 -0.44691436870358497 0.063557667338297749 0 -0.47328821245831132 0.057339776418326063 0 -0.46148929110586179 0.05420289962700179 0 -0.44691436870358497 0.063557667338297749 0 -0.46933443219113452 0.044848312386647549 0 -0.47328821245831132 0.057339776418326063 0 -0.46148929110586179 0.05420289962700179 0 -0.46933443219113452 0.044848312386647549 0 -0.44311239270093827 0.045430543643143501 0 -0.46933443219113452 0.044848312386647549 0 -0.44311239270093827 0.045430543643143501 0 -0.44986934919437638 0.030941239836312969 0 -0.44311239270093827 0.045430543643143501 0 -0.43413375783878438 0.028444111019499362 0 -0.44311239270093827 0.045430543643143501 0 -0.44986934919437638 0.030941239836312969 0 -0.43413375783878438 0.028444111019499362 0 -0.46148929110586179 0.05420289962700179 0 -0.44311239270093827 0.045430543643143501 0 -0.45017869117180842 0.058799079586166238 0 -0.44311239270093827 0.045430543643143501 0 -0.45017869117180842 0.058799079586166238 0 -0.44311239270093827 0.045430543643143501 0 -0.44261067779310492 0.057781178548885467 0 -0.43405455637991808 0.056332773374534538 0 -0.44311239270093827 0.045430543643143501 0 -0.44261067779310492 0.057781178548885467 0 -0.45017869117180842 0.058799079586166238 0 -0.44261067779310492 0.057781178548885467 0 -0.44691436870358497 0.063557667338297749 0 -0.43879338000927431 0.064785828802285228 0 -0.44261067779310492 0.057781178548885467 0 -0.43405455637991808 0.056332773374534538 0 -0.43879338000927431 0.064785828802285228 0 -0.46148929110586179 0.05420289962700179 0 -0.45017869117180842 0.058799079586166238 0 -0.44691436870358497 0.063557667338297749 0 -0.44261067779310492 0.057781178548885467 0 -0.45017869117180842 0.058799079586166238 0 -0.44691436870358497 0.063557667338297749 0 -0.45210008619080971 -0.0096014037393828758 0 -0.46071725919097217 0.017623454323632302 0 -0.45210008619080971 -0.0096014037393828758 0 -0.46889616666534162 0.01224352063171673 0 -0.46071725919097217 0.017623454323632302 0 -0.45210008619080971 -0.0096014037393828758 0 -0.47197730088166739 -0.00074549084995030601 0 -0.46889616666534162 0.01224352063171673 0 -0.46933443219113452 0.044848312386647549 0 -0.46071725919097217 0.017623454323632302 0 -0.47183864700206191 0.02562386796373313 0 -0.46933443219113452 0.044848312386647549 0 -0.46071725919097217 0.017623454323632302 0 -0.47183864700206191 0.02562386796373313 0 -0.46889616666534162 0.01224352063171673 0 -0.46071725919097217 0.017623454323632302 0 -0.46933443219113452 0.044848312386647549 0 -0.46071725919097217 0.017623454323632302 0 -0.44986934919437638 0.030941239836312969 0 -0.43893511761828041 0.018098543076360451 0 -0.44986934919437638 0.030941239836312969 0 -0.43413375783878438 0.028444111019499362 0 -0.46071725919097217 0.017623454323632302 0 -0.43893511761828041 0.018098543076360451 0 -0.44986934919437638 0.030941239836312969 0 -0.46071725919097217 0.017623454323632302 0 -0.43893511761828041 0.018098543076360451 0 -0.43817197183071049 0.0015455403038448581 0 -0.45210008619080971 -0.0096014037393828758 0 -0.46071725919097217 0.017623454323632302 0 -0.43817197183071049 0.0015455403038448581 0 -0.42656569450450321 -0.0019859141793893498 0 -0.41782183006214652 -0.005234000588313332 0 -0.42523142453409529 0.011602031216174509 0 -0.43893511761828041 0.018098543076360451 0 -0.43817197183071049 0.0015455403038448581 0 -0.42523142453409529 0.011602031216174509 0 -0.42656569450450321 -0.0019859141793893498 0 -0.43817197183071049 0.0015455403038448581 0 -0.42523142453409529 0.011602031216174509 0 -0.4163290912294062 -0.005240048587150316 0 -0.42523142453409529 0.011602031216174509 0 -0.41782183006214652 -0.005234000588313332 0 -0.4163290912294062 -0.005240048587150316 0 -0.42523142453409529 0.011602031216174509 0 -0.40566852868012448 -0.0052832410522216568 0 -0.40740079350436992 0.023336000487762611 0 -0.4163290912294062 -0.005240048587150316 0 -0.40566852868012448 -0.0052832410522216568 0 -0.42523142453409529 0.011602031216174509 0 -0.40566852868012448 -0.0052832410522216568 0 -0.42523142453409529 0.011602031216174509 0 -0.40740079350436992 0.023336000487762611 0 -0.40740079350436992 0.023336000487762611 0 -0.43413375783878438 0.028444111019499362 0 -0.42025661009136678 0.035919712710377569 0 -0.40740079350436992 0.023336000487762611 0 -0.43413375783878438 0.028444111019499362 0 -0.42523142453409529 0.011602031216174509 0 -0.43413375783878438 0.028444111019499362 0 -0.43893511761828041 0.018098543076360451 0 -0.42523142453409529 0.011602031216174509 0 -0.43413375783878438 0.028444111019499362 0 -0.42523142453409529 0.011602031216174509 0 -0.40740079350436992 0.023336000487762611 0 -0.43413375783878438 0.028444111019499362 0 -0.44311239270093827 0.045430543643143501 0 -0.43413375783878438 0.028444111019499362 0 -0.42753476057441708 0.045776427659131272 0 -0.43413375783878438 0.028444111019499362 0 -0.42753476057441708 0.045776427659131272 0 -0.42025661009136678 0.035919712710377569 0 -0.44311239270093827 0.045430543643143501 0 -0.42753476057441708 0.045776427659131272 0 -0.44311239270093827 0.045430543643143501 0 -0.42753476057441708 0.045776427659131272 0 -0.43405455637991808 0.056332773374534538 0 -0.42753476057441708 0.045776427659131272 0 -0.43405455637991808 0.056332773374534538 0 -0.42230836852419462 0.053592340075276787 0 -0.43405455637991808 0.056332773374534538 0 -0.42604279864632888 0.059731129076773318 0 -0.42778385672442099 0.067941734918793795 0 -0.43405455637991808 0.056332773374534538 0 -0.42230836852419462 0.053592340075276787 0 -0.42604279864632888 0.059731129076773318 0 -0.42230836852419462 0.053592340075276787 0 -0.42604279864632888 0.059731129076773318 0 -0.42002441295678211 0.061057667938488151 0 -0.40888919487721959 0.047926304349997902 0 -0.41037759625006998 0.072516608212233075 0 -0.41468813406756277 0.055957907267684147 0 -0.40888919487721959 0.047926304349997902 0 -0.41037759625006998 0.072516608212233075 0 -0.42230836852419462 0.053592340075276787 0 -0.42002441295678211 0.061057667938488151 0 -0.41468813406756277 0.055957907267684147 0 -0.42230836852419462 0.053592340075276787 0 -0.41468813406756277 0.055957907267684147 0 -0.41195712844789578 0.046122311675118939 0 -0.42753476057441708 0.045776427659131272 0 -0.42230836852419462 0.053592340075276787 0 -0.41195712844789578 0.046122311675118939 0 -0.41468813406756277 0.055957907267684147 0 -0.40888919487721959 0.047926304349997902 0 -0.41195712844789578 0.046122311675118939 0 -0.40740079350436992 0.023336000487762611 0 -0.40888919487721959 0.047926304349997902 0 -0.40740079350436992 0.023336000487762611 0 -0.40888919487721959 0.047926304349997902 0 -0.41195712844789578 0.046122311675118939 0 -0.40740079350436992 0.023336000487762611 0 -0.42025661009136678 0.035919712710377569 0 -0.41195712844789578 0.046122311675118939 0 -0.42753476057441708 0.045776427659131272 0 -0.42025661009136678 0.035919712710377569 0 -0.41195712844789578 0.046122311675118939 0 -0.42753476057441708 0.045776427659131272 0 -0.41195712844789578 0.046122311675118939 0 -0.40740079350436992 0.023336000487762611 0 -0.40888919487721959 0.047926304349997902 0 -0.39796814295698968 0.039092773896098998 0 -0.40740079350436992 0.023336000487762611 0 -0.39796814295698968 0.039092773896098998 0 -0.38921787521509138 0.031351761140586618 0 -0.39796814295698968 0.039092773896098998 0 -0.39487949493264513 0.059075777401446428 0 -0.40888919487721959 0.047926304349997902 0 -0.39796814295698968 0.039092773896098998 0 -0.39487949493264513 0.059075777401446428 0 -0.40888919487721959 0.047926304349997902 0 -0.39487949493264513 0.059075777401446428 0 -0.41037759625006998 0.072516608212233075 0 -0.39796814295698968 0.039092773896098998 0 -0.39487949493264513 0.059075777401446428 0 -0.38356888766957609 0.054597944674692783 0 -0.38356888766957609 0.054597944674692783 0 -0.37785690104045611 0.042083429050685447 0 -0.36991388961651289 0.058237326072863908 0 -0.39796814295698968 0.039092773896098998 0 -0.38921787521509138 0.031351761140586618 0 -0.37785690104045611 0.042083429050685447 0 -0.39796814295698968 0.039092773896098998 0 -0.38356888766957609 0.054597944674692783 0 -0.37785690104045611 0.042083429050685447 0 -0.38921787521509138 0.031351761140586618 0 -0.37785690104045611 0.042083429050685447 0 -0.37735106688519138 0.02816551559550818 0 -0.38865634342396871 0.01975432800020626 0 -0.36991189334356678 0.016172655512653979 0 -0.37735106688519138 0.02816551559550818 0 -0.38865634342396871 0.01975432800020626 0 -0.36991189334356678 0.016172655512653979 0 -0.38865634342396871 0.01975432800020626 0 -0.36991189334356678 0.016172655512653979 0 -0.37195289213886179 0.01182448652966504 0 -0.38921787521509138 0.031351761140586618 0 -0.37735106688519138 0.02816551559550818 0 -0.38865634342396871 0.01975432800020626 0 -0.38003189033049622 -0.0053871107684163432 0 -0.37195289213886179 0.01182448652966504 0 -0.38003189033049622 -0.0053871107684163432 0 -0.38865634342396871 0.01975432800020626 0 -0.37195289213886179 0.01182448652966504 0 -0.40566852868012448 -0.0052832410522216568 0 -0.40740079350436992 0.023336000487762611 0 -0.38865634342396871 0.01975432800020626 0 -0.40566852868012448 -0.0052832410522216568 0 -0.38003189033049622 -0.0053871107684163432 0 -0.38865634342396871 0.01975432800020626 0 -0.40740079350436992 0.023336000487762611 0 -0.38865634342396871 0.01975432800020626 0 -0.40740079350436992 0.023336000487762611 0 -0.38921787521509138 0.031351761140586618 0 -0.38865634342396871 0.01975432800020626 0 -0.39871476651327159 0.09692529074684339 0 -0.40257167556067652 0.10596842939531161 0 -0.38797021468556903 0.1037775920169338 0 -0.39871476651327159 0.09692529074684339 0 -0.40257167556067652 0.10596842939531161 0 -0.41324671431974802 0.09947946227815789 0 -0.40112858955848002 0.11902874600708011 0 -0.38797021468556903 0.1037775920169338 0 -0.3841495824628377 0.12849640312707389 0 -0.40257167556067652 0.10596842939531161 0 -0.40112858955848002 0.11902874600708011 0 -0.4140542519191926 0.11421600677146131 0 -0.40257167556067652 0.10596842939531161 0 -0.40112858955848002 0.11902874600708011 0 -0.38797021468556903 0.1037775920169338 0 -0.38797021468556903 0.1037775920169338 0 -0.3841495824628377 0.12849640312707389 0 -0.38797021468556903 0.1037775920169338 0 -0.3841495824628377 0.12849640312707389 0 -0.36889745467026241 0.11291669864627971 0 -0.38797021468556903 0.1037775920169338 0 -0.37461159076084538 0.095546281046898981 0 -0.36889745467026241 0.11291669864627971 0 -0.38797021468556903 0.1037775920169338 0 -0.39179084690829841 0.079058780906793497 0 -0.39179084690829841 0.079058780906793497 0 -0.3670327395327696 0.081220952883602787 0 -0.37461159076084538 0.095546281046898981 0 -0.38797021468556903 0.1037775920169338 0 -0.39179084690829841 0.079058780906793497 0 -0.37461159076084538 0.095546281046898981 0 -0.38356888766957609 0.054597944674692783 0 -0.39179084690829841 0.079058780906793497 0 -0.36991388961651289 0.058237326072863908 0 -0.39487949493264513 0.059075777401446428 0 -0.38356888766957609 0.054597944674692783 0 -0.39179084690829841 0.079058780906793497 0 -0.39179084690829841 0.079058780906793497 0 -0.36991388961651289 0.058237326072863908 0 -0.39179084690829841 0.079058780906793497 0 -0.36991388961651289 0.058237326072863908 0 -0.3670327395327696 0.081220952883602787 0 -0.39487949493264513 0.059075777401446428 0 -0.39179084690829841 0.079058780906793497 0 -0.39487949493264513 0.059075777401446428 0 -0.39179084690829841 0.079058780906793497 0 -0.41037759625006998 0.072516608212233075 0 -0.39179084690829841 0.079058780906793497 0 -0.4118659976229202 0.097106912074468393 0 -0.41324671431974802 0.09947946227815789 0 -0.39179084690829841 0.079058780906793497 0 -0.41324671431974802 0.09947946227815789 0 -0.39871476651327159 0.09692529074684339 0 -0.39179084690829841 0.079058780906793497 0 -0.41324671431974802 0.09947946227815789 0 -0.39179084690829841 0.079058780906793497 0 -0.41037759625006998 0.072516608212233075 0 -0.4118659976229202 0.097106912074468393 0 -0.39871476651327159 0.09692529074684339 0 -0.38797021468556903 0.1037775920169338 0 -0.39179084690829841 0.079058780906793497 0 -0.41564230412839398 0.089027778616530426 0 -0.41037759625006998 0.072516608212233075 0 -0.4118659976229202 0.097106912074468393 0 -0.41037759625006998 0.072516608212233075 0 -0.4118659976229202 0.097106912074468393 0 -0.42014197369481449 0.08544373223487628 0 -0.41564230412839398 0.089027778616530426 0 -0.41037759625006998 0.072516608212233075 0 -0.42014197369481449 0.08544373223487628 0 -0.41037759625006998 0.072516608212233075 0 -0.42335962795206322 0.077821932749317133 0 -0.42014197369481449 0.08544373223487628 0 -0.42001322870098828 0.09317801605323088 0 -0.41564230412839398 0.089027778616530426 0 -0.42014197369481449 0.08544373223487628 0 -0.42001322870098828 0.09317801605323088 0 -0.42345596664286739 0.091684406066987287 0 -0.42001322870098828 0.09317801605323088 0 -0.41564230412839398 0.089027778616530426 0 -0.4170721624401667 0.095702156740239269 0 -0.42002441295678211 0.061057667938488151 0 -0.41037759625006998 0.072516608212233075 0 -0.42778385672442099 0.067941734918793795 0 -0.41037759625006998 0.072516608212233075 0 -0.42778385672442099 0.067941734918793795 0 -0.42335962795206322 0.077821932749317133 0 -0.42002441295678211 0.061057667938488151 0 -0.41468813406756277 0.055957907267684147 0 -0.41037759625006998 0.072516608212233075 0 -0.42604279864632888 0.059731129076773318 0 -0.42002441295678211 0.061057667938488151 0 -0.42778385672442099 0.067941734918793795 0 -0.42778385672442099 0.067941734918793795 0 -0.42335962795206322 0.077821932749317133 0 -0.43165420796200882 0.078362096498873948 0 -0.42778385672442099 0.067941734918793795 0 -0.43165420796200882 0.078362096498873948 0 -0.43935492496834638 0.073837885069733128 0 -0.43165420796200882 0.078362096498873948 0 -0.43734503464329072 0.079753689309333964 0 -0.43935492496834638 0.073837885069733128 0 -0.42778385672442099 0.067941734918793795 0 -0.43879338000927431 0.064785828802285228 0 -0.43935492496834638 0.073837885069733128 0 -0.43405455637991808 0.056332773374534538 0 -0.42778385672442099 0.067941734918793795 0 -0.43879338000927431 0.064785828802285228 0 -0.42345596664286739 0.091684406066987287 0 -0.42731206076277461 0.085106694789516879 0 -0.43038761708637641 0.092100572717768461 0 -0.42014197369481449 0.08544373223487628 0 -0.42345596664286739 0.091684406066987287 0 -0.42731206076277461 0.085106694789516879 0 -0.42014197369481449 0.08544373223487628 0 -0.42335962795206322 0.077821932749317133 0 -0.42731206076277461 0.085106694789516879 0 -0.42335962795206322 0.077821932749317133 0 -0.42731206076277461 0.085106694789516879 0 -0.43165420796200882 0.078362096498873948 0 -0.42731206076277461 0.085106694789516879 0 -0.43165420796200882 0.078362096498873948 0 -0.43485739540679402 0.085213250576825883 0 -0.43165420796200882 0.078362096498873948 0 -0.43734503464329072 0.079753689309333964 0 -0.43485739540679402 0.085213250576825883 0 -0.43485739540679402 0.085213250576825883 0 -0.43038761708637641 0.092100572717768461 0 -0.44101760364071152 0.091013675063173038 0 -0.42731206076277461 0.085106694789516879 0 -0.43485739540679402 0.085213250576825883 0 -0.43038761708637641 0.092100572717768461 0 -0.42470122427205781 0.099159885154364164 0 -0.41324671431974802 0.09947946227815789 0 -0.43470258173120019 0.11990014364951961 0 -0.43038761708637641 0.092100572717768461 0 -0.43528973705004698 0.10088297080704151 0 -0.44101760364071152 0.091013675063173038 0 -0.43528973705004698 0.10088297080704151 0 -0.42470122427205781 0.099159885154364164 0 -0.43470258173120019 0.11990014364951961 0 -0.43038761708637641 0.092100572717768461 0 -0.43528973705004698 0.10088297080704151 0 -0.42470122427205781 0.099159885154364164 0 -0.42345596664286739 0.091684406066987287 0 -0.43038761708637641 0.092100572717768461 0 -0.42470122427205781 0.099159885154364164 0 -0.42001322870098828 0.09317801605323088 0 -0.42345596664286739 0.091684406066987287 0 -0.42470122427205781 0.099159885154364164 0 -0.41564230412839398 0.089027778616530426 0 -0.4170721624401667 0.095702156740239269 0 -0.4118659976229202 0.097106912074468393 0 -0.42001322870098828 0.09317801605323088 0 -0.42470122427205781 0.099159885154364164 0 -0.4170721624401667 0.095702156740239269 0 -0.42470122427205781 0.099159885154364164 0 -0.4170721624401667 0.095702156740239269 0 -0.41324671431974802 0.09947946227815789 0 -0.40257167556067652 0.10596842939531161 0 -0.41324671431974802 0.09947946227815789 0 -0.4140542519191926 0.11421600677146131 0 -0.4170721624401667 0.095702156740239269 0 -0.4118659976229202 0.097106912074468393 0 -0.41324671431974802 0.09947946227815789 0 -0.40112858955848002 0.11902874600708011 0 -0.4140542519191926 0.11421600677146131 0 -0.42029928255818971 0.13228656140769221 0 -0.41324671431974802 0.09947946227815789 0 -0.4140542519191926 0.11421600677146131 0 -0.43470258173120019 0.11990014364951961 0 -0.4140542519191926 0.11421600677146131 0 -0.43470258173120019 0.11990014364951961 0 -0.42029928255818971 0.13228656140769221 0 -0.41324671431974802 0.09947946227815789 0 -0.43470258173120019 0.11990014364951961 0 -0.43470258173120019 0.11990014364951961 0 -0.45251239559073181 0.12017628032542731 0 -0.44956252695361748 0.10286716229359261 0 -0.43528973705004698 0.10088297080704151 0 -0.43470258173120019 0.11990014364951961 0 -0.44956252695361748 0.10286716229359261 0 -0.43528973705004698 0.10088297080704151 0 -0.44956252695361748 0.10286716229359261 0 -0.44101760364071152 0.091013675063173038 0 -0.46646258261357709 0.092163632575686466 0 -0.46962602453545699 0.11761699033771569 0 -0.44956252695361748 0.10286716229359261 0 -0.46646258261357709 0.092163632575686466 0 -0.46962602453545699 0.11761699033771569 0 -0.45251239559073181 0.12017628032542731 0 -0.44956252695361748 0.10286716229359261 0 -0.46962602453545699 0.11761699033771569 0 -0.44691436870358497 0.063557667338297749 0 -0.44316671306972188 0.06870633267708065 0 -0.44760417859768209 0.07264394949800651 0 -0.44691436870358497 0.063557667338297749 0 -0.44760417859768209 0.07264394949800651 0 -0.45528232153091208 0.067095897797967735 0 -0.44691436870358497 0.063557667338297749 0 -0.44316671306972188 0.06870633267708065 0 -0.43879338000927431 0.064785828802285228 0 -0.44316671306972188 0.06870633267708065 0 -0.43879338000927431 0.064785828802285228 0 -0.43935492496834638 0.073837885069733128 0 -0.44316671306972188 0.06870633267708065 0 -0.43935492496834638 0.073837885069733128 0 -0.44760417859768209 0.07264394949800651 0 -0.43935492496834638 0.073837885069733128 0 -0.44760417859768209 0.07264394949800651 0 -0.44257594411498391 0.081591822736279407 0 -0.44760417859768209 0.07264394949800651 0 -0.45204671044693351 0.081032653366918797 0 -0.45528232153091208 0.067095897797967735 0 -0.44956252695361748 0.10286716229359261 0 -0.45204671044693351 0.081032653366918797 0 -0.44101760364071152 0.091013675063173038 0 -0.44760417859768209 0.07264394949800651 0 -0.45204671044693351 0.081032653366918797 0 -0.44257594411498391 0.081591822736279407 0 -0.45204671044693351 0.081032653366918797 0 -0.44257594411498391 0.081591822736279407 0 -0.44101760364071152 0.091013675063173038 0 -0.43734503464329072 0.079753689309333964 0 -0.43935492496834638 0.073837885069733128 0 -0.44257594411498391 0.081591822736279407 0 -0.43734503464329072 0.079753689309333964 0 -0.43485739540679402 0.085213250576825883 0 -0.44257594411498391 0.081591822736279407 0 -0.43485739540679402 0.085213250576825883 0 -0.44257594411498391 0.081591822736279407 0 -0.44101760364071152 0.091013675063173038 0 -0.46646258261357709 0.092163632575686466 0 -0.46329914069169709 0.066710274813657239 0 -0.44956252695361748 0.10286716229359261 0 -0.45204671044693351 0.081032653366918797 0 -0.46646258261357709 0.092163632575686466 0 -0.45204671044693351 0.081032653366918797 0 -0.46646258261357709 0.092163632575686466 0 -0.46329914069169709 0.066710274813657239 0 -0.47328821245831132 0.057339776418326063 0 -0.46329914069169709 0.066710274813657239 0 -0.45528232153091208 0.067095897797967735 0 -0.47328821245831132 0.057339776418326063 0 -0.44691436870358497 0.063557667338297749 0 -0.45528232153091208 0.067095897797967735 0 -0.45204671044693351 0.081032653366918797 0 -0.46329914069169709 0.066710274813657239 0 -0.45528232153091208 0.067095897797967735 0 -0.46646258261357709 0.092163632575686466 0 -0.46329914069169709 0.066710274813657239 0 -0.47834774774307598 0.073324732272164295 0 -0.47328821245831132 0.057339776418326063 0 -0.46329914069169709 0.066710274813657239 0 -0.47834774774307598 0.073324732272164295 0 -0.47328821245831132 0.057339776418326063 0 -0.47834774774307598 0.073324732272164295 0 -0.48904631343154192 0.061886173141576517 0 -0.47328821245831132 0.057339776418326063 0 -0.47834774774307598 0.073324732272164295 0 -0.46646258261357709 0.092163632575686466 0 -0.47834774774307598 0.073324732272164295 0 -0.48288727097842199 0.094457118146941299 0 -0.47834774774307598 0.073324732272164295 0 -0.5 0.080420082031716689 0 -0.48288727097842199 0.094457118146941299 0 -0.48904631343154192 0.061886173141576517 0 -0.47834774774307598 0.073324732272164295 0 -0.5 0.080420082031716689 0 -0.48904631343154192 0.061886173141576517 0 -0.4993156700968141 0.051203549403962323 0 -0.5 0.080420082031716689 0 -0.46962602453545699 0.11761699033771569 0 -0.48288727097842199 0.094457118146941299 0 -0.5 0.10876015351742339 0 -0.46646258261357709 0.092163632575686466 0 -0.46962602453545699 0.11761699033771569 0 -0.48288727097842199 0.094457118146941299 0 -0.5 0.080420082031716689 0 -0.48288727097842199 0.094457118146941299 0 -0.5 0.10876015351742339 0 -0.46962602453545699 0.11761699033771569 0 -0.5 0.10876015351742339 0 -0.48440280905907429 0.12958927482006091 0 -0.48440280905907429 0.12958927482006091 0 -0.5 0.13710022500313021 0 -0.48658650093744282 0.15311190937225869 0 -0.5 0.10876015351742339 0 -0.48440280905907429 0.12958927482006091 0 -0.5 0.13710022500313021 0 -0.46962602453545699 0.11761699033771569 0 -0.48440280905907429 0.12958927482006091 0 -0.47278946645733688 0.14307034809974489 0 -0.46962602453545699 0.11761699033771569 0 -0.47278946645733688 0.14307034809974489 0 -0.47278946645733688 0.14307034809974489 0 -0.48658650093744282 0.15311190937225869 0 -0.47595290837921589 0.1685237058617742 0 -0.47278946645733688 0.14307034809974489 0 -0.47595290837921589 0.1685237058617742 0 -0.48440280905907429 0.12958927482006091 0 -0.47278946645733688 0.14307034809974489 0 -0.48658650093744282 0.15311190937225869 0 -0.5 0.13710022500313021 0 -0.48658650093744282 0.15311190937225869 0 -0.5 0.1654402964888369 0 -0.5 0.1654402964888369 0 -0.48762896587656668 0.1670569871602573 0 -0.4879764541896085 0.18115203691815901 0 -0.48658650093744282 0.15311190937225869 0 -0.5 0.1654402964888369 0 -0.48762896587656668 0.1670569871602573 0 -0.5 0.1654402964888369 0 -0.4879764541896085 0.18115203691815901 0 -0.50000000000000111 0.19378036797454359 0 -0.4879764541896085 0.18115203691815901 0 -0.50000000000000111 0.19378036797454359 0 -0.4879764541896085 0.18115203691815901 0 -0.47780207378555112 0.18340226845623619 0 -0.4886304729088547 0.1897515113639647 0 -0.47780207378555112 0.18340226845623619 0 -0.47595290837921589 0.1685237058617742 0 -0.45266160216064372 0.16866112719022641 0 -0.47780207378555112 0.18340226845623619 0 -0.4886304729088547 0.1897515113639647 0 -0.4879764541896085 0.18115203691815901 0 -0.47780207378555112 0.18340226845623619 0 -0.47595290837921589 0.1685237058617742 0 -0.48762896587656668 0.1670569871602573 0 -0.4879764541896085 0.18115203691815901 0 -0.47595290837921589 0.1685237058617742 0 -0.47780207378555112 0.18340226845623619 0 -0.47595290837921589 0.1685237058617742 0 -0.4879764541896085 0.18115203691815901 0 -0.47595290837921589 0.1685237058617742 0 -0.47278946645733688 0.14307034809974489 0 -0.47595290837921589 0.1685237058617742 0 -0.46896153069002999 0.16118066135630671 0 -0.48658650093744282 0.15311190937225869 0 -0.48762896587656668 0.1670569871602573 0 -0.47595290837921589 0.1685237058617742 0 -0.47595290837921589 0.1685237058617742 0 -0.46896153069002999 0.16118066135630671 0 -0.47595290837921589 0.1685237058617742 0 -0.46896153069002999 0.16118066135630671 0 -0.45266160216064372 0.16866112719022641 0 -0.46896153069002999 0.16118066135630671 0 -0.45266160216064372 0.16866112719022641 0 -0.45783191629969983 0.15287328775741449 0 -0.47780207378555112 0.18340226845623619 0 -0.45266160216064372 0.16866112719022641 0 -0.47780207378555112 0.18340226845623619 0 -0.45266160216064372 0.16866112719022641 0 -0.45594963127004989 0.1899520192224195 0 -0.4421518950415857 0.18222916483930571 0 -0.45266160216064372 0.16866112719022641 0 -0.45594963127004989 0.1899520192224195 0 -0.45266160216064372 0.16866112719022641 0 -0.42752113053573659 0.15391998592421571 0 -0.45266160216064372 0.16866112719022641 0 -0.44200848269369902 0.1474756414356713 0 -0.42752113053573659 0.15391998592421571 0 -0.45266160216064372 0.16866112719022641 0 -0.44200848269369902 0.1474756414356713 0 -0.45783191629969983 0.15287328775741449 0 -0.4421518950415857 0.18222916483930571 0 -0.45266160216064372 0.16866112719022641 0 -0.42752113053573659 0.15391998592421571 0 -0.44200848269369902 0.1474756414356713 0 -0.45615844914265241 0.14032082502088139 0 -0.45783191629969983 0.15287328775741449 0 -0.43470258173120019 0.11990014364951961 0 -0.44200848269369902 0.1474756414356713 0 -0.45615844914265241 0.14032082502088139 0 -0.43470258173120019 0.11990014364951961 0 -0.45615844914265241 0.14032082502088139 0 -0.43470258173120019 0.11990014364951961 0 -0.45251239559073181 0.12017628032542731 0 -0.45615844914265241 0.14032082502088139 0 -0.46962602453545699 0.11761699033771569 0 -0.47278946645733688 0.14307034809974489 0 -0.45615844914265241 0.14032082502088139 0 -0.45251239559073181 0.12017628032542731 0 -0.46962602453545699 0.11761699033771569 0 -0.45615844914265241 0.14032082502088139 0 -0.47278946645733688 0.14307034809974489 0 -0.45615844914265241 0.14032082502088139 0 -0.45783191629969983 0.15287328775741449 0 -0.47278946645733688 0.14307034809974489 0 -0.46896153069002999 0.16118066135630671 0 -0.45783191629969983 0.15287328775741449 0 -0.48502232896846842 0.24149713564276129 0 -0.45840927700514777 0.23244146386465089 0 -0.46678780072522441 0.25471668605321779 0 -0.48502232896846842 0.24149713564276129 0 -0.5 0.24808472470876111 0 -0.5 0.22093254634165241 0 -0.48502232896846842 0.24149713564276129 0 -0.5 0.22093254634165241 0 -0.48141220137701057 0.21244970204949859 0 -0.48502232896846842 0.24149713564276129 0 -0.48141220137701057 0.21244970204949859 0 -0.48502232896846842 0.24149713564276129 0 -0.48141220137701057 0.21244970204949859 0 -0.45840927700514777 0.23244146386465089 0 -0.48141220137701057 0.21244970204949859 0 -0.46878854786155733 0.19828098636900229 0 -0.45999028501361611 0.20731995574785489 0 -0.5 0.22093254634165241 0 -0.49018455368349972 0.20209608569360979 0 -0.50000000000000111 0.19378036797454359 0 -0.5 0.22093254634165241 0 -0.48141220137701057 0.21244970204949859 0 -0.49018455368349972 0.20209608569360979 0 -0.47780207378555112 0.18340226845623619 0 -0.49018455368349972 0.20209608569360979 0 -0.4886304729088547 0.1897515113639647 0 -0.4879764541896085 0.18115203691815901 0 -0.50000000000000111 0.19378036797454359 0 -0.4886304729088547 0.1897515113639647 0 -0.49018455368349972 0.20209608569360979 0 -0.50000000000000111 0.19378036797454359 0 -0.4886304729088547 0.1897515113639647 0 -0.47780207378555112 0.18340226845623619 0 -0.48141220137701057 0.21244970204949859 0 -0.49018455368349972 0.20209608569360979 0 -0.47780207378555112 0.18340226845623619 0 -0.48141220137701057 0.21244970204949859 0 -0.47780207378555112 0.18340226845623619 0 -0.48141220137701057 0.21244970204949859 0 -0.46878854786155733 0.19828098636900229 0 -0.47780207378555112 0.18340226845623619 0 -0.46878854786155733 0.19828098636900229 0 -0.45594963127004989 0.1899520192224195 0 -0.46878854786155733 0.19828098636900229 0 -0.45594963127004989 0.1899520192224195 0 -0.45999028501361611 0.20731995574785489 0 -0.45594963127004989 0.1899520192224195 0 -0.45999028501361611 0.20731995574785489 0 -0.43256594693984901 0.20152475144727419 0 -0.4421518950415857 0.18222916483930571 0 -0.45594963127004989 0.1899520192224195 0 -0.43256594693984901 0.20152475144727419 0 -0.45999028501361611 0.20731995574785489 0 -0.43256594693984901 0.20152475144727419 0 -0.44351017034042528 0.21752095598717919 0 -0.45999028501361611 0.20731995574785489 0 -0.43256594693984901 0.20152475144727419 0 -0.48141220137701057 0.21244970204949859 0 -0.45999028501361611 0.20731995574785489 0 -0.45840927700514777 0.23244146386465089 0 -0.44351017034042528 0.21752095598717919 0 -0.45999028501361611 0.20731995574785489 0 -0.45840927700514777 0.23244146386465089 0 -0.44351017034042528 0.21752095598717919 0 -0.45840927700514777 0.23244146386465089 0 -0.43410971286748218 0.2333313413516753 0 -0.45840927700514777 0.23244146386465089 0 -0.43410971286748218 0.2333313413516753 0 -0.4370039676210023 0.26158073592074671 0 -0.45840927700514777 0.23244146386465089 0 -0.46678780072522441 0.25471668605321779 0 -0.4370039676210023 0.26158073592074671 0 -0.41599763215882501 0.23850018830057351 0 -0.3987146468586657 0.24919431997693781 0 -0.41143175113919789 0.25469546670537918 0 -0.41599763215882501 0.23850018830057351 0 -0.43410971286748218 0.2333313413516753 0 -0.4370039676210023 0.26158073592074671 0 -0.41599763215882501 0.23850018830057351 0 -0.43410971286748218 0.2333313413516753 0 -0.41648344799180398 0.21536596709832831 0 -0.44351017034042528 0.21752095598717919 0 -0.43410971286748218 0.2333313413516753 0 -0.41648344799180398 0.21536596709832831 0 -0.41599763215882501 0.23850018830057351 0 -0.41648344799180398 0.21536596709832831 0 -0.40139363860509031 0.2303796093832422 0 -0.41648344799180398 0.21536596709832831 0 -0.43256594693984901 0.20152475144727419 0 -0.40514160886608203 0.19572954714669349 0 -0.41648344799180398 0.21536596709832831 0 -0.40514160886608203 0.19572954714669349 0 -0.3998614510147257 0.21166177751217 0 -0.44351017034042528 0.21752095598717919 0 -0.41648344799180398 0.21536596709832831 0 -0.43256594693984901 0.20152475144727419 0 -0.4421518950415857 0.18222916483930571 0 -0.43256594693984901 0.20152475144727419 0 -0.42521211023121352 0.17947430005977799 0 -0.43256594693984901 0.20152475144727419 0 -0.40514160886608203 0.19572954714669349 0 -0.42521211023121352 0.17947430005977799 0 -0.43256594693984901 0.20152475144727419 0 -0.40514160886608203 0.19572954714669349 0 -0.40514160886608203 0.19572954714669349 0 -0.37771727079231499 0.18993434284611291 0 -0.39669830078647378 0.18335001317170349 0 -0.40514160886608203 0.19572954714669349 0 -0.37771727079231499 0.18993434284611291 0 -0.3896071279726584 0.20212352620412369 0 -0.40514160886608203 0.19572954714669349 0 -0.37771727079231499 0.18993434284611291 0 -0.37771727079231499 0.18993434284611291 0 -0.3896071279726584 0.20212352620412369 0 -0.3758982815920846 0.2035631756625931 0 -0.3896071279726584 0.20212352620412369 0 -0.3758982815920846 0.2035631756625931 0 -0.38746545252221498 0.21159051197495629 0 -0.3758982815920846 0.2035631756625931 0 -0.38746545252221498 0.21159051197495629 0 -0.37463231864048191 0.22411228271658579 0 -0.38746545252221498 0.21159051197495629 0 -0.3998614510147257 0.21166177751217 0 -0.3889121685706764 0.22450682133278049 0 -0.40514160886608203 0.19572954714669349 0 -0.3896071279726584 0.20212352620412369 0 -0.3998614510147257 0.21166177751217 0 -0.3896071279726584 0.20212352620412369 0 -0.38746545252221498 0.21159051197495629 0 -0.3998614510147257 0.21166177751217 0 -0.3998614510147257 0.21166177751217 0 -0.40139363860509031 0.2303796093832422 0 -0.3889121685706764 0.22450682133278049 0 -0.41648344799180398 0.21536596709832831 0 -0.3998614510147257 0.21166177751217 0 -0.40139363860509031 0.2303796093832422 0 -0.40139363860509031 0.2303796093832422 0 -0.3889121685706764 0.22450682133278049 0 -0.38637187428134301 0.23999850327656039 0 -0.3889121685706764 0.22450682133278049 0 -0.38637187428134301 0.23999850327656039 0 -0.37463231864048191 0.22411228271658579 0 -0.38746545252221498 0.21159051197495629 0 -0.3889121685706764 0.22450682133278049 0 -0.37463231864048191 0.22411228271658579 0 -0.38637187428134301 0.23999850327656039 0 -0.37066123097320319 0.24710202255958891 0 -0.37463231864048191 0.22411228271658579 0 -0.38637187428134301 0.23999850327656039 0 -0.37066123097320319 0.24710202255958891 0 -0.38722816796831377 0.26262780220205711 0 -0.41599763215882501 0.23850018830057351 0 -0.40139363860509031 0.2303796093832422 0 -0.3987146468586657 0.24919431997693781 0 -0.40139363860509031 0.2303796093832422 0 -0.38637187428134301 0.23999850327656039 0 -0.3987146468586657 0.24919431997693781 0 -0.42752113053573659 0.15391998592421571 0 -0.4023806589108298 0.13917884465820521 0 -0.42029928255818971 0.13228656140769221 0 -0.42752113053573659 0.15391998592421571 0 -0.4023806589108298 0.13917884465820521 0 -0.40725906512493459 0.15455307633106391 0 -0.42752113053573659 0.15391998592421571 0 -0.4023806589108298 0.13917884465820521 0 -0.40112858955848002 0.11902874600708011 0 -0.42029928255818971 0.13228656140769221 0 -0.4023806589108298 0.13917884465820521 0 -0.43470258173120019 0.11990014364951961 0 -0.44200848269369902 0.1474756414356713 0 -0.42029928255818971 0.13228656140769221 0 -0.44200848269369902 0.1474756414356713 0 -0.42029928255818971 0.13228656140769221 0 -0.42752113053573659 0.15391998592421571 0 -0.4421518950415857 0.18222916483930571 0 -0.42752113053573659 0.15391998592421571 0 -0.42521211023121352 0.17947430005977799 0 -0.42521211023121352 0.17947430005977799 0 -0.4016449386232317 0.17252286063475769 0 -0.39669830078647378 0.18335001317170349 0 -0.42521211023121352 0.17947430005977799 0 -0.39669830078647378 0.18335001317170349 0 -0.42521211023121352 0.17947430005977799 0 -0.41213104105479448 0.164486109609529 0 -0.4016449386232317 0.17252286063475769 0 -0.40514160886608203 0.19572954714669349 0 -0.42521211023121352 0.17947430005977799 0 -0.39669830078647378 0.18335001317170349 0 -0.40725906512493459 0.15455307633106391 0 -0.42752113053573659 0.15391998592421571 0 -0.41213104105479448 0.164486109609529 0 -0.42752113053573659 0.15391998592421571 0 -0.42521211023121352 0.17947430005977799 0 -0.41213104105479448 0.164486109609529 0 -0.40725906512493459 0.15455307633106391 0 -0.41213104105479448 0.164486109609529 0 -0.39901945709091458 0.16257105522199941 0 -0.40725906512493459 0.15455307633106391 0 -0.39901945709091458 0.16257105522199941 0 -0.39524303803239741 0.15260938624136991 0 -0.41213104105479448 0.164486109609529 0 -0.39901945709091458 0.16257105522199941 0 -0.4016449386232317 0.17252286063475769 0 -0.39901945709091458 0.16257105522199941 0 -0.4016449386232317 0.17252286063475769 0 -0.39009723846172101 0.1678471559793413 0 -0.39901945709091458 0.16257105522199941 0 -0.39110583578882901 0.1605457542726404 0 -0.39524303803239741 0.15260938624136991 0 -0.39901945709091458 0.16257105522199941 0 -0.39110583578882901 0.1605457542726404 0 -0.39009723846172101 0.1678471559793413 0 -0.39110583578882901 0.1605457542726404 0 -0.38694968876501817 0.15593832695732959 0 -0.39524303803239741 0.15260938624136991 0 -0.4016449386232317 0.17252286063475769 0 -0.39669830078647378 0.18335001317170349 0 -0.38671148411427292 0.17740852976619509 0 -0.4016449386232317 0.17252286063475769 0 -0.38671148411427292 0.17740852976619509 0 -0.39009723846172101 0.1678471559793413 0 -0.39669830078647378 0.18335001317170349 0 -0.36818449134173431 0.18722572628363021 0 -0.38671148411427292 0.17740852976619509 0 -0.37650831801737511 0.1779340253473537 0 -0.36818449134173431 0.18722572628363021 0 -0.39669830078647378 0.18335001317170349 0 -0.38671148411427292 0.17740852976619509 0 -0.36818449134173431 0.18722572628363021 0 -0.37771727079231499 0.18993434284611291 0 -0.39669830078647378 0.18335001317170349 0 -0.36818449134173431 0.18722572628363021 0 -0.38671148411427292 0.17740852976619509 0 -0.39009723846172101 0.1678471559793413 0 -0.38409060627806102 0.17125409698362201 0 -0.38671148411427292 0.17740852976619509 0 -0.37650831801737511 0.1779340253473537 0 -0.38409060627806102 0.17125409698362201 0 -0.37650831801737511 0.1779340253473537 0 -0.38421975659409358 0.16376284696316151 0 -0.38032895024010638 0.15321521423721379 0 -0.37650831801737511 0.1779340253473537 0 -0.38032895024010638 0.15321521423721379 0 -0.37383961626832102 0.16942557021425941 0 -0.37949474119490728 0.15162541414488839 0 -0.37383961626832102 0.16942557021425941 0 -0.37650831801737511 0.1779340253473537 0 -0.38032895024010638 0.15321521423721379 0 -0.37949474119490728 0.15162541414488839 0 -0.38032895024010638 0.15321521423721379 0 -0.37383961626832102 0.16942557021425941 0 -0.38421975659409358 0.16376284696316151 0 -0.38032895024010638 0.15321521423721379 0 -0.38694968876501817 0.15593832695732959 0 -0.39110583578882901 0.1605457542726404 0 -0.38421975659409358 0.16376284696316151 0 -0.38694968876501817 0.15593832695732959 0 -0.39110583578882901 0.1605457542726404 0 -0.38421975659409358 0.16376284696316151 0 -0.39009723846172101 0.1678471559793413 0 -0.38421975659409358 0.16376284696316151 0 -0.39009723846172101 0.1678471559793413 0 -0.38409060627806102 0.17125409698362201 0 -0.37650831801737511 0.1779340253473537 0 -0.38421975659409358 0.16376284696316151 0 -0.38409060627806102 0.17125409698362201 0 -0.38032895024010638 0.15321521423721379 0 -0.3841495824628377 0.12849640312707389 0 -0.38032895024010638 0.15321521423721379 0 -0.38789251768284272 0.1417295964263679 0 -0.3841495824628377 0.12849640312707389 0 -0.37949474119490728 0.15162541414488839 0 -0.38032895024010638 0.15321521423721379 0 -0.3841495824628377 0.12849640312707389 0 -0.37949474119490728 0.15162541414488839 0 -0.3841495824628377 0.12849640312707389 0 -0.36817009810113149 0.1461857701419485 0 -0.38789251768284272 0.1417295964263679 0 -0.38760354868009123 0.15087313096557031 0 -0.39524303803239741 0.15260938624136991 0 -0.38760354868009123 0.15087313096557031 0 -0.38694968876501817 0.15593832695732959 0 -0.39524303803239741 0.15260938624136991 0 -0.38032895024010638 0.15321521423721379 0 -0.38789251768284272 0.1417295964263679 0 -0.38760354868009123 0.15087313096557031 0 -0.38032895024010638 0.15321521423721379 0 -0.38760354868009123 0.15087313096557031 0 -0.38694968876501817 0.15593832695732959 0 -0.38789251768284272 0.1417295964263679 0 -0.39524303803239741 0.15260938624136991 0 -0.4023806589108298 0.13917884465820521 0 -0.40725906512493459 0.15455307633106391 0 -0.39524303803239741 0.15260938624136991 0 -0.4023806589108298 0.13917884465820521 0 -0.38789251768284272 0.1417295964263679 0 -0.4023806589108298 0.13917884465820521 0 -0.3841495824628377 0.12849640312707389 0 -0.40112858955848002 0.11902874600708011 0 -0.4023806589108298 0.13917884465820521 0 -0.3841495824628377 0.12849640312707389 0 -0.3841495824628377 0.12849640312707389 0 -0.36527883931102179 0.13390763399454289 0 -0.36889745467026241 0.11291669864627971 0 -0.3841495824628377 0.12849640312707389 0 -0.36527883931102179 0.13390763399454289 0 -0.36817009810113149 0.1461857701419485 0 -0.36527883931102179 0.13390763399454289 0 -0.34390292927608579 0.12954003217038881 0 -0.34643661614562599 0.1522996449903003 0 -0.36527883931102179 0.13390763399454289 0 -0.34390292927608579 0.12954003217038881 0 -0.35033094564751172 0.1144650486959975 0 -0.36527883931102179 0.13390763399454289 0 -0.34643661614562599 0.1522996449903003 0 -0.34643661614562599 0.1522996449903003 0 -0.36817009810113149 0.1461857701419485 0 -0.36243161432783949 0.15703179930855279 0 -0.36527883931102179 0.13390763399454289 0 -0.34643661614562599 0.1522996449903003 0 -0.36817009810113149 0.1461857701419485 0 -0.37949474119490728 0.15162541414488839 0 -0.36817009810113149 0.1461857701419485 0 -0.37122919516455721 0.1537537252863328 0 -0.37949474119490728 0.15162541414488839 0 -0.37122919516455721 0.1537537252863328 0 -0.37022284327214361 0.16034950389874381 0 -0.36817009810113149 0.1461857701419485 0 -0.37122919516455721 0.1537537252863328 0 -0.36243161432783949 0.15703179930855279 0 -0.37949474119490728 0.15162541414488839 0 -0.37022284327214361 0.16034950389874381 0 -0.37383961626832102 0.16942557021425941 0 -0.37122919516455721 0.1537537252863328 0 -0.37022284327214361 0.16034950389874381 0 -0.36243161432783949 0.15703179930855279 0 -0.37022284327214361 0.16034950389874381 0 -0.37383961626832102 0.16942557021425941 0 -0.36322402198730708 0.16680974270568741 0 -0.37383961626832102 0.16942557021425941 0 -0.36322402198730708 0.16680974270568741 0 -0.36499262620894812 0.1746894999632744 0 -0.37022284327214361 0.16034950389874381 0 -0.36322402198730708 0.16680974270568741 0 -0.36243161432783949 0.15703179930855279 0 -0.37383961626832102 0.16942557021425941 0 -0.36818449134173431 0.18722572628363021 0 -0.37650831801737511 0.1779340253473537 0 -0.37383961626832102 0.16942557021425941 0 -0.36818449134173431 0.18722572628363021 0 -0.37383961626832102 0.16942557021425941 0 -0.36818449134173431 0.18722572628363021 0 -0.36499262620894812 0.1746894999632744 0 -0.36818449134173431 0.18722572628363021 0 -0.36499262620894812 0.1746894999632744 0 -0.35402214350025712 0.17560586688816671 0 -0.36322402198730708 0.16680974270568741 0 -0.36499262620894812 0.1746894999632744 0 -0.35402214350025712 0.17560586688816671 0 -0.36818449134173431 0.18722572628363021 0 -0.35402214350025712 0.17560586688816671 0 -0.34524755622527742 0.19034340792313509 0 -0.34643661614562599 0.1522996449903003 0 -0.36243161432783949 0.15703179930855279 0 -0.35203776604091569 0.16336994935618149 0 -0.35402214350025712 0.17560586688816671 0 -0.35203776604091569 0.16336994935618149 0 -0.3275943929802303 0.17069165598605759 0 -0.36322402198730708 0.16680974270568741 0 -0.36243161432783949 0.15703179930855279 0 -0.35203776604091569 0.16336994935618149 0 -0.36322402198730708 0.16680974270568741 0 -0.35402214350025712 0.17560586688816671 0 -0.35203776604091569 0.16336994935618149 0 -0.34643661614562599 0.1522996449903003 0 -0.35203776604091569 0.16336994935618149 0 -0.3275943929802303 0.17069165598605759 0 -0.34643661614562599 0.1522996449903003 0 -0.3275943929802303 0.17069165598605759 0 -0.35402214350025712 0.17560586688816671 0 -0.3275943929802303 0.17069165598605759 0 -0.34524755622527742 0.19034340792313509 0 -0.32297930448776618 0.18321055069485001 0 -0.3275943929802303 0.17069165598605759 0 -0.34524755622527742 0.19034340792313509 0 -0.3275943929802303 0.17069165598605759 0 -0.30875216981483161 0.18908366698181181 0 -0.32297930448776618 0.18321055069485001 0 -0.3275943929802303 0.17069165598605759 0 -0.30875216981483161 0.18908366698181181 0 -0.3275943929802303 0.17069165598605759 0 -0.30875216981483161 0.18908366698181181 0 -0.30866811709702191 0.1713589555388354 0 -0.3275943929802303 0.17069165598605759 0 -0.30736128344260988 0.1532465126359733 0 -0.30866811709702191 0.1713589555388354 0 -0.3275943929802303 0.17069165598605759 0 -0.32454649671510971 0.1449707701389179 0 -0.30736128344260988 0.1532465126359733 0 -0.32454649671510971 0.1449707701389179 0 -0.32049618096358218 0.12816357351437699 0 -0.30205032031272722 0.13623602215012101 0 -0.34390292927608579 0.12954003217038881 0 -0.32454649671510971 0.1449707701389179 0 -0.32049618096358218 0.12816357351437699 0 -0.34643661614562599 0.1522996449903003 0 -0.3275943929802303 0.17069165598605759 0 -0.32454649671510971 0.1449707701389179 0 -0.34390292927608579 0.12954003217038881 0 -0.34643661614562599 0.1522996449903003 0 -0.32454649671510971 0.1449707701389179 0 -0.34882086549482672 0.24817496553446461 0 -0.37066123097320319 0.24710202255958891 0 -0.354094293978094 0.23157624291711901 0 -0.34882086549482672 0.24817496553446461 0 -0.354094293978094 0.23157624291711901 0 -0.33807512482233909 0.23366702329068059 0 -0.34882086549482672 0.24817496553446461 0 -0.354094293978094 0.23157624291711901 0 -0.37066123097320319 0.24710202255958891 0 -0.354094293978094 0.23157624291711901 0 -0.37463231864048191 0.22411228271658579 0 -0.354094293978094 0.23157624291711901 0 -0.36113939265991479 0.20940098460037479 0 -0.37066123097320319 0.24710202255958891 0 -0.37463231864048191 0.22411228271658579 0 -0.354094293978094 0.23157624291711901 0 -0.354094293978094 0.23157624291711901 0 -0.36113939265991479 0.20940098460037479 0 -0.354094293978094 0.23157624291711901 0 -0.34744621322326591 0.2059249450902072 0 -0.36113939265991479 0.20940098460037479 0 -0.354094293978094 0.23157624291711901 0 -0.34744621322326591 0.2059249450902072 0 -0.33273869369298142 0.21156274589850349 0 -0.34744621322326591 0.2059249450902072 0 -0.36113939265991479 0.20940098460037479 0 -0.35771105394882258 0.19610505231636699 0 -0.3758982815920846 0.2035631756625931 0 -0.37463231864048191 0.22411228271658579 0 -0.36113939265991479 0.20940098460037479 0 -0.3758982815920846 0.2035631756625931 0 -0.36818449134173431 0.18722572628363021 0 -0.36113939265991479 0.20940098460037479 0 -0.37771727079231499 0.18993434284611291 0 -0.3758982815920846 0.2035631756625931 0 -0.36818449134173431 0.18722572628363021 0 -0.36818449134173431 0.18722572628363021 0 -0.36113939265991479 0.20940098460037479 0 -0.36818449134173431 0.18722572628363021 0 -0.36113939265991479 0.20940098460037479 0 -0.35771105394882258 0.19610505231636699 0 -0.36818449134173431 0.18722572628363021 0 -0.34524755622527742 0.19034340792313509 0 -0.36818449134173431 0.18722572628363021 0 -0.35771105394882258 0.19610505231636699 0 -0.34524755622527742 0.19034340792313509 0 -0.34744621322326591 0.2059249450902072 0 -0.35771105394882258 0.19610505231636699 0 -0.34524755622527742 0.19034340792313509 0 -0.32297930448776618 0.18321055069485001 0 -0.34524755622527742 0.19034340792313509 0 -0.33374628883450458 0.19656123688574381 0 -0.33374628883450458 0.19656123688574381 0 -0.32550378798954521 0.19571697728150389 0 -0.33273869369298142 0.21156274589850349 0 -0.34744621322326591 0.2059249450902072 0 -0.34524755622527742 0.19034340792313509 0 -0.33374628883450458 0.19656123688574381 0 -0.33273869369298142 0.21156274589850349 0 -0.31138309340787168 0.1915492488798847 0 -0.33273869369298142 0.21156274589850349 0 -0.3115388557590581 0.2032593727920077 0 -0.31138309340787168 0.1915492488798847 0 -0.32550378798954521 0.19571697728150389 0 -0.33273869369298142 0.21156274589850349 0 -0.31138309340787168 0.1915492488798847 0 -0.32297930448776618 0.18321055069485001 0 -0.33374628883450458 0.19656123688574381 0 -0.32550378798954521 0.19571697728150389 0 -0.32297930448776618 0.18321055069485001 0 -0.32550378798954521 0.19571697728150389 0 -0.31138309340787168 0.1915492488798847 0 -0.32297930448776618 0.18321055069485001 0 -0.30875216981483161 0.18908366698181181 0 -0.31138309340787168 0.1915492488798847 0 -0.31582805570055911 0.21212036118329511 0 -0.33273869369298142 0.21156274589850349 0 -0.3115388557590581 0.2032593727920077 0 -0.31582805570055911 0.21212036118329511 0 -0.33273869369298142 0.21156274589850349 0 -0.32120868362287891 0.21918778735836589 0 -0.31582805570055911 0.21212036118329511 0 -0.32120868362287891 0.21918778735836589 0 -0.31144778576862192 0.22367365364058439 0 -0.34744621322326591 0.2059249450902072 0 -0.33374628883450458 0.19656123688574381 0 -0.33273869369298142 0.21156274589850349 0 -0.354094293978094 0.23157624291711901 0 -0.33273869369298142 0.21156274589850349 0 -0.33807512482233909 0.23366702329068059 0 -0.354094293978094 0.23157624291711901 0 -0.33273869369298142 0.21156274589850349 0 -0.33273869369298142 0.21156274589850349 0 -0.33807512482233909 0.23366702329068059 0 -0.32482019932935341 0.22939438871108081 0 -0.32482019932935341 0.22939438871108081 0 -0.30220712239074649 0.24647352029368899 0 -0.31144778576862192 0.22367365364058439 0 -0.33273869369298142 0.21156274589850349 0 -0.32120868362287891 0.21918778735836589 0 -0.32482019932935341 0.22939438871108081 0 -0.32120868362287891 0.21918778735836589 0 -0.32482019932935341 0.22939438871108081 0 -0.31144778576862192 0.22367365364058439 0 -0.32482019932935341 0.22939438871108081 0 -0.30220712239074649 0.24647352029368899 0 -0.31728827442131202 0.251362639668403 0 -0.32482019932935341 0.22939438871108081 0 -0.30220712239074649 0.24647352029368899 0 -0.32482019932935341 0.22939438871108081 0 -0.32990157161644001 0.24762677339223521 0 -0.31728827442131202 0.251362639668403 0 -0.34882086549482672 0.24817496553446461 0 -0.33807512482233909 0.23366702329068059 0 -0.32990157161644001 0.24762677339223521 0 -0.33807512482233909 0.23366702329068059 0 -0.32482019932935341 0.22939438871108081 0 -0.32990157161644001 0.24762677339223521 0 -0.29044531079417091 0.2397560066477179 0 -0.30220712239074649 0.24647352029368899 0 -0.28643348722299589 0.25009171211611092 0 -0.29044531079417091 0.2397560066477179 0 -0.2790386707790628 0.2421077021777083 0 -0.28643348722299589 0.25009171211611092 0 -0.2790386707790628 0.2421077021777083 0 -0.28643348722299589 0.25009171211611092 0 -0.27949407817042021 0.25183745425449933 0 -0.29044531079417091 0.2397560066477179 0 -0.28626631169393019 0.22756398594892849 0 -0.2790386707790628 0.2421077021777083 0 -0.29044531079417091 0.2397560066477179 0 -0.30220712239074649 0.24647352029368899 0 -0.29779525263408307 0.23102356609508001 0 -0.30220712239074649 0.24647352029368899 0 -0.29779525263408307 0.23102356609508001 0 -0.31144778576862192 0.22367365364058439 0 -0.29779525263408307 0.23102356609508001 0 -0.31144778576862192 0.22367365364058439 0 -0.29830735170143191 0.21927121733135349 0 -0.29830735170143191 0.21927121733135349 0 -0.28626631169393019 0.22756398594892849 0 -0.28818336932094613 0.21562990569059731 0 -0.29779525263408307 0.23102356609508001 0 -0.29830735170143191 0.21927121733135349 0 -0.28626631169393019 0.22756398594892849 0 -0.29044531079417091 0.2397560066477179 0 -0.29779525263408307 0.23102356609508001 0 -0.28626631169393019 0.22756398594892849 0 -0.28626631169393019 0.22756398594892849 0 -0.28818336932094613 0.21562990569059731 0 -0.2762618608132511 0.2158594623246706 0 -0.28818336932094613 0.21562990569059731 0 -0.28495594505788052 0.20631605076993201 0 -0.2762618608132511 0.2158594623246706 0 -0.28818336932094613 0.21562990569059731 0 -0.28495594505788052 0.20631605076993201 0 -0.29512537733823679 0.2091388120781015 0 -0.29512537733823679 0.2091388120781015 0 -0.30188466043569978 0.202977148015725 0 -0.29294572878715042 0.20146099756372601 0 -0.28495594505788052 0.20631605076993201 0 -0.29512537733823679 0.2091388120781015 0 -0.29294572878715042 0.20146099756372601 0 -0.29830735170143191 0.21927121733135349 0 -0.28818336932094613 0.21562990569059731 0 -0.29512537733823679 0.2091388120781015 0 -0.29830735170143191 0.21927121733135349 0 -0.29512537733823679 0.2091388120781015 0 -0.3057137757186299 0.21150775483746051 0 -0.31582805570055911 0.21212036118329511 0 -0.31144778576862192 0.22367365364058439 0 -0.3057137757186299 0.21150775483746051 0 -0.31144778576862192 0.22367365364058439 0 -0.29830735170143191 0.21927121733135349 0 -0.3057137757186299 0.21150775483746051 0 -0.3057137757186299 0.21150775483746051 0 -0.3115388557590581 0.2032593727920077 0 -0.30188466043569978 0.202977148015725 0 -0.31582805570055911 0.21212036118329511 0 -0.3057137757186299 0.21150775483746051 0 -0.3115388557590581 0.2032593727920077 0 -0.29512537733823679 0.2091388120781015 0 -0.3057137757186299 0.21150775483746051 0 -0.30188466043569978 0.202977148015725 0 -0.30103845991986189 0.19692058200436521 0 -0.30188466043569978 0.202977148015725 0 -0.29294572878715042 0.20146099756372601 0 -0.30875216981483161 0.18908366698181181 0 -0.31138309340787168 0.1915492488798847 0 -0.28172420118407321 0.19195239495050631 0 -0.30103845991986189 0.19692058200436521 0 -0.31138309340787168 0.1915492488798847 0 -0.28172420118407321 0.19195239495050631 0 -0.3115388557590581 0.2032593727920077 0 -0.30103845991986189 0.19692058200436521 0 -0.31138309340787168 0.1915492488798847 0 -0.3115388557590581 0.2032593727920077 0 -0.30103845991986189 0.19692058200436521 0 -0.30188466043569978 0.202977148015725 0 -0.30875216981483161 0.18908366698181181 0 -0.31138309340787168 0.1915492488798847 0 -0.31138309340787168 0.1915492488798847 0 -0.28172420118407321 0.19195239495050631 0 -0.30875216981483161 0.18908366698181181 0 -0.28172420118407321 0.19195239495050631 0 -0.29720244556690201 0.1859710104877336 0 -0.30103845991986189 0.19692058200436521 0 -0.29294572878715042 0.20146099756372601 0 -0.28172420118407321 0.19195239495050631 0 -0.28495594505788052 0.20631605076993201 0 -0.29294572878715042 0.20146099756372601 0 -0.28172420118407321 0.19195239495050631 0 -0.28172420118407321 0.19195239495050631 0 -0.25206530896027463 0.19235554102112939 0 -0.27038598451205698 0.20410904368788371 0 -0.28172420118407321 0.19195239495050631 0 -0.25206530896027463 0.19235554102112939 0 -0.28495594505788052 0.20631605076993201 0 -0.28172420118407321 0.19195239495050631 0 -0.27038598451205698 0.20410904368788371 0 -0.25206530896027463 0.19235554102112939 0 -0.25692260654480559 0.21406176937318019 0 -0.27038598451205698 0.20410904368788371 0 -0.25692260654480559 0.21406176937318019 0 -0.27038598451205698 0.20410904368788371 0 -0.2762618608132511 0.2158594623246706 0 -0.28495594505788052 0.20631605076993201 0 -0.27038598451205698 0.20410904368788371 0 -0.2762618608132511 0.2158594623246706 0 -0.28626631169393019 0.22756398594892849 0 -0.2700159049492642 0.22846211642491809 0 -0.2790386707790628 0.2421077021777083 0 -0.28626631169393019 0.22756398594892849 0 -0.2762618608132511 0.2158594623246706 0 -0.2700159049492642 0.22846211642491809 0 -0.25692260654480559 0.21406176937318019 0 -0.2762618608132511 0.2158594623246706 0 -0.2700159049492642 0.22846211642491809 0 -0.25692260654480559 0.21406176937318019 0 -0.2700159049492642 0.22846211642491809 0 -0.25649435069066051 0.22972084610719559 0 -0.25692260654480559 0.21406176937318019 0 -0.25649435069066051 0.22972084610719559 0 -0.2381323667578818 0.22417883657737869 0 -0.2700159049492642 0.22846211642491809 0 -0.25649435069066051 0.22972084610719559 0 -0.2651116291738751 0.24145893261782611 0 -0.25176944386397782 0.2405068625967319 0 -0.25932040504340997 0.25330497146748832 0 -0.23904676463467969 0.24305729105867771 0 -0.25649435069066051 0.22972084610719559 0 -0.2651116291738751 0.24145893261782611 0 -0.25176944386397782 0.2405068625967319 0 -0.2651116291738751 0.24145893261782611 0 -0.25176944386397782 0.2405068625967319 0 -0.25932040504340997 0.25330497146748832 0 -0.2651116291738751 0.24145893261782611 0 -0.27291010922748149 0.25159775084787978 0 -0.25932040504340997 0.25330497146748832 0 -0.2651116291738751 0.24145893261782611 0 -0.2790386707790628 0.2421077021777083 0 -0.27291010922748149 0.25159775084787978 0 -0.2700159049492642 0.22846211642491809 0 -0.2651116291738751 0.24145893261782611 0 -0.2790386707790628 0.2421077021777083 0 -0.2790386707790628 0.2421077021777083 0 -0.27949407817042021 0.25183745425449933 0 -0.27291010922748149 0.25159775084787978 0 -0.29001270391296019 0.15221500508613239 0 -0.30205032031272722 0.13623602215012101 0 -0.2810738049317974 0.13734294399284419 0 -0.29001270391296019 0.15221500508613239 0 -0.28056825760830012 0.16275197547141729 0 -0.27722023320947642 0.15108867163633549 0 -0.29001270391296019 0.15221500508613239 0 -0.27722023320947642 0.15108867163633549 0 -0.2810738049317974 0.13734294399284419 0 -0.27665106406051221 0.12719151819110189 0 -0.2810738049317974 0.13734294399284419 0 -0.28730427221553151 0.1205019765967726 0 -0.30205032031272722 0.13623602215012101 0 -0.2810738049317974 0.13734294399284419 0 -0.28730427221553151 0.1205019765967726 0 -0.32049618096358218 0.12816357351437699 0 -0.30205032031272722 0.13623602215012101 0 -0.30748343261869621 0.1181976319119023 0 -0.32454649671510971 0.1449707701389179 0 -0.30205032031272722 0.13623602215012101 0 -0.30736128344260988 0.1532465126359733 0 -0.29001270391296019 0.15221500508613239 0 -0.30205032031272722 0.13623602215012101 0 -0.30736128344260988 0.1532465126359733 0 -0.30736128344260988 0.1532465126359733 0 -0.30866811709702191 0.1713589555388354 0 -0.29096462215041591 0.172413986551499 0 -0.30875216981483161 0.18908366698181181 0 -0.30866811709702191 0.1713589555388354 0 -0.29096462215041591 0.172413986551499 0 -0.30875216981483161 0.18908366698181181 0 -0.29720244556690201 0.1859710104877336 0 -0.29096462215041591 0.172413986551499 0 -0.30875216981483161 0.18908366698181181 0 -0.29096462215041591 0.172413986551499 0 -0.28172420118407321 0.19195239495050631 0 -0.29096462215041591 0.172413986551499 0 -0.27299440247107237 0.17381705485188809 0 -0.28172420118407321 0.19195239495050631 0 -0.29720244556690201 0.1859710104877336 0 -0.29096462215041591 0.172413986551499 0 -0.29001270391296019 0.15221500508613239 0 -0.30736128344260988 0.1532465126359733 0 -0.29096462215041591 0.172413986551499 0 -0.29096462215041591 0.172413986551499 0 -0.28056825760830012 0.16275197547141729 0 -0.27299440247107237 0.17381705485188809 0 -0.29001270391296019 0.15221500508613239 0 -0.29096462215041591 0.172413986551499 0 -0.28056825760830012 0.16275197547141729 0 -0.28056825760830012 0.16275197547141729 0 -0.26636467090271021 0.15862957506137551 0 -0.27722023320947642 0.15108867163633549 0 -0.28056825760830012 0.16275197547141729 0 -0.26636467090271021 0.15862957506137551 0 -0.27299440247107237 0.17381705485188809 0 -0.28172420118407321 0.19195239495050631 0 -0.25206530896027463 0.19235554102112939 0 -0.27299440247107237 0.17381705485188809 0 -0.25206530896027463 0.19235554102112939 0 -0.27299440247107237 0.17381705485188809 0 -0.25537995456211787 0.1716825948329013 0 -0.26636467090271021 0.15862957506137551 0 -0.27299440247107237 0.17381705485188809 0 -0.25537995456211787 0.1716825948329013 0 -0.26636467090271021 0.15862957506137551 0 -0.25537995456211787 0.1716825948329013 0 -0.25283233744788458 0.1601161742247936 0 -0.25668243032772098 0.1492133160751011 0 -0.25311632561299002 0.1349665128324545 0 -0.2428796893208188 0.15423057091888731 0 -0.25283233744788458 0.1601161742247936 0 -0.25668243032772098 0.1492133160751011 0 -0.2428796893208188 0.15423057091888731 0 -0.25668243032772098 0.1492133160751011 0 -0.26770977940988078 0.14411002522461949 0 -0.25311632561299002 0.1349665128324545 0 -0.26636467090271021 0.15862957506137551 0 -0.25668243032772098 0.1492133160751011 0 -0.26770977940988078 0.14411002522461949 0 -0.26636467090271021 0.15862957506137551 0 -0.25283233744788458 0.1601161742247936 0 -0.25668243032772098 0.1492133160751011 0 -0.26636467090271021 0.15862957506137551 0 -0.26770977940988078 0.14411002522461949 0 -0.27722023320947642 0.15108867163633549 0 -0.26770977940988078 0.14411002522461949 0 -0.27722023320947642 0.15108867163633549 0 -0.2810738049317974 0.13734294399284419 0 -0.27665106406051221 0.12719151819110189 0 -0.2810738049317974 0.13734294399284419 0 -0.26934573816212032 0.1323534914479719 0 -0.26770977940988078 0.14411002522461949 0 -0.2810738049317974 0.13734294399284419 0 -0.26934573816212032 0.1323534914479719 0 -0.27665106406051221 0.12719151819110189 0 -0.26934573816212032 0.1323534914479719 0 -0.2688804409325995 0.1185676607268191 0 -0.26770977940988078 0.14411002522461949 0 -0.26934573816212032 0.1323534914479719 0 -0.25311632561299002 0.1349665128324545 0 -0.25311632561299002 0.1349665128324545 0 -0.2688804409325995 0.1185676607268191 0 -0.26934573816212032 0.1323534914479719 0 -0.25311632561299002 0.1349665128324545 0 -0.2688804409325995 0.1185676607268191 0 -0.25311632561299002 0.1349665128324545 0 -0.26078243216108571 0.12053986743603359 0 -0.25311632561299002 0.1349665128324545 0 -0.25128034306688202 0.1242423928712058 0 -0.26078243216108571 0.12053986743603359 0 -0.25128034306688202 0.1242423928712058 0 -0.25300731857922298 0.11629697879776769 0 -0.26078243216108571 0.12053986743603359 0 -0.25311632561299002 0.1349665128324545 0 -0.26078243216108571 0.12053986743603359 0 -0.2688804409325995 0.1185676607268191 0 -0.25300731857922298 0.11629697879776769 0 -0.25562003501943598 0.1081052816530666 0 -0.2457753085582616 0.1114510831065504 0 -0.25300731857922298 0.11629697879776769 0 -0.26045492143993793 0.11424464575773099 0 -0.25562003501943598 0.1081052816530666 0 -0.26045492143993793 0.11424464575773099 0 -0.26398438050734552 0.10771344017496789 0 -0.2688804409325995 0.1185676607268191 0 -0.26045492143993793 0.11424464575773099 0 -0.25562003501943598 0.1081052816530666 0 -0.26398438050734552 0.10771344017496789 0 -0.25300731857922298 0.11629697879776769 0 -0.26045492143993793 0.11424464575773099 0 -0.26078243216108571 0.12053986743603359 0 -0.26045492143993793 0.11424464575773099 0 -0.26078243216108571 0.12053986743603359 0 -0.2688804409325995 0.1185676607268191 0 -0.26122352883926958 0.097533916673221255 0 -0.2487222034394978 0.090027478766437644 0 -0.24885199633285651 0.1008730264747618 0 -0.25562003501943598 0.1081052816530666 0 -0.24885199633285651 0.1008730264747618 0 -0.2457753085582616 0.1114510831065504 0 -0.25562003501943598 0.1081052816530666 0 -0.26122352883926958 0.097533916673221255 0 -0.24885199633285651 0.1008730264747618 0 -0.25562003501943598 0.1081052816530666 0 -0.26398438050734552 0.10771344017496789 0 -0.26122352883926958 0.097533916673221255 0 -0.27193200184755562 0.10108465927023561 0 -0.28464455625220908 0.10216880862118401 0 -0.27570933306647222 0.085648068818202444 0 -0.26398438050734552 0.10771344017496789 0 -0.27193200184755562 0.10108465927023561 0 -0.2688804409325995 0.1185676607268191 0 -0.27193200184755562 0.10108465927023561 0 -0.2688804409325995 0.1185676607268191 0 -0.28464455625220908 0.10216880862118401 0 -0.26122352883926958 0.097533916673221255 0 -0.27193200184755562 0.10108465927023561 0 -0.27570933306647222 0.085648068818202444 0 -0.26398438050734552 0.10771344017496789 0 -0.26122352883926958 0.097533916673221255 0 -0.27193200184755562 0.10108465927023561 0 -0.2688804409325995 0.1185676607268191 0 -0.28464455625220908 0.10216880862118401 0 -0.27665106406051221 0.12719151819110189 0 -0.2688804409325995 0.1185676607268191 0 -0.28730427221553151 0.1205019765967726 0 -0.2688804409325995 0.1185676607268191 0 -0.28730427221553151 0.1205019765967726 0 -0.28464455625220908 0.10216880862118401 0 -0.28464455625220908 0.10216880862118401 0 -0.30040867157181789 0.085769956515548029 0 -0.28464455625220908 0.10216880862118401 0 -0.29997595925396459 0.1046155125846616 0 -0.30040867157181789 0.085769956515548029 0 -0.28730427221553151 0.1205019765967726 0 -0.28464455625220908 0.10216880862118401 0 -0.29997595925396459 0.1046155125846616 0 -0.29997595925396459 0.1046155125846616 0 -0.30040867157181789 0.085769956515548029 0 -0.31490675747324048 0.1003599817338283 0 -0.29997595925396459 0.1046155125846616 0 -0.30748343261869621 0.1181976319119023 0 -0.31490675747324048 0.1003599817338283 0 -0.28730427221553151 0.1205019765967726 0 -0.29997595925396459 0.1046155125846616 0 -0.30748343261869621 0.1181976319119023 0 -0.30205032031272722 0.13623602215012101 0 -0.28730427221553151 0.1205019765967726 0 -0.30748343261869621 0.1181976319119023 0 -0.30013919283321289 0.066573690080484194 0 -0.30040867157181789 0.085769956515548029 0 -0.31854241221347329 0.066906066923563615 0 -0.30040867157181789 0.085769956515548029 0 -0.31854241221347329 0.066906066923563615 0 -0.30040867157181789 0.085769956515548029 0 -0.31490675747324048 0.1003599817338283 0 -0.30040867157181789 0.085769956515548029 0 -0.28645196405074658 0.071724742817606713 0 -0.28464455625220908 0.10216880862118401 0 -0.30040867157181789 0.085769956515548029 0 -0.27570933306647222 0.085648068818202444 0 -0.30040867157181789 0.085769956515548029 0 -0.28645196405074658 0.071724742817606713 0 -0.27570933306647222 0.085648068818202444 0 -0.30013919283321289 0.066573690080484194 0 -0.28645196405074658 0.071724742817606713 0 -0.28969224772888108 0.054547891464952071 0 -0.30013919283321289 0.066573690080484194 0 -0.30040867157181789 0.085769956515548029 0 -0.28645196405074658 0.071724742817606713 0 -0.27415218987562362 0.069649778332610268 0 -0.27570933306647222 0.085648068818202444 0 -0.26481595709933642 0.073305818639469861 0 -0.28645196405074658 0.071724742817606713 0 -0.27249525652967538 0.057679529119665403 0 -0.28645196405074658 0.071724742817606713 0 -0.27415218987562362 0.069649778332610268 0 -0.27249525652967538 0.057679529119665403 0 -0.28645196405074658 0.071724742817606713 0 -0.27415218987562362 0.069649778332610268 0 -0.27570933306647222 0.085648068818202444 0 -0.27415218987562362 0.069649778332610268 0 -0.26605966821326821 0.063840277293903777 0 -0.26481595709933642 0.073305818639469861 0 -0.27415218987562362 0.069649778332610268 0 -0.26605966821326821 0.063840277293903777 0 -0.27249525652967538 0.057679529119665403 0 -0.27570933306647222 0.085648068818202444 0 -0.26064600277440192 0.084200438492012114 0 -0.26481595709933642 0.073305818639469861 0 -0.26122352883926958 0.097533916673221255 0 -0.27570933306647222 0.085648068818202444 0 -0.26064600277440192 0.084200438492012114 0 -0.26064600277440192 0.084200438492012114 0 -0.25003595785532501 0.080029089309594181 0 -0.25531636151446091 0.073181752258963992 0 -0.26064600277440192 0.084200438492012114 0 -0.25003595785532501 0.080029089309594181 0 -0.2487222034394978 0.090027478766437644 0 -0.26122352883926958 0.097533916673221255 0 -0.26064600277440192 0.084200438492012114 0 -0.2487222034394978 0.090027478766437644 0 -0.26481595709933642 0.073305818639469861 0 -0.25531636151446091 0.073181752258963992 0 -0.25570420656845338 0.064032290482212498 0 -0.26605966821326821 0.063840277293903777 0 -0.26481595709933642 0.073305818639469861 0 -0.25570420656845338 0.064032290482212498 0 -0.26064600277440192 0.084200438492012114 0 -0.26481595709933642 0.073305818639469861 0 -0.25531636151446091 0.073181752258963992 0 -0.25003595785532501 0.080029089309594181 0 -0.25531636151446091 0.073181752258963992 0 -0.24506267074280011 0.070098293709981621 0 -0.25531636151446091 0.073181752258963992 0 -0.25570420656845338 0.064032290482212498 0 -0.24506267074280011 0.070098293709981621 0 -0.25570420656845338 0.064032290482212498 0 -0.25476199705115199 0.054403074816950558 0 -0.2463041657088135 0.058432307632052191 0 -0.25570420656845338 0.064032290482212498 0 -0.26307408545501121 0.055364058279526403 0 -0.25476199705115199 0.054403074816950558 0 -0.26605966821326821 0.063840277293903777 0 -0.25570420656845338 0.064032290482212498 0 -0.26307408545501121 0.055364058279526403 0 -0.26307408545501121 0.055364058279526403 0 -0.25476199705115199 0.054403074816950558 0 -0.25892125127354187 0.043250245185476772 0 -0.25476199705115199 0.054403074816950558 0 -0.25004781488001232 0.048419795599103921 0 -0.25892125127354187 0.043250245185476772 0 -0.25476199705115199 0.054403074816950558 0 -0.25004781488001232 0.048419795599103921 0 -0.2463041657088135 0.058432307632052191 0 -0.25004781488001232 0.048419795599103921 0 -0.25892125127354187 0.043250245185476772 0 -0.24754032088799149 0.034382237147408332 0 -0.25892125127354187 0.043250245185476772 0 -0.2649525669567685 0.026882477240308459 0 -0.24754032088799149 0.034382237147408332 0 -0.26307408545501121 0.055364058279526403 0 -0.25892125127354187 0.043250245185476772 0 -0.27327149172535259 0.038791489576372518 0 -0.25892125127354187 0.043250245185476772 0 -0.27327149172535259 0.038791489576372518 0 -0.2649525669567685 0.026882477240308459 0 -0.27327149172535259 0.038791489576372518 0 -0.28346889799569402 0.022218920873218841 0 -0.28504695721230339 0.041154890829915088 0 -0.27327149172535259 0.038791489576372518 0 -0.28011836186350048 0.048787011624458927 0 -0.28504695721230339 0.041154890829915088 0 -0.27327149172535259 0.038791489576372518 0 -0.28011836186350048 0.048787011624458927 0 -0.27249525652967538 0.057679529119665403 0 -0.26307408545501121 0.055364058279526403 0 -0.27327149172535259 0.038791489576372518 0 -0.28011836186350048 0.048787011624458927 0 -0.27249525652967538 0.057679529119665403 0 -0.28969224772888108 0.054547891464952071 0 -0.26307408545501121 0.055364058279526403 0 -0.27327149172535259 0.038791489576372518 0 -0.27249525652967538 0.057679529119665403 0 -0.26605966821326821 0.063840277293903777 0 -0.26307408545501121 0.055364058279526403 0 -0.27249525652967538 0.057679529119665403 0 -0.25807201738883828 -0.0067054889342117539 0 -0.25252246992332861 0.01477872657801072 0 -0.27077045769226621 0.0077567159695035651 0 -0.25807201738883828 -0.0067054889342117539 0 -0.27077045769226621 0.0077567159695035651 0 -0.25252246992332861 0.01477872657801072 0 -0.2649525669567685 0.026882477240308459 0 -0.24754032088799149 0.034382237147408332 0 -0.25252246992332861 0.01477872657801072 0 -0.2649525669567685 0.026882477240308459 0 -0.27077045769226621 0.0077567159695035651 0 -0.27327149172535259 0.038791489576372518 0 -0.28346889799569402 0.022218920873218841 0 -0.2649525669567685 0.026882477240308459 0 -0.27077045769226621 0.0077567159695035651 0 -0.28346889799569402 0.022218920873218841 0 -0.27327149172535259 0.038791489576372518 0 -0.2649525669567685 0.026882477240308459 0 -0.28346889799569402 0.022218920873218841 0 -0.27077045769226621 0.0077567159695035651 0 -0.28346889799569402 0.022218920873218841 0 -0.29788531652794809 -0.001210280655613488 0 -0.28346889799569402 0.022218920873218841 0 -0.30635485392332218 0.02238024284903015 0 -0.29788531652794809 -0.001210280655613488 0 -0.27077045769226621 0.0077567159695035651 0 -0.28346889799569402 0.022218920873218841 0 -0.29788531652794809 -0.001210280655613488 0 -0.28346889799569402 0.022218920873218841 0 -0.28346889799569402 0.022218920873218841 0 -0.30635485392332218 0.02238024284903015 0 -0.29870410283697019 0.039570237168741557 0 -0.28346889799569402 0.022218920873218841 0 -0.29870410283697019 0.039570237168741557 0 -0.29788531652794809 -0.001210280655613488 0 -0.30635485392332218 0.02238024284903015 0 -0.31812509627846491 0.0064589535239619484 0 -0.28645196405074658 0.071724742817606713 0 -0.27249525652967538 0.057679529119665403 0 -0.28969224772888108 0.054547891464952071 0 -0.28011836186350048 0.048787011624458927 0 -0.28969224772888108 0.054547891464952071 0 -0.28504695721230339 0.041154890829915088 0 -0.28346889799569402 0.022218920873218841 0 -0.28504695721230339 0.041154890829915088 0 -0.29870410283697019 0.039570237168741557 0 -0.28969224772888108 0.054547891464952071 0 -0.28504695721230339 0.041154890829915088 0 -0.29870410283697019 0.039570237168741557 0 -0.30635485392332218 0.02238024284903015 0 -0.29870410283697019 0.039570237168741557 0 -0.31251060326378771 0.039576670088726007 0 -0.29870410283697019 0.039570237168741557 0 -0.30560066860114599 0.053919792680750533 0 -0.31251060326378771 0.039576670088726007 0 -0.28969224772888108 0.054547891464952071 0 -0.29870410283697019 0.039570237168741557 0 -0.30560066860114599 0.053919792680750533 0 -0.30013919283321289 0.066573690080484194 0 -0.28969224772888108 0.054547891464952071 0 -0.30560066860114599 0.053919792680750533 0 -0.30013919283321289 0.066573690080484194 0 -0.30560066860114599 0.053919792680750533 0 -0.31854241221347329 0.066906066923563615 0 -0.31994077278369021 0.049434221738535407 0 -0.33667615285512792 0.048042177331578423 0 -0.31854241221347329 0.066906066923563615 0 -0.30560066860114599 0.053919792680750533 0 -0.31994077278369021 0.049434221738535407 0 -0.31854241221347329 0.066906066923563615 0 -0.33667615285512792 0.048042177331578423 0 -0.31854241221347329 0.066906066923563615 0 -0.30560066860114599 0.053919792680750533 0 -0.31994077278369021 0.049434221738535407 0 -0.31251060326378771 0.039576670088726007 0 -0.31994077278369021 0.049434221738535407 0 -0.3263740269849158 0.038726401668058449 0 -0.33667615285512792 0.048042177331578423 0 -0.31994077278369021 0.049434221738535407 0 -0.31251060326378771 0.039576670088726007 0 -0.3263740269849158 0.038726401668058449 0 -0.31251060326378771 0.039576670088726007 0 -0.32546820697741419 0.02486649677037827 0 -0.31251060326378771 0.039576670088726007 0 -0.3263740269849158 0.038726401668058449 0 -0.32546820697741419 0.02486649677037827 0 -0.33667615285512792 0.048042177331578423 0 -0.33947177726289512 0.027384603810451411 0 -0.35480989349678238 0.029178287739593248 0 -0.3263740269849158 0.038726401668058449 0 -0.33667615285512792 0.048042177331578423 0 -0.33947177726289512 0.027384603810451411 0 -0.33667615285512792 0.048042177331578423 0 -0.3439773149322114 0.071424000929961304 0 -0.31854241221347329 0.066906066923563615 0 -0.31812509627846491 0.0064589535239619484 0 -0.32546820697741419 0.02486649677037827 0 -0.33659006994528012 0.0098055517785405645 0 -0.32727931025353929 -0.0056008437643897671 0 -0.31812509627846491 0.0064589535239619484 0 -0.33659006994528012 0.0098055517785405645 0 -0.30635485392332218 0.02238024284903015 0 -0.31812509627846491 0.0064589535239619484 0 -0.32546820697741419 0.02486649677037827 0 -0.30635485392332218 0.02238024284903015 0 -0.31251060326378771 0.039576670088726007 0 -0.32546820697741419 0.02486649677037827 0 -0.32546820697741419 0.02486649677037827 0 -0.33947177726289512 0.027384603810451411 0 -0.33842581069104161 0.01015632345203126 0 -0.3263740269849158 0.038726401668058449 0 -0.32546820697741419 0.02486649677037827 0 -0.33947177726289512 0.027384603810451411 0 -0.32546820697741419 0.02486649677037827 0 -0.33842581069104161 0.01015632345203126 0 -0.3522166704560451 -0.0054998072520526901 0 -0.33842581069104161 0.01015632345203126 0 -0.33659006994528012 0.0098055517785405645 0 -0.32546820697741419 0.02486649677037827 0 -0.33842581069104161 0.01015632345203126 0 -0.33659006994528012 0.0098055517785405645 0 -0.33842581069104161 0.01015632345203126 0 -0.33659006994528012 0.0098055517785405645 0 -0.3522166704560451 -0.0054998072520526901 0 -0.33842581069104161 0.01015632345203126 0 -0.35539349731452408 -0.0054869359816589686 0 -0.3522166704560451 -0.0054998072520526901 0 -0.35507657257209052 0.013337935901069631 0 -0.3522166704560451 -0.0054998072520526901 0 -0.33842581069104161 0.01015632345203126 0 -0.35507657257209052 0.013337935901069631 0 -0.35539349731452408 -0.0054869359816589686 0 -0.35507657257209052 0.013337935901069631 0 -0.36281503973688012 0.0071193466643548094 0 -0.33842581069104161 0.01015632345203126 0 -0.35507657257209052 0.013337935901069631 0 -0.35539349731452408 -0.0054869359816589686 0 -0.35507657257209052 0.013337935901069631 0 -0.35507657257209052 0.013337935901069631 0 -0.35480989349678238 0.029178287739593248 0 -0.33947177726289512 0.027384603810451411 0 -0.35507657257209052 0.013337935901069631 0 -0.35480989349678238 0.029178287739593248 0 -0.35507657257209052 0.013337935901069631 0 -0.35480989349678238 0.029178287739593248 0 -0.36771555739675987 0.01575298163583148 0 -0.33947177726289512 0.027384603810451411 0 -0.33842581069104161 0.01015632345203126 0 -0.35507657257209052 0.013337935901069631 0 -0.37735106688519138 0.02816551559550818 0 -0.36991189334356678 0.016172655512653979 0 -0.36219354161432582 0.032615927143314669 0 -0.35480989349678238 0.029178287739593248 0 -0.36771555739675987 0.01575298163583148 0 -0.36219354161432582 0.032615927143314669 0 -0.36991189334356678 0.016172655512653979 0 -0.36219354161432582 0.032615927143314669 0 -0.36991189334356678 0.016172655512653979 0 -0.36771555739675987 0.01575298163583148 0 -0.36219354161432582 0.032615927143314669 0 -0.36991189334356678 0.016172655512653979 0 -0.36771555739675987 0.01575298163583148 0 -0.35480989349678238 0.029178287739593248 0 -0.36771555739675987 0.01575298163583148 0 -0.38003189033049622 -0.0053871107684163432 0 -0.37195289213886179 0.01182448652966504 0 -0.36281503973688012 0.0071193466643548094 0 -0.35507657257209052 0.013337935901069631 0 -0.36771555739675987 0.01575298163583148 0 -0.36281503973688012 0.0071193466643548094 0 -0.35507657257209052 0.013337935901069631 0 -0.36771555739675987 0.01575298163583148 0 -0.36991189334356678 0.016172655512653979 0 -0.37195289213886179 0.01182448652966504 0 -0.36991189334356678 0.016172655512653979 0 -0.36771555739675987 0.01575298163583148 0 -0.37195289213886179 0.01182448652966504 0 -0.36771555739675987 0.01575298163583148 0 -0.37195289213886179 0.01182448652966504 0 -0.36771555739675987 0.01575298163583148 0 -0.37195289213886179 0.01182448652966504 0 -0.36281503973688012 0.0071193466643548094 0 -0.3544263313639886 0.051961324347854339 0 -0.35447518988508447 0.049059198773975202 0 -0.3439773149322114 0.071424000929961304 0 -0.35447518988508447 0.049059198773975202 0 -0.3439773149322114 0.071424000929961304 0 -0.3544263313639886 0.051961324347854339 0 -0.36275405792842719 0.050031673286133428 0 -0.35765849405019529 0.066232834328107087 0 -0.33667615285512792 0.048042177331578423 0 -0.35447518988508447 0.049059198773975202 0 -0.3439773149322114 0.071424000929961304 0 -0.3544263313639886 0.051961324347854339 0 -0.35447518988508447 0.049059198773975202 0 -0.36275405792842719 0.050031673286133428 0 -0.3544263313639886 0.051961324347854339 0 -0.35447518988508447 0.049059198773975202 0 -0.33667615285512792 0.048042177331578423 0 -0.35480989349678238 0.029178287739593248 0 -0.35480989349678238 0.029178287739593248 0 -0.35447518988508447 0.049059198773975202 0 -0.35447518988508447 0.049059198773975202 0 -0.36219354161432582 0.032615927143314669 0 -0.35480989349678238 0.029178287739593248 0 -0.35447518988508447 0.049059198773975202 0 -0.36219354161432582 0.032615927143314669 0 -0.33667615285512792 0.048042177331578423 0 -0.35480989349678238 0.029178287739593248 0 -0.35447518988508447 0.049059198773975202 0 -0.37785690104045611 0.042083429050685447 0 -0.37735106688519138 0.02816551559550818 0 -0.36219354161432582 0.032615927143314669 0 -0.35447518988508447 0.049059198773975202 0 -0.36219354161432582 0.032615927143314669 0 -0.36275405792842719 0.050031673286133428 0 -0.37785690104045611 0.042083429050685447 0 -0.36219354161432582 0.032615927143314669 0 -0.36275405792842719 0.050031673286133428 0 -0.36991388961651289 0.058237326072863908 0 -0.36275405792842719 0.050031673286133428 0 -0.35765849405019529 0.066232834328107087 0 -0.37785690104045611 0.042083429050685447 0 -0.36991388961651289 0.058237326072863908 0 -0.36275405792842719 0.050031673286133428 0 -0.36991388961651289 0.058237326072863908 0 -0.35765849405019529 0.066232834328107087 0 -0.3670327395327696 0.081220952883602787 0 -0.35765849405019529 0.066232834328107087 0 -0.3439773149322114 0.071424000929961304 0 -0.35250265527359392 0.085778303017598659 0 -0.3544263313639886 0.051961324347854339 0 -0.35765849405019529 0.066232834328107087 0 -0.3439773149322114 0.071424000929961304 0 -0.35765849405019529 0.066232834328107087 0 -0.35250265527359392 0.085778303017598659 0 -0.3670327395327696 0.081220952883602787 0 -0.35250265527359392 0.085778303017598659 0 -0.3670327395327696 0.081220952883602787 0 -0.35736669800732768 0.1007573807808851 0 -0.3439773149322114 0.071424000929961304 0 -0.35250265527359392 0.085778303017598659 0 -0.3371349092457091 0.094718539631779827 0 -0.3670327395327696 0.081220952883602787 0 -0.37461159076084538 0.095546281046898981 0 -0.35736669800732768 0.1007573807808851 0 -0.37461159076084538 0.095546281046898981 0 -0.36889745467026241 0.11291669864627971 0 -0.35736669800732768 0.1007573807808851 0 -0.36527883931102179 0.13390763399454289 0 -0.36889745467026241 0.11291669864627971 0 -0.35033094564751172 0.1144650486959975 0 -0.36889745467026241 0.11291669864627971 0 -0.35033094564751172 0.1144650486959975 0 -0.35736669800732768 0.1007573807808851 0 -0.35250265527359392 0.085778303017598659 0 -0.35736669800732768 0.1007573807808851 0 -0.3371349092457091 0.094718539631779827 0 -0.35033094564751172 0.1144650486959975 0 -0.35736669800732768 0.1007573807808851 0 -0.3371349092457091 0.094718539631779827 0 -0.35033094564751172 0.1144650486959975 0 -0.3371349092457091 0.094718539631779827 0 -0.32940484337466308 0.11495000695210859 0 -0.34390292927608579 0.12954003217038881 0 -0.35033094564751172 0.1144650486959975 0 -0.32940484337466308 0.11495000695210859 0 -0.34390292927608579 0.12954003217038881 0 -0.32049618096358218 0.12816357351437699 0 -0.32940484337466308 0.11495000695210859 0 -0.34390292927608579 0.12954003217038881 0 -0.32940484337466308 0.11495000695210859 0 -0.32049618096358218 0.12816357351437699 0 -0.30748343261869621 0.1181976319119023 0 -0.32940484337466308 0.11495000695210859 0 -0.30748343261869621 0.1181976319119023 0 -0.32940484337466308 0.11495000695210859 0 -0.31490675747324048 0.1003599817338283 0 -0.3371349092457091 0.094718539631779827 0 -0.32940484337466308 0.11495000695210859 0 -0.31490675747324048 0.1003599817338283 0 -0.32940484337466308 0.11495000695210859 0 -0.31490675747324048 0.1003599817338283 0 -0.30040867157181789 0.085769956515548029 0 -0.31490675747324048 0.1003599817338283 0 -0.32299401308729048 0.083835709146936221 0 -0.3371349092457091 0.094718539631779827 0 -0.31490675747324048 0.1003599817338283 0 -0.32299401308729048 0.083835709146936221 0 -0.30040867157181789 0.085769956515548029 0 -0.32299401308729048 0.083835709146936221 0 -0.31854241221347329 0.066906066923563615 0 -0.3439773149322114 0.071424000929961304 0 -0.32299401308729048 0.083835709146936221 0 -0.31854241221347329 0.066906066923563615 0 -0.3439773149322114 0.071424000929961304 0 -0.3371349092457091 0.094718539631779827 0 -0.32299401308729048 0.083835709146936221 0 -0.37959735337450767 0.5 0 -0.38276806934716878 0.46153368816580592 0 -0.40724021053452641 0.47918575632572458 0 -0.37959735337450767 0.5 0 -0.43123639693697841 0.5 0 -0.40724021053452641 0.47918575632572458 0 -0.38276806934716878 0.46153368816580592 0 -0.38397359351389038 0.43411062268176881 0 -0.36412357645677779 0.43868931766580321 0 -0.38276806934716878 0.46153368816580592 0 -0.40174559527245601 0.44406770952572261 0 -0.38397359351389038 0.43411062268176881 0 -0.38276806934716878 0.46153368816580592 0 -0.41050480994979821 0.45971667984506381 0 -0.40724021053452641 0.47918575632572458 0 -0.38276806934716878 0.46153368816580592 0 -0.40174559527245601 0.44406770952572261 0 -0.41050480994979821 0.45971667984506381 0 -0.41050480994979821 0.45971667984506381 0 -0.43227579148106399 0.46670066156981049 0 -0.40724021053452641 0.47918575632572458 0 -0.40174559527245601 0.44406770952572261 0 -0.42377205126578882 0.44457873096456169 0 -0.41154985084633761 0.42618980137418438 0 -0.40174559527245601 0.44406770952572261 0 -0.41050480994979821 0.45971667984506381 0 -0.42377205126578882 0.44457873096456169 0 -0.42377205126578882 0.44457873096456169 0 -0.43227579148106399 0.46670066156981049 0 -0.44800523146932902 0.44679806697899138 0 -0.41050480994979821 0.45971667984506381 0 -0.42377205126578882 0.44457873096456169 0 -0.43227579148106399 0.46670066156981049 0 -0.43227579148106399 0.46670066156981049 0 -0.43123639693697841 0.5 0 -0.40724021053452641 0.47918575632572458 0 -0.43123639693697841 0.5 0 -0.45734729465703189 0.47312750026167288 0 -0.5 0.5 0 -0.43227579148106399 0.46670066156981049 0 -0.43123639693697841 0.5 0 -0.45734729465703189 0.47312750026167288 0 -0.45734729465703189 0.47312750026167288 0 -0.5 0.5 0 -0.47521905339778792 0.45213877275956271 0 -0.5 0.5 0 -0.5 0.43901540488735591 0 -0.47521905339778792 0.45213877275956271 0 -0.5 0.43901540488735591 0 -0.47521905339778792 0.45213877275956271 0 -0.48368356726024808 0.42390870031241729 0 -0.47521905339778792 0.45213877275956271 0 -0.44800523146932902 0.44679806697899138 0 -0.46373467145759389 0.42689547238817233 0 -0.45734729465703189 0.47312750026167288 0 -0.47521905339778792 0.45213877275956271 0 -0.44800523146932902 0.44679806697899138 0 -0.43227579148106399 0.46670066156981049 0 -0.45734729465703189 0.47312750026167288 0 -0.44800523146932902 0.44679806697899138 0 -0.43227579148106399 0.46670066156981049 0 -0.44800523146932902 0.44679806697899138 0 -0.44800523146932902 0.44679806697899138 0 -0.44951601411872638 0.41475517384659638 0 -0.43184688500335983 0.42086736997427848 0 -0.44800523146932902 0.44679806697899138 0 -0.44951601411872638 0.41475517384659638 0 -0.46373467145759389 0.42689547238817233 0 -0.44951601411872638 0.41475517384659638 0 -0.46373467145759389 0.42689547238817233 0 -0.46423654900512479 0.39861815715378079 0 -0.44800523146932902 0.44679806697899138 0 -0.46373467145759389 0.42689547238817233 0 -0.47521905339778792 0.45213877275956271 0 -0.46373467145759389 0.42689547238817233 0 -0.48368356726024808 0.42390870031241729 0 -0.5 0.43901540488735591 0 -0.48368356726024808 0.42390870031241729 0 -0.5 0.3945009737296421 0 -0.46373467145759389 0.42689547238817233 0 -0.48368356726024808 0.42390870031241729 0 -0.47946411144585882 0.40699287779735321 0 -0.46373467145759389 0.42689547238817233 0 -0.47946411144585882 0.40699287779735321 0 -0.46423654900512479 0.39861815715378079 0 -0.46373467145759389 0.42689547238817233 0 -0.47946411144585882 0.40699287779735321 0 -0.48368356726024808 0.42390870031241729 0 -0.47946411144585882 0.40699287779735321 0 -0.5 0.3945009737296421 0 -0.5 0.3945009737296421 0 -0.49029345206748193 0.37464485267024339 0 -0.49999999999999872 0.36200891636195071 0 -0.5 0.3945009737296421 0 -0.48112406480065861 0.39160283532467349 0 -0.49029345206748193 0.37464485267024339 0 -0.48112406480065861 0.39160283532467349 0 -0.49029345206748193 0.37464485267024339 0 -0.47946411144585882 0.40699287779735321 0 -0.5 0.3945009737296421 0 -0.48112406480065861 0.39160283532467349 0 -0.47946411144585882 0.40699287779735321 0 -0.48112406480065861 0.39160283532467349 0 -0.46423654900512479 0.39861815715378079 0 -0.48112406480065861 0.39160283532467349 0 -0.47259774387020231 0.3752111091830107 0 -0.49029345206748193 0.37464485267024339 0 -0.48112406480065861 0.39160283532467349 0 -0.47259774387020231 0.3752111091830107 0 -0.46423654900512479 0.39861815715378079 0 -0.47259774387020231 0.3752111091830107 0 -0.45568428744819139 0.3823725861625587 0 -0.46423654900512479 0.39861815715378079 0 -0.44951601411872638 0.41475517384659638 0 -0.46423654900512479 0.39861815715378079 0 -0.44709420611591588 0.39384589356086741 0 -0.45568428744819139 0.3823725861625587 0 -0.46423654900512479 0.39861815715378079 0 -0.44709420611591588 0.39384589356086741 0 -0.44951601411872638 0.41475517384659638 0 -0.44709420611591588 0.39384589356086741 0 -0.42358411836446258 0.3949334427104188 0 -0.45568428744819139 0.3823725861625587 0 -0.44709420611591588 0.39384589356086741 0 -0.43876757926396281 0.38060155510908372 0 -0.45568428744819139 0.3823725861625587 0 -0.43876757926396281 0.38060155510908372 0 -0.45484387142829658 0.3662839121795825 0 -0.42358411836446258 0.3949334427104188 0 -0.40617272421017869 0.40190740071228198 0 -0.41532135172556539 0.36899951544655912 0 -0.44709420611591588 0.39384589356086741 0 -0.43876757926396281 0.38060155510908372 0 -0.42358411836446258 0.3949334427104188 0 -0.43876757926396281 0.38060155510908372 0 -0.42358411836446258 0.3949334427104188 0 -0.41532135172556539 0.36899951544655912 0 -0.42358411836446258 0.3949334427104188 0 -0.41532135172556539 0.36899951544655912 0 -0.42358411836446258 0.3949334427104188 0 -0.43184688500335983 0.42086736997427848 0 -0.40617272421017869 0.40190740071228198 0 -0.42358411836446258 0.3949334427104188 0 -0.43184688500335983 0.42086736997427848 0 -0.44951601411872638 0.41475517384659638 0 -0.42358411836446258 0.3949334427104188 0 -0.43184688500335983 0.42086736997427848 0 -0.42377205126578882 0.44457873096456169 0 -0.44800523146932902 0.44679806697899138 0 -0.43184688500335983 0.42086736997427848 0 -0.42377205126578882 0.44457873096456169 0 -0.43184688500335983 0.42086736997427848 0 -0.41154985084633761 0.42618980137418438 0 -0.43184688500335983 0.42086736997427848 0 -0.41154985084633761 0.42618980137418438 0 -0.40617272421017869 0.40190740071228198 0 -0.39421199847990418 0.41952779569407739 0 -0.38362755910841878 0.40384704684692058 0 -0.40617272421017869 0.40190740071228198 0 -0.41154985084633761 0.42618980137418438 0 -0.39421199847990418 0.41952779569407739 0 -0.40617272421017869 0.40190740071228198 0 -0.40174559527245601 0.44406770952572261 0 -0.39421199847990418 0.41952779569407739 0 -0.38397359351389038 0.43411062268176881 0 -0.40174559527245601 0.44406770952572261 0 -0.41154985084633761 0.42618980137418438 0 -0.39421199847990418 0.41952779569407739 0 -0.39421199847990418 0.41952779569407739 0 -0.38397359351389038 0.43411062268176881 0 -0.36898122790746513 0.41571523418476303 0 -0.39421199847990418 0.41952779569407739 0 -0.38362755910841878 0.40384704684692058 0 -0.36898122790746513 0.41571523418476303 0 -0.39180589330885501 0.38543785004486991 0 -0.40617272421017869 0.40190740071228198 0 -0.41532135172556539 0.36899951544655912 0 -0.38362755910841878 0.40384704684692058 0 -0.39180589330885501 0.38543785004486991 0 -0.36878341396795788 0.39350628446381192 0 -0.39180589330885501 0.38543785004486991 0 -0.38118999439220619 0.37184547950681529 0 -0.36878341396795788 0.39350628446381192 0 -0.38362755910841878 0.40384704684692058 0 -0.39180589330885501 0.38543785004486991 0 -0.40617272421017869 0.40190740071228198 0 -0.39686641188316513 0.36259970635027938 0 -0.3830518353719794 0.35065100397891991 0 -0.40705858508666831 0.34306558818269928 0 -0.39180589330885501 0.38543785004486991 0 -0.39686641188316513 0.36259970635027938 0 -0.41532135172556539 0.36899951544655912 0 -0.38118999439220619 0.37184547950681529 0 -0.3830518353719794 0.35065100397891991 0 -0.36282638403622869 0.37009127391181462 0 -0.39686641188316513 0.36259970635027938 0 -0.38118999439220619 0.37184547950681529 0 -0.3830518353719794 0.35065100397891991 0 -0.39180589330885501 0.38543785004486991 0 -0.39686641188316513 0.36259970635027938 0 -0.38118999439220619 0.37184547950681529 0 -0.3830518353719794 0.35065100397891991 0 -0.3844714710471332 0.33601955942230921 0 -0.36906372881045341 0.34482130486537949 0 -0.3830518353719794 0.35065100397891991 0 -0.3844714710471332 0.33601955942230921 0 -0.40327728670773022 0.33121073404602508 0 -0.37595386092880478 0.33103355527835521 0 -0.3844714710471332 0.33601955942230921 0 -0.36906372881045341 0.34482130486537949 0 -0.37595386092880478 0.33103355527835521 0 -0.3844714710471332 0.33601955942230921 0 -0.38177257162602751 0.32441397859217758 0 -0.3844714710471332 0.33601955942230921 0 -0.38177257162602751 0.32441397859217758 0 -0.39106975716123588 0.32768196360681462 0 -0.37595386092880478 0.33103355527835521 0 -0.38177257162602751 0.32441397859217758 0 -0.38177257162602751 0.32441397859217758 0 -0.39106975716123588 0.32768196360681462 0 -0.38177257162602751 0.32441397859217758 0 -0.40018303695768548 0.30346956436836692 0 -0.38177257162602751 0.32441397859217758 0 -0.39990270917774029 0.31986889379012001 0 -0.40018303695768548 0.30346956436836692 0 -0.38177257162602751 0.32441397859217758 0 -0.39106975716123588 0.32768196360681462 0 -0.39990270917774029 0.31986889379012001 0 -0.39106975716123588 0.32768196360681462 0 -0.39990270917774029 0.31986889379012001 0 -0.40327728670773022 0.33121073404602508 0 -0.39990270917774029 0.31986889379012001 0 -0.40327728670773022 0.33121073404602508 0 -0.41162061498281771 0.32132331542131448 0 -0.3830518353719794 0.35065100397891991 0 -0.40327728670773022 0.33121073404602508 0 -0.40705858508666831 0.34306558818269928 0 -0.3844714710471332 0.33601955942230921 0 -0.39106975716123588 0.32768196360681462 0 -0.40327728670773022 0.33121073404602508 0 -0.3830518353719794 0.35065100397891991 0 -0.40327728670773022 0.33121073404602508 0 -0.42085731765960482 0.33213377783467252 0 -0.40705858508666831 0.34306558818269928 0 -0.42268586681311721 0.35067869651608119 0 -0.40327728670773022 0.33121073404602508 0 -0.42085731765960482 0.33213377783467252 0 -0.40705858508666831 0.34306558818269928 0 -0.40327728670773022 0.33121073404602508 0 -0.42085731765960482 0.33213377783467252 0 -0.41162061498281771 0.32132331542131448 0 -0.42085731765960482 0.33213377783467252 0 -0.41162061498281771 0.32132331542131448 0 -0.42351150043159591 0.31326706022527578 0 -0.39990270917774029 0.31986889379012001 0 -0.41162061498281771 0.32132331542131448 0 -0.41055426093741743 0.31013611121047913 0 -0.41162061498281771 0.32132331542131448 0 -0.42351150043159591 0.31326706022527578 0 -0.41055426093741743 0.31013611121047913 0 -0.42085731765960482 0.33213377783467252 0 -0.43453840176250053 0.32577657496718032 0 -0.42351150043159591 0.31326706022527578 0 -0.43453840176250053 0.32577657496718032 0 -0.42351150043159591 0.31326706022527578 0 -0.44297954537134659 0.30898065862297819 0 -0.42085731765960482 0.33213377783467252 0 -0.43453840176250053 0.32577657496718032 0 -0.43428571581769732 0.34587584454891462 0 -0.42085731765960482 0.33213377783467252 0 -0.42268586681311721 0.35067869651608119 0 -0.43428571581769732 0.34587584454891462 0 -0.42268586681311721 0.35067869651608119 0 -0.43428571581769732 0.34587584454891462 0 -0.43610005070779451 0.36232591397842778 0 -0.40705858508666831 0.34306558818269928 0 -0.41532135172556539 0.36899951544655912 0 -0.40705858508666831 0.34306558818269928 0 -0.42268586681311721 0.35067869651608119 0 -0.41532135172556539 0.36899951544655912 0 -0.39686641188316513 0.36259970635027938 0 -0.40705858508666831 0.34306558818269928 0 -0.41532135172556539 0.36899951544655912 0 -0.42268586681311721 0.35067869651608119 0 -0.41532135172556539 0.36899951544655912 0 -0.43610005070779451 0.36232591397842778 0 -0.43876757926396281 0.38060155510908372 0 -0.41532135172556539 0.36899951544655912 0 -0.43610005070779451 0.36232591397842778 0 -0.43876757926396281 0.38060155510908372 0 -0.43610005070779451 0.36232591397842778 0 -0.45484387142829658 0.3662839121795825 0 -0.43610005070779451 0.36232591397842778 0 -0.45399820390960111 0.34458839106266642 0 -0.45484387142829658 0.3662839121795825 0 -0.43428571581769732 0.34587584454891462 0 -0.43610005070779451 0.36232591397842778 0 -0.45399820390960111 0.34458839106266642 0 -0.45399820390960111 0.34458839106266642 0 -0.45484387142829658 0.3662839121795825 0 -0.47137234358748392 0.35312938891814549 0 -0.47259774387020231 0.3752111091830107 0 -0.45484387142829658 0.3662839121795825 0 -0.47137234358748392 0.35312938891814549 0 -0.47259774387020231 0.3752111091830107 0 -0.45568428744819139 0.3823725861625587 0 -0.45484387142829658 0.3662839121795825 0 -0.47259774387020231 0.3752111091830107 0 -0.49029345206748193 0.37464485267024339 0 -0.48533606168354898 0.36158488681963502 0 -0.47259774387020231 0.3752111091830107 0 -0.47137234358748392 0.35312938891814549 0 -0.48533606168354898 0.36158488681963502 0 -0.47137234358748392 0.35312938891814549 0 -0.48522067503898769 0.34584777060428751 0 -0.48533606168354898 0.36158488681963502 0 -0.48522067503898769 0.34584777060428751 0 -0.49946283933430252 0.35768687001581168 0 -0.48533606168354898 0.36158488681963502 0 -0.48522067503898769 0.34584777060428751 0 -0.49946283933430252 0.35768687001581168 0 -0.49585271174284212 0.32863943642254922 0 -0.49946283933430252 0.35768687001581168 0 -0.49999999999999872 0.36200891636195071 0 -0.49946283933430252 0.35768687001581168 0 -0.49029345206748193 0.37464485267024339 0 -0.49999999999999872 0.36200891636195071 0 -0.49946283933430252 0.35768687001581168 0 -0.49029345206748193 0.37464485267024339 0 -0.48533606168354898 0.36158488681963502 0 -0.49946283933430252 0.35768687001581168 0 -0.49029345206748193 0.37464485267024339 0 -0.49585271174284212 0.32863943642254922 0 -0.49224258415138422 0.29959200282928661 0 -0.49585271174284212 0.32863943642254922 0 -0.47246832415524459 0.32790567861473852 0 -0.49224258415138422 0.29959200282928661 0 -0.49585271174284212 0.32863943642254922 0 -0.5 0.32954125981008658 0 -0.5 0.30238908144297799 0 -0.49946283933430252 0.35768687001581168 0 -0.49585271174284212 0.32863943642254922 0 -0.48522067503898769 0.34584777060428751 0 -0.49585271174284212 0.32863943642254922 0 -0.47246832415524459 0.32790567861473852 0 -0.49946283933430252 0.35768687001581168 0 -0.49585271174284212 0.32863943642254922 0 -0.5 0.32954125981008658 0 -0.47137234358748392 0.35312938891814549 0 -0.48522067503898769 0.34584777060428751 0 -0.47246832415524459 0.32790567861473852 0 -0.45216960649822718 0.32487178861835081 0 -0.44297954537134659 0.30898065862297819 0 -0.46758805889506722 0.3054273716574043 0 -0.47246832415524459 0.32790567861473852 0 -0.45216960649822718 0.32487178861835081 0 -0.46758805889506722 0.3054273716574043 0 -0.45399820390960111 0.34458839106266642 0 -0.47137234358748392 0.35312938891814549 0 -0.47246832415524459 0.32790567861473852 0 -0.45399820390960111 0.34458839106266642 0 -0.47246832415524459 0.32790567861473852 0 -0.45216960649822718 0.32487178861835081 0 -0.43453840176250053 0.32577657496718032 0 -0.43428571581769732 0.34587584454891462 0 -0.44396307819949021 0.33570378046380073 0 -0.45399820390960111 0.34458839106266642 0 -0.44396307819949021 0.33570378046380073 0 -0.45216960649822718 0.32487178861835081 0 -0.43453840176250053 0.32577657496718032 0 -0.44396307819949021 0.33570378046380073 0 -0.45216960649822718 0.32487178861835081 0 -0.43428571581769732 0.34587584454891462 0 -0.45399820390960111 0.34458839106266642 0 -0.44396307819949021 0.33570378046380073 0 -0.43453840176250053 0.32577657496718032 0 -0.45216960649822718 0.32487178861835081 0 -0.44297954537134659 0.30898065862297819 0 -0.44297954537134659 0.30898065862297819 0 -0.45018648863098881 0.29221883276486649 0 -0.43195127811188949 0.29581046129174082 0 -0.45018648863098881 0.29221883276486649 0 -0.43957533175176738 0.28040177655313331 0 -0.43195127811188949 0.29581046129174082 0 -0.45018648863098881 0.29221883276486649 0 -0.45993430728210782 0.27388560096371789 0 -0.43957533175176738 0.28040177655313331 0 -0.45018648863098881 0.29221883276486649 0 -0.46758805889506722 0.3054273716574043 0 -0.47509790272869512 0.28748269308832991 0 -0.45018648863098881 0.29221883276486649 0 -0.47509790272869512 0.28748269308832991 0 -0.45993430728210782 0.27388560096371789 0 -0.44297954537134659 0.30898065862297819 0 -0.45018648863098881 0.29221883276486649 0 -0.46758805889506722 0.3054273716574043 0 -0.46758805889506722 0.3054273716574043 0 -0.47509790272869512 0.28748269308832991 0 -0.49224258415138422 0.29959200282928661 0 -0.47246832415524459 0.32790567861473852 0 -0.46758805889506722 0.3054273716574043 0 -0.49224258415138422 0.29959200282928661 0 -0.49224258415138422 0.29959200282928661 0 -0.48863245655992638 0.27054456923602399 0 -0.5 0.27523690307586962 0 -0.5 0.30238908144297799 0 -0.49224258415138422 0.29959200282928661 0 -0.5 0.27523690307586962 0 -0.49224258415138422 0.29959200282928661 0 -0.48863245655992638 0.27054456923602399 0 -0.47509790272869512 0.28748269308832991 0 -0.49224258415138422 0.29959200282928661 0 -0.48863245655992638 0.27054456923602399 0 -0.49585271174284212 0.32863943642254922 0 -0.5 0.30238908144297799 0 -0.49224258415138422 0.29959200282928661 0 -0.48502232896846842 0.24149713564276129 0 -0.48863245655992638 0.27054456923602399 0 -0.48502232896846842 0.24149713564276129 0 -0.5 0.24808472470876111 0 -0.48863245655992638 0.27054456923602399 0 -0.5 0.24808472470876111 0 -0.48863245655992638 0.27054456923602399 0 -0.5 0.27523690307586962 0 -0.47509790272869512 0.28748269308832991 0 -0.48863245655992638 0.27054456923602399 0 -0.45993430728210782 0.27388560096371789 0 -0.48863245655992638 0.27054456923602399 0 -0.46678780072522441 0.25471668605321779 0 -0.45993430728210782 0.27388560096371789 0 -0.48502232896846842 0.24149713564276129 0 -0.48863245655992638 0.27054456923602399 0 -0.46678780072522441 0.25471668605321779 0 -0.46678780072522441 0.25471668605321779 0 -0.45993430728210782 0.27388560096371789 0 -0.4370039676210023 0.26158073592074671 0 -0.45993430728210782 0.27388560096371789 0 -0.43957533175176738 0.28040177655313331 0 -0.4370039676210023 0.26158073592074671 0 -0.4370039676210023 0.26158073592074671 0 -0.41143175113919789 0.25469546670537918 0 -0.41476084259200569 0.26826611057010552 0 -0.41599763215882501 0.23850018830057351 0 -0.4370039676210023 0.26158073592074671 0 -0.41143175113919789 0.25469546670537918 0 -0.41143175113919789 0.25469546670537918 0 -0.41476084259200569 0.26826611057010552 0 -0.4027390796940834 0.26280144598241889 0 -0.41476084259200569 0.26826611057010552 0 -0.41859350228934389 0.28252515014455681 0 -0.40379510496342452 0.27815358184452521 0 -0.41476084259200569 0.26826611057010552 0 -0.4027390796940834 0.26280144598241889 0 -0.40379510496342452 0.27815358184452521 0 -0.4370039676210023 0.26158073592074671 0 -0.41859350228934389 0.28252515014455681 0 -0.43957533175176738 0.28040177655313331 0 -0.4370039676210023 0.26158073592074671 0 -0.41859350228934389 0.28252515014455681 0 -0.4370039676210023 0.26158073592074671 0 -0.41476084259200569 0.26826611057010552 0 -0.41859350228934389 0.28252515014455681 0 -0.43957533175176738 0.28040177655313331 0 -0.43195127811188949 0.29581046129174082 0 -0.41859350228934389 0.28252515014455681 0 -0.43195127811188949 0.29581046129174082 0 -0.41675774278454281 0.29947523859961539 0 -0.41859350228934389 0.28252515014455681 0 -0.42351150043159591 0.31326706022527578 0 -0.44297954537134659 0.30898065862297819 0 -0.43195127811188949 0.29581046129174082 0 -0.42351150043159591 0.31326706022527578 0 -0.43195127811188949 0.29581046129174082 0 -0.41675774278454281 0.29947523859961539 0 -0.41675774278454281 0.29947523859961539 0 -0.41055426093741743 0.31013611121047913 0 -0.40018303695768548 0.30346956436836692 0 -0.42351150043159591 0.31326706022527578 0 -0.41675774278454281 0.29947523859961539 0 -0.41055426093741743 0.31013611121047913 0 -0.41675774278454281 0.29947523859961539 0 -0.41859350228934389 0.28252515014455681 0 -0.40018303695768548 0.30346956436836692 0 -0.41859350228934389 0.28252515014455681 0 -0.39671568751255187 0.29180090712248002 0 -0.40379510496342452 0.27815358184452521 0 -0.41859350228934389 0.28252515014455681 0 -0.40018303695768548 0.30346956436836692 0 -0.41859350228934389 0.28252515014455681 0 -0.39671568751255187 0.29180090712248002 0 -0.40018303695768548 0.30346956436836692 0 -0.39671568751255187 0.29180090712248002 0 -0.38499877228266027 0.27708017793754702 0 -0.40379510496342452 0.27815358184452521 0 -0.39990270917774029 0.31986889379012001 0 -0.41055426093741743 0.31013611121047913 0 -0.40018303695768548 0.30346956436836692 0 -0.39671568751255187 0.29180090712248002 0 -0.40018303695768548 0.30346956436836692 0 -0.38843794465053189 0.30079707218221252 0 -0.38177257162602751 0.32441397859217758 0 -0.3781910883755481 0.30387946849855357 0 -0.36601128096482799 0.3041056448471281 0 -0.38177257162602751 0.32441397859217758 0 -0.3781910883755481 0.30387946849855357 0 -0.38843794465053189 0.30079707218221252 0 -0.3781910883755481 0.30387946849855357 0 -0.38843794465053189 0.30079707218221252 0 -0.37193771260796632 0.28603026850306079 0 -0.38177257162602751 0.32441397859217758 0 -0.40018303695768548 0.30346956436836692 0 -0.38843794465053189 0.30079707218221252 0 -0.39671568751255187 0.29180090712248002 0 -0.38499877228266027 0.27708017793754702 0 -0.37193771260796632 0.28603026850306079 0 -0.39671568751255187 0.29180090712248002 0 -0.37193771260796632 0.28603026850306079 0 -0.39671568751255187 0.29180090712248002 0 -0.38843794465053189 0.30079707218221252 0 -0.37193771260796632 0.28603026850306079 0 -0.38499877228266027 0.27708017793754702 0 -0.38722816796831377 0.26262780220205711 0 -0.36531718836104482 0.26678833001561197 0 -0.37066123097320319 0.24710202255958891 0 -0.38722816796831377 0.26262780220205711 0 -0.38637187428134301 0.23999850327656039 0 -0.3987146468586657 0.24919431997693781 0 -0.38722816796831377 0.26262780220205711 0 -0.3987146468586657 0.24919431997693781 0 -0.38722816796831377 0.26262780220205711 0 -0.4027390796940834 0.26280144598241889 0 -0.3987146468586657 0.24919431997693781 0 -0.41143175113919789 0.25469546670537918 0 -0.4027390796940834 0.26280144598241889 0 -0.38722816796831377 0.26262780220205711 0 -0.40379510496342452 0.27815358184452521 0 -0.38722816796831377 0.26262780220205711 0 -0.4027390796940834 0.26280144598241889 0 -0.40379510496342452 0.27815358184452521 0 -0.38499877228266027 0.27708017793754702 0 -0.38722816796831377 0.26262780220205711 0 -0.40379510496342452 0.27815358184452521 0 -0.34715973770338071 0.28025962988364161 0 -0.36531718836104482 0.26678833001561197 0 -0.34354743701155838 0.26477368815180968 0 -0.34882086549482672 0.24817496553446461 0 -0.34354743701155838 0.26477368815180968 0 -0.34882086549482672 0.24817496553446461 0 -0.36531718836104482 0.26678833001561197 0 -0.34354743701155838 0.26477368815180968 0 -0.37066123097320319 0.24710202255958891 0 -0.38722816796831377 0.26262780220205711 0 -0.36531718836104482 0.26678833001561197 0 -0.34882086549482672 0.24817496553446461 0 -0.37066123097320319 0.24710202255958891 0 -0.36531718836104482 0.26678833001561197 0 -0.38499877228266027 0.27708017793754702 0 -0.36531718836104482 0.26678833001561197 0 -0.37193771260796632 0.28603026850306079 0 -0.34715973770338071 0.28025962988364161 0 -0.36531718836104482 0.26678833001561197 0 -0.37193771260796632 0.28603026850306079 0 -0.37193771260796632 0.28603026850306079 0 -0.36601128096482799 0.3041056448471281 0 -0.35230702822233162 0.29779145174146032 0 -0.34715973770338071 0.28025962988364161 0 -0.37193771260796632 0.28603026850306079 0 -0.3781910883755481 0.30387946849855357 0 -0.37193771260796632 0.28603026850306079 0 -0.36601128096482799 0.3041056448471281 0 -0.35230702822233162 0.29779145174146032 0 -0.33690961011846521 0.30864453036897938 0 -0.3593410908722463 0.31652925448057861 0 -0.36601128096482799 0.3041056448471281 0 -0.35230702822233162 0.29779145174146032 0 -0.3593410908722463 0.31652925448057861 0 -0.34715973770338071 0.28025962988364161 0 -0.37193771260796632 0.28603026850306079 0 -0.35230702822233162 0.29779145174146032 0 -0.34715973770338071 0.28025962988364161 0 -0.35230702822233162 0.29779145174146032 0 -0.33248273706710357 0.29117938236537372 0 -0.34715973770338071 0.28025962988364161 0 -0.33248273706710357 0.29117938236537372 0 -0.32238176279879521 0.27448899126422233 0 -0.35230702822233162 0.29779145174146032 0 -0.33248273706710357 0.29117938236537372 0 -0.33690961011846521 0.30864453036897938 0 -0.33248273706710357 0.29117938236537372 0 -0.33690961011846521 0.30864453036897938 0 -0.314478129364684 0.30075980625738019 0 -0.33690961011846521 0.30864453036897938 0 -0.314478129364684 0.30075980625738019 0 -0.32437596037801242 0.3193351714180323 0 -0.33690961011846521 0.30864453036897938 0 -0.314478129364684 0.30075980625738019 0 -0.314478129364684 0.30075980625738019 0 -0.32238176279879521 0.27448899126422233 0 -0.30735619950935422 0.28369459671173858 0 -0.33248273706710357 0.29117938236537372 0 -0.314478129364684 0.30075980625738019 0 -0.32238176279879521 0.27448899126422233 0 -0.314478129364684 0.30075980625738019 0 -0.32238176279879521 0.27448899126422233 0 -0.32496602863711738 0.26589917364455051 0 -0.32238176279879521 0.27448899126422233 0 -0.33443155302271171 0.26822265690379288 0 -0.32496602863711738 0.26589917364455051 0 -0.32238176279879521 0.27448899126422233 0 -0.32496602863711738 0.26589917364455051 0 -0.32238176279879521 0.27448899126422233 0 -0.31365609155137858 0.2632584360813891 0 -0.34715973770338071 0.28025962988364161 0 -0.32238176279879521 0.27448899126422233 0 -0.33443155302271171 0.26822265690379288 0 -0.34715973770338071 0.28025962988364161 0 -0.32238176279879521 0.27448899126422233 0 -0.34715973770338071 0.28025962988364161 0 -0.33443155302271171 0.26822265690379288 0 -0.34354743701155838 0.26477368815180968 0 -0.34882086549482672 0.24817496553446461 0 -0.32990157161644001 0.24762677339223521 0 -0.3342345911032007 0.25852603464166712 0 -0.34882086549482672 0.24817496553446461 0 -0.34354743701155838 0.26477368815180968 0 -0.3342345911032007 0.25852603464166712 0 -0.33443155302271171 0.26822265690379288 0 -0.34354743701155838 0.26477368815180968 0 -0.3342345911032007 0.25852603464166712 0 -0.32496602863711738 0.26589917364455051 0 -0.33443155302271171 0.26822265690379288 0 -0.3342345911032007 0.25852603464166712 0 -0.32990157161644001 0.24762677339223521 0 -0.3342345911032007 0.25852603464166712 0 -0.3242014039187317 0.25710641452847732 0 -0.32990157161644001 0.24762677339223521 0 -0.3242014039187317 0.25710641452847732 0 -0.31728827442131202 0.251362639668403 0 -0.32496602863711738 0.26589917364455051 0 -0.3242014039187317 0.25710641452847732 0 -0.31365609155137858 0.2632584360813891 0 -0.32496602863711738 0.26589917364455051 0 -0.3342345911032007 0.25852603464166712 0 -0.3242014039187317 0.25710641452847732 0 -0.3242014039187317 0.25710641452847732 0 -0.31365609155137858 0.2632584360813891 0 -0.31728827442131202 0.251362639668403 0 -0.30220712239074649 0.24647352029368899 0 -0.31365609155137858 0.2632584360813891 0 -0.31728827442131202 0.251362639668403 0 -0.30220712239074649 0.24647352029368899 0 -0.31365609155137858 0.2632584360813891 0 -0.29957079032797101 0.26917645546605717 0 -0.30220712239074649 0.24647352029368899 0 -0.29957079032797101 0.26917645546605717 0 -0.29017537783879832 0.26313640060309362 0 -0.32238176279879521 0.27448899126422233 0 -0.29957079032797101 0.26917645546605717 0 -0.32238176279879521 0.27448899126422233 0 -0.31365609155137858 0.2632584360813891 0 -0.29957079032797101 0.26917645546605717 0 -0.32238176279879521 0.27448899126422233 0 -0.29957079032797101 0.26917645546605717 0 -0.30735619950935422 0.28369459671173858 0 -0.29957079032797101 0.26917645546605717 0 -0.29204385809326761 0.2815403865784295 0 -0.30735619950935422 0.28369459671173858 0 -0.29957079032797101 0.26917645546605717 0 -0.28789708973888239 0.27190881376022541 0 -0.29204385809326761 0.2815403865784295 0 -0.29957079032797101 0.26917645546605717 0 -0.28789708973888239 0.27190881376022541 0 -0.29017537783879832 0.26313640060309362 0 -0.28789708973888239 0.27190881376022541 0 -0.29017537783879832 0.26313640060309362 0 -0.28160784128425148 0.26457056161919768 0 -0.28789708973888239 0.27190881376022541 0 -0.28160784128425148 0.26457056161919768 0 -0.27699982896060349 0.27205976517931613 0 -0.28789708973888239 0.27190881376022541 0 -0.28173222120321118 0.2789196022089529 0 -0.27699982896060349 0.27205976517931613 0 -0.28789708973888239 0.27190881376022541 0 -0.28173222120321118 0.2789196022089529 0 -0.29204385809326761 0.2815403865784295 0 -0.30220712239074649 0.24647352029368899 0 -0.28643348722299589 0.25009171211611092 0 -0.27959404545214039 0.26355265187629839 0 -0.30220712239074649 0.24647352029368899 0 -0.29017537783879832 0.26313640060309362 0 -0.27959404545214039 0.26355265187629839 0 -0.30220712239074649 0.24647352029368899 0 -0.27959404545214039 0.26355265187629839 0 -0.29017537783879832 0.26313640060309362 0 -0.28160784128425148 0.26457056161919768 0 -0.27959404545214039 0.26355265187629839 0 -0.28643348722299589 0.25009171211611092 0 -0.27949407817042021 0.25183745425449933 0 -0.27959404545214039 0.26355265187629839 0 -0.27949407817042021 0.25183745425449933 0 -0.27291010922748149 0.25159775084787978 0 -0.27959404545214039 0.26355265187629839 0 -0.27291010922748149 0.25159775084787978 0 -0.27959404545214039 0.26355265187629839 0 -0.25932040504340997 0.25330497146748832 0 -0.27959404545214039 0.26355265187629839 0 -0.25932040504340997 0.25330497146748832 0 -0.26019350040700429 0.26374362132216878 0 -0.27959404545214039 0.26355265187629839 0 -0.25932040504340997 0.25330497146748832 0 -0.28160784128425148 0.26457056161919768 0 -0.27959404545214039 0.26355265187629839 0 -0.27959404545214039 0.26355265187629839 0 -0.25764408732584659 0.28013094522794912 0 -0.27959404545214039 0.26355265187629839 0 -0.25764408732584659 0.28013094522794912 0 -0.26019350040700429 0.26374362132216878 0 -0.27699982896060349 0.27205976517931613 0 -0.25764408732584659 0.28013094522794912 0 -0.27264006794404338 0.28189453302816431 0 -0.28160784128425148 0.26457056161919768 0 -0.27959404545214039 0.26355265187629839 0 -0.27699982896060349 0.27205976517931613 0 -0.27959404545214039 0.26355265187629839 0 -0.27699982896060349 0.27205976517931613 0 -0.25764408732584659 0.28013094522794912 0 -0.28173222120321118 0.2789196022089529 0 -0.27699982896060349 0.27205976517931613 0 -0.27264006794404338 0.28189453302816431 0 -0.25764408732584659 0.28013094522794912 0 -0.26019350040700429 0.26374362132216878 0 -0.242663231965797 0.27552459943965513 0 -0.25932040504340997 0.25330497146748832 0 -0.26019350040700429 0.26374362132216878 0 -0.24800314716261071 0.25472600388125571 0 -0.26280658819517733 0.31045790801634893 0 -0.2553874965106574 0.29824971761982882 0 -0.24913355635218751 0.3161515071801887 0 -0.26280658819517733 0.31045790801634893 0 -0.2553874965106574 0.29824971761982882 0 -0.26762542888006652 0.30072524907715542 0 -0.25764408732584659 0.28013094522794912 0 -0.2553874965106574 0.29824971761982882 0 -0.26673858634080477 0.29011803151625909 0 -0.2553874965106574 0.29824971761982882 0 -0.26673858634080477 0.29011803151625909 0 -0.26762542888006652 0.30072524907715542 0 -0.26673858634080477 0.29011803151625909 0 -0.28051008451234921 0.29257717894301338 0 -0.26762542888006652 0.30072524907715542 0 -0.26673858634080477 0.29011803151625909 0 -0.27264006794404338 0.28189453302816431 0 -0.28051008451234921 0.29257717894301338 0 -0.25764408732584659 0.28013094522794912 0 -0.26673858634080477 0.29011803151625909 0 -0.27264006794404338 0.28189453302816431 0 -0.28173222120321118 0.2789196022089529 0 -0.27264006794404338 0.28189453302816431 0 -0.28051008451234921 0.29257717894301338 0 -0.28051008451234921 0.29257717894301338 0 -0.26762542888006652 0.30072524907715542 0 -0.27482696522310213 0.31203648507243809 0 -0.26280658819517733 0.31045790801634893 0 -0.26762542888006652 0.30072524907715542 0 -0.27482696522310213 0.31203648507243809 0 -0.28051008451234921 0.29257717894301338 0 -0.28915600033007699 0.31108767130669918 0 -0.29549464310806478 0.29408706122317002 0 -0.28051008451234921 0.29257717894301338 0 -0.27482696522310213 0.31203648507243809 0 -0.28915600033007699 0.31108767130669918 0 -0.28915600033007699 0.31108767130669918 0 -0.29549464310806478 0.29408706122317002 0 -0.3019145187531414 0.30616267881125342 0 -0.28173222120321118 0.2789196022089529 0 -0.28051008451234921 0.29257717894301338 0 -0.29204385809326761 0.2815403865784295 0 -0.28051008451234921 0.29257717894301338 0 -0.29549464310806478 0.29408706122317002 0 -0.29204385809326761 0.2815403865784295 0 -0.314478129364684 0.30075980625738019 0 -0.29549464310806478 0.29408706122317002 0 -0.30735619950935422 0.28369459671173858 0 -0.29549464310806478 0.29408706122317002 0 -0.29204385809326761 0.2815403865784295 0 -0.30735619950935422 0.28369459671173858 0 -0.314478129364684 0.30075980625738019 0 -0.3019145187531414 0.30616267881125342 0 -0.30843738838363471 0.32083857003834448 0 -0.314478129364684 0.30075980625738019 0 -0.30843738838363471 0.32083857003834448 0 -0.314478129364684 0.30075980625738019 0 -0.29549464310806478 0.29408706122317002 0 -0.3019145187531414 0.30616267881125342 0 -0.314478129364684 0.30075980625738019 0 -0.29549464310806478 0.29408706122317002 0 -0.28915600033007699 0.31108767130669918 0 -0.3019145187531414 0.30616267881125342 0 -0.30843738838363471 0.32083857003834448 0 -0.28915600033007699 0.31108767130669918 0 -0.30843738838363471 0.32083857003834448 0 -0.29682996025289349 0.33955297505456372 0 -0.30843738838363471 0.32083857003834448 0 -0.30239664740258337 0.34091733381930822 0 -0.30843738838363471 0.32083857003834448 0 -0.30239664740258337 0.34091733381930822 0 -0.31403070689778029 0.34098503009937059 0 -0.30843738838363471 0.32083857003834448 0 -0.30239664740258337 0.34091733381930822 0 -0.29682996025289349 0.33955297505456372 0 -0.30239664740258337 0.34091733381930822 0 -0.29682996025289349 0.33955297505456372 0 -0.30609133203781419 0.3498572610236611 0 -0.29682996025289349 0.33955297505456372 0 -0.28541138883237338 0.33063104437950841 0 -0.28728738120791769 0.34174522007004482 0 -0.28541138883237338 0.33063104437950841 0 -0.28728738120791769 0.34174522007004482 0 -0.2744471220271934 0.33675431941137612 0 -0.28915600033007699 0.31108767130669918 0 -0.29682996025289349 0.33955297505456372 0 -0.28541138883237338 0.33063104437950841 0 -0.28915600033007699 0.31108767130669918 0 -0.28541138883237338 0.33063104437950841 0 -0.27933648034378539 0.32401503605485832 0 -0.28915600033007699 0.31108767130669918 0 -0.29682996025289349 0.33955297505456372 0 -0.27482696522310213 0.31203648507243809 0 -0.28915600033007699 0.31108767130669918 0 -0.27933648034378539 0.32401503605485832 0 -0.26280658819517733 0.31045790801634893 0 -0.27482696522310213 0.31203648507243809 0 -0.26705949400987311 0.32512658113213339 0 -0.27482696522310213 0.31203648507243809 0 -0.26705949400987311 0.32512658113213339 0 -0.27933648034378539 0.32401503605485832 0 -0.26705949400987311 0.32512658113213339 0 -0.27933648034378539 0.32401503605485832 0 -0.2744471220271934 0.33675431941137612 0 -0.28541138883237338 0.33063104437950841 0 -0.27933648034378539 0.32401503605485832 0 -0.2744471220271934 0.33675431941137612 0 -0.26705949400987311 0.32512658113213339 0 -0.2744471220271934 0.33675431941137612 0 -0.25744198814776997 0.33839065998507462 0 -0.26705949400987311 0.32512658113213339 0 -0.25744198814776997 0.33839065998507462 0 -0.24913355635218751 0.3161515071801887 0 -0.26280658819517733 0.31045790801634893 0 -0.26705949400987311 0.32512658113213339 0 -0.24913355635218751 0.3161515071801887 0 -0.26469264045823959 0.36084373813071308 0 -0.26326241239494108 0.38095136348494157 0 -0.24209789970856149 0.37994225619138139 0 -0.26469264045823959 0.36084373813071308 0 -0.24209789970856149 0.37994225619138139 0 -0.25744198814776997 0.33839065998507462 0 -0.26469264045823959 0.36084373813071308 0 -0.24141852661702989 0.35435256988853531 0 -0.2744471220271934 0.33675431941137612 0 -0.25744198814776997 0.33839065998507462 0 -0.26469264045823959 0.36084373813071308 0 -0.28728738120791769 0.34174522007004482 0 -0.26469264045823959 0.36084373813071308 0 -0.28728738120791769 0.34174522007004482 0 -0.2744471220271934 0.33675431941137612 0 -0.26469264045823959 0.36084373813071308 0 -0.28728738120791769 0.34174522007004482 0 -0.26469264045823959 0.36084373813071308 0 -0.27989585309410647 0.36833773071437292 0 -0.26469264045823959 0.36084373813071308 0 -0.27989585309410647 0.36833773071437292 0 -0.26326241239494108 0.38095136348494157 0 -0.27989585309410647 0.36833773071437292 0 -0.29337300616598161 0.35978420812603601 0 -0.29167589122220411 0.37313047245726949 0 -0.29337300616598161 0.35978420812603601 0 -0.29167589122220411 0.37313047245726949 0 -0.30450392017571098 0.3680182788024281 0 -0.28728738120791769 0.34174522007004482 0 -0.27989585309410647 0.36833773071437292 0 -0.29337300616598161 0.35978420812603601 0 -0.29682996025289349 0.33955297505456372 0 -0.28728738120791769 0.34174522007004482 0 -0.29337300616598161 0.35978420812603601 0 -0.29682996025289349 0.33955297505456372 0 -0.30609133203781419 0.3498572610236611 0 -0.30450392017571098 0.3680182788024281 0 -0.29682996025289349 0.33955297505456372 0 -0.30450392017571098 0.3680182788024281 0 -0.29682996025289349 0.33955297505456372 0 -0.29337300616598161 0.35978420812603601 0 -0.30450392017571098 0.3680182788024281 0 -0.30239664740258337 0.34091733381930822 0 -0.30609133203781419 0.3498572610236611 0 -0.31403070689778029 0.34098503009937059 0 -0.30609133203781419 0.3498572610236611 0 -0.30450392017571098 0.3680182788024281 0 -0.31259659940471729 0.36031282798934428 0 -0.29167589122220411 0.37313047245726949 0 -0.30450392017571098 0.3680182788024281 0 -0.29785899140293592 0.38227422862142879 0 -0.29337300616598161 0.35978420812603601 0 -0.30450392017571098 0.3680182788024281 0 -0.30450392017571098 0.3680182788024281 0 -0.31259659940471729 0.36031282798934428 0 -0.32062582070039819 0.36870086016570408 0 -0.30450392017571098 0.3680182788024281 0 -0.32062582070039819 0.36870086016570408 0 -0.32599635608629601 0.38391726392987258 0 -0.31259659940471729 0.36031282798934428 0 -0.32062582070039819 0.36870086016570408 0 -0.31916532470494602 0.35467491196558393 0 -0.32062582070039819 0.36870086016570408 0 -0.33212069742903599 0.36318391520013849 0 -0.31916532470494602 0.35467491196558393 0 -0.32062582070039819 0.36870086016570408 0 -0.33212069742903599 0.36318391520013849 0 -0.33286538723476811 0.37550730548203293 0 -0.33212069742903599 0.36318391520013849 0 -0.34435799837443598 0.37197885085018939 0 -0.34616382833932002 0.35552160019945139 0 -0.33212069742903599 0.36318391520013849 0 -0.34435799837443598 0.37197885085018939 0 -0.33286538723476811 0.37550730548203293 0 -0.33284551110067678 0.3521821383309483 0 -0.33901346149271649 0.340385768859019 0 -0.34616382833932002 0.35552160019945139 0 -0.33212069742903599 0.36318391520013849 0 -0.33284551110067678 0.3521821383309483 0 -0.34616382833932002 0.35552160019945139 0 -0.33284551110067678 0.3521821383309483 0 -0.32522601194053818 0.34489635177559608 0 -0.33901346149271649 0.340385768859019 0 -0.33284551110067678 0.3521821383309483 0 -0.32522601194053818 0.34489635177559608 0 -0.31916532470494602 0.35467491196558393 0 -0.33212069742903599 0.36318391520013849 0 -0.33284551110067678 0.3521821383309483 0 -0.31916532470494602 0.35467491196558393 0 -0.30609133203781419 0.3498572610236611 0 -0.31259659940471729 0.36031282798934428 0 -0.31916532470494602 0.35467491196558393 0 -0.32522601194053818 0.34489635177559608 0 -0.31916532470494602 0.35467491196558393 0 -0.31403070689778029 0.34098503009937059 0 -0.30609133203781419 0.3498572610236611 0 -0.31916532470494602 0.35467491196558393 0 -0.31403070689778029 0.34098503009937059 0 -0.30843738838363471 0.32083857003834448 0 -0.31403070689778029 0.34098503009937059 0 -0.32466001832775943 0.33319759432440221 0 -0.32522601194053818 0.34489635177559608 0 -0.31403070689778029 0.34098503009937059 0 -0.32466001832775943 0.33319759432440221 0 -0.314478129364684 0.30075980625738019 0 -0.30843738838363471 0.32083857003834448 0 -0.32437596037801242 0.3193351714180323 0 -0.30843738838363471 0.32083857003834448 0 -0.32466001832775943 0.33319759432440221 0 -0.32437596037801242 0.3193351714180323 0 -0.33690961011846521 0.30864453036897938 0 -0.33586523429981768 0.32603413378763768 0 -0.34928964143719637 0.32727407937610908 0 -0.33690961011846521 0.30864453036897938 0 -0.32437596037801242 0.3193351714180323 0 -0.33586523429981768 0.32603413378763768 0 -0.32466001832775943 0.33319759432440221 0 -0.32437596037801242 0.3193351714180323 0 -0.33586523429981768 0.32603413378763768 0 -0.32522601194053818 0.34489635177559608 0 -0.32466001832775943 0.33319759432440221 0 -0.33901346149271649 0.340385768859019 0 -0.32466001832775943 0.33319759432440221 0 -0.33586523429981768 0.32603413378763768 0 -0.33901346149271649 0.340385768859019 0 -0.33586523429981768 0.32603413378763768 0 -0.33901346149271649 0.340385768859019 0 -0.34928964143719637 0.32727407937610908 0 -0.33901346149271649 0.340385768859019 0 -0.35356643565998691 0.33990938560288619 0 -0.34928964143719637 0.32727407937610908 0 -0.35356643565998691 0.33990938560288619 0 -0.34928964143719637 0.32727407937610908 0 -0.36218134112929212 0.33193104570811499 0 -0.33690961011846521 0.30864453036897938 0 -0.34928964143719637 0.32727407937610908 0 -0.3593410908722463 0.31652925448057861 0 -0.33690961011846521 0.30864453036897938 0 -0.3593410908722463 0.31652925448057861 0 -0.34928964143719637 0.32727407937610908 0 -0.3593410908722463 0.31652925448057861 0 -0.36218134112929212 0.33193104570811499 0 -0.37595386092880478 0.33103355527835521 0 -0.38177257162602751 0.32441397859217758 0 -0.3593410908722463 0.31652925448057861 0 -0.38177257162602751 0.32441397859217758 0 -0.3593410908722463 0.31652925448057861 0 -0.37595386092880478 0.33103355527835521 0 -0.3593410908722463 0.31652925448057861 0 -0.36218134112929212 0.33193104570811499 0 -0.38177257162602751 0.32441397859217758 0 -0.36601128096482799 0.3041056448471281 0 -0.3593410908722463 0.31652925448057861 0 -0.35356643565998691 0.33990938560288619 0 -0.36218134112929212 0.33193104570811499 0 -0.36906372881045341 0.34482130486537949 0 -0.37595386092880478 0.33103355527835521 0 -0.36218134112929212 0.33193104570811499 0 -0.36906372881045341 0.34482130486537949 0 -0.3830518353719794 0.35065100397891991 0 -0.36906372881045341 0.34482130486537949 0 -0.36282638403622869 0.37009127391181462 0 -0.36906372881045341 0.34482130486537949 0 -0.36282638403622869 0.37009127391181462 0 -0.35790509421149719 0.35258589114488292 0 -0.35356643565998691 0.33990938560288619 0 -0.36906372881045341 0.34482130486537949 0 -0.35790509421149719 0.35258589114488292 0 -0.3830518353719794 0.35065100397891991 0 -0.36282638403622869 0.37009127391181462 0 -0.36282638403622869 0.37009127391181462 0 -0.34435799837443598 0.37197885085018939 0 -0.34616382833932002 0.35552160019945139 0 -0.36282638403622869 0.37009127391181462 0 -0.34616382833932002 0.35552160019945139 0 -0.35790509421149719 0.35258589114488292 0 -0.33901346149271649 0.340385768859019 0 -0.35356643565998691 0.33990938560288619 0 -0.34616382833932002 0.35552160019945139 0 -0.35356643565998691 0.33990938560288619 0 -0.34616382833932002 0.35552160019945139 0 -0.35790509421149719 0.35258589114488292 0 -0.34748879199688049 0.39981624905731777 0 -0.35600389110003933 0.38946556140839078 0 -0.36878341396795788 0.39350628446381192 0 -0.34748879199688049 0.39981624905731777 0 -0.35600389110003933 0.38946556140839078 0 -0.34260093270047792 0.38953154384470928 0 -0.36282638403622869 0.37009127391181462 0 -0.34260093270047792 0.38953154384470928 0 -0.36282638403622869 0.37009127391181462 0 -0.34435799837443598 0.37197885085018939 0 -0.34260093270047792 0.38953154384470928 0 -0.36282638403622869 0.37009127391181462 0 -0.35600389110003933 0.38946556140839078 0 -0.34260093270047792 0.38953154384470928 0 -0.38118999439220619 0.37184547950681529 0 -0.36282638403622869 0.37009127391181462 0 -0.36878341396795788 0.39350628446381192 0 -0.36282638403622869 0.37009127391181462 0 -0.35600389110003933 0.38946556140839078 0 -0.36878341396795788 0.39350628446381192 0 -0.34748879199688049 0.39981624905731777 0 -0.36878341396795788 0.39350628446381192 0 -0.36898122790746513 0.41571523418476303 0 -0.38362755910841878 0.40384704684692058 0 -0.36878341396795788 0.39350628446381192 0 -0.36898122790746513 0.41571523418476303 0 -0.36898122790746513 0.41571523418476303 0 -0.34637683002708219 0.42077435199313712 0 -0.36412357645677779 0.43868931766580321 0 -0.38397359351389038 0.43411062268176881 0 -0.36898122790746513 0.41571523418476303 0 -0.36412357645677779 0.43868931766580321 0 -0.34637683002708219 0.42077435199313712 0 -0.33677885444410821 0.43589112267339658 0 -0.36412357645677779 0.43868931766580321 0 -0.34748879199688049 0.39981624905731777 0 -0.36898122790746513 0.41571523418476303 0 -0.34637683002708219 0.42077435199313712 0 -0.34748879199688049 0.39981624905731777 0 -0.36898122790746513 0.41571523418476303 0 -0.33738398904815631 0.41156823120633901 0 -0.32474636019715608 0.42192485307167621 0 -0.32745849218678458 0.40441708801812398 0 -0.34637683002708219 0.42077435199313712 0 -0.33738398904815631 0.41156823120633901 0 -0.32474636019715608 0.42192485307167621 0 -0.34748879199688049 0.39981624905731777 0 -0.34637683002708219 0.42077435199313712 0 -0.33738398904815631 0.41156823120633901 0 -0.34637683002708219 0.42077435199313712 0 -0.33677885444410821 0.43589112267339658 0 -0.32474636019715608 0.42192485307167621 0 -0.32474636019715608 0.42192485307167621 0 -0.30523910636367019 0.42224875829430958 0 -0.31437501445844218 0.44149576452954592 0 -0.33677885444410821 0.43589112267339658 0 -0.32474636019715608 0.42192485307167621 0 -0.31437501445844218 0.44149576452954592 0 -0.32474636019715608 0.42192485307167621 0 -0.32745849218678458 0.40441708801812398 0 -0.30964722585519339 0.40735317765795842 0 -0.32474636019715608 0.42192485307167621 0 -0.30964722585519339 0.40735317765795842 0 -0.30523910636367019 0.42224875829430958 0 -0.32745849218678458 0.40441708801812398 0 -0.32599635608629601 0.38391726392987258 0 -0.31041951393831951 0.38996120983090382 0 -0.32745849218678458 0.40441708801812398 0 -0.31041951393831951 0.38996120983090382 0 -0.30964722585519339 0.40735317765795842 0 -0.34748879199688049 0.39981624905731777 0 -0.32599635608629601 0.38391726392987258 0 -0.34748879199688049 0.39981624905731777 0 -0.32745849218678458 0.40441708801812398 0 -0.32599635608629601 0.38391726392987258 0 -0.34748879199688049 0.39981624905731777 0 -0.34260093270047792 0.38953154384470928 0 -0.32599635608629601 0.38391726392987258 0 -0.34748879199688049 0.39981624905731777 0 -0.33738398904815631 0.41156823120633901 0 -0.32745849218678458 0.40441708801812398 0 -0.34435799837443598 0.37197885085018939 0 -0.34260093270047792 0.38953154384470928 0 -0.33286538723476811 0.37550730548203293 0 -0.34260093270047792 0.38953154384470928 0 -0.33286538723476811 0.37550730548203293 0 -0.32599635608629601 0.38391726392987258 0 -0.30450392017571098 0.3680182788024281 0 -0.32599635608629601 0.38391726392987258 0 -0.30450392017571098 0.3680182788024281 0 -0.32599635608629601 0.38391726392987258 0 -0.31041951393831951 0.38996120983090382 0 -0.32062582070039819 0.36870086016570408 0 -0.33286538723476811 0.37550730548203293 0 -0.32599635608629601 0.38391726392987258 0 -0.30450392017571098 0.3680182788024281 0 -0.31041951393831951 0.38996120983090382 0 -0.30450392017571098 0.3680182788024281 0 -0.31041951393831951 0.38996120983090382 0 -0.29785899140293592 0.38227422862142879 0 -0.31041951393831951 0.38996120983090382 0 -0.29785899140293592 0.38227422862142879 0 -0.29860173629605652 0.39529850072586842 0 -0.29860173629605652 0.39529850072586842 0 -0.29233526501154777 0.40966597149696943 0 -0.30964722585519339 0.40735317765795842 0 -0.31041951393831951 0.38996120983090382 0 -0.29860173629605652 0.39529850072586842 0 -0.30964722585519339 0.40735317765795842 0 -0.28274768527228578 0.38723791602208141 0 -0.27489929486923032 0.41402413808049521 0 -0.29233526501154777 0.40966597149696943 0 -0.29860173629605652 0.39529850072586842 0 -0.28274768527228578 0.38723791602208141 0 -0.29233526501154777 0.40966597149696943 0 -0.29785899140293592 0.38227422862142879 0 -0.29860173629605652 0.39529850072586842 0 -0.28274768527228578 0.38723791602208141 0 -0.27989585309410647 0.36833773071437292 0 -0.29167589122220411 0.37313047245726949 0 -0.28274768527228578 0.38723791602208141 0 -0.29167589122220411 0.37313047245726949 0 -0.29785899140293592 0.38227422862142879 0 -0.28274768527228578 0.38723791602208141 0 -0.27989585309410647 0.36833773071437292 0 -0.28274768527228578 0.38723791602208141 0 -0.26326241239494108 0.38095136348494157 0 -0.28274768527228578 0.38723791602208141 0 -0.26065683073682089 0.39924136556670448 0 -0.26326241239494108 0.38095136348494157 0 -0.28274768527228578 0.38723791602208141 0 -0.26065683073682089 0.39924136556670448 0 -0.27489929486923032 0.41402413808049521 0 -0.26065683073682089 0.39924136556670448 0 -0.26326241239494108 0.38095136348494157 0 -0.24209789970856149 0.37994225619138139 0 -0.2614209362179214 0.42829939215348217 0 -0.25225545090412099 0.44501051780490508 0 -0.2377502061398313 0.42579475959156632 0 -0.26065683073682089 0.39924136556670448 0 -0.2614209362179214 0.42829939215348217 0 -0.23951275595798571 0.40499312746784549 0 -0.26065683073682089 0.39924136556670448 0 -0.2614209362179214 0.42829939215348217 0 -0.27489929486923032 0.41402413808049521 0 -0.2614209362179214 0.42829939215348217 0 -0.28509166629601151 0.43080402471539803 0 -0.2614209362179214 0.42829939215348217 0 -0.27489929486923032 0.41402413808049521 0 -0.28509166629601151 0.43080402471539803 0 -0.2614209362179214 0.42829939215348217 0 -0.28509166629601151 0.43080402471539803 0 -0.27357548888451427 0.45275713959164188 0 -0.27489929486923032 0.41402413808049521 0 -0.28509166629601151 0.43080402471539803 0 -0.29233526501154777 0.40966597149696943 0 -0.28509166629601151 0.43080402471539803 0 -0.29233526501154777 0.40966597149696943 0 -0.30523910636367019 0.42224875829430958 0 -0.29233526501154777 0.40966597149696943 0 -0.30964722585519339 0.40735317765795842 0 -0.30523910636367019 0.42224875829430958 0 -0.28509166629601151 0.43080402471539803 0 -0.30523910636367019 0.42224875829430958 0 -0.31437501445844218 0.44149576452954592 0 -0.28509166629601151 0.43080402471539803 0 -0.29556973625549487 0.45428917921023571 0 -0.31437501445844218 0.44149576452954592 0 -0.29556973625549487 0.45428917921023571 0 -0.31805238971939448 0.46863987486248099 0 -0.31437501445844218 0.44149576452954592 0 -0.29556973625549487 0.45428917921023571 0 -0.29033640002177069 0.46879776640951648 0 -0.31805238971939448 0.46863987486248099 0 -0.29556973625549487 0.45428917921023571 0 -0.27357548888451427 0.45275713959164188 0 -0.29033640002177069 0.46879776640951648 0 -0.28509166629601151 0.43080402471539803 0 -0.29556973625549487 0.45428917921023571 0 -0.27357548888451427 0.45275713959164188 0 -0.27357548888451427 0.45275713959164188 0 -0.25779908468260959 0.4640431881347844 0 -0.27576520707719532 0.47602879208985549 0 -0.27357548888451427 0.45275713959164188 0 -0.27576520707719532 0.47602879208985549 0 -0.29033640002177069 0.46879776640951648 0 -0.27357548888451427 0.45275713959164188 0 -0.25779908468260959 0.4640431881347844 0 -0.25225545090412099 0.44501051780490508 0 -0.2614209362179214 0.42829939215348217 0 -0.27357548888451427 0.45275713959164188 0 -0.25225545090412099 0.44501051780490508 0 -0.26093534285895759 0.5 0 -0.26091743739831053 0.48142088392823129 0 -0.2422926532762725 0.47930939792105748 0 -0.25779908468260959 0.4640431881347844 0 -0.26091743739831053 0.48142088392823129 0 -0.27576520707719532 0.47602879208985549 0 -0.25779908468260959 0.4640431881347844 0 -0.26091743739831053 0.48142088392823129 0 -0.2422926532762725 0.47930939792105748 0 -0.26091743739831053 0.48142088392823129 0 -0.27576520707719532 0.47602879208985549 0 -0.27522361308429061 0.48903802349591691 0 -0.25779908468260959 0.4640431881347844 0 -0.27576520707719532 0.47602879208985549 0 -0.26093534285895759 0.5 0 -0.27522361308429061 0.48903802349591691 0 -0.28631639736266168 0.5 0 -0.26093534285895759 0.5 0 -0.26091743739831053 0.48142088392823129 0 -0.27522361308429061 0.48903802349591691 0 -0.29501679635070271 0.48361515346082012 0 -0.31169745186636588 0.49999999999999861 0 -0.31805238971939448 0.46863987486248099 0 -0.27522361308429061 0.48903802349591691 0 -0.29373132947178088 0.48801439604492658 0 -0.28631639736266168 0.5 0 -0.27576520707719532 0.47602879208985549 0 -0.29373132947178088 0.48801439604492658 0 -0.27576520707719532 0.47602879208985549 0 -0.29373132947178088 0.48801439604492658 0 -0.29501679635070271 0.48361515346082012 0 -0.27576520707719532 0.47602879208985549 0 -0.27522361308429061 0.48903802349591691 0 -0.29373132947178088 0.48801439604492658 0 -0.27576520707719532 0.47602879208985549 0 -0.29033640002177069 0.46879776640951648 0 -0.29501679635070271 0.48361515346082012 0 -0.29501679635070271 0.48361515346082012 0 -0.31805238971939448 0.46863987486248099 0 -0.29033640002177069 0.46879776640951648 0 -0.29501679635070271 0.48361515346082012 0 -0.31805238971939448 0.46863987486248099 0 -0.29373132947178088 0.48801439604492658 0 -0.29501679635070271 0.48361515346082012 0 -0.31169745186636588 0.49999999999999861 0 -0.29373132947178088 0.48801439604492658 0 -0.28631639736266168 0.5 0 -0.31169745186636588 0.49999999999999861 0 -0.29373132947178088 0.48801439604492658 0 -0.31169745186636588 0.49999999999999861 0 -0.37959735337450767 0.5 0 -0.31169745186636588 0.49999999999999861 0 -0.31805238971939448 0.46863987486248099 0 -0.31805238971939448 0.46863987486248099 0 -0.31437501445844218 0.44149576452954592 0 -0.34108798308808608 0.45366459626414207 0 -0.33677885444410821 0.43589112267339658 0 -0.31437501445844218 0.44149576452954592 0 -0.34108798308808608 0.45366459626414207 0 -0.31805238971939448 0.46863987486248099 0 -0.34108798308808608 0.45366459626414207 0 -0.38276806934716878 0.46153368816580592 0 -0.34108798308808608 0.45366459626414207 0 -0.36412357645677779 0.43868931766580321 0 -0.34108798308808608 0.45366459626414207 0 -0.36412357645677779 0.43868931766580321 0 -0.33677885444410821 0.43589112267339658 0 -0.34108798308808608 0.45366459626414207 0 -0.36412357645677779 0.43868931766580321 0 -0.37959735337450767 0.5 0 -0.31805238971939448 0.46863987486248099 0 -0.34108798308808608 0.45366459626414207 0 -0.37959735337450767 0.5 0 -0.38276806934716878 0.46153368816580592 0 -0.34108798308808608 0.45366459626414207 0 -0.15382627251460301 0.4834897128954726 0 -0.14197869067978719 0.46895406906089893 0 -0.12893624596053099 0.5 0 -0.15382627251460301 0.4834897128954726 0 -0.14197869067978719 0.46895406906089893 0 -0.1635796956352164 0.47210198505585738 0 -0.15382627251460301 0.4834897128954726 0 -0.12893624596053099 0.5 0 -0.15744225892399119 0.50000000000000044 0 -0.14197869067978719 0.46895406906089893 0 -0.12893624596053099 0.5 0 -0.1187070756848814 0.47608876725346161 0 -0.14197869067978719 0.46895406906089893 0 -0.12774480630476689 0.4523017931909934 0 -0.1461047290410612 0.44998284501098013 0 -0.14197869067978719 0.46895406906089893 0 -0.12774480630476689 0.4523017931909934 0 -0.1187070756848814 0.47608876725346161 0 -0.12774480630476689 0.4523017931909934 0 -0.1461047290410612 0.44998284501098013 0 -0.1401528949948998 0.43692788270214972 0 -0.12774480630476689 0.4523017931909934 0 -0.1401528949948998 0.43692788270214972 0 -0.122768864332314 0.42638231891009221 0 -0.1461047290410612 0.44998284501098013 0 -0.1545536234932445 0.43834011906663478 0 -0.16479216269769231 0.4530498323069545 0 -0.1461047290410612 0.44998284501098013 0 -0.1545536234932445 0.43834011906663478 0 -0.1401528949948998 0.43692788270214972 0 -0.14197869067978719 0.46895406906089893 0 -0.1461047290410612 0.44998284501098013 0 -0.16479216269769231 0.4530498323069545 0 -0.14197869067978719 0.46895406906089893 0 -0.16479216269769231 0.4530498323069545 0 -0.1635796956352164 0.47210198505585738 0 -0.16479216269769231 0.4530498323069545 0 -0.18572014854800259 0.47001087401064029 0 -0.1635796956352164 0.47210198505585738 0 -0.1545536234932445 0.43834011906663478 0 -0.16479216269769231 0.4530498323069545 0 -0.16921534803920049 0.42902803431652292 0 -0.16479216269769231 0.4530498323069545 0 -0.19102595075868631 0.44628565462616082 0 -0.16921534803920049 0.42902803431652292 0 -0.16479216269769231 0.4530498323069545 0 -0.18572014854800259 0.47001087401064029 0 -0.19102595075868631 0.44628565462616082 0 -0.18572014854800259 0.47001087401064029 0 -0.1635796956352164 0.47210198505585738 0 -0.171581203735997 0.48500543700532051 0 -0.18572014854800259 0.47001087401064029 0 -0.171581203735997 0.48500543700532051 0 -0.19640666670672319 0.48528421110790909 0 -0.18572014854800259 0.47001087401064029 0 -0.171581203735997 0.48500543700532051 0 -0.15382627251460301 0.4834897128954726 0 -0.1635796956352164 0.47210198505585738 0 -0.171581203735997 0.48500543700532051 0 -0.15744225892399119 0.50000000000000044 0 -0.171581203735997 0.48500543700532051 0 -0.1834796020677453 0.5 0 -0.15382627251460301 0.4834897128954726 0 -0.15744225892399119 0.50000000000000044 0 -0.171581203735997 0.48500543700532051 0 -0.15744225892399119 0.50000000000000044 0 -0.171581203735997 0.48500543700532051 0 -0.171581203735997 0.48500543700532051 0 -0.1834796020677453 0.5 0 -0.19640666670672319 0.48528421110790909 0 -0.1834796020677453 0.5 0 -0.19640666670672319 0.48528421110790909 0 -0.2095169452114993 0.5 0 -0.18572014854800259 0.47001087401064029 0 -0.19640666670672319 0.48528421110790909 0 -0.20586872995754191 0.46419043641744068 0 -0.19640666670672319 0.48528421110790909 0 -0.22071150915639751 0.48209521820872059 0 -0.20586872995754191 0.46419043641744068 0 -0.22071150915639751 0.48209521820872059 0 -0.22189196772970221 0.4660120320530044 0 -0.20586872995754191 0.46419043641744068 0 -0.22071150915639751 0.48209521820872059 0 -0.20586872995754191 0.46419043641744068 0 -0.19640666670672319 0.48528421110790909 0 -0.2095169452114993 0.5 0 -0.22071150915639751 0.48209521820872059 0 -0.2095169452114993 0.5 0 -0.22071150915639751 0.48209521820872059 0 -0.23555428835525341 0.50000000000000044 0 -0.22071150915639751 0.48209521820872059 0 -0.2422926532762725 0.47930939792105748 0 -0.23555428835525341 0.50000000000000044 0 -0.22071150915639751 0.48209521820872059 0 -0.23555428835525341 0.50000000000000044 0 -0.22071150915639751 0.48209521820872059 0 -0.2422926532762725 0.47930939792105748 0 -0.22189196772970221 0.4660120320530044 0 -0.26093534285895759 0.5 0 -0.2422926532762725 0.47930939792105748 0 -0.23555428835525341 0.50000000000000044 0 -0.25225545090412099 0.44501051780490508 0 -0.23452764954842331 0.45371166498664639 0 -0.2377502061398313 0.42579475959156632 0 -0.25779908468260959 0.4640431881347844 0 -0.25225545090412099 0.44501051780490508 0 -0.23452764954842331 0.45371166498664639 0 -0.25779908468260959 0.4640431881347844 0 -0.2422926532762725 0.47930939792105748 0 -0.23452764954842331 0.45371166498664639 0 -0.2422926532762725 0.47930939792105748 0 -0.23452764954842331 0.45371166498664639 0 -0.22189196772970221 0.4660120320530044 0 -0.23452764954842331 0.45371166498664639 0 -0.22189196772970221 0.4660120320530044 0 -0.21276736053984169 0.444301028787013 0 -0.23452764954842331 0.45371166498664639 0 -0.21276736053984169 0.444301028787013 0 -0.2377502061398313 0.42579475959156632 0 -0.21276736053984169 0.444301028787013 0 -0.20586872995754191 0.46419043641744068 0 -0.19102595075868631 0.44628565462616082 0 -0.22189196772970221 0.4660120320530044 0 -0.21276736053984169 0.444301028787013 0 -0.20586872995754191 0.46419043641744068 0 -0.18572014854800259 0.47001087401064029 0 -0.20586872995754191 0.46419043641744068 0 -0.19102595075868631 0.44628565462616082 0 -0.20586872995754191 0.46419043641744068 0 -0.19102595075868631 0.44628565462616082 0 -0.19040874598365121 0.42078549446773472 0 -0.2140794760617413 0.42329012702965052 0 -0.21276736053984169 0.444301028787013 0 -0.19102595075868631 0.44628565462616082 0 -0.19040874598365121 0.42078549446773472 0 -0.19040874598365121 0.42078549446773472 0 -0.19952027085917601 0.40030094352274381 0 -0.18016361334869979 0.40046370799091718 0 -0.19040874598365121 0.42078549446773472 0 -0.2140794760617413 0.42329012702965052 0 -0.19952027085917601 0.40030094352274381 0 -0.2140794760617413 0.42329012702965052 0 -0.2195031589588832 0.39904077425204992 0 -0.19952027085917601 0.40030094352274381 0 -0.21276736053984169 0.444301028787013 0 -0.19040874598365121 0.42078549446773472 0 -0.2140794760617413 0.42329012702965052 0 -0.2140794760617413 0.42329012702965052 0 -0.2377502061398313 0.42579475959156632 0 -0.21276736053984169 0.444301028787013 0 -0.2140794760617413 0.42329012702965052 0 -0.2377502061398313 0.42579475959156632 0 -0.2140794760617413 0.42329012702965052 0 -0.2377502061398313 0.42579475959156632 0 -0.23951275595798571 0.40499312746784549 0 -0.2140794760617413 0.42329012702965052 0 -0.23951275595798571 0.40499312746784549 0 -0.2195031589588832 0.39904077425204992 0 -0.2614209362179214 0.42829939215348217 0 -0.2377502061398313 0.42579475959156632 0 -0.23951275595798571 0.40499312746784549 0 -0.2614209362179214 0.42829939215348217 0 -0.2377502061398313 0.42579475959156632 0 -0.26065683073682089 0.39924136556670448 0 -0.24209789970856149 0.37994225619138139 0 -0.23951275595798571 0.40499312746784549 0 -0.24209789970856149 0.37994225619138139 0 -0.23951275595798571 0.40499312746784549 0 -0.2195031589588832 0.39904077425204992 0 -0.24209789970856149 0.37994225619138139 0 -0.2195031589588832 0.39904077425204992 0 -0.24209789970856149 0.37994225619138139 0 -0.2195031589588832 0.39904077425204992 0 -0.2218268857497247 0.36949779052758491 0 -0.2195031589588832 0.39904077425204992 0 -0.202834880514451 0.37812721876085098 0 -0.2218268857497247 0.36949779052758491 0 -0.2195031589588832 0.39904077425204992 0 -0.19952027085917601 0.40030094352274381 0 -0.202834880514451 0.37812721876085098 0 -0.19952027085917601 0.40030094352274381 0 -0.1835832983669973 0.37698533658113897 0 -0.18016361334869979 0.40046370799091718 0 -0.19952027085917601 0.40030094352274381 0 -0.202834880514451 0.37812721876085098 0 -0.1835832983669973 0.37698533658113897 0 -0.1835832983669973 0.37698533658113897 0 -0.1625343606765372 0.39012800924452512 0 -0.18016361334869979 0.40046370799091718 0 -0.1835832983669973 0.37698533658113897 0 -0.1625343606765372 0.39012800924452512 0 -0.16162615579974571 0.37153798105241648 0 -0.1625343606765372 0.39012800924452512 0 -0.18016361334869979 0.40046370799091718 0 -0.16087991565296769 0.40970651418529358 0 -0.19040874598365121 0.42078549446773472 0 -0.18016361334869979 0.40046370799091718 0 -0.17516690575612981 0.414995937740117 0 -0.19040874598365121 0.42078549446773472 0 -0.17516690575612981 0.414995937740117 0 -0.16921534803920049 0.42902803431652292 0 -0.18016361334869979 0.40046370799091718 0 -0.17516690575612981 0.414995937740117 0 -0.16087991565296769 0.40970651418529358 0 -0.19102595075868631 0.44628565462616082 0 -0.19040874598365121 0.42078549446773472 0 -0.16921534803920049 0.42902803431652292 0 -0.1545536234932445 0.43834011906663478 0 -0.16921534803920049 0.42902803431652292 0 -0.1462559409257749 0.42107746310567518 0 -0.16921534803920049 0.42902803431652292 0 -0.16087991565296769 0.40970651418529358 0 -0.1462559409257749 0.42107746310567518 0 -0.17516690575612981 0.414995937740117 0 -0.16921534803920049 0.42902803431652292 0 -0.16087991565296769 0.40970651418529358 0 -0.16087991565296769 0.40970651418529358 0 -0.1462559409257749 0.42107746310567518 0 -0.14526352463901851 0.39940432275088539 0 -0.1545536234932445 0.43834011906663478 0 -0.1462559409257749 0.42107746310567518 0 -0.1401528949948998 0.43692788270214972 0 -0.1462559409257749 0.42107746310567518 0 -0.1401528949948998 0.43692788270214972 0 -0.122768864332314 0.42638231891009221 0 -0.1462559409257749 0.42107746310567518 0 -0.12965594829386429 0.40741252108087922 0 -0.122768864332314 0.42638231891009221 0 -0.1462559409257749 0.42107746310567518 0 -0.12965594829386429 0.40741252108087922 0 -0.14526352463901851 0.39940432275088539 0 -0.12965594829386429 0.40741252108087922 0 -0.12610309816609799 0.38771973428475642 0 -0.14526352463901851 0.39940432275088539 0 -0.12610309816609799 0.38771973428475642 0 -0.14190399141401361 0.3832713597846395 0 -0.13132429704935941 0.36938296962175171 0 -0.12610309816609799 0.38771973428475642 0 -0.14190399141401361 0.3832713597846395 0 -0.14526352463901851 0.39940432275088539 0 -0.1625343606765372 0.39012800924452512 0 -0.14190399141401361 0.3832713597846395 0 -0.16162615579974571 0.37153798105241648 0 -0.1625343606765372 0.39012800924452512 0 -0.16087991565296769 0.40970651418529358 0 -0.14526352463901851 0.39940432275088539 0 -0.1625343606765372 0.39012800924452512 0 -0.14190399141401361 0.3832713597846395 0 -0.14526352463901851 0.39940432275088539 0 -0.13865380924995671 0.35217346652041681 0 -0.14900481731365439 0.33715084661464628 0 -0.1592357155044945 0.35092461582447831 0 -0.14654879380351399 0.36545807856074058 0 -0.13865380924995671 0.35217346652041681 0 -0.1592357155044945 0.35092461582447831 0 -0.14190399141401361 0.3832713597846395 0 -0.14654879380351399 0.36545807856074058 0 -0.16162615579974571 0.37153798105241648 0 -0.14654879380351399 0.36545807856074058 0 -0.1592357155044945 0.35092461582447831 0 -0.16162615579974571 0.37153798105241648 0 -0.14654879380351399 0.36545807856074058 0 -0.13132429704935941 0.36938296962175171 0 -0.13865380924995671 0.35217346652041681 0 -0.14190399141401361 0.3832713597846395 0 -0.14654879380351399 0.36545807856074058 0 -0.13132429704935941 0.36938296962175171 0 -0.13132429704935941 0.36938296962175171 0 -0.13865380924995671 0.35217346652041681 0 -0.12031134189322019 0.3538456545815829 0 -0.13865380924995671 0.35217346652041681 0 -0.12738594765207731 0.33434475648681039 0 -0.12031134189322019 0.3538456545815829 0 -0.13865380924995671 0.35217346652041681 0 -0.12738594765207731 0.33434475648681039 0 -0.14900481731365439 0.33715084661464628 0 -0.12738594765207731 0.33434475648681039 0 -0.14422741803914479 0.32067163388439213 0 -0.14900481731365439 0.33715084661464628 0 -0.12738594765207731 0.33434475648681039 0 -0.14422741803914479 0.32067163388439213 0 -0.1189708891108567 0.31283839014754111 0 -0.14422741803914479 0.32067163388439213 0 -0.1189708891108567 0.31283839014754111 0 -0.14422741803914479 0.32067163388439213 0 -0.14900481731365439 0.33715084661464628 0 -0.1694839469674328 0.3285048776212432 0 -0.1694839469674328 0.3285048776212432 0 -0.17910495396300019 0.34499586050092479 0 -0.1592357155044945 0.35092461582447831 0 -0.14900481731365439 0.33715084661464628 0 -0.1694839469674328 0.3285048776212432 0 -0.1592357155044945 0.35092461582447831 0 -0.1694839469674328 0.3285048776212432 0 -0.18235753289953999 0.31185869267607552 0 -0.16219467391842909 0.30930007788819031 0 -0.14422741803914479 0.32067163388439213 0 -0.1694839469674328 0.3285048776212432 0 -0.16219467391842909 0.30930007788819031 0 -0.14422741803914479 0.32067163388439213 0 -0.1694839469674328 0.3285048776212432 0 -0.1694839469674328 0.3285048776212432 0 -0.19351459608921659 0.32856645986975258 0 -0.18235753289953999 0.31185869267607552 0 -0.1694839469674328 0.3285048776212432 0 -0.19474047589572091 0.33633812135809432 0 -0.1694839469674328 0.3285048776212432 0 -0.17910495396300019 0.34499586050092479 0 -0.19474047589572091 0.33633812135809432 0 -0.1694839469674328 0.3285048776212432 0 -0.19351459608921659 0.32856645986975258 0 -0.19474047589572091 0.33633812135809432 0 -0.17754892702955541 0.35854988705015728 0 -0.17910495396300019 0.34499586050092479 0 -0.19451570441779761 0.35066180065065111 0 -0.17754892702955541 0.35854988705015728 0 -0.17910495396300019 0.34499586050092479 0 -0.1592357155044945 0.35092461582447831 0 -0.17754892702955541 0.35854988705015728 0 -0.1592357155044945 0.35092461582447831 0 -0.16162615579974571 0.37153798105241648 0 -0.1835832983669973 0.37698533658113897 0 -0.17754892702955541 0.35854988705015728 0 -0.16162615579974571 0.37153798105241648 0 -0.1835832983669973 0.37698533658113897 0 -0.17754892702955541 0.35854988705015728 0 -0.19135976765832211 0.36455010805425109 0 -0.202834880514451 0.37812721876085098 0 -0.19135976765832211 0.36455010805425109 0 -0.20510984387541389 0.36135255897774621 0 -0.202834880514451 0.37812721876085098 0 -0.1835832983669973 0.37698533658113897 0 -0.19135976765832211 0.36455010805425109 0 -0.17754892702955541 0.35854988705015728 0 -0.19135976765832211 0.36455010805425109 0 -0.19451570441779761 0.35066180065065111 0 -0.17910495396300019 0.34499586050092479 0 -0.19451570441779761 0.35066180065065111 0 -0.19474047589572091 0.33633812135809432 0 -0.19135976765832211 0.36455010805425109 0 -0.19451570441779761 0.35066180065065111 0 -0.20510984387541389 0.36135255897774621 0 -0.19451570441779761 0.35066180065065111 0 -0.20510984387541389 0.36135255897774621 0 -0.21999700482400891 0.34417136509494528 0 -0.20510984387541389 0.36135255897774621 0 -0.2218268857497247 0.36949779052758491 0 -0.21999700482400891 0.34417136509494528 0 -0.202834880514451 0.37812721876085098 0 -0.20510984387541389 0.36135255897774621 0 -0.2218268857497247 0.36949779052758491 0 -0.2218268857497247 0.36949779052758491 0 -0.21999700482400891 0.34417136509494528 0 -0.24141852661702989 0.35435256988853531 0 -0.21999700482400891 0.34417136509494528 0 -0.24141852661702989 0.35435256988853531 0 -0.24266938831725421 0.3346381175457927 0 -0.24209789970856149 0.37994225619138139 0 -0.2218268857497247 0.36949779052758491 0 -0.24141852661702989 0.35435256988853531 0 -0.26469264045823959 0.36084373813071308 0 -0.24209789970856149 0.37994225619138139 0 -0.24141852661702989 0.35435256988853531 0 -0.24913355635218751 0.3161515071801887 0 -0.24266938831725421 0.3346381175457927 0 -0.2282067796952571 0.323962824738522 0 -0.25744198814776997 0.33839065998507462 0 -0.24141852661702989 0.35435256988853531 0 -0.24266938831725421 0.3346381175457927 0 -0.25744198814776997 0.33839065998507462 0 -0.24913355635218751 0.3161515071801887 0 -0.24266938831725421 0.3346381175457927 0 -0.24266938831725421 0.3346381175457927 0 -0.2282067796952571 0.323962824738522 0 -0.21999700482400891 0.34417136509494528 0 -0.2282067796952571 0.323962824738522 0 -0.21593641416661499 0.32816603558176022 0 -0.21999700482400891 0.34417136509494528 0 -0.24266938831725421 0.3346381175457927 0 -0.2282067796952571 0.323962824738522 0 -0.2282067796952571 0.323962824738522 0 -0.2137441710732596 0.31328753193125158 0 -0.21593641416661499 0.32816603558176022 0 -0.2282067796952571 0.323962824738522 0 -0.2137441710732596 0.31328753193125158 0 -0.2137441710732596 0.31328753193125158 0 -0.19351459608921659 0.32856645986975258 0 -0.2137441710732596 0.31328753193125158 0 -0.20758653240976421 0.33010590276716079 0 -0.19351459608921659 0.32856645986975258 0 -0.2137441710732596 0.31328753193125158 0 -0.21593641416661499 0.32816603558176022 0 -0.20758653240976421 0.33010590276716079 0 -0.21999700482400891 0.34417136509494528 0 -0.19474047589572091 0.33633812135809432 0 -0.21999700482400891 0.34417136509494528 0 -0.21593641416661499 0.32816603558176022 0 -0.20758653240976421 0.33010590276716079 0 -0.21999700482400891 0.34417136509494528 0 -0.20758653240976421 0.33010590276716079 0 -0.19474047589572091 0.33633812135809432 0 -0.19451570441779761 0.35066180065065111 0 -0.21999700482400891 0.34417136509494528 0 -0.19474047589572091 0.33633812135809432 0 -0.20758653240976421 0.33010590276716079 0 -0.19351459608921659 0.32856645986975258 0 -0.19474047589572091 0.33633812135809432 0 -0.2137441710732596 0.31328753193125158 0 -0.19351459608921659 0.32856645986975258 0 -0.1961800460567252 0.31331031293990091 0 -0.19351459608921659 0.32856645986975258 0 -0.1961800460567252 0.31331031293990091 0 -0.18235753289953999 0.31185869267607552 0 -0.2137441710732596 0.31328753193125158 0 -0.1961800460567252 0.31331031293990091 0 -0.19510388416488439 0.29952856728252347 0 -0.1961800460567252 0.31331031293990091 0 -0.19510388416488439 0.29952856728252347 0 -0.18235753289953999 0.31185869267607552 0 -0.19510388416488439 0.29952856728252347 0 -0.2037298781016115 0.2771704315001538 0 -0.1877653197949461 0.27674538477788851 0 -0.19510388416488439 0.29952856728252347 0 -0.21411104032931791 0.2928221915159096 0 -0.2037298781016115 0.2771704315001538 0 -0.21411104032931791 0.2928221915159096 0 -0.22269263145214799 0.27593612752095742 0 -0.2037298781016115 0.2771704315001538 0 -0.2137441710732596 0.31328753193125158 0 -0.19510388416488439 0.29952856728252347 0 -0.21411104032931791 0.2928221915159096 0 -0.2137441710732596 0.31328753193125158 0 -0.19510388416488439 0.29952856728252347 0 -0.2137441710732596 0.31328753193125158 0 -0.23569412919955349 0.29670923857960102 0 -0.2282067796952571 0.323962824738522 0 -0.2137441710732596 0.31328753193125158 0 -0.23569412919955349 0.29670923857960102 0 -0.2137441710732596 0.31328753193125158 0 -0.21411104032931791 0.2928221915159096 0 -0.23569412919955349 0.29670923857960102 0 -0.21411104032931791 0.2928221915159096 0 -0.23569412919955349 0.29670923857960102 0 -0.22269263145214799 0.27593612752095742 0 -0.23569412919955349 0.29670923857960102 0 -0.242663231965797 0.27552459943965513 0 -0.22269263145214799 0.27593612752095742 0 -0.25764408732584659 0.28013094522794912 0 -0.2553874965106574 0.29824971761982882 0 -0.23569412919955349 0.29670923857960102 0 -0.25764408732584659 0.28013094522794912 0 -0.23569412919955349 0.29670923857960102 0 -0.242663231965797 0.27552459943965513 0 -0.25764408732584659 0.28013094522794912 0 -0.23569412919955349 0.29670923857960102 0 -0.24913355635218751 0.3161515071801887 0 -0.2282067796952571 0.323962824738522 0 -0.23569412919955349 0.29670923857960102 0 -0.2553874965106574 0.29824971761982882 0 -0.24913355635218751 0.3161515071801887 0 -0.23569412919955349 0.29670923857960102 0 -0.24800314716261071 0.25472600388125571 0 -0.2334519185653488 0.25879813167668769 0 -0.23904676463467969 0.24305729105867771 0 -0.26019350040700429 0.26374362132216878 0 -0.24800314716261071 0.25472600388125571 0 -0.2334519185653488 0.25879813167668769 0 -0.26019350040700429 0.26374362132216878 0 -0.2334519185653488 0.25879813167668769 0 -0.25932040504340997 0.25330497146748832 0 -0.24800314716261071 0.25472600388125571 0 -0.23904676463467969 0.24305729105867771 0 -0.26019350040700429 0.26374362132216878 0 -0.242663231965797 0.27552459943965513 0 -0.2334519185653488 0.25879813167668769 0 -0.242663231965797 0.27552459943965513 0 -0.22269263145214799 0.27593612752095742 0 -0.2334519185653488 0.25879813167668769 0 -0.2334519185653488 0.25879813167668769 0 -0.20671033672369329 0.25385264203120672 0 -0.22445986870165541 0.24673731978024771 0 -0.2334519185653488 0.25879813167668769 0 -0.20671033672369329 0.25385264203120672 0 -0.22269263145214799 0.27593612752095742 0 -0.2334519185653488 0.25879813167668769 0 -0.20671033672369329 0.25385264203120672 0 -0.22269263145214799 0.27593612752095742 0 -0.20671033672369329 0.25385264203120672 0 -0.2037298781016115 0.2771704315001538 0 -0.2037298781016115 0.2771704315001538 0 -0.1877653197949461 0.27674538477788851 0 -0.19318637984344669 0.2636723588766039 0 -0.20671033672369329 0.25385264203120672 0 -0.19318637984344669 0.2636723588766039 0 -0.1799687548820377 0.24890715238572569 0 -0.20671033672369329 0.25385264203120672 0 -0.1799687548820377 0.24890715238572569 0 -0.20671033672369329 0.25385264203120672 0 -0.2037298781016115 0.2771704315001538 0 -0.19318637984344669 0.2636723588766039 0 -0.18140741818214581 0.26098858275493542 0 -0.16468212307862709 0.25704411620549161 0 -0.1799687548820377 0.24890715238572569 0 -0.19318637984344669 0.2636723588766039 0 -0.18140741818214581 0.26098858275493542 0 -0.1799687548820377 0.24890715238572569 0 -0.18140741818214581 0.26098858275493542 0 -0.16468212307862709 0.25704411620549161 0 -0.15782331034813321 0.27201063798506842 0 -0.15782331034813321 0.27201063798506842 0 -0.17537780465174579 0.27319743209158709 0 -0.17646359725650901 0.28576960263379581 0 -0.18140741818214581 0.26098858275493542 0 -0.15782331034813321 0.27201063798506842 0 -0.17537780465174579 0.27319743209158709 0 -0.15782331034813321 0.27201063798506842 0 -0.17646359725650901 0.28576960263379581 0 -0.18140741818214581 0.26098858275493542 0 -0.15782331034813321 0.27201063798506842 0 -0.1877653197949461 0.27674538477788851 0 -0.18140741818214581 0.26098858275493542 0 -0.17537780465174579 0.27319743209158709 0 -0.1877653197949461 0.27674538477788851 0 -0.19318637984344669 0.2636723588766039 0 -0.18140741818214581 0.26098858275493542 0 -0.1877653197949461 0.27674538477788851 0 -0.17537780465174579 0.27319743209158709 0 -0.17646359725650901 0.28576960263379581 0 -0.19510388416488439 0.29952856728252347 0 -0.1877653197949461 0.27674538477788851 0 -0.17646359725650901 0.28576960263379581 0 -0.19510388416488439 0.29952856728252347 0 -0.17646359725650901 0.28576960263379581 0 -0.17646359725650901 0.28576960263379581 0 -0.18235753289953999 0.31185869267607552 0 -0.16219467391842909 0.30930007788819031 0 -0.19510388416488439 0.29952856728252347 0 -0.17646359725650901 0.28576960263379581 0 -0.18235753289953999 0.31185869267607552 0 -0.15782331034813321 0.27201063798506842 0 -0.17646359725650901 0.28576960263379581 0 -0.15530891551132189 0.29099402520703882 0 -0.17646359725650901 0.28576960263379581 0 -0.16219467391842909 0.30930007788819031 0 -0.15530891551132189 0.29099402520703882 0 -0.15530891551132189 0.29099402520703882 0 -0.13758732344749899 0.30100833069083671 0 -0.13933588575203851 0.28065075345584362 0 -0.16219467391842909 0.30930007788819031 0 -0.15530891551132189 0.29099402520703882 0 -0.13758732344749899 0.30100833069083671 0 -0.14422741803914479 0.32067163388439213 0 -0.16219467391842909 0.30930007788819031 0 -0.13758732344749899 0.30100833069083671 0 -0.14422741803914479 0.32067163388439213 0 -0.13758732344749899 0.30100833069083671 0 -0.1189708891108567 0.31283839014754111 0 -0.13758732344749899 0.30100833069083671 0 -0.12084846115594371 0.28929086892661859 0 -0.1189708891108567 0.31283839014754111 0 -0.13758732344749899 0.30100833069083671 0 -0.13933588575203851 0.28065075345584362 0 -0.12084846115594371 0.28929086892661859 0 -0.13933588575203851 0.28065075345584362 0 -0.12084846115594371 0.28929086892661859 0 -0.13933588575203851 0.28065075345584362 0 -0.14525994315812971 0.26273723324157261 0 -0.12388250938896379 0.26980827590933559 0 -0.13933588575203851 0.28065075345584362 0 -0.12388250938896379 0.26980827590933559 0 -0.12084846115594371 0.28929086892661859 0 -0.1326965759681259 0.25346382849807703 0 -0.14525994315812971 0.26273723324157261 0 -0.12388250938896379 0.26980827590933559 0 -0.1326965759681259 0.25346382849807703 0 -0.14525994315812971 0.26273723324157261 0 -0.1326965759681259 0.25346382849807703 0 -0.14525994315812971 0.26273723324157261 0 -0.1532271730403823 0.24396166274024469 0 -0.16468212307862709 0.25704411620549161 0 -0.15782331034813321 0.27201063798506842 0 -0.14525994315812971 0.26273723324157261 0 -0.16468212307862709 0.25704411620549161 0 -0.14525994315812971 0.26273723324157261 0 -0.1532271730403823 0.24396166274024469 0 -0.15782331034813321 0.27201063798506842 0 -0.15530891551132189 0.29099402520703882 0 -0.13933588575203851 0.28065075345584362 0 -0.15782331034813321 0.27201063798506842 0 -0.13933588575203851 0.28065075345584362 0 -0.15782331034813321 0.27201063798506842 0 -0.14525994315812971 0.26273723324157261 0 -0.15782331034813321 0.27201063798506842 0 -0.13933588575203851 0.28065075345584362 0 -0.14525994315812971 0.26273723324157261 0 -0.10547654699335671 0.26433470401815579 0 -0.1003176782579691 0.28180286157830381 0 -0.089753817824167886 0.26920085846432901 0 -0.10547654699335671 0.26433470401815579 0 -0.11263129894905829 0.27630917760810347 0 -0.1003176782579691 0.28180286157830381 0 -0.098253736429257332 0.25100805589531222 0 -0.10547654699335671 0.26433470401815579 0 -0.1173929939574677 0.25626639050019762 0 -0.098253736429257332 0.25100805589531222 0 -0.10547654699335671 0.26433470401815579 0 -0.089753817824167886 0.26920085846432901 0 -0.1326965759681259 0.25346382849807703 0 -0.1173929939574677 0.25626639050019762 0 -0.1141475251329892 0.24126074696716829 0 -0.1326965759681259 0.25346382849807703 0 -0.1173929939574677 0.25626639050019762 0 -0.12388250938896379 0.26980827590933559 0 -0.10547654699335671 0.26433470401815579 0 -0.1173929939574677 0.25626639050019762 0 -0.12388250938896379 0.26980827590933559 0 -0.10547654699335671 0.26433470401815579 0 -0.12388250938896379 0.26980827590933559 0 -0.11263129894905829 0.27630917760810347 0 -0.12388250938896379 0.26980827590933559 0 -0.11263129894905829 0.27630917760810347 0 -0.12084846115594371 0.28929086892661859 0 -0.11263129894905829 0.27630917760810347 0 -0.12084846115594371 0.28929086892661859 0 -0.1003176782579691 0.28180286157830381 0 -0.12084846115594371 0.28929086892661859 0 -0.10236103655984891 0.29793098439739368 0 -0.12084846115594371 0.28929086892661859 0 -0.10236103655984891 0.29793098439739368 0 -0.1189708891108567 0.31283839014754111 0 -0.093714360182568776 0.30500514641068999 0 -0.10275997281276381 0.31813343056302867 0 -0.1189708891108567 0.31283839014754111 0 -0.10236103655984891 0.29793098439739368 0 -0.093714360182568776 0.30500514641068999 0 -0.1189708891108567 0.31283839014754111 0 -0.093714360182568776 0.30500514641068999 0 -0.1189708891108567 0.31283839014754111 0 -0.10236103655984891 0.29793098439739368 0 -0.090844518393931262 0.29283896442640811 0 -0.093714360182568776 0.30500514641068999 0 -0.10236103655984891 0.29793098439739368 0 -0.1003176782579691 0.28180286157830381 0 -0.090844518393931262 0.29283896442640811 0 -0.12084846115594371 0.28929086892661859 0 -0.10236103655984891 0.29793098439739368 0 -0.1003176782579691 0.28180286157830381 0 -0.1003176782579691 0.28180286157830381 0 -0.081519388988776378 0.28271598331123993 0 -0.090844518393931262 0.29283896442640811 0 -0.081519388988776378 0.28271598331123993 0 -0.090844518393931262 0.29283896442640811 0 -0.078759340627578417 0.30051613344773198 0 -0.093714360182568776 0.30500514641068999 0 -0.083328940376747027 0.3146303911310977 0 -0.092749226702523571 0.3155807980643982 0 -0.090844518393931262 0.29283896442640811 0 -0.093714360182568776 0.30500514641068999 0 -0.078759340627578417 0.30051613344773198 0 -0.093714360182568776 0.30500514641068999 0 -0.078759340627578417 0.30051613344773198 0 -0.083328940376747027 0.3146303911310977 0 -0.059880751147799442 0.29587354760619122 0 -0.068214987569793606 0.31748816906590538 0 -0.078759340627578417 0.30051613344773198 0 -0.068214987569793606 0.31748816906590538 0 -0.083328940376747027 0.3146303911310977 0 -0.078759340627578417 0.30051613344773198 0 -0.059880751147799442 0.29587354760619122 0 -0.068214987569793606 0.31748816906590538 0 -0.081519388988776378 0.28271598331123993 0 -0.078759340627578417 0.30051613344773198 0 -0.059880751147799442 0.29587354760619122 0 -0.081519388988776378 0.28271598331123993 0 -0.068617502557371132 0.26913547151373701 0 -0.059880751147799442 0.29587354760619122 0 -0.081519388988776378 0.28271598331123993 0 -0.068617502557371132 0.26913547151373701 0 -0.089753817824167886 0.26920085846432901 0 -0.1003176782579691 0.28180286157830381 0 -0.081519388988776378 0.28271598331123993 0 -0.089753817824167886 0.26920085846432901 0 -0.098253736429257332 0.25100805589531222 0 -0.089753817824167886 0.26920085846432901 0 -0.082044921696215634 0.25498783744416059 0 -0.068617502557371132 0.26913547151373701 0 -0.089753817824167886 0.26920085846432901 0 -0.082044921696215634 0.25498783744416059 0 -0.068617502557371132 0.26913547151373701 0 -0.082044921696215634 0.25498783744416059 0 -0.06281636713277175 0.2459314445567507 0 -0.068617502557371132 0.26913547151373701 0 -0.048892609481842042 0.25434125477316433 0 -0.06281636713277175 0.2459314445567507 0 -0.068617502557371132 0.26913547151373701 0 -0.051546514725805251 0.27425892614647712 0 -0.059880751147799442 0.29587354760619122 0 -0.068617502557371132 0.26913547151373701 0 -0.048892609481842042 0.25434125477316433 0 -0.051546514725805251 0.27425892614647712 0 -0.051546514725805251 0.27425892614647712 0 -0.032353229784936773 0.26687039309676652 0 -0.034548599822531813 0.28466568638353662 0 -0.048892609481842042 0.25434125477316433 0 -0.032353229784936773 0.26687039309676652 0 -0.032240297161415729 0.25159451474613947 0 -0.048892609481842042 0.25434125477316433 0 -0.051546514725805251 0.27425892614647712 0 -0.032353229784936773 0.26687039309676652 0 -0.032353229784936773 0.26687039309676652 0 -0.019332368889011489 0.25272829580483402 0 -0.017680579643651821 0.27024867427983179 0 -0.032353229784936773 0.26687039309676652 0 -0.032240297161415729 0.25159451474613947 0 -0.019332368889011489 0.25272829580483402 0 -0.017680579643651821 0.27024867427983179 0 -0.017432894006834079 0.28482005216521772 0 -0.034548599822531813 0.28466568638353662 0 -0.032353229784936773 0.26687039309676652 0 -0.017680579643651821 0.27024867427983179 0 -0.034548599822531813 0.28466568638353662 0 -0.017680579643651821 0.27024867427983179 0 -0.0091685957668089079 0.27871747946565589 0 -0.0050120886927738752 0.26825511850815892 0 -0.017680579643651821 0.27024867427983179 0 -0.0091685957668089079 0.27871747946565589 0 -0.017432894006834079 0.28482005216521772 0 -0.0091685957668089079 0.27871747946565589 0 -0.0050120886927738752 0.26825511850815892 0 0.002795744170032055 0.27876245576157882 0 -0.019332368889011489 0.25272829580483402 0 -0.017680579643651821 0.27024867427983179 0 -0.0053765651385902042 0.25470293159257312 0 -0.0050120886927738752 0.26825511850815892 0 -0.0053765651385902042 0.25470293159257312 0 0.01025151234772265 0.26209185674429819 0 -0.017680579643651821 0.27024867427983179 0 -0.0050120886927738752 0.26825511850815892 0 -0.0053765651385902042 0.25470293159257312 0 -0.01465591252965417 0.30339159559034579 0 -0.0044395502485222883 0.30354347077297689 0 -0.0085131606608168063 0.29150109661349222 0 -0.01465591252965417 0.30339159559034579 0 -0.0085131606608168063 0.29150109661349222 0 -0.023624490276268239 0.29619943562567491 0 -0.01465591252965417 0.30339159559034579 0 -0.0044395502485222883 0.30354347077297689 0 -0.01154645534046899 0.31664738791256519 0 -0.0044395502485222883 0.30354347077297689 0 -0.00089345811280322289 0.31281964192298528 0 -0.01154645534046899 0.31664738791256519 0 -0.0044395502485222883 0.30354347077297689 0 -0.0085131606608168063 0.29150109661349222 0 0.0029653021229256679 0.29229565189105722 0 -0.0085131606608168063 0.29150109661349222 0 0.0029653021229256679 0.29229565189105722 0 0.002795744170032055 0.27876245576157882 0 -0.0091685957668089079 0.27871747946565589 0 -0.0085131606608168063 0.29150109661349222 0 0.002795744170032055 0.27876245576157882 0 -0.0091685957668089079 0.27871747946565589 0 -0.0085131606608168063 0.29150109661349222 0 -0.017432894006834079 0.28482005216521772 0 -0.017432894006834079 0.28482005216521772 0 -0.023624490276268239 0.29619943562567491 0 -0.034548599822531813 0.28466568638353662 0 -0.0085131606608168063 0.29150109661349222 0 -0.017432894006834079 0.28482005216521772 0 -0.023624490276268239 0.29619943562567491 0 -0.023624490276268239 0.29619943562567491 0 -0.02558496509808603 0.3108309715284639 0 -0.037455358355121877 0.3041345709323956 0 -0.01465591252965417 0.30339159559034579 0 -0.023624490276268239 0.29619943562567491 0 -0.02558496509808603 0.3108309715284639 0 -0.01465591252965417 0.30339159559034579 0 -0.02558496509808603 0.3108309715284639 0 -0.01154645534046899 0.31664738791256519 0 -0.037455358355121877 0.3041345709323956 0 -0.034548599822531813 0.28466568638353662 0 -0.059880751147799442 0.29587354760619122 0 -0.023624490276268239 0.29619943562567491 0 -0.037455358355121877 0.3041345709323956 0 -0.034548599822531813 0.28466568638353662 0 -0.051546514725805251 0.27425892614647712 0 -0.059880751147799442 0.29587354760619122 0 -0.051546514725805251 0.27425892614647712 0 -0.034548599822531813 0.28466568638353662 0 -0.059880751147799442 0.29587354760619122 0 -0.059880751147799442 0.29587354760619122 0 -0.052302788572125739 0.31462080171998891 0 -0.068214987569793606 0.31748816906590538 0 -0.037455358355121877 0.3041345709323956 0 -0.059880751147799442 0.29587354760619122 0 -0.052302788572125739 0.31462080171998891 0 -0.052302788572125739 0.31462080171998891 0 -0.06083577414877786 0.33274755210280249 0 -0.068214987569793606 0.31748816906590538 0 -0.052302788572125739 0.31462080171998891 0 -0.06083577414877786 0.33274755210280249 0 -0.039552335687359663 0.32347796355080899 0 -0.06083577414877786 0.33274755210280249 0 -0.039552335687359663 0.32347796355080899 0 -0.051336655434588853 0.34678565400560202 0 -0.028106537762768929 0.33451754878585982 0 -0.02617537696222012 0.34593957465804692 0 -0.051336655434588853 0.34678565400560202 0 -0.039552335687359663 0.32347796355080899 0 -0.028106537762768929 0.33451754878585982 0 -0.051336655434588853 0.34678565400560202 0 -0.037455358355121877 0.3041345709323956 0 -0.052302788572125739 0.31462080171998891 0 -0.039552335687359663 0.32347796355080899 0 -0.02558496509808603 0.3108309715284639 0 -0.037455358355121877 0.3041345709323956 0 -0.039552335687359663 0.32347796355080899 0 -0.02558496509808603 0.3108309715284639 0 -0.039552335687359663 0.32347796355080899 0 -0.024320324648155211 0.32310949055203042 0 -0.02558496509808603 0.3108309715284639 0 -0.024320324648155211 0.32310949055203042 0 -0.01154645534046899 0.31664738791256519 0 -0.024320324648155211 0.32310949055203042 0 -0.016811329352092431 0.33007358098245437 0 -0.01154645534046899 0.31664738791256519 0 -0.039552335687359663 0.32347796355080899 0 -0.024320324648155211 0.32310949055203042 0 -0.028106537762768929 0.33451754878585982 0 -0.028106537762768929 0.33451754878585982 0 -0.01373585241729175 0.34131997108811901 0 -0.02617537696222012 0.34593957465804692 0 -0.028106537762768929 0.33451754878585982 0 -0.016811329352092431 0.33007358098245437 0 -0.01373585241729175 0.34131997108811901 0 -0.024320324648155211 0.32310949055203042 0 -0.028106537762768929 0.33451754878585982 0 -0.016811329352092431 0.33007358098245437 0 -0.016811329352092431 0.33007358098245437 0 -0.0094085220524318339 0.33557272810033179 0 -0.0058873206972846221 0.32986301875737079 0 -0.016811329352092431 0.33007358098245437 0 -0.0094085220524318339 0.33557272810033179 0 -0.01373585241729175 0.34131997108811901 0 -0.0094085220524318339 0.33557272810033179 0 -0.01373585241729175 0.34131997108811901 0 -0.0062214665674626161 0.34025088497600292 0 -0.01373585241729175 0.34131997108811901 0 -0.0062214665674626161 0.34025088497600292 0 -0.0010140984898514009 0.34509349531049133 0 -0.0094085220524318339 0.33557272810033179 0 -0.0062214665674626161 0.34025088497600292 0 -0.002362718422269084 0.33650576944850441 0 -0.0062214665674626161 0.34025088497600292 0 -0.002362718422269084 0.33650576944850441 0 -0.00187256140503479 0.34084480581969251 0 -0.0062214665674626161 0.34025088497600292 0 -0.00187256140503479 0.34084480581969251 0 -0.0010140984898514009 0.34509349531049133 0 -0.002362718422269084 0.33650576944850441 0 -0.0058873206972846221 0.32986301875737079 0 0.0042723060148418691 0.33151040961871148 0 -0.0094085220524318339 0.33557272810033179 0 -0.002362718422269084 0.33650576944850441 0 -0.0058873206972846221 0.32986301875737079 0 -0.0058873206972846221 0.32986301875737079 0 0.00039920024997303749 0.32204683334877421 0 0.0042723060148418691 0.33151040961871148 0 -0.0058873206972846221 0.32986301875737079 0 -0.01154645534046899 0.31664738791256519 0 0.00039920024997303749 0.32204683334877421 0 -0.00089345811280322289 0.31281964192298528 0 -0.01154645534046899 0.31664738791256519 0 0.00039920024997303749 0.32204683334877421 0 -0.016811329352092431 0.33007358098245437 0 -0.0058873206972846221 0.32986301875737079 0 -0.01154645534046899 0.31664738791256519 0 -0.0091216814354199566 0.36389775285524112 0 -0.0069068780647111904 0.38028717016417002 0 0.0013503109674801231 0.36998046726524803 0 -0.0091216814354199566 0.36389775285524112 0 -0.018475746234384031 0.37413850265737641 0 -0.0069068780647111904 0.38028717016417002 0 -0.0091216814354199566 0.36389775285524112 0 0.0017728915459497561 0.36055465515606772 0 0.0013503109674801231 0.36998046726524803 0 -0.0010140984898514009 0.34509349531049133 0 -0.02617537696222012 0.34593957465804692 0 -0.0091216814354199566 0.36389775285524112 0 -0.0010140984898514009 0.34509349531049133 0 0.00071743957548701129 0.35115971082290298 0 -0.0091216814354199566 0.36389775285524112 0 -0.0010140984898514009 0.34509349531049133 0 -0.023139084436257371 0.3612927159902739 0 -0.01373585241729175 0.34131997108811901 0 -0.0010140984898514009 0.34509349531049133 0 -0.02617537696222012 0.34593957465804692 0 -0.0010140984898514009 0.34509349531049133 0 -0.023139084436257371 0.3612927159902739 0 -0.0091216814354199566 0.36389775285524112 0 0.00071743957548701129 0.35115971082290298 0 0.0017728915459497561 0.36055465515606772 0 -0.02617537696222012 0.34593957465804692 0 -0.023139084436257371 0.3612927159902739 0 -0.040314008150707292 0.36036962542731449 0 -0.0010140984898514009 0.34509349531049133 0 -0.02617537696222012 0.34593957465804692 0 -0.023139084436257371 0.3612927159902739 0 -0.0091216814354199566 0.36389775285524112 0 -0.023139084436257371 0.3612927159902739 0 -0.018475746234384031 0.37413850265737641 0 -0.023139084436257371 0.3612927159902739 0 -0.018475746234384031 0.37413850265737641 0 -0.031944117403375959 0.37560833719526782 0 -0.023139084436257371 0.3612927159902739 0 -0.045264070382662877 0.37749193667005709 0 -0.031944117403375959 0.37560833719526782 0 -0.040314008150707292 0.36036962542731449 0 -0.051251801701870651 0.36677137760300582 0 -0.045264070382662877 0.37749193667005709 0 -0.023139084436257371 0.3612927159902739 0 -0.045264070382662877 0.37749193667005709 0 -0.023139084436257371 0.3612927159902739 0 -0.040314008150707292 0.36036962542731449 0 -0.045264070382662877 0.37749193667005709 0 -0.02617537696222012 0.34593957465804692 0 -0.051336655434588853 0.34678565400560202 0 -0.02617537696222012 0.34593957465804692 0 -0.040314008150707292 0.36036962542731449 0 -0.051336655434588853 0.34678565400560202 0 -0.040314008150707292 0.36036962542731449 0 -0.051336655434588853 0.34678565400560202 0 -0.051251801701870651 0.36677137760300582 0 -0.051336655434588853 0.34678565400560202 0 -0.063167743922143679 0.36590784337324661 0 -0.072289197645789616 0.35895349392102038 0 -0.051336655434588853 0.34678565400560202 0 -0.051251801701870651 0.36677137760300582 0 -0.063167743922143679 0.36590784337324661 0 -0.051251801701870651 0.36677137760300582 0 -0.061750703022648457 0.37766805882473098 0 -0.045264070382662877 0.37749193667005709 0 -0.051251801701870651 0.36677137760300582 0 -0.063167743922143679 0.36590784337324661 0 -0.061750703022648457 0.37766805882473098 0 -0.063167743922143679 0.36590784337324661 0 -0.076720439770535179 0.37411473672991419 0 -0.061750703022648457 0.37766805882473098 0 -0.063167743922143679 0.36590784337324661 0 -0.076720439770535179 0.37411473672991419 0 -0.072289197645789616 0.35895349392102038 0 -0.076720439770535179 0.37411473672991419 0 -0.084883460413781961 0.36071741198533358 0 -0.072289197645789616 0.35895349392102038 0 -0.076720439770535179 0.37411473672991419 0 -0.084883460413781961 0.36071741198533358 0 -0.096127999621829024 0.37220945872880679 0 -0.084883460413781961 0.36071741198533358 0 -0.076549223991787776 0.33910279052561948 0 -0.084883460413781961 0.36071741198533358 0 -0.091308294686239702 0.3458260215813459 0 -0.076549223991787776 0.33910279052561948 0 -0.084883460413781961 0.36071741198533358 0 -0.091308294686239702 0.3458260215813459 0 -0.1016431411940743 0.35707748927866012 0 -0.084883460413781961 0.36071741198533358 0 -0.076497933906957444 0.34763173335315711 0 -0.076549223991787776 0.33910279052561948 0 -0.051336655434588853 0.34678565400560202 0 -0.076497933906957444 0.34763173335315711 0 -0.072289197645789616 0.35895349392102038 0 -0.051336655434588853 0.34678565400560202 0 -0.076497933906957444 0.34763173335315711 0 -0.084883460413781961 0.36071741198533358 0 -0.076497933906957444 0.34763173335315711 0 -0.072289197645789616 0.35895349392102038 0 -0.076549223991787776 0.33910279052561948 0 -0.068214987569793606 0.31748816906590538 0 -0.06083577414877786 0.33274755210280249 0 -0.076497933906957444 0.34763173335315711 0 -0.076549223991787776 0.33910279052561948 0 -0.06083577414877786 0.33274755210280249 0 -0.076549223991787776 0.33910279052561948 0 -0.068214987569793606 0.31748816906590538 0 -0.06083577414877786 0.33274755210280249 0 -0.051336655434588853 0.34678565400560202 0 -0.076497933906957444 0.34763173335315711 0 -0.076549223991787776 0.33910279052561948 0 -0.068214987569793606 0.31748816906590538 0 -0.081132060219502325 0.32609496389364462 0 -0.068214987569793606 0.31748816906590538 0 -0.083328940376747027 0.3146303911310977 0 -0.081132060219502325 0.32609496389364462 0 -0.083328940376747027 0.3146303911310977 0 -0.081132060219502325 0.32609496389364462 0 -0.091193633438014746 0.32455422415277652 0 -0.083328940376747027 0.3146303911310977 0 -0.091193633438014746 0.32455422415277652 0 -0.092749226702523571 0.3155807980643982 0 -0.091308294686239702 0.3458260215813459 0 -0.076549223991787776 0.33910279052561948 0 -0.087450233271724687 0.33408343935930968 0 -0.076549223991787776 0.33910279052561948 0 -0.081132060219502325 0.32609496389364462 0 -0.087450233271724687 0.33408343935930968 0 -0.081132060219502325 0.32609496389364462 0 -0.091193633438014746 0.32455422415277652 0 -0.087450233271724687 0.33408343935930968 0 -0.091193633438014746 0.32455422415277652 0 -0.087450233271724687 0.33408343935930968 0 -0.098805191252374538 0.33201678196621831 0 -0.091308294686239702 0.3458260215813459 0 -0.087450233271724687 0.33408343935930968 0 -0.098805191252374538 0.33201678196621831 0 -0.091308294686239702 0.3458260215813459 0 -0.098805191252374538 0.33201678196621831 0 -0.1076550323871887 0.34169793332512971 0 -0.098805191252374538 0.33201678196621831 0 -0.1076550323871887 0.34169793332512971 0 -0.11246398091831571 0.32780564281571922 0 -0.093714360182568776 0.30500514641068999 0 -0.092749226702523571 0.3155807980643982 0 -0.10275997281276381 0.31813343056302867 0 -0.091193633438014746 0.32455422415277652 0 -0.092749226702523571 0.3155807980643982 0 -0.10275997281276381 0.31813343056302867 0 -0.091193633438014746 0.32455422415277652 0 -0.098805191252374538 0.33201678196621831 0 -0.10275997281276381 0.31813343056302867 0 -0.098805191252374538 0.33201678196621831 0 -0.10275997281276381 0.31813343056302867 0 -0.11246398091831571 0.32780564281571922 0 -0.10275997281276381 0.31813343056302867 0 -0.1189708891108567 0.31283839014754111 0 -0.11246398091831571 0.32780564281571922 0 -0.12738594765207731 0.33434475648681039 0 -0.1189708891108567 0.31283839014754111 0 -0.11246398091831571 0.32780564281571922 0 -0.12738594765207731 0.33434475648681039 0 -0.1076550323871887 0.34169793332512971 0 -0.12031134189322019 0.3538456545815829 0 -0.12738594765207731 0.33434475648681039 0 -0.1076550323871887 0.34169793332512971 0 -0.11246398091831571 0.32780564281571922 0 -0.1076550323871887 0.34169793332512971 0 -0.12031134189322019 0.3538456545815829 0 -0.1016431411940743 0.35707748927866012 0 -0.12031134189322019 0.3538456545815829 0 -0.11428979766020381 0.36972895159191599 0 -0.1016431411940743 0.35707748927866012 0 -0.13132429704935941 0.36938296962175171 0 -0.12031134189322019 0.3538456545815829 0 -0.11428979766020381 0.36972895159191599 0 -0.084883460413781961 0.36071741198533358 0 -0.096127999621829024 0.37220945872880679 0 -0.1016431411940743 0.35707748927866012 0 -0.11428979766020381 0.36972895159191599 0 -0.096127999621829024 0.37220945872880679 0 -0.1016431411940743 0.35707748927866012 0 -0.091308294686239702 0.3458260215813459 0 -0.1076550323871887 0.34169793332512971 0 -0.1016431411940743 0.35707748927866012 0 -0.1076192130346421 0.38400673268129237 0 -0.1095170907143625 0.40341953759793547 0 -0.091165812304756899 0.38826687900840279 0 -0.1095170907143625 0.40341953759793547 0 -0.087012323784728174 0.40889334701346958 0 -0.091165812304756899 0.38826687900840279 0 -0.11428979766020381 0.36972895159191599 0 -0.096127999621829024 0.37220945872880679 0 -0.1076192130346421 0.38400673268129237 0 -0.096127999621829024 0.37220945872880679 0 -0.1076192130346421 0.38400673268129237 0 -0.091165812304756899 0.38826687900840279 0 -0.12610309816609799 0.38771973428475642 0 -0.11428979766020381 0.36972895159191599 0 -0.1076192130346421 0.38400673268129237 0 -0.12610309816609799 0.38771973428475642 0 -0.13132429704935941 0.36938296962175171 0 -0.11428979766020381 0.36972895159191599 0 -0.12610309816609799 0.38771973428475642 0 -0.1076192130346421 0.38400673268129237 0 -0.1095170907143625 0.40341953759793547 0 -0.12965594829386429 0.40741252108087922 0 -0.12610309816609799 0.38771973428475642 0 -0.1095170907143625 0.40341953759793547 0 -0.1095170907143625 0.40341953759793547 0 -0.122768864332314 0.42638231891009221 0 -0.10175159923544461 0.42215813729614321 0 -0.12965594829386429 0.40741252108087922 0 -0.1095170907143625 0.40341953759793547 0 -0.122768864332314 0.42638231891009221 0 -0.122768864332314 0.42638231891009221 0 -0.10175159923544461 0.42215813729614321 0 -0.10547424912863811 0.44007489139476341 0 -0.10175159923544461 0.42215813729614321 0 -0.083985468217180295 0.4320205915644556 0 -0.10547424912863811 0.44007489139476341 0 -0.1095170907143625 0.40341953759793547 0 -0.10175159923544461 0.42215813729614321 0 -0.087012323784728174 0.40889334701346958 0 -0.087012323784728174 0.40889334701346958 0 -0.083985468217180295 0.4320205915644556 0 -0.069397692273290387 0.41105290858901522 0 -0.10175159923544461 0.42215813729614321 0 -0.087012323784728174 0.40889334701346958 0 -0.083985468217180295 0.4320205915644556 0 -0.083985468217180295 0.4320205915644556 0 -0.058942493498203158 0.42593799902312612 0 -0.065609800260249374 0.44681771680302051 0 -0.083985468217180295 0.4320205915644556 0 -0.069397692273290387 0.41105290858901522 0 -0.058942493498203158 0.42593799902312612 0 -0.069397692273290387 0.41105290858901522 0 -0.067389056329068345 0.39369115734984039 0 -0.053212734041553168 0.40815128669197343 0 -0.087012323784728174 0.40889334701346958 0 -0.069397692273290387 0.41105290858901522 0 -0.067389056329068345 0.39369115734984039 0 -0.087012323784728174 0.40889334701346958 0 -0.067389056329068345 0.39369115734984039 0 -0.091165812304756899 0.38826687900840279 0 -0.076720439770535179 0.37411473672991419 0 -0.067389056329068345 0.39369115734984039 0 -0.091165812304756899 0.38826687900840279 0 -0.076720439770535179 0.37411473672991419 0 -0.096127999621829024 0.37220945872880679 0 -0.091165812304756899 0.38826687900840279 0 -0.076720439770535179 0.37411473672991419 0 -0.067389056329068345 0.39369115734984039 0 -0.061750703022648457 0.37766805882473098 0 -0.067389056329068345 0.39369115734984039 0 -0.045264070382662877 0.37749193667005709 0 -0.067389056329068345 0.39369115734984039 0 -0.044261725420868071 0.39241375567259651 0 -0.045264070382662877 0.37749193667005709 0 -0.067389056329068345 0.39369115734984039 0 -0.061750703022648457 0.37766805882473098 0 -0.045264070382662877 0.37749193667005709 0 -0.067389056329068345 0.39369115734984039 0 -0.044261725420868071 0.39241375567259651 0 -0.053212734041553168 0.40815128669197343 0 -0.044261725420868071 0.39241375567259651 0 -0.036173525986483927 0.4071038429258097 0 -0.053212734041553168 0.40815128669197343 0 -0.044261725420868071 0.39241375567259651 0 -0.031572167728201747 0.39442044597204179 0 -0.036173525986483927 0.4071038429258097 0 -0.044261725420868071 0.39241375567259651 0 -0.031572167728201747 0.39442044597204179 0 -0.036026800612316383 0.3881106026681061 0 -0.044261725420868071 0.39241375567259651 0 -0.036026800612316383 0.3881106026681061 0 -0.037940904231441093 0.38123991054261203 0 -0.044261725420868071 0.39241375567259651 0 -0.045264070382662877 0.37749193667005709 0 -0.037940904231441093 0.38123991054261203 0 -0.031572167728201747 0.39442044597204179 0 -0.036026800612316383 0.3881106026681061 0 -0.03033240506875462 0.3843682984851744 0 -0.036026800612316383 0.3881106026681061 0 -0.037940904231441093 0.38123991054261203 0 -0.03033240506875462 0.3843682984851744 0 -0.031944117403375959 0.37560833719526782 0 -0.037940904231441093 0.38123991054261203 0 -0.03033240506875462 0.3843682984851744 0 -0.045264070382662877 0.37749193667005709 0 -0.031944117403375959 0.37560833719526782 0 -0.037940904231441093 0.38123991054261203 0 -0.031944117403375959 0.37560833719526782 0 -0.02681236422689753 0.38586576323083083 0 -0.031944117403375959 0.37560833719526782 0 -0.02681236422689753 0.38586576323083083 0 -0.03033240506875462 0.3843682984851744 0 -0.018475746234384031 0.37413850265737641 0 -0.031944117403375959 0.37560833719526782 0 -0.02681236422689753 0.38586576323083083 0 -0.018475746234384031 0.37413850265737641 0 -0.02681236422689753 0.38586576323083083 0 -0.0069068780647111904 0.38028717016417002 0 -0.02681236422689753 0.38586576323083083 0 -0.0074555354316463863 0.39410037470577192 0 -0.031572167728201747 0.39442044597204179 0 -0.02681236422689753 0.38586576323083083 0 -0.03033240506875462 0.3843682984851744 0 -0.02681236422689753 0.38586576323083083 0 -0.03033240506875462 0.3843682984851744 0 -0.02681236422689753 0.38586576323083083 0 -0.015477539163995311 0.40852198337829071 0 -0.02681236422689753 0.38586576323083083 0 -0.0074555354316463863 0.39410037470577192 0 -0.015477539163995311 0.40852198337829071 0 -0.031572167728201747 0.39442044597204179 0 -0.02681236422689753 0.38586576323083083 0 -0.015477539163995311 0.40852198337829071 0 -0.031572167728201747 0.39442044597204179 0 -0.015477539163995311 0.40852198337829071 0 -0.036173525986483927 0.4071038429258097 0 -0.00178812290019577 0.40542848477950227 0 -0.0074555354316463863 0.39410037470577192 0 -0.015477539163995311 0.40852198337829071 0 -0.0074555354316463863 0.39410037470577192 0 -0.0069068780647111904 0.38028717016417002 0 0.0074705024925483098 0.38588226540941539 0 -0.02681236422689753 0.38586576323083083 0 -0.0074555354316463863 0.39410037470577192 0 -0.0069068780647111904 0.38028717016417002 0 -0.0041427141010954563 0.43117820352575181 0 -0.015477539163995311 0.40852198337829071 0 -0.018091956738105049 0.43364077515642901 0 -0.0041427141010954563 0.43117820352575181 0 -0.018091956738105049 0.43364077515642901 0 -0.012827335402094769 0.44679103718312579 0 -0.0041427141010954563 0.43117820352575181 0 0.0038792896312541398 0.41675659485323269 0 -0.0041427141010954563 0.43117820352575181 0 -0.015477539163995311 0.40852198337829071 0 0.0038792896312541398 0.41675659485323269 0 -0.00178812290019577 0.40542848477950227 0 -0.015477539163995311 0.40852198337829071 0 0.0038792896312541398 0.41675659485323269 0 -0.0041427141010954563 0.43117820352575181 0 -0.015477539163995311 0.40852198337829071 0 -0.015477539163995311 0.40852198337829071 0 -0.0290434111184566 0.42465682969035218 0 -0.036173525986483927 0.4071038429258097 0 -0.015477539163995311 0.40852198337829071 0 -0.0290434111184566 0.42465682969035218 0 -0.018091956738105049 0.43364077515642901 0 -0.0290434111184566 0.42465682969035218 0 -0.018091956738105049 0.43364077515642901 0 -0.040422401334754568 0.44465013717470259 0 -0.0290434111184566 0.42465682969035218 0 -0.040422401334754568 0.44465013717470259 0 -0.0290434111184566 0.42465682969035218 0 -0.043431198208894538 0.42113088695555279 0 -0.040422401334754568 0.44465013717470259 0 -0.0290434111184566 0.42465682969035218 0 -0.043431198208894538 0.42113088695555279 0 -0.036173525986483927 0.4071038429258097 0 -0.043431198208894538 0.42113088695555279 0 -0.036173525986483927 0.4071038429258097 0 -0.053212734041553168 0.40815128669197343 0 -0.069397692273290387 0.41105290858901522 0 -0.053212734041553168 0.40815128669197343 0 -0.058942493498203158 0.42593799902312612 0 -0.043431198208894538 0.42113088695555279 0 -0.053212734041553168 0.40815128669197343 0 -0.058942493498203158 0.42593799902312612 0 -0.043431198208894538 0.42113088695555279 0 -0.058942493498203158 0.42593799902312612 0 -0.040422401334754568 0.44465013717470259 0 -0.051801391551053719 0.46464344465905227 0 -0.040422401334754568 0.44465013717470259 0 -0.065609800260249374 0.44681771680302051 0 -0.058942493498203158 0.42593799902312612 0 -0.040422401334754568 0.44465013717470259 0 -0.065609800260249374 0.44681771680302051 0 -0.051801391551053719 0.46464344465905227 0 -0.040422401334754568 0.44465013717470259 0 -0.051801391551053719 0.46464344465905227 0 -0.032134227033991901 0.45772432403811092 0 -0.023967969804406158 0.46555171644429871 0 -0.051801391551053719 0.46464344465905227 0 -0.032134227033991901 0.45772432403811092 0 -0.040422401334754568 0.44465013717470259 0 -0.051801391551053719 0.46464344465905227 0 -0.023967969804406158 0.46555171644429871 0 -0.032134227033991901 0.45772432403811092 0 -0.040422401334754568 0.44465013717470259 0 -0.02441752982362078 0.44970786379098132 0 -0.018091956738105049 0.43364077515642901 0 -0.02441752982362078 0.44970786379098132 0 -0.012827335402094769 0.44679103718312579 0 -0.018091956738105049 0.43364077515642901 0 -0.040422401334754568 0.44465013717470259 0 -0.02441752982362078 0.44970786379098132 0 -0.02441752982362078 0.44970786379098132 0 -0.021511956703093381 0.46240387084050022 0 -0.012827335402094769 0.44679103718312579 0 -0.023967969804406158 0.46555171644429871 0 -0.021511956703093381 0.46240387084050022 0 -0.0080611892009694042 0.45966402297224568 0 -0.032134227033991901 0.45772432403811092 0 -0.02441752982362078 0.44970786379098132 0 -0.021511956703093381 0.46240387084050022 0 -0.032134227033991901 0.45772432403811092 0 -0.023967969804406158 0.46555171644429871 0 -0.021511956703093381 0.46240387084050022 0 -0.021511956703093381 0.46240387084050022 0 -0.012827335402094769 0.44679103718312579 0 -0.023967969804406158 0.46555171644429871 0 0.003865451942241316 0.46645998822954698 0 -0.021511956703093381 0.46240387084050022 0 -0.0080611892009694042 0.45966402297224568 0 -0.012827335402094769 0.44679103718312579 0 -0.023967969804406158 0.46555171644429871 0 -0.0080611892009694042 0.45966402297224568 0 0.003865451942241316 0.46645998822954698 0 -0.0080611892009694042 0.45966402297224568 0 -0.0041795029588823102 0.44842714770565428 0 0.008313226868631108 0.45607532714149451 0 -0.0041427141010954563 0.43117820352575181 0 -0.0041795029588823102 0.44842714770565428 0 -0.012827335402094769 0.44679103718312579 0 -0.0041427141010954563 0.43117820352575181 0 -0.0041795029588823102 0.44842714770565428 0 0.008313226868631108 0.45607532714149451 0 -0.0041427141010954563 0.43117820352575181 0 -0.012827335402094769 0.44679103718312579 0 -0.0080611892009694042 0.45966402297224568 0 -0.0041795029588823102 0.44842714770565428 0 -0.012827335402094769 0.44679103718312579 0 -0.0104998144943511 0.50000000000000067 0 -0.003317181276056179 0.4832299941147733 0 0.0065726087299690919 0.48870131786084792 0 -0.0104998144943511 0.50000000000000067 0 -0.003317181276056179 0.4832299941147733 0 -0.021778363619560641 0.48636330904635 0 -0.0104998144943511 0.50000000000000067 0 -0.003317181276056179 0.4832299941147733 0 -0.023967969804406158 0.46555171644429871 0 -0.003317181276056179 0.4832299941147733 0 0.003865451942241316 0.46645998822954698 0 -0.023967969804406158 0.46555171644429871 0 -0.003317181276056179 0.4832299941147733 0 -0.021778363619560641 0.48636330904635 0 -0.023967969804406158 0.46555171644429871 0 -0.021778363619560641 0.48636330904635 0 -0.040132236182218839 0.48303483467267788 0 -0.021778363619560641 0.48636330904635 0 -0.030974616340770918 0.5 0 -0.040132236182218839 0.48303483467267788 0 -0.0104998144943511 0.50000000000000067 0 -0.021778363619560641 0.48636330904635 0 -0.030974616340770918 0.5 0 -0.030974616340770918 0.5 0 -0.040132236182218839 0.48303483467267788 0 -0.051449418187190732 0.5 0 -0.051801391551053719 0.46464344465905227 0 -0.023967969804406158 0.46555171644429871 0 -0.040132236182218839 0.48303483467267788 0 -0.051801391551053719 0.46464344465905227 0 -0.040132236182218839 0.48303483467267788 0 -0.06186280579233161 0.48232172232952619 0 -0.051801391551053719 0.46464344465905227 0 -0.06186280579233161 0.48232172232952619 0 -0.040132236182218839 0.48303483467267788 0 -0.06186280579233161 0.48232172232952619 0 -0.051449418187190732 0.5 0 -0.06186280579233161 0.48232172232952619 0 -0.051449418187190732 0.5 0 -0.071924220033610528 0.49999999999999961 0 -0.06186280579233161 0.48232172232952619 0 -0.071924220033610528 0.49999999999999961 0 -0.084279818269198059 0.4813411453246218 0 -0.06186280579233161 0.48232172232952619 0 -0.071924220033610528 0.49999999999999961 0 -0.071924220033610528 0.49999999999999961 0 -0.084279818269198059 0.4813411453246218 0 -0.1004302329970708 0.5 0 -0.084279818269198059 0.4813411453246218 0 -0.073943572349978573 0.46392089181353091 0 -0.096085753148903594 0.46319833896801238 0 -0.06186280579233161 0.48232172232952619 0 -0.084279818269198059 0.4813411453246218 0 -0.073943572349978573 0.46392089181353091 0 -0.051801391551053719 0.46464344465905227 0 -0.06186280579233161 0.48232172232952619 0 -0.073943572349978573 0.46392089181353091 0 -0.073943572349978573 0.46392089181353091 0 -0.065609800260249374 0.44681771680302051 0 -0.08942209154319776 0.45035572171364502 0 -0.051801391551053719 0.46464344465905227 0 -0.073943572349978573 0.46392089181353091 0 -0.051801391551053719 0.46464344465905227 0 -0.073943572349978573 0.46392089181353091 0 -0.065609800260249374 0.44681771680302051 0 -0.083985468217180295 0.4320205915644556 0 -0.08942209154319776 0.45035572171364502 0 -0.10547424912863811 0.44007489139476341 0 -0.083985468217180295 0.4320205915644556 0 -0.065609800260249374 0.44681771680302051 0 -0.08942209154319776 0.45035572171364502 0 -0.073943572349978573 0.46392089181353091 0 -0.096085753148903594 0.46319833896801238 0 -0.073943572349978573 0.46392089181353091 0 -0.08942209154319776 0.45035572171364502 0 -0.096085753148903594 0.46319833896801238 0 -0.096085753148903594 0.46319833896801238 0 -0.11014362147503449 0.45714374137217278 0 -0.1014323252932933 0.47860591883666198 0 -0.08942209154319776 0.45035572171364502 0 -0.096085753148903594 0.46319833896801238 0 -0.11014362147503449 0.45714374137217278 0 -0.08942209154319776 0.45035572171364502 0 -0.10547424912863811 0.44007489139476341 0 -0.11014362147503449 0.45714374137217278 0 -0.12774480630476689 0.4523017931909934 0 -0.10547424912863811 0.44007489139476341 0 -0.11014362147503449 0.45714374137217278 0 -0.12774480630476689 0.4523017931909934 0 -0.122768864332314 0.42638231891009221 0 -0.10547424912863811 0.44007489139476341 0 -0.12774480630476689 0.4523017931909934 0 -0.11014362147503449 0.45714374137217278 0 -0.1187070756848814 0.47608876725346161 0 -0.11014362147503449 0.45714374137217278 0 -0.1187070756848814 0.47608876725346161 0 -0.1014323252932933 0.47860591883666198 0 -0.12893624596053099 0.5 0 -0.1187070756848814 0.47608876725346161 0 -0.1004302329970708 0.5 0 -0.1187070756848814 0.47608876725346161 0 -0.1004302329970708 0.5 0 -0.1014323252932933 0.47860591883666198 0 -0.084279818269198059 0.4813411453246218 0 -0.1004302329970708 0.5 0 -0.1014323252932933 0.47860591883666198 0 -0.084279818269198059 0.4813411453246218 0 -0.096085753148903594 0.46319833896801238 0 -0.1014323252932933 0.47860591883666198 0 -0.16926994467150219 0.092851066492021975 0 -0.1652315842293014 0.076530857515110684 0 -0.1529998352080997 0.090683373928843916 0 -0.16926994467150219 0.092851066492021975 0 -0.1652315842293014 0.076530857515110684 0 -0.17634701510388781 0.081285656672220499 0 -0.15883368800041489 0.064794845496414982 0 -0.1652315842293014 0.076530857515110684 0 -0.1483587318164574 0.074736477785566025 0 -0.15883368800041489 0.064794845496414982 0 -0.1652315842293014 0.076530857515110684 0 -0.17254575209392631 0.067203705834396471 0 -0.1652315842293014 0.076530857515110684 0 -0.17254575209392631 0.067203705834396471 0 -0.17634701510388781 0.081285656672220499 0 -0.17254575209392631 0.067203705834396471 0 -0.18255941613592069 0.055554244951146192 0 -0.1898988958816239 0.074752144928743949 0 -0.17254575209392631 0.067203705834396471 0 -0.17634701510388781 0.081285656672220499 0 -0.1898988958816239 0.074752144928743949 0 -0.17634701510388781 0.081285656672220499 0 -0.1847888986430854 0.095090508590829459 0 -0.1898988958816239 0.074752144928743949 0 -0.16926994467150219 0.092851066492021975 0 -0.17634701510388781 0.081285656672220499 0 -0.1847888986430854 0.095090508590829459 0 -0.1847888986430854 0.095090508590829459 0 -0.17436711037030889 0.10651489414025871 0 -0.1860160016016755 0.1110498634336745 0 -0.16926994467150219 0.092851066492021975 0 -0.1847888986430854 0.095090508590829459 0 -0.17436711037030889 0.10651489414025871 0 -0.1860160016016755 0.1110498634336745 0 -0.17510758573200991 0.1210198934118604 0 -0.18730680634277519 0.12878533102998169 0 -0.17436711037030889 0.10651489414025871 0 -0.1860160016016755 0.1110498634336745 0 -0.17510758573200991 0.1210198934118604 0 -0.17510758573200991 0.1210198934118604 0 -0.15987436908230879 0.1106030661575835 0 -0.16374920123168099 0.1323050226169121 0 -0.15987436908230879 0.1106030661575835 0 -0.14906057485132229 0.12485653658544089 0 -0.16374920123168099 0.1323050226169121 0 -0.17436711037030889 0.10651489414025871 0 -0.17510758573200991 0.1210198934118604 0 -0.15987436908230879 0.1106030661575835 0 -0.16926994467150219 0.092851066492021975 0 -0.15987436908230879 0.1106030661575835 0 -0.1529998352080997 0.090683373928843916 0 -0.16926994467150219 0.092851066492021975 0 -0.17436711037030889 0.10651489414025871 0 -0.15987436908230879 0.1106030661575835 0 -0.15987436908230879 0.1106030661575835 0 -0.13740750691449019 0.1064230087099456 0 -0.1529998352080997 0.090683373928843916 0 -0.13740750691449019 0.1064230087099456 0 -0.13550263527620801 0.084220334745633979 0 -0.1529998352080997 0.090683373928843916 0 -0.15987436908230879 0.1106030661575835 0 -0.14906057485132229 0.12485653658544089 0 -0.13740750691449019 0.1064230087099456 0 -0.13740750691449019 0.1064230087099456 0 -0.13132737138912021 0.13280019362549789 0 -0.1138368173198773 0.1130993385288049 0 -0.14906057485132229 0.12485653658544089 0 -0.13740750691449019 0.1064230087099456 0 -0.13132737138912021 0.13280019362549789 0 -0.13740750691449019 0.1064230087099456 0 -0.13550263527620801 0.084220334745633979 0 -0.1196222026811571 0.095065592832561427 0 -0.1652315842293014 0.076530857515110684 0 -0.1529998352080997 0.090683373928843916 0 -0.1483587318164574 0.074736477785566025 0 -0.13550263527620801 0.084220334745633979 0 -0.1529998352080997 0.090683373928843916 0 -0.1483587318164574 0.074736477785566025 0 -0.1483587318164574 0.074736477785566025 0 -0.13243112273719479 0.070164547759850704 0 -0.14515352544752591 0.062024907267541951 0 -0.15883368800041489 0.064794845496414982 0 -0.1483587318164574 0.074736477785566025 0 -0.14515352544752591 0.062024907267541951 0 -0.13550263527620801 0.084220334745633979 0 -0.13243112273719479 0.070164547759850704 0 -0.115017790644576 0.07818679874631114 0 -0.13550263527620801 0.084220334745633979 0 -0.1483587318164574 0.074736477785566025 0 -0.13243112273719479 0.070164547759850704 0 -0.13243112273719479 0.070164547759850704 0 -0.12960180451780759 0.058226860103583397 0 -0.14515352544752591 0.062024907267541951 0 -0.13243112273719479 0.070164547759850704 0 -0.12960180451780759 0.058226860103583397 0 -0.1192984853094254 0.065118195564949341 0 -0.12960180451780759 0.058226860103583397 0 -0.1406120151667638 0.05140921681143671 0 -0.14515352544752591 0.062024907267541951 0 -0.12960180451780759 0.058226860103583397 0 -0.1406120151667638 0.05140921681143671 0 -0.13349432012071541 0.049889837085827712 0 -0.1406120151667638 0.05140921681143671 0 -0.13349432012071541 0.049889837085827712 0 -0.1377759855030341 0.044164353304091963 0 -0.13349432012071541 0.049889837085827712 0 -0.1269962598944821 0.048064558485738838 0 -0.1377759855030341 0.044164353304091963 0 -0.12960180451780759 0.058226860103583397 0 -0.13349432012071541 0.049889837085827712 0 -0.1269962598944821 0.048064558485738838 0 -0.1377759855030341 0.044164353304091963 0 -0.11957525328100151 0.03953531160325955 0 -0.1377759855030341 0.044164353304091963 0 -0.1321773927031008 0.025214393829852879 0 -0.11957525328100151 0.03953531160325955 0 -0.1269962598944821 0.048064558485738838 0 -0.1377759855030341 0.044164353304091963 0 -0.11957525328100151 0.03953531160325955 0 -0.1377759855030341 0.044164353304091963 0 -0.1601677008194774 0.049859299127619321 0 -0.16405455627299551 0.033051877452975727 0 -0.1377759855030341 0.044164353304091963 0 -0.16405455627299551 0.033051877452975727 0 -0.1377759855030341 0.044164353304091963 0 -0.14765075139123121 0.023120023433377181 0 -0.16405455627299551 0.033051877452975727 0 -0.1406120151667638 0.05140921681143671 0 -0.14515352544752591 0.062024907267541951 0 -0.1601677008194774 0.049859299127619321 0 -0.1406120151667638 0.05140921681143671 0 -0.1377759855030341 0.044164353304091963 0 -0.1601677008194774 0.049859299127619321 0 -0.1377759855030341 0.044164353304091963 0 -0.1601677008194774 0.049859299127619321 0 -0.15883368800041489 0.064794845496414982 0 -0.14515352544752591 0.062024907267541951 0 -0.1601677008194774 0.049859299127619321 0 -0.1377759855030341 0.044164353304091963 0 -0.1321773927031008 0.025214393829852879 0 -0.14765075139123121 0.023120023433377181 0 -0.13711919296946221 0.0059281162406943227 0 -0.1321773927031008 0.025214393829852879 0 -0.1158146975317281 0.01622541745711387 0 -0.13711919296946221 0.0059281162406943227 0 -0.1321773927031008 0.025214393829852879 0 -0.14765075139123121 0.023120023433377181 0 -0.15108448360991891 -0.012011959110182791 0 -0.13711919296946221 0.0059281162406943227 0 -0.1671266295075636 0.0072413763392705629 0 -0.13711919296946221 0.0059281162406943227 0 -0.14765075139123121 0.023120023433377181 0 -0.1671266295075636 0.0072413763392705629 0 -0.14765075139123121 0.023120023433377181 0 -0.1671266295075636 0.0072413763392705629 0 -0.16405455627299551 0.033051877452975727 0 -0.1671266295075636 0.0072413763392705629 0 -0.16405455627299551 0.033051877452975727 0 -0.19033312704295749 0.02193940160185999 0 -0.16405455627299551 0.033051877452975727 0 -0.19033312704295749 0.02193940160185999 0 -0.1671266295075636 0.0072413763392705629 0 -0.1959160645214538 0.00061070578357951683 0 -0.19033312704295749 0.02193940160185999 0 -0.15883368800041489 0.064794845496414982 0 -0.17254575209392631 0.067203705834396471 0 -0.1601677008194774 0.049859299127619321 0 -0.1601677008194774 0.049859299127619321 0 -0.18255941613592069 0.055554244951146192 0 -0.17254575209392631 0.067203705834396471 0 -0.1601677008194774 0.049859299127619321 0 -0.18255941613592069 0.055554244951146192 0 -0.1601677008194774 0.049859299127619321 0 -0.16405455627299551 0.033051877452975727 0 -0.17793666362826829 0.04012469446083565 0 -0.17793666362826829 0.04012469446083565 0 -0.19256851786999049 0.040218649170577027 0 -0.19033312704295749 0.02193940160185999 0 -0.16405455627299551 0.033051877452975727 0 -0.17793666362826829 0.04012469446083565 0 -0.19033312704295749 0.02193940160185999 0 -0.17793666362826829 0.04012469446083565 0 -0.18255941613592069 0.055554244951146192 0 -0.19256851786999049 0.040218649170577027 0 -0.1601677008194774 0.049859299127619321 0 -0.17793666362826829 0.04012469446083565 0 -0.18255941613592069 0.055554244951146192 0 -0.18255941613592069 0.055554244951146192 0 -0.2005269452757078 0.052716221064576158 0 -0.19473748575949831 0.062524726415664686 0 -0.18255941613592069 0.055554244951146192 0 -0.2005269452757078 0.052716221064576158 0 -0.19256851786999049 0.040218649170577027 0 -0.2005269452757078 0.052716221064576158 0 -0.20596468574474089 0.067076294718192431 0 -0.19473748575949831 0.062524726415664686 0 -0.2005269452757078 0.052716221064576158 0 -0.19256851786999049 0.040218649170577027 0 -0.2083860956403924 0.041177468863300211 0 -0.19256851786999049 0.040218649170577027 0 -0.2083860956403924 0.041177468863300211 0 -0.20459010784145221 0.025522787460657139 0 -0.19256851786999049 0.040218649170577027 0 -0.20459010784145221 0.025522787460657139 0 -0.2083860956403924 0.041177468863300211 0 -0.2141877636282116 0.031734073956804658 0 -0.20459010784145221 0.025522787460657139 0 -0.2083860956403924 0.041177468863300211 0 -0.2141877636282116 0.031734073956804658 0 -0.22074818228155171 0.041340315243670669 0 -0.2083860956403924 0.041177468863300211 0 -0.2153526817994256 0.053810695055514737 0 -0.22074818228155171 0.041340315243670669 0 -0.2153526817994256 0.053810695055514737 0 -0.22230275958496681 0.065954531322736307 0 -0.20596468574474089 0.067076294718192431 0 -0.2005269452757078 0.052716221064576158 0 -0.2153526817994256 0.053810695055514737 0 -0.20596468574474089 0.067076294718192431 0 -0.2005269452757078 0.052716221064576158 0 -0.2083860956403924 0.041177468863300211 0 -0.2153526817994256 0.053810695055514737 0 -0.1959160645214538 0.00061070578357951683 0 -0.19033312704295749 0.02193940160185999 0 -0.2166116978129177 0.01082692575074028 0 -0.19256851786999049 0.040218649170577027 0 -0.19033312704295749 0.02193940160185999 0 -0.20459010784145221 0.025522787460657139 0 -0.2141877636282116 0.031734073956804658 0 -0.20459010784145221 0.025522787460657139 0 -0.2166116978129177 0.01082692575074028 0 -0.19033312704295749 0.02193940160185999 0 -0.2166116978129177 0.01082692575074028 0 -0.19033312704295749 0.02193940160185999 0 -0.20459010784145221 0.025522787460657139 0 -0.2166116978129177 0.01082692575074028 0 -0.20459010784145221 0.025522787460657139 0 -0.2166116978129177 0.01082692575074028 0 -0.21305867300918269 -0.0060677175615454293 0 -0.1959160645214538 0.00061070578357951683 0 -0.2166116978129177 0.01082692575074028 0 -0.2166116978129177 0.01082692575074028 0 -0.23734185760087881 0.0020607184082661809 0 -0.23032236358522429 -0.0059337563736012074 0 -0.2166116978129177 0.01082692575074028 0 -0.23032236358522429 -0.0059337563736012074 0 -0.2166116978129177 0.01082692575074028 0 -0.23734185760087881 0.0020607184082661809 0 -0.2166116978129177 0.01082692575074028 0 -0.2384420332501431 0.021895955908175151 0 -0.23734185760087881 0.0020607184082661809 0 -0.2141877636282116 0.031734073956804658 0 -0.2166116978129177 0.01082692575074028 0 -0.225541452949414 0.030396607943795399 0 -0.225541452949414 0.030396607943795399 0 -0.2384420332501431 0.021895955908175151 0 -0.23350204661217611 0.03855174711724374 0 -0.2166116978129177 0.01082692575074028 0 -0.225541452949414 0.030396607943795399 0 -0.2384420332501431 0.021895955908175151 0 -0.25252246992332861 0.01477872657801072 0 -0.2384420332501431 0.021895955908175151 0 -0.24754032088799149 0.034382237147408332 0 -0.25807201738883828 -0.0067054889342117539 0 -0.25252246992332861 0.01477872657801072 0 -0.23734185760087881 0.0020607184082661809 0 -0.25252246992332861 0.01477872657801072 0 -0.2384420332501431 0.021895955908175151 0 -0.23734185760087881 0.0020607184082661809 0 -0.2275190530596905 0.052371298525365283 0 -0.23978768438049611 0.049308292792602737 0 -0.23485876442610709 0.061832292277429798 0 -0.2275190530596905 0.052371298525365283 0 -0.23485876442610709 0.061832292277429798 0 -0.22230275958496681 0.065954531322736307 0 -0.2153526817994256 0.053810695055514737 0 -0.2275190530596905 0.052371298525365283 0 -0.22230275958496681 0.065954531322736307 0 -0.2153526817994256 0.053810695055514737 0 -0.2275190530596905 0.052371298525365283 0 -0.22074818228155171 0.041340315243670669 0 -0.2141877636282116 0.031734073956804658 0 -0.225541452949414 0.030396607943795399 0 -0.22074818228155171 0.041340315243670669 0 -0.225541452949414 0.030396607943795399 0 -0.22074818228155171 0.041340315243670669 0 -0.23350204661217611 0.03855174711724374 0 -0.2275190530596905 0.052371298525365283 0 -0.22074818228155171 0.041340315243670669 0 -0.23350204661217611 0.03855174711724374 0 -0.2275190530596905 0.052371298525365283 0 -0.23350204661217611 0.03855174711724374 0 -0.23978768438049611 0.049308292792602737 0 -0.23350204661217611 0.03855174711724374 0 -0.24754032088799149 0.034382237147408332 0 -0.23978768438049611 0.049308292792602737 0 -0.2384420332501431 0.021895955908175151 0 -0.23350204661217611 0.03855174711724374 0 -0.24754032088799149 0.034382237147408332 0 -0.25004781488001232 0.048419795599103921 0 -0.24754032088799149 0.034382237147408332 0 -0.23978768438049611 0.049308292792602737 0 -0.25004781488001232 0.048419795599103921 0 -0.23978768438049611 0.049308292792602737 0 -0.2463041657088135 0.058432307632052191 0 -0.23978768438049611 0.049308292792602737 0 -0.23485876442610709 0.061832292277429798 0 -0.2463041657088135 0.058432307632052191 0 -0.25570420656845338 0.064032290482212498 0 -0.2463041657088135 0.058432307632052191 0 -0.24506267074280011 0.070098293709981621 0 -0.25003595785532501 0.080029089309594181 0 -0.24506267074280011 0.070098293709981621 0 -0.24053995410494211 0.080787062759819367 0 -0.24506267074280011 0.070098293709981621 0 -0.24053995410494211 0.080787062759819367 0 -0.2333911883844105 0.073226227292081641 0 -0.23485876442610709 0.061832292277429798 0 -0.24506267074280011 0.070098293709981621 0 -0.2333911883844105 0.073226227292081641 0 -0.23485876442610709 0.061832292277429798 0 -0.2463041657088135 0.058432307632052191 0 -0.24506267074280011 0.070098293709981621 0 -0.2487222034394978 0.090027478766437644 0 -0.23882868921646311 0.090118035538545582 0 -0.24166351057204929 0.097078541984106606 0 -0.2487222034394978 0.090027478766437644 0 -0.24053995410494211 0.080787062759819367 0 -0.23882868921646311 0.090118035538545582 0 -0.25003595785532501 0.080029089309594181 0 -0.2487222034394978 0.090027478766437644 0 -0.24053995410494211 0.080787062759819367 0 -0.24053995410494211 0.080787062759819367 0 -0.23882868921646311 0.090118035538545582 0 -0.23161535051313639 0.084021194226714169 0 -0.24053995410494211 0.080787062759819367 0 -0.23161535051313639 0.084021194226714169 0 -0.2333911883844105 0.073226227292081641 0 -0.23882868921646311 0.090118035538545582 0 -0.23161535051313639 0.084021194226714169 0 -0.23108892323304009 0.09690228125705358 0 -0.23161535051313639 0.084021194226714169 0 -0.22129684418991549 0.08611246325968426 0 -0.23108892323304009 0.09690228125705358 0 -0.22129684418991549 0.08611246325968426 0 -0.22463531495380951 0.076999300999047476 0 -0.2158322588380702 0.075940756132434034 0 -0.23161535051313639 0.084021194226714169 0 -0.22129684418991549 0.08611246325968426 0 -0.22463531495380951 0.076999300999047476 0 -0.22129684418991549 0.08611246325968426 0 -0.2158291354888402 0.095619801176833982 0 -0.23108892323304009 0.09690228125705358 0 -0.23485876442610709 0.061832292277429798 0 -0.2333911883844105 0.073226227292081641 0 -0.22230275958496681 0.065954531322736307 0 -0.2333911883844105 0.073226227292081641 0 -0.22463531495380951 0.076999300999047476 0 -0.22230275958496681 0.065954531322736307 0 -0.23161535051313639 0.084021194226714169 0 -0.2333911883844105 0.073226227292081641 0 -0.22463531495380951 0.076999300999047476 0 -0.22463531495380951 0.076999300999047476 0 -0.22230275958496681 0.065954531322736307 0 -0.2158322588380702 0.075940756132434034 0 -0.22230275958496681 0.065954531322736307 0 -0.20596468574474089 0.067076294718192431 0 -0.2158322588380702 0.075940756132434034 0 -0.20596468574474089 0.067076294718192431 0 -0.2158322588380702 0.075940756132434034 0 -0.20679111450205459 0.082860832482534244 0 -0.20679111450205459 0.082860832482534244 0 -0.19883499250401299 0.093939016873514442 0 -0.2158291354888402 0.095619801176833982 0 -0.22129684418991549 0.08611246325968426 0 -0.2158322588380702 0.075940756132434034 0 -0.20679111450205459 0.082860832482534244 0 -0.22129684418991549 0.08611246325968426 0 -0.20679111450205459 0.082860832482534244 0 -0.2158291354888402 0.095619801176833982 0 -0.1847888986430854 0.095090508590829459 0 -0.1898988958816239 0.074752144928743949 0 -0.19883499250401299 0.093939016873514442 0 -0.20679111450205459 0.082860832482534244 0 -0.1898988958816239 0.074752144928743949 0 -0.19883499250401299 0.093939016873514442 0 -0.20596468574474089 0.067076294718192431 0 -0.1898988958816239 0.074752144928743949 0 -0.19473748575949831 0.062524726415664686 0 -0.18255941613592069 0.055554244951146192 0 -0.1898988958816239 0.074752144928743949 0 -0.19473748575949831 0.062524726415664686 0 -0.20596468574474089 0.067076294718192431 0 -0.20679111450205459 0.082860832482534244 0 -0.1898988958816239 0.074752144928743949 0 -0.1860160016016755 0.1110498634336745 0 -0.20193240956929179 0.1210657710179452 0 -0.18730680634277519 0.12878533102998169 0 -0.1860160016016755 0.1110498634336745 0 -0.20193240956929179 0.1210657710179452 0 -0.19776284561060381 0.1085017952921269 0 -0.1847888986430854 0.095090508590829459 0 -0.1860160016016755 0.1110498634336745 0 -0.19776284561060381 0.1085017952921269 0 -0.1847888986430854 0.095090508590829459 0 -0.19883499250401299 0.093939016873514442 0 -0.19776284561060381 0.1085017952921269 0 -0.19883499250401299 0.093939016873514442 0 -0.19776284561060381 0.1085017952921269 0 -0.20642590507555361 0.1025758239334033 0 -0.19883499250401299 0.093939016873514442 0 -0.20642590507555361 0.1025758239334033 0 -0.2158291354888402 0.095619801176833982 0 -0.19776284561060381 0.1085017952921269 0 -0.20642590507555361 0.1025758239334033 0 -0.21386734285832071 0.1106637613545778 0 -0.20642590507555361 0.1025758239334033 0 -0.2158291354888402 0.095619801176833982 0 -0.21386734285832071 0.1106637613545778 0 -0.2158291354888402 0.095619801176833982 0 -0.21386734285832071 0.1106637613545778 0 -0.22377554355062471 0.1050472074149022 0 -0.20193240956929179 0.1210657710179452 0 -0.19776284561060381 0.1085017952921269 0 -0.21386734285832071 0.1106637613545778 0 -0.20193240956929179 0.1210657710179452 0 -0.21386734285832071 0.1106637613545778 0 -0.217358548259904 0.12212991449697549 0 -0.217358548259904 0.12212991449697549 0 -0.22510834365528989 0.1138147478732958 0 -0.2289141282605747 0.1227530231582307 0 -0.21386734285832071 0.1106637613545778 0 -0.22510834365528989 0.1138147478732958 0 -0.22377554355062471 0.1050472074149022 0 -0.21386734285832071 0.1106637613545778 0 -0.217358548259904 0.12212991449697549 0 -0.22510834365528989 0.1138147478732958 0 -0.22510834365528989 0.1138147478732958 0 -0.23158137538475171 0.10714913587554439 0 -0.23515312361756369 0.1151454449395445 0 -0.22510834365528989 0.1138147478732958 0 -0.2289141282605747 0.1227530231582307 0 -0.23515312361756369 0.1151454449395445 0 -0.2289141282605747 0.1227530231582307 0 -0.2374476910485292 0.123013132539656 0 -0.23515312361756369 0.1151454449395445 0 -0.2158291354888402 0.095619801176833982 0 -0.22377554355062471 0.1050472074149022 0 -0.23108892323304009 0.09690228125705358 0 -0.23158137538475171 0.10714913587554439 0 -0.23108892323304009 0.09690228125705358 0 -0.23987323385304771 0.1051361040305591 0 -0.22377554355062471 0.1050472074149022 0 -0.23158137538475171 0.10714913587554439 0 -0.23108892323304009 0.09690228125705358 0 -0.22510834365528989 0.1138147478732958 0 -0.22377554355062471 0.1050472074149022 0 -0.23158137538475171 0.10714913587554439 0 -0.23108892323304009 0.09690228125705358 0 -0.24166351057204929 0.097078541984106606 0 -0.23987323385304771 0.1051361040305591 0 -0.23882868921646311 0.090118035538545582 0 -0.23108892323304009 0.09690228125705358 0 -0.24166351057204929 0.097078541984106606 0 -0.23158137538475171 0.10714913587554439 0 -0.23987323385304771 0.1051361040305591 0 -0.23515312361756369 0.1151454449395445 0 -0.23987323385304771 0.1051361040305591 0 -0.24885199633285651 0.1008730264747618 0 -0.2457753085582616 0.1114510831065504 0 -0.24166351057204929 0.097078541984106606 0 -0.23987323385304771 0.1051361040305591 0 -0.24885199633285651 0.1008730264747618 0 -0.2487222034394978 0.090027478766437644 0 -0.24166351057204929 0.097078541984106606 0 -0.24885199633285651 0.1008730264747618 0 -0.2374476910485292 0.123013132539656 0 -0.24491160910211721 0.12002479508357571 0 -0.24413287464122441 0.12861436213632099 0 -0.2374476910485292 0.123013132539656 0 -0.23515312361756369 0.1151454449395445 0 -0.24491160910211721 0.12002479508357571 0 -0.23515312361756369 0.1151454449395445 0 -0.2457753085582616 0.1114510831065504 0 -0.24491160910211721 0.12002479508357571 0 -0.23987323385304771 0.1051361040305591 0 -0.23515312361756369 0.1151454449395445 0 -0.2457753085582616 0.1114510831065504 0 -0.25300731857922298 0.11629697879776769 0 -0.2457753085582616 0.1114510831065504 0 -0.24491160910211721 0.12002479508357571 0 -0.25128034306688202 0.1242423928712058 0 -0.25300731857922298 0.11629697879776769 0 -0.24491160910211721 0.12002479508357571 0 -0.25128034306688202 0.1242423928712058 0 -0.24491160910211721 0.12002479508357571 0 -0.24413287464122441 0.12861436213632099 0 -0.25311632561299002 0.1349665128324545 0 -0.25128034306688202 0.1242423928712058 0 -0.24413287464122441 0.12861436213632099 0 -0.25311632561299002 0.1349665128324545 0 -0.24413287464122441 0.12861436213632099 0 -0.24130717481208469 0.13723179419065379 0 -0.25311632561299002 0.1349665128324545 0 -0.24130717481208469 0.13723179419065379 0 -0.23956530289867101 0.14906316290553431 0 -0.24130717481208469 0.13723179419065379 0 -0.23519775761988351 0.13130308629696519 0 -0.23223929034515059 0.1403731500779804 0 -0.2374476910485292 0.123013132539656 0 -0.24413287464122441 0.12861436213632099 0 -0.23519775761988351 0.13130308629696519 0 -0.24413287464122441 0.12861436213632099 0 -0.24130717481208469 0.13723179419065379 0 -0.23519775761988351 0.13130308629696519 0 -0.2289141282605747 0.1227530231582307 0 -0.23519775761988351 0.13130308629696519 0 -0.22399384094189659 0.1320120420180643 0 -0.2289141282605747 0.1227530231582307 0 -0.2374476910485292 0.123013132539656 0 -0.23519775761988351 0.13130308629696519 0 -0.23519775761988351 0.13130308629696519 0 -0.23223929034515059 0.1403731500779804 0 -0.22399384094189659 0.1320120420180643 0 -0.23223929034515059 0.1403731500779804 0 -0.22399384094189659 0.1320120420180643 0 -0.22253728340452111 0.1429769776421313 0 -0.22399384094189659 0.1320120420180643 0 -0.22253728340452111 0.1429769776421313 0 -0.2117248776934901 0.13392607872139739 0 -0.217358548259904 0.12212991449697549 0 -0.2289141282605747 0.1227530231582307 0 -0.22399384094189659 0.1320120420180643 0 -0.2305711245479771 0.15029916922995559 0 -0.2428796893208188 0.15423057091888731 0 -0.22532970633840679 0.1621686782972902 0 -0.2193648240086101 0.15364985593442629 0 -0.2305711245479771 0.15029916922995559 0 -0.22532970633840679 0.1621686782972902 0 -0.2193648240086101 0.15364985593442629 0 -0.22253728340452111 0.1429769776421313 0 -0.2305711245479771 0.15029916922995559 0 -0.23223929034515059 0.1403731500779804 0 -0.2305711245479771 0.15029916922995559 0 -0.23956530289867101 0.14906316290553431 0 -0.23223929034515059 0.1403731500779804 0 -0.22253728340452111 0.1429769776421313 0 -0.2305711245479771 0.15029916922995559 0 -0.2305711245479771 0.15029916922995559 0 -0.23956530289867101 0.14906316290553431 0 -0.2428796893208188 0.15423057091888731 0 -0.25311632561299002 0.1349665128324545 0 -0.2428796893208188 0.15423057091888731 0 -0.25311632561299002 0.1349665128324545 0 -0.23956530289867101 0.14906316290553431 0 -0.2428796893208188 0.15423057091888731 0 -0.24130717481208469 0.13723179419065379 0 -0.23223929034515059 0.1403731500779804 0 -0.23956530289867101 0.14906316290553431 0 -0.25311632561299002 0.1349665128324545 0 -0.23956530289867101 0.14906316290553431 0 -0.25283233744788458 0.1601161742247936 0 -0.2428796893208188 0.15423057091888731 0 -0.23264305302864741 0.17349462900532001 0 -0.25537995456211787 0.1716825948329013 0 -0.25283233744788458 0.1601161742247936 0 -0.23264305302864741 0.17349462900532001 0 -0.2428796893208188 0.15423057091888731 0 -0.23264305302864741 0.17349462900532001 0 -0.25206530896027463 0.19235554102112939 0 -0.25537995456211787 0.1716825948329013 0 -0.23264305302864741 0.17349462900532001 0 -0.25206530896027463 0.19235554102112939 0 -0.23264305302864741 0.17349462900532001 0 -0.22240641673647579 0.19275868709175259 0 -0.23264305302864741 0.17349462900532001 0 -0.22240641673647579 0.19275868709175259 0 -0.23264305302864741 0.17349462900532001 0 -0.21751464936070891 0.17780744626662681 0 -0.22240641673647579 0.19275868709175259 0 -0.23264305302864741 0.17349462900532001 0 -0.22532970633840679 0.1621686782972902 0 -0.21751464936070891 0.17780744626662681 0 -0.2428796893208188 0.15423057091888731 0 -0.23264305302864741 0.17349462900532001 0 -0.22532970633840679 0.1621686782972902 0 -0.2193648240086101 0.15364985593442629 0 -0.22532970633840679 0.1621686782972902 0 -0.2088607732590419 0.16456530901550159 0 -0.22532970633840679 0.1621686782972902 0 -0.2088607732590419 0.16456530901550159 0 -0.21751464936070891 0.17780744626662681 0 -0.2058792180906763 0.17960917564319681 0 -0.21303107132404861 0.1928861238697426 0 -0.19735385620641541 0.18845937924460851 0 -0.21751464936070891 0.17780744626662681 0 -0.2058792180906763 0.17960917564319681 0 -0.21303107132404861 0.1928861238697426 0 -0.2088607732590419 0.16456530901550159 0 -0.21751464936070891 0.17780744626662681 0 -0.2058792180906763 0.17960917564319681 0 -0.2088607732590419 0.16456530901550159 0 -0.2058792180906763 0.17960917564319681 0 -0.1926357403031668 0.17432761981950451 0 -0.1926357403031668 0.17432761981950451 0 -0.19735385620641541 0.18845937924460851 0 -0.18296532817023381 0.19315308701215339 0 -0.2058792180906763 0.17960917564319681 0 -0.1926357403031668 0.17432761981950451 0 -0.19735385620641541 0.18845937924460851 0 -0.2088607732590419 0.16456530901550159 0 -0.1926357403031668 0.17432761981950451 0 -0.18879401332360271 0.1534406628603765 0 -0.2088607732590419 0.16456530901550159 0 -0.18879401332360271 0.1534406628603765 0 -0.2095252324931037 0.148239145487253 0 -0.18879401332360271 0.1534406628603765 0 -0.1971551313834127 0.13890194726954741 0 -0.2095252324931037 0.148239145487253 0 -0.18879401332360271 0.1534406628603765 0 -0.1971551313834127 0.13890194726954741 0 -0.17851843814837171 0.1393652887254829 0 -0.1971551313834127 0.13890194726954741 0 -0.18730680634277519 0.12878533102998169 0 -0.17851843814837171 0.1393652887254829 0 -0.20193240956929179 0.1210657710179452 0 -0.1971551313834127 0.13890194726954741 0 -0.18730680634277519 0.12878533102998169 0 -0.1971551313834127 0.13890194726954741 0 -0.2117248776934901 0.13392607872139739 0 -0.2095252324931037 0.148239145487253 0 -0.20193240956929179 0.1210657710179452 0 -0.1971551313834127 0.13890194726954741 0 -0.2117248776934901 0.13392607872139739 0 -0.20193240956929179 0.1210657710179452 0 -0.217358548259904 0.12212991449697549 0 -0.2117248776934901 0.13392607872139739 0 -0.217358548259904 0.12212991449697549 0 -0.22399384094189659 0.1320120420180643 0 -0.2117248776934901 0.13392607872139739 0 -0.2193648240086101 0.15364985593442629 0 -0.2088607732590419 0.16456530901550159 0 -0.2095252324931037 0.148239145487253 0 -0.2193648240086101 0.15364985593442629 0 -0.22253728340452111 0.1429769776421313 0 -0.2095252324931037 0.148239145487253 0 -0.22253728340452111 0.1429769776421313 0 -0.2117248776934901 0.13392607872139739 0 -0.2095252324931037 0.148239145487253 0 -0.22445986870165541 0.24673731978024771 0 -0.23904676463467969 0.24305729105867771 0 -0.21877312422594949 0.23280961064986699 0 -0.2334519185653488 0.25879813167668769 0 -0.22445986870165541 0.24673731978024771 0 -0.23904676463467969 0.24305729105867771 0 -0.23904676463467969 0.24305729105867771 0 -0.21877312422594949 0.23280961064986699 0 -0.25932040504340997 0.25330497146748832 0 -0.23904676463467969 0.24305729105867771 0 -0.25176944386397782 0.2405068625967319 0 -0.23904676463467969 0.24305729105867771 0 -0.2381323667578818 0.22417883657737869 0 -0.25649435069066051 0.22972084610719559 0 -0.25176944386397782 0.2405068625967319 0 -0.2381323667578818 0.22417883657737869 0 -0.2381323667578818 0.22417883657737869 0 -0.21877312422594949 0.23280961064986699 0 -0.21727567120828969 0.21981148948604731 0 -0.23904676463467969 0.24305729105867771 0 -0.2381323667578818 0.22417883657737869 0 -0.21877312422594949 0.23280961064986699 0 -0.2381323667578818 0.22417883657737869 0 -0.2256850957830969 0.210495636386521 0 -0.23569498219410559 0.20468942010441099 0 -0.2381323667578818 0.22417883657737869 0 -0.2256850957830969 0.210495636386521 0 -0.21727567120828969 0.21981148948604731 0 -0.2256850957830969 0.210495636386521 0 -0.21760525766652969 0.20562655560336041 0 -0.21727567120828969 0.21981148948604731 0 -0.2256850957830969 0.210495636386521 0 -0.22012984795337839 0.19704290233820901 0 -0.21760525766652969 0.20562655560336041 0 -0.2256850957830969 0.210495636386521 0 -0.23569498219410559 0.20468942010441099 0 -0.22012984795337839 0.19704290233820901 0 -0.25206530896027463 0.19235554102112939 0 -0.25692260654480559 0.21406176937318019 0 -0.23569498219410559 0.20468942010441099 0 -0.25692260654480559 0.21406176937318019 0 -0.2381323667578818 0.22417883657737869 0 -0.23569498219410559 0.20468942010441099 0 -0.25206530896027463 0.19235554102112939 0 -0.23569498219410559 0.20468942010441099 0 -0.22240641673647579 0.19275868709175259 0 -0.25206530896027463 0.19235554102112939 0 -0.22240641673647579 0.19275868709175259 0 -0.23569498219410559 0.20468942010441099 0 -0.22012984795337839 0.19704290233820901 0 -0.22240641673647579 0.19275868709175259 0 -0.22012984795337839 0.19704290233820901 0 -0.2188117807910433 0.1949979863119192 0 -0.21760525766652969 0.20562655560336041 0 -0.22012984795337839 0.19704290233820901 0 -0.2188117807910433 0.1949979863119192 0 -0.22240641673647579 0.19275868709175259 0 -0.22012984795337839 0.19704290233820901 0 -0.22240641673647579 0.19275868709175259 0 -0.2188117807910433 0.1949979863119192 0 -0.19441004151838351 0.20444629563142369 0 -0.20926987483628659 0.20964778286190519 0 -0.2188117807910433 0.1949979863119192 0 -0.19441004151838351 0.20444629563142369 0 -0.2188117807910433 0.1949979863119192 0 -0.21303107132404861 0.1928861238697426 0 -0.19441004151838351 0.20444629563142369 0 -0.2188117807910433 0.1949979863119192 0 -0.22240641673647579 0.19275868709175259 0 -0.21303107132404861 0.1928861238697426 0 -0.21751464936070891 0.17780744626662681 0 -0.22240641673647579 0.19275868709175259 0 -0.21303107132404861 0.1928861238697426 0 -0.22240641673647579 0.19275868709175259 0 -0.21303107132404861 0.1928861238697426 0 -0.19735385620641541 0.18845937924460851 0 -0.19441004151838351 0.20444629563142369 0 -0.18296532817023381 0.19315308701215339 0 -0.21303107132404861 0.1928861238697426 0 -0.19735385620641541 0.18845937924460851 0 -0.19441004151838351 0.20444629563142369 0 -0.19441004151838351 0.20444629563142369 0 -0.20926987483628659 0.20964778286190519 0 -0.19849948381721921 0.2225619302410563 0 -0.20926987483628659 0.20964778286190519 0 -0.21727567120828969 0.21981148948604731 0 -0.19849948381721921 0.2225619302410563 0 -0.2188117807910433 0.1949979863119192 0 -0.20926987483628659 0.20964778286190519 0 -0.21760525766652969 0.20562655560336041 0 -0.20926987483628659 0.20964778286190519 0 -0.21760525766652969 0.20562655560336041 0 -0.21727567120828969 0.21981148948604731 0 -0.21877312422594949 0.23280961064986699 0 -0.19849948381721921 0.2225619302410563 0 -0.21877312422594949 0.23280961064986699 0 -0.19849948381721921 0.2225619302410563 0 -0.1959081232975621 0.23904623507194669 0 -0.21877312422594949 0.23280961064986699 0 -0.21727567120828969 0.21981148948604731 0 -0.19849948381721921 0.2225619302410563 0 -0.19849948381721921 0.2225619302410563 0 -0.1959081232975621 0.23904623507194669 0 -0.1816832363740318 0.22932955250677531 0 -0.19441004151838351 0.20444629563142369 0 -0.19849948381721921 0.2225619302410563 0 -0.1816832363740318 0.22932955250677531 0 -0.20671033672369329 0.25385264203120672 0 -0.1959081232975621 0.23904623507194669 0 -0.1799687548820377 0.24890715238572569 0 -0.20671033672369329 0.25385264203120672 0 -0.21877312422594949 0.23280961064986699 0 -0.1959081232975621 0.23904623507194669 0 -0.20671033672369329 0.25385264203120672 0 -0.22445986870165541 0.24673731978024771 0 -0.21877312422594949 0.23280961064986699 0 -0.16809876103440341 0.23741759958558559 0 -0.1799687548820377 0.24890715238572569 0 -0.1532271730403823 0.24396166274024469 0 -0.16468212307862709 0.25704411620549161 0 -0.1799687548820377 0.24890715238572569 0 -0.1532271730403823 0.24396166274024469 0 -0.1799687548820377 0.24890715238572569 0 -0.1532271730403823 0.24396166274024469 0 -0.16809876103440341 0.23741759958558559 0 -0.1575524204655312 0.23054929419713149 0 -0.1532271730403823 0.24396166274024469 0 -0.1959081232975621 0.23904623507194669 0 -0.1799687548820377 0.24890715238572569 0 -0.1816832363740318 0.22932955250677531 0 -0.16809876103440341 0.23741759958558559 0 -0.1799687548820377 0.24890715238572569 0 -0.1816832363740318 0.22932955250677531 0 -0.16809876103440341 0.23741759958558559 0 -0.1816832363740318 0.22932955250677531 0 -0.17000830224572369 0.21389460495092821 0 -0.1575524204655312 0.23054929419713149 0 -0.17000830224572369 0.21389460495092821 0 -0.14560656297306379 0.22334291427043271 0 -0.16809876103440341 0.23741759958558559 0 -0.1575524204655312 0.23054929419713149 0 -0.17000830224572369 0.21389460495092821 0 -0.17000830224572369 0.21389460495092821 0 -0.14560656297306379 0.22334291427043271 0 -0.17000830224572369 0.21389460495092821 0 -0.15898631240804451 0.2021391798921417 0 -0.14560656297306379 0.22334291427043271 0 -0.19441004151838351 0.20444629563142369 0 -0.17000830224572369 0.21389460495092821 0 -0.18296532817023381 0.19315308701215339 0 -0.19441004151838351 0.20444629563142369 0 -0.17000830224572369 0.21389460495092821 0 -0.19441004151838351 0.20444629563142369 0 -0.1816832363740318 0.22932955250677531 0 -0.17000830224572369 0.21389460495092821 0 -0.17000830224572369 0.21389460495092821 0 -0.18296532817023381 0.19315308701215339 0 -0.16836907364974041 0.18903810857045311 0 -0.17000830224572369 0.21389460495092821 0 -0.16836907364974041 0.18903810857045311 0 -0.15898631240804451 0.2021391798921417 0 -0.16836907364974041 0.18903810857045311 0 -0.15898631240804451 0.2021391798921417 0 -0.14126559817161391 0.17933756327475969 0 -0.15898631240804451 0.2021391798921417 0 -0.143862236647011 0.20770124881199201 0 -0.14126559817161391 0.17933756327475969 0 -0.143862236647011 0.20770124881199201 0 -0.14126559817161391 0.17933756327475969 0 -0.1226579984415305 0.19556365897103831 0 -0.143862236647011 0.20770124881199201 0 -0.1168469468089313 0.22044464739357819 0 -0.143862236647011 0.20770124881199201 0 -0.14560656297306379 0.22334291427043271 0 -0.1168469468089313 0.22044464739357819 0 -0.143862236647011 0.20770124881199201 0 -0.1168469468089313 0.22044464739357819 0 -0.1226579984415305 0.19556365897103831 0 -0.15898631240804451 0.2021391798921417 0 -0.143862236647011 0.20770124881199201 0 -0.14560656297306379 0.22334291427043271 0 -0.14560656297306379 0.22334291427043271 0 -0.12996000236676469 0.2344638159322309 0 -0.1532271730403823 0.24396166274024469 0 -0.1575524204655312 0.23054929419713149 0 -0.14560656297306379 0.22334291427043271 0 -0.1532271730403823 0.24396166274024469 0 -0.14560656297306379 0.22334291427043271 0 -0.12996000236676469 0.2344638159322309 0 -0.1168469468089313 0.22044464739357819 0 -0.1326965759681259 0.25346382849807703 0 -0.12996000236676469 0.2344638159322309 0 -0.1141475251329892 0.24126074696716829 0 -0.1326965759681259 0.25346382849807703 0 -0.12996000236676469 0.2344638159322309 0 -0.1532271730403823 0.24396166274024469 0 -0.16446731148338581 0.1523468447263715 0 -0.16374920123168099 0.1323050226169121 0 -0.17851843814837171 0.1393652887254829 0 -0.16446731148338581 0.1523468447263715 0 -0.16374920123168099 0.1323050226169121 0 -0.1505975785353291 0.14027937394087869 0 -0.17510758573200991 0.1210198934118604 0 -0.18730680634277519 0.12878533102998169 0 -0.17851843814837171 0.1393652887254829 0 -0.17510758573200991 0.1210198934118604 0 -0.16374920123168099 0.1323050226169121 0 -0.17851843814837171 0.1393652887254829 0 -0.18879401332360271 0.1534406628603765 0 -0.16446731148338581 0.1523468447263715 0 -0.17851843814837171 0.1393652887254829 0 -0.1926357403031668 0.17432761981950451 0 -0.18879401332360271 0.1534406628603765 0 -0.1754997898749534 0.1721460805223394 0 -0.18879401332360271 0.1534406628603765 0 -0.16446731148338581 0.1523468447263715 0 -0.1754997898749534 0.1721460805223394 0 -0.18296532817023381 0.19315308701215339 0 -0.16836907364974041 0.18903810857045311 0 -0.1754997898749534 0.1721460805223394 0 -0.1926357403031668 0.17432761981950451 0 -0.18296532817023381 0.19315308701215339 0 -0.1754997898749534 0.1721460805223394 0 -0.16836907364974041 0.18903810857045311 0 -0.1754997898749534 0.1721460805223394 0 -0.15785830253869301 0.1696425666982643 0 -0.16446731148338581 0.1523468447263715 0 -0.1754997898749534 0.1721460805223394 0 -0.15785830253869301 0.1696425666982643 0 -0.16446731148338581 0.1523468447263715 0 -0.15785830253869301 0.1696425666982643 0 -0.13968973951377139 0.15534423639739781 0 -0.15785830253869301 0.1696425666982643 0 -0.14126559817161391 0.17933756327475969 0 -0.13968973951377139 0.15534423639739781 0 -0.16836907364974041 0.18903810857045311 0 -0.14126559817161391 0.17933756327475969 0 -0.16836907364974041 0.18903810857045311 0 -0.15785830253869301 0.1696425666982643 0 -0.14126559817161391 0.17933756327475969 0 -0.14126559817161391 0.17933756327475969 0 -0.11416212269348749 0.1696370179790665 0 -0.14126559817161391 0.17933756327475969 0 -0.11416212269348749 0.1696370179790665 0 -0.1226579984415305 0.19556365897103831 0 -0.14126559817161391 0.17933756327475969 0 -0.13968973951377139 0.15534423639739781 0 -0.11416212269348749 0.1696370179790665 0 -0.13968973951377139 0.15534423639739781 0 -0.13132737138912021 0.13280019362549789 0 -0.1124853510131136 0.14497520469458 0 -0.13968973951377139 0.15534423639739781 0 -0.1505975785353291 0.14027937394087869 0 -0.13132737138912021 0.13280019362549789 0 -0.16446731148338581 0.1523468447263715 0 -0.13968973951377139 0.15534423639739781 0 -0.1505975785353291 0.14027937394087869 0 -0.14906057485132229 0.12485653658544089 0 -0.1505975785353291 0.14027937394087869 0 -0.13132737138912021 0.13280019362549789 0 -0.14906057485132229 0.12485653658544089 0 -0.16374920123168099 0.1323050226169121 0 -0.1505975785353291 0.14027937394087869 0 -0.1124853510131136 0.14497520469458 0 -0.093337876346260645 0.13270582904707881 0 -0.1138368173198773 0.1130993385288049 0 -0.13132737138912021 0.13280019362549789 0 -0.1124853510131136 0.14497520469458 0 -0.1138368173198773 0.1130993385288049 0 -0.1124853510131136 0.14497520469458 0 -0.087058647215360996 0.15993647268337319 0 -0.093337876346260645 0.13270582904707881 0 -0.11416212269348749 0.1696370179790665 0 -0.081500716861403616 0.18205617381268341 0 -0.097153087886608633 0.2006978173957952 0 -0.13968973951377139 0.15534423639739781 0 -0.1124853510131136 0.14497520469458 0 -0.11416212269348749 0.1696370179790665 0 -0.11416212269348749 0.1696370179790665 0 -0.087058647215360996 0.15993647268337319 0 -0.081500716861403616 0.18205617381268341 0 -0.1124853510131136 0.14497520469458 0 -0.11416212269348749 0.1696370179790665 0 -0.087058647215360996 0.15993647268337319 0 -0.11416212269348749 0.1696370179790665 0 -0.087058647215360996 0.15993647268337319 0 -0.087058647215360996 0.15993647268337319 0 -0.081500716861403616 0.18205617381268341 0 -0.069171468511179973 0.1666093700895365 0 -0.081500716861403616 0.18205617381268341 0 -0.069171468511179973 0.1666093700895365 0 -0.060918390857913951 0.18815445452544169 0 -0.087058647215360996 0.15993647268337319 0 -0.069171468511179973 0.1666093700895365 0 -0.059955171737234518 0.15023592738767991 0 -0.087058647215360996 0.15993647268337319 0 -0.059955171737234518 0.15023592738767991 0 -0.087058647215360996 0.15993647268337319 0 -0.074606307352471285 0.13812341921415219 0 -0.059955171737234518 0.15023592738767991 0 -0.074606307352471285 0.13812341921415219 0 -0.057567733900907719 0.1331401758219927 0 -0.065955274443171091 0.1221626902035232 0 -0.074606307352471285 0.13812341921415219 0 -0.065955274443171091 0.1221626902035232 0 -0.082717466772410278 0.1150385401419584 0 -0.074606307352471285 0.13812341921415219 0 -0.057567733900907719 0.1331401758219927 0 -0.059955171737234518 0.15023592738767991 0 -0.074606307352471285 0.13812341921415219 0 -0.093337876346260645 0.13270582904707881 0 -0.082717466772410278 0.1150385401419584 0 -0.087058647215360996 0.15993647268337319 0 -0.074606307352471285 0.13812341921415219 0 -0.093337876346260645 0.13270582904707881 0 -0.098253736429257332 0.25100805589531222 0 -0.1141475251329892 0.24126074696716829 0 -0.089831656970851631 0.2331880459751644 0 -0.098253736429257332 0.25100805589531222 0 -0.1173929939574677 0.25626639050019762 0 -0.1141475251329892 0.24126074696716829 0 -0.12996000236676469 0.2344638159322309 0 -0.1141475251329892 0.24126074696716829 0 -0.1168469468089313 0.22044464739357819 0 -0.1168469468089313 0.22044464739357819 0 -0.089831656970851631 0.2331880459751644 0 -0.1141475251329892 0.24126074696716829 0 -0.1168469468089313 0.22044464739357819 0 -0.089831656970851631 0.2331880459751644 0 -0.1168469468089313 0.22044464739357819 0 -0.097153087886608633 0.2006978173957952 0 -0.089831656970851631 0.2331880459751644 0 -0.1168469468089313 0.22044464739357819 0 -0.1226579984415305 0.19556365897103831 0 -0.097153087886608633 0.2006978173957952 0 -0.11416212269348749 0.1696370179790665 0 -0.1226579984415305 0.19556365897103831 0 -0.097153087886608633 0.2006978173957952 0 -0.097153087886608633 0.2006978173957952 0 -0.070228241292798838 0.20929612013303481 0 -0.089831656970851631 0.2331880459751644 0 -0.081500716861403616 0.18205617381268341 0 -0.097153087886608633 0.2006978173957952 0 -0.070228241292798838 0.20929612013303481 0 -0.081500716861403616 0.18205617381268341 0 -0.070228241292798838 0.20929612013303481 0 -0.060918390857913951 0.18815445452544169 0 -0.089831656970851631 0.2331880459751644 0 -0.06281636713277175 0.2459314445567507 0 -0.057641609829056299 0.23066318475907369 0 -0.070228241292798838 0.20929612013303481 0 -0.089831656970851631 0.2331880459751644 0 -0.057641609829056299 0.23066318475907369 0 -0.089831656970851631 0.2331880459751644 0 -0.06281636713277175 0.2459314445567507 0 -0.082044921696215634 0.25498783744416059 0 -0.089831656970851631 0.2331880459751644 0 -0.06281636713277175 0.2459314445567507 0 -0.098253736429257332 0.25100805589531222 0 -0.082044921696215634 0.25498783744416059 0 -0.089831656970851631 0.2331880459751644 0 -0.048892609481842042 0.25434125477316433 0 -0.032240297161415729 0.25159451474613947 0 -0.037090491811792442 0.23926550824457951 0 -0.048892609481842042 0.25434125477316433 0 -0.037090491811792442 0.23926550824457951 0 -0.057641609829056299 0.23066318475907369 0 -0.048892609481842042 0.25434125477316433 0 -0.06281636713277175 0.2459314445567507 0 -0.057641609829056299 0.23066318475907369 0 -0.057641609829056299 0.23066318475907369 0 -0.043136643134162121 0.2236272902472346 0 -0.053353187236109108 0.21479141850227321 0 -0.037090491811792442 0.23926550824457951 0 -0.043136643134162121 0.2236272902472346 0 -0.029577861347099062 0.2302108069202512 0 -0.037090491811792442 0.23926550824457951 0 -0.057641609829056299 0.23066318475907369 0 -0.043136643134162121 0.2236272902472346 0 -0.043136643134162121 0.2236272902472346 0 -0.033815116562738702 0.22243236430397079 0 -0.029577861347099062 0.2302108069202512 0 -0.043136643134162121 0.2236272902472346 0 -0.033815116562738702 0.22243236430397079 0 -0.031759952404815391 0.21398247257754369 0 -0.043136643134162121 0.2236272902472346 0 -0.031759952404815391 0.21398247257754369 0 -0.041655641763974127 0.2079857912746832 0 -0.043136643134162121 0.2236272902472346 0 -0.041655641763974127 0.2079857912746832 0 -0.053353187236109108 0.21479141850227321 0 -0.031759952404815391 0.21398247257754369 0 -0.032150209640343597 0.20740920699976301 0 -0.041655641763974127 0.2079857912746832 0 -0.032150209640343597 0.20740920699976301 0 -0.041655641763974127 0.2079857912746832 0 -0.03227015836810436 0.2006536842334585 0 -0.070228241292798838 0.20929612013303481 0 -0.057641609829056299 0.23066318475907369 0 -0.053353187236109108 0.21479141850227321 0 -0.070228241292798838 0.20929612013303481 0 -0.053353187236109108 0.21479141850227321 0 -0.054103800160554189 0.2023847060973395 0 -0.041655641763974127 0.2079857912746832 0 -0.053353187236109108 0.21479141850227321 0 -0.054103800160554189 0.2023847060973395 0 -0.070228241292798838 0.20929612013303481 0 -0.060918390857913951 0.18815445452544169 0 -0.054103800160554189 0.2023847060973395 0 -0.060918390857913951 0.18815445452544169 0 -0.042447004888681611 0.19435052381404089 0 -0.042945359169149558 0.1809739555020472 0 -0.060918390857913951 0.18815445452544169 0 -0.054103800160554189 0.2023847060973395 0 -0.042447004888681611 0.19435052381404089 0 -0.041655641763974127 0.2079857912746832 0 -0.054103800160554189 0.2023847060973395 0 -0.042447004888681611 0.19435052381404089 0 -0.042447004888681611 0.19435052381404089 0 -0.03227015836810436 0.2006536842334585 0 -0.033113945474714537 0.1933781088497063 0 -0.041655641763974127 0.2079857912746832 0 -0.042447004888681611 0.19435052381404089 0 -0.03227015836810436 0.2006536842334585 0 -0.042447004888681611 0.19435052381404089 0 -0.033113945474714537 0.1933781088497063 0 -0.035789934711205257 0.1870285993370161 0 -0.033113945474714537 0.1933781088497063 0 -0.027990958598219332 0.18894003881865801 0 -0.035789934711205257 0.1870285993370161 0 -0.019845888484289611 0.20228503505682149 0 -0.02554106710480367 0.17408081365906361 0 -0.019845888484289611 0.20228503505682149 0 -0.01257164382956057 0.1923563515148928 0 -0.02554106710480367 0.17408081365906361 0 -0.027990958598219332 0.18894003881865801 0 -0.019845888484289611 0.20228503505682149 0 -0.02554106710480367 0.17408081365906361 0 -0.033113945474714537 0.1933781088497063 0 -0.027990958598219332 0.18894003881865801 0 -0.02656746066750397 0.19664093754096579 0 -0.03227015836810436 0.2006536842334585 0 -0.02522824656594597 0.20029867841479199 0 -0.02656746066750397 0.19664093754096579 0 -0.027990958598219332 0.18894003881865801 0 -0.02656746066750397 0.19664093754096579 0 -0.019845888484289611 0.20228503505682149 0 -0.03227015836810436 0.2006536842334585 0 -0.033113945474714537 0.1933781088497063 0 -0.02656746066750397 0.19664093754096579 0 -0.03227015836810436 0.2006536842334585 0 -0.02522824656594597 0.20029867841479199 0 -0.026945746513620202 0.20458883531532651 0 -0.02522824656594597 0.20029867841479199 0 -0.021959698433355501 0.20273940262633969 0 -0.026945746513620202 0.20458883531532651 0 -0.02522824656594597 0.20029867841479199 0 -0.02656746066750397 0.19664093754096579 0 -0.019845888484289611 0.20228503505682149 0 -0.02522824656594597 0.20029867841479199 0 -0.021959698433355501 0.20273940262633969 0 -0.019845888484289611 0.20228503505682149 0 -0.021959698433355501 0.20273940262633969 0 -0.019845888484289611 0.20228503505682149 0 -0.019845888484289611 0.20228503505682149 0 -0.01257164382956057 0.1923563515148928 0 0.0045878725986188366 0.19703295047734609 0 -0.019845888484289611 0.20228503505682149 0 -0.011488410000135519 0.20340718688265161 0 0.0045878725986188366 0.19703295047734609 0 -0.019845888484289611 0.20228503505682149 0 0.0045878725986188366 0.19703295047734609 0 -0.01257164382956057 0.1923563515148928 0 -0.0034766562411832689 0.19053514107700731 0 0.0045878725986188366 0.19703295047734609 0 -0.011488410000135519 0.20340718688265161 0 -0.0032779349438643909 0.20319753551069439 0 0.0045878725986188366 0.19703295047734609 0 -0.01257164382956057 0.1923563515148928 0 -0.0034766562411832689 0.19053514107700731 0 -0.007296139774581701 0.1847611095890162 0 -0.011488410000135519 0.20340718688265161 0 -0.01580413024716017 0.20869311429224549 0 -0.016319679764958569 0.2049092742993612 0 -0.01059093120285917 0.2091296791151277 0 -0.011488410000135519 0.20340718688265161 0 -0.01580413024716017 0.20869311429224549 0 -0.01059093120285917 0.2091296791151277 0 -0.011488410000135519 0.20340718688265161 0 -0.0076123083157181547 0.20592518221029971 0 -0.0032779349438643909 0.20319753551069439 0 -0.002687401871250667 0.21339451792298139 0 0.0034770176162481859 0.20746768799666829 0 -0.01059093120285917 0.2091296791151277 0 -0.0076123083157181547 0.20592518221029971 0 -0.002687401871250667 0.21339451792298139 0 -0.0032779349438643909 0.20319753551069439 0 -0.0076123083157181547 0.20592518221029971 0 -0.002687401871250667 0.21339451792298139 0 -0.011488410000135519 0.20340718688265161 0 -0.0032779349438643909 0.20319753551069439 0 -0.0076123083157181547 0.20592518221029971 0 -0.01059093120285917 0.2091296791151277 0 -0.002687401871250667 0.21339451792298139 0 -0.01490449308260763 0.2169745586289005 0 -0.01059093120285917 0.2091296791151277 0 -0.01490449308260763 0.2169745586289005 0 -0.01580413024716017 0.20869311429224549 0 -0.002687401871250667 0.21339451792298139 0 -0.01490449308260763 0.2169745586289005 0 -0.011533309366932729 0.22519749540020051 0 -0.01490449308260763 0.2169745586289005 0 -0.020141299899581171 0.21326280838810269 0 -0.01580413024716017 0.20869311429224549 0 -0.01490449308260763 0.2169745586289005 0 -0.020141299899581171 0.21326280838810269 0 -0.025315589515630021 0.22088147831081709 0 -0.01580413024716017 0.20869311429224549 0 -0.019064559867835239 0.20615440716105829 0 -0.02077768601471415 0.20909583197381831 0 -0.020141299899581171 0.21326280838810269 0 -0.01580413024716017 0.20869311429224549 0 -0.02077768601471415 0.20909583197381831 0 -0.019845888484289611 0.20228503505682149 0 -0.011488410000135519 0.20340718688265161 0 -0.016319679764958569 0.2049092742993612 0 -0.01580413024716017 0.20869311429224549 0 -0.016319679764958569 0.2049092742993612 0 -0.019064559867835239 0.20615440716105829 0 -0.019845888484289611 0.20228503505682149 0 -0.019064559867835239 0.20615440716105829 0 -0.019845888484289611 0.20228503505682149 0 -0.016319679764958569 0.2049092742993612 0 -0.019064559867835239 0.20615440716105829 0 -0.021959698433355501 0.20273940262633969 0 -0.019064559867835239 0.20615440716105829 0 -0.022993956154288051 0.2065509234969804 0 -0.021959698433355501 0.20273940262633969 0 -0.019845888484289611 0.20228503505682149 0 -0.019064559867835239 0.20615440716105829 0 -0.020141299899581171 0.21326280838810269 0 -0.02077768601471415 0.20909583197381831 0 -0.026024870688163469 0.20992698064344839 0 -0.019064559867835239 0.20615440716105829 0 -0.022993956154288051 0.2065509234969804 0 -0.02077768601471415 0.20909583197381831 0 -0.022993956154288051 0.2065509234969804 0 -0.02077768601471415 0.20909583197381831 0 -0.026024870688163469 0.20992698064344839 0 -0.022993956154288051 0.2065509234969804 0 -0.026024870688163469 0.20992698064344839 0 -0.026945746513620202 0.20458883531532651 0 -0.021959698433355501 0.20273940262633969 0 -0.022993956154288051 0.2065509234969804 0 -0.026945746513620202 0.20458883531532651 0 -0.032150209640343597 0.20740920699976301 0 -0.03227015836810436 0.2006536842334585 0 -0.026945746513620202 0.20458883531532651 0 -0.032150209640343597 0.20740920699976301 0 -0.026024870688163469 0.20992698064344839 0 -0.026945746513620202 0.20458883531532651 0 -0.031759952404815391 0.21398247257754369 0 -0.032150209640343597 0.20740920699976301 0 -0.026024870688163469 0.20992698064344839 0 -0.031759952404815391 0.21398247257754369 0 -0.026024870688163469 0.20992698064344839 0 -0.025810428127047511 0.21451343497997799 0 -0.031759952404815391 0.21398247257754369 0 -0.025810428127047511 0.21451343497997799 0 -0.025315589515630021 0.22088147831081709 0 -0.020141299899581171 0.21326280838810269 0 -0.025810428127047511 0.21451343497997799 0 -0.025315589515630021 0.22088147831081709 0 -0.020141299899581171 0.21326280838810269 0 -0.026024870688163469 0.20992698064344839 0 -0.025810428127047511 0.21451343497997799 0 -0.033815116562738702 0.22243236430397079 0 -0.025315589515630021 0.22088147831081709 0 -0.029577861347099062 0.2302108069202512 0 -0.033815116562738702 0.22243236430397079 0 -0.031759952404815391 0.21398247257754369 0 -0.025315589515630021 0.22088147831081709 0 -0.025315589515630021 0.22088147831081709 0 -0.029577861347099062 0.2302108069202512 0 -0.019020927317924971 0.22878946484997881 0 -0.029577861347099062 0.2302108069202512 0 -0.019020927317924971 0.22878946484997881 0 -0.024015175217327791 0.23998810347091709 0 -0.01490449308260763 0.2169745586289005 0 -0.025315589515630021 0.22088147831081709 0 -0.019020927317924971 0.22878946484997881 0 -0.01490449308260763 0.2169745586289005 0 -0.019020927317924971 0.22878946484997881 0 -0.011533309366932729 0.22519749540020051 0 -0.002687401871250667 0.21339451792298139 0 -0.011533309366932729 0.22519749540020051 0 -0.0036290919011524141 0.22785352363530409 0 -0.019020927317924971 0.22878946484997881 0 -0.011533309366932729 0.22519749540020051 0 -0.011774498919602319 0.23831916798974759 0 -0.011533309366932729 0.22519749540020051 0 -0.0036290919011524141 0.22785352363530409 0 -0.011774498919602319 0.23831916798974759 0 -0.0053765651385902042 0.25470293159257312 0 -0.011774498919602319 0.23831916798974759 0 0.0023639549543397372 0.23696247935464901 0 -0.019332368889011489 0.25272829580483402 0 -0.0053765651385902042 0.25470293159257312 0 -0.011774498919602319 0.23831916798974759 0 -0.0036290919011524141 0.22785352363530409 0 -0.011774498919602319 0.23831916798974759 0 0.0023639549543397372 0.23696247935464901 0 -0.019332368889011489 0.25272829580483402 0 -0.011774498919602319 0.23831916798974759 0 -0.024015175217327791 0.23998810347091709 0 -0.019020927317924971 0.22878946484997881 0 -0.011774498919602319 0.23831916798974759 0 -0.024015175217327791 0.23998810347091709 0 -0.037090491811792442 0.23926550824457951 0 -0.029577861347099062 0.2302108069202512 0 -0.024015175217327791 0.23998810347091709 0 -0.032240297161415729 0.25159451474613947 0 -0.037090491811792442 0.23926550824457951 0 -0.024015175217327791 0.23998810347091709 0 -0.032240297161415729 0.25159451474613947 0 -0.019332368889011489 0.25272829580483402 0 -0.024015175217327791 0.23998810347091709 0 -0.044927079849861752 0.14116639875084569 0 -0.041549341010310673 0.15329775799761591 0 -0.052922735353887827 0.1646604266381437 0 -0.044927079849861752 0.14116639875084569 0 -0.041549341010310673 0.15329775799761591 0 -0.031236245725318312 0.14587659226130581 0 -0.041549341010310673 0.15329775799761591 0 -0.037111303112174782 0.16148761434016831 0 -0.031236245725318312 0.14587659226130581 0 -0.044927079849861752 0.14116639875084569 0 -0.036931424345834227 0.1176723708635483 0 -0.044927079849861752 0.14116639875084569 0 -0.047671119143954548 0.12571548987664119 0 -0.036931424345834227 0.1176723708635483 0 -0.044927079849861752 0.14116639875084569 0 -0.031236245725318312 0.14587659226130581 0 -0.036931424345834227 0.1176723708635483 0 -0.031236245725318312 0.14587659226130581 0 -0.036931424345834227 0.1176723708635483 0 -0.031236245725318312 0.14587659226130581 0 -0.026142166531522279 0.1231497111458857 0 -0.036931424345834227 0.1176723708635483 0 -0.044927079849861752 0.14116639875084569 0 -0.047671119143954548 0.12571548987664119 0 -0.057567733900907719 0.1331401758219927 0 -0.047671119143954548 0.12571548987664119 0 -0.057567733900907719 0.1331401758219927 0 -0.053960738915725948 0.1195456229496784 0 -0.044927079849861752 0.14116639875084569 0 -0.057567733900907719 0.1331401758219927 0 -0.059955171737234518 0.15023592738767991 0 -0.044927079849861752 0.14116639875084569 0 -0.052922735353887827 0.1646604266381437 0 -0.044927079849861752 0.14116639875084569 0 -0.059955171737234518 0.15023592738767991 0 -0.052922735353887827 0.1646604266381437 0 -0.069171468511179973 0.1666093700895365 0 -0.059955171737234518 0.15023592738767991 0 -0.052922735353887827 0.1646604266381437 0 -0.069171468511179973 0.1666093700895365 0 -0.060918390857913951 0.18815445452544169 0 -0.052922735353887827 0.1646604266381437 0 -0.060918390857913951 0.18815445452544169 0 -0.052922735353887827 0.1646604266381437 0 -0.060918390857913951 0.18815445452544169 0 -0.052922735353887827 0.1646604266381437 0 -0.042945359169149558 0.1809739555020472 0 -0.052922735353887827 0.1646604266381437 0 -0.042945359169149558 0.1809739555020472 0 -0.036411177201950889 0.17192854736783161 0 -0.042447004888681611 0.19435052381404089 0 -0.042945359169149558 0.1809739555020472 0 -0.035789934711205257 0.1870285993370161 0 -0.042945359169149558 0.1809739555020472 0 -0.036411177201950889 0.17192854736783161 0 -0.033735699357065739 0.18059039093692331 0 -0.036411177201950889 0.17192854736783161 0 -0.033735699357065739 0.18059039093692331 0 -0.02554106710480367 0.17408081365906361 0 -0.042945359169149558 0.1809739555020472 0 -0.033735699357065739 0.18059039093692331 0 -0.035789934711205257 0.1870285993370161 0 -0.027990958598219332 0.18894003881865801 0 -0.033735699357065739 0.18059039093692331 0 -0.035789934711205257 0.1870285993370161 0 -0.041549341010310673 0.15329775799761591 0 -0.052922735353887827 0.1646604266381437 0 -0.037111303112174782 0.16148761434016831 0 -0.037111303112174782 0.16148761434016831 0 -0.02554106710480367 0.17408081365906361 0 -0.031236245725318312 0.14587659226130581 0 -0.052922735353887827 0.1646604266381437 0 -0.036411177201950889 0.17192854736783161 0 -0.037111303112174782 0.16148761434016831 0 -0.036411177201950889 0.17192854736783161 0 -0.037111303112174782 0.16148761434016831 0 -0.02554106710480367 0.17408081365906361 0 -0.02554106710480367 0.17408081365906361 0 -0.031236245725318312 0.14587659226130581 0 -0.015718898364428389 0.16688240407227911 0 -0.02554106710480367 0.17408081365906361 0 -0.031236245725318312 0.14587659226130581 0 -0.01257164382956057 0.1923563515148928 0 -0.02554106710480367 0.17408081365906361 0 -0.013257312697523249 0.1784457772167885 0 -0.027990958598219332 0.18894003881865801 0 -0.033735699357065739 0.18059039093692331 0 -0.02554106710480367 0.17408081365906361 0 -0.015718898364428389 0.16688240407227911 0 -0.02554106710480367 0.17408081365906361 0 -0.013257312697523249 0.1784457772167885 0 -0.01257164382956057 0.1923563515148928 0 -0.013257312697523249 0.1784457772167885 0 -0.007296139774581701 0.1847611095890162 0 -0.013257312697523249 0.1784457772167885 0 -0.0051588144142419448 0.17414820724869079 0 -0.007296139774581701 0.1847611095890162 0 -0.015718898364428389 0.16688240407227911 0 -0.013257312697523249 0.1784457772167885 0 -0.0051588144142419448 0.17414820724869079 0 -0.0051588144142419448 0.17414820724869079 0 -0.007296139774581701 0.1847611095890162 0 0.0021405894441073061 0.18527508749141491 0 -0.0034766562411832689 0.19053514107700731 0 -0.007296139774581701 0.1847611095890162 0 0.0021405894441073061 0.18527508749141491 0 -0.015718898364428389 0.16688240407227911 0 -0.0058611955365400793 0.1621626899282835 0 -0.01070090624698369 0.15336111251819259 0 -0.015718898364428389 0.16688240407227911 0 -0.0051588144142419448 0.17414820724869079 0 -0.0058611955365400793 0.1621626899282835 0 -0.0051588144142419448 0.17414820724869079 0 -0.0058611955365400793 0.1621626899282835 0 0.0030742250649868378 0.1652486008937579 0 -0.0058611955365400793 0.1621626899282835 0 0.001880762168824652 0.1528316273275977 0 0.0030742250649868378 0.1652486008937579 0 -0.0058611955365400793 0.1621626899282835 0 -0.01070090624698369 0.15336111251819259 0 0.001880762168824652 0.1528316273275977 0 -0.0075726619339051464 0.14192085902661841 0 -0.01070090624698369 0.15336111251819259 0 0.001880762168824652 0.1528316273275977 0 -0.0075726619339051464 0.14192085902661841 0 -0.01070090624698369 0.15336111251819259 0 -0.020930532447975329 0.1450160576090824 0 -0.015718898364428389 0.16688240407227911 0 -0.020930532447975329 0.1450160576090824 0 -0.031236245725318312 0.14587659226130581 0 -0.015718898364428389 0.16688240407227911 0 -0.01070090624698369 0.15336111251819259 0 -0.020930532447975329 0.1450160576090824 0 -0.015718898364428389 0.16688240407227911 0 -0.020930532447975329 0.1450160576090824 0 -0.020930532447975329 0.1450160576090824 0 -0.014655847774779469 0.13194098015011821 0 -0.026142166531522279 0.1231497111458857 0 -0.020930532447975329 0.1450160576090824 0 -0.026142166531522279 0.1231497111458857 0 -0.020930532447975329 0.1450160576090824 0 -0.031236245725318312 0.14587659226130581 0 -0.026142166531522279 0.1231497111458857 0 -0.014655847774779469 0.13194098015011821 0 -0.01298322278807322 0.1199878705874365 0 -0.026142166531522279 0.1231497111458857 0 -0.014655847774779469 0.13194098015011821 0 -0.0030990072154621 0.12900941214742401 0 -0.01298322278807322 0.1199878705874365 0 -0.0075726619339051464 0.14192085902661841 0 -0.014655847774779469 0.13194098015011821 0 -0.0030990072154621 0.12900941214742401 0 -0.0075726619339051464 0.14192085902661841 0 -0.020930532447975329 0.1450160576090824 0 -0.014655847774779469 0.13194098015011821 0 -0.0075726619339051464 0.14192085902661841 0 -0.0030990072154621 0.12900941214742401 0 0.0057190146598268873 0.13865065772656579 0 -0.0030990072154621 0.12900941214742401 0 -0.01298322278807322 0.1199878705874365 0 0.0010414464130725171 0.11483135537457009 0 -0.01298322278807322 0.1199878705874365 0 -0.010218421807335719 0.10647827429181431 0 -0.01980020160672509 0.1093626774883996 0 -0.01298322278807322 0.1199878705874365 0 -0.010218421807335719 0.10647827429181431 0 0.0010414464130725171 0.11483135537457009 0 -0.010218421807335719 0.10647827429181431 0 -0.0040136069123048977 0.089903783068194118 0 0.0024525850133381979 0.10352713562257659 0 -0.010218421807335719 0.10647827429181431 0 -0.0183033962916254 0.095914166734172565 0 -0.0040136069123048977 0.089903783068194118 0 -0.010218421807335719 0.10647827429181431 0 0.0024525850133381979 0.10352713562257659 0 0.0010414464130725171 0.11483135537457009 0 -0.010218421807335719 0.10647827429181431 0 -0.01980020160672509 0.1093626774883996 0 -0.0183033962916254 0.095914166734172565 0 -0.01980020160672509 0.1093626774883996 0 -0.0183033962916254 0.095914166734172565 0 -0.031353800615068837 0.10128336468268891 0 -0.01980020160672509 0.1093626774883996 0 -0.026142166531522279 0.1231497111458857 0 -0.031353800615068837 0.10128336468268891 0 -0.026142166531522279 0.1231497111458857 0 -0.031353800615068837 0.10128336468268891 0 -0.01298322278807322 0.1199878705874365 0 -0.01980020160672509 0.1093626774883996 0 -0.026142166531522279 0.1231497111458857 0 -0.010170505324922139 0.077324264013514124 0 -0.019097135319331798 0.06526900211812936 0 0.001016647018871197 0.063829529348394462 0 -0.0040136069123048977 0.089903783068194118 0 -0.0247901087052508 0.081996945864964477 0 -0.010170505324922139 0.077324264013514124 0 -0.0040136069123048977 0.089903783068194118 0 0.009473257634067693 0.085715089925496118 0 -0.010170505324922139 0.077324264013514124 0 -0.0040136069123048977 0.089903783068194118 0 -0.0247901087052508 0.081996945864964477 0 -0.0183033962916254 0.095914166734172565 0 -0.0247901087052508 0.081996945864964477 0 -0.031353800615068837 0.10128336468268891 0 -0.0247901087052508 0.081996945864964477 0 -0.031353800615068837 0.10128336468268891 0 -0.0183033962916254 0.095914166734172565 0 -0.0040136069123048977 0.089903783068194118 0 -0.0247901087052508 0.081996945864964477 0 -0.0247901087052508 0.081996945864964477 0 -0.03415457932803969 0.089532194757328917 0 -0.031353800615068837 0.10128336468268891 0 -0.010170505324922139 0.077324264013514124 0 -0.0247901087052508 0.081996945864964477 0 -0.019097135319331798 0.06526900211812936 0 -0.0247901087052508 0.081996945864964477 0 -0.019097135319331798 0.06526900211812936 0 -0.034282825455187391 0.063621947950983013 0 -0.0247901087052508 0.081996945864964477 0 -0.019097135319331798 0.06526900211812936 0 -0.0247901087052508 0.081996945864964477 0 -0.034282825455187391 0.063621947950983013 0 -0.050114785201594979 0.072359226470401383 0 -0.034282825455187391 0.063621947950983013 0 -0.050114785201594979 0.072359226470401383 0 -0.046605779514598301 0.057150107140930467 0 -0.0247901087052508 0.081996945864964477 0 -0.050114785201594979 0.072359226470401383 0 -0.0247901087052508 0.081996945864964477 0 -0.03415457932803969 0.089532194757328917 0 -0.050114785201594979 0.072359226470401383 0 -0.03415457932803969 0.089532194757328917 0 -0.049814288513965077 0.08778494079414606 0 -0.050114785201594979 0.072359226470401383 0 -0.03415457932803969 0.089532194757328917 0 -0.049814288513965077 0.08778494079414606 0 -0.043174784093244829 0.099075125894009422 0 -0.049814288513965077 0.08778494079414606 0 -0.057616485791666727 0.096822440539676896 0 -0.064010808155279125 0.081135716309313655 0 -0.049814288513965077 0.08778494079414606 0 -0.050114785201594979 0.072359226470401383 0 -0.064010808155279125 0.081135716309313655 0 -0.050114785201594979 0.072359226470401383 0 -0.075439461697939081 0.062721507075838304 0 -0.061107174762283292 0.053323898884719723 0 -0.026142166531522279 0.1231497111458857 0 -0.036931424345834227 0.1176723708635483 0 -0.031353800615068837 0.10128336468268891 0 -0.036931424345834227 0.1176723708635483 0 -0.038072628302443887 0.11202078885059551 0 -0.031353800615068837 0.10128336468268891 0 -0.036931424345834227 0.1176723708635483 0 -0.031353800615068837 0.10128336468268891 0 -0.044968618707443092 0.1170528809971409 0 -0.038072628302443887 0.11202078885059551 0 -0.049778219516986549 0.1092427875004256 0 -0.044968618707443092 0.1170528809971409 0 -0.036931424345834227 0.1176723708635483 0 -0.038072628302443887 0.11202078885059551 0 -0.047671119143954548 0.12571548987664119 0 -0.044968618707443092 0.1170528809971409 0 -0.036931424345834227 0.1176723708635483 0 -0.036931424345834227 0.1176723708635483 0 -0.038072628302443887 0.11202078885059551 0 -0.038072628302443887 0.11202078885059551 0 -0.031353800615068837 0.10128336468268891 0 -0.043174784093244829 0.099075125894009422 0 -0.03415457932803969 0.089532194757328917 0 -0.031353800615068837 0.10128336468268891 0 -0.043174784093244829 0.099075125894009422 0 -0.03415457932803969 0.089532194757328917 0 -0.031353800615068837 0.10128336468268891 0 -0.038072628302443887 0.11202078885059551 0 -0.043174784093244829 0.099075125894009422 0 -0.049778219516986549 0.1092427875004256 0 -0.043174784093244829 0.099075125894009422 0 -0.049778219516986549 0.1092427875004256 0 -0.057616485791666727 0.096822440539676896 0 -0.049814288513965077 0.08778494079414606 0 -0.043174784093244829 0.099075125894009422 0 -0.057616485791666727 0.096822440539676896 0 -0.049778219516986549 0.1092427875004256 0 -0.057616485791666727 0.096822440539676896 0 -0.064015308807170546 0.1096087060219747 0 -0.053960738915725948 0.1195456229496784 0 -0.065955274443171091 0.1221626902035232 0 -0.064015308807170546 0.1096087060219747 0 -0.049778219516986549 0.1092427875004256 0 -0.053960738915725948 0.1195456229496784 0 -0.064015308807170546 0.1096087060219747 0 -0.044968618707443092 0.1170528809971409 0 -0.049778219516986549 0.1092427875004256 0 -0.053960738915725948 0.1195456229496784 0 -0.047671119143954548 0.12571548987664119 0 -0.044968618707443092 0.1170528809971409 0 -0.053960738915725948 0.1195456229496784 0 -0.057567733900907719 0.1331401758219927 0 -0.053960738915725948 0.1195456229496784 0 -0.065955274443171091 0.1221626902035232 0 -0.065955274443171091 0.1221626902035232 0 -0.064015308807170546 0.1096087060219747 0 -0.082717466772410278 0.1150385401419584 0 -0.082717466772410278 0.1150385401419584 0 -0.074063667403062666 0.094840154796585779 0 -0.096346263250634223 0.093398483432111629 0 -0.064015308807170546 0.1096087060219747 0 -0.082717466772410278 0.1150385401419584 0 -0.074063667403062666 0.094840154796585779 0 -0.057616485791666727 0.096822440539676896 0 -0.064015308807170546 0.1096087060219747 0 -0.074063667403062666 0.094840154796585779 0 -0.057616485791666727 0.096822440539676896 0 -0.074063667403062666 0.094840154796585779 0 -0.064010808155279125 0.081135716309313655 0 -0.074063667403062666 0.094840154796585779 0 -0.064010808155279125 0.081135716309313655 0 -0.078855709181391204 0.073697628335418416 0 -0.050114785201594979 0.072359226470401383 0 -0.064010808155279125 0.081135716309313655 0 -0.075439461697939081 0.062721507075838304 0 -0.050114785201594979 0.072359226470401383 0 -0.075439461697939081 0.062721507075838304 0 -0.064010808155279125 0.081135716309313655 0 -0.075439461697939081 0.062721507075838304 0 -0.078855709181391204 0.073697628335418416 0 -0.078855709181391204 0.073697628335418416 0 -0.090845883360871668 0.066938281252608395 0 -0.096518915596975799 0.076494946131174982 0 -0.075439461697939081 0.062721507075838304 0 -0.078855709181391204 0.073697628335418416 0 -0.090845883360871668 0.066938281252608395 0 -0.078855709181391204 0.073697628335418416 0 -0.096346263250634223 0.093398483432111629 0 -0.096518915596975799 0.076494946131174982 0 -0.078855709181391204 0.073697628335418416 0 -0.096346263250634223 0.093398483432111629 0 -0.074063667403062666 0.094840154796585779 0 -0.078855709181391204 0.073697628335418416 0 -0.096346263250634223 0.093398483432111629 0 -0.096346263250634223 0.093398483432111629 0 -0.096518915596975799 0.076494946131174982 0 -0.115017790644576 0.07818679874631114 0 -0.096518915596975799 0.076494946131174982 0 -0.10484555578950309 0.066363688841068066 0 -0.115017790644576 0.07818679874631114 0 -0.090845883360871668 0.066938281252608395 0 -0.096518915596975799 0.076494946131174982 0 -0.10484555578950309 0.066363688841068066 0 -0.13243112273719479 0.070164547759850704 0 -0.1192984853094254 0.065118195564949341 0 -0.115017790644576 0.07818679874631114 0 -0.10484555578950309 0.066363688841068066 0 -0.1192984853094254 0.065118195564949341 0 -0.115017790644576 0.07818679874631114 0 -0.13550263527620801 0.084220334745633979 0 -0.115017790644576 0.07818679874631114 0 -0.1196222026811571 0.095065592832561427 0 -0.096346263250634223 0.093398483432111629 0 -0.115017790644576 0.07818679874631114 0 -0.1196222026811571 0.095065592832561427 0 -0.096346263250634223 0.093398483432111629 0 -0.1196222026811571 0.095065592832561427 0 -0.1138368173198773 0.1130993385288049 0 -0.13740750691449019 0.1064230087099456 0 -0.1196222026811571 0.095065592832561427 0 -0.1138368173198773 0.1130993385288049 0 -0.13132737138912021 0.13280019362549789 0 -0.1138368173198773 0.1130993385288049 0 -0.093337876346260645 0.13270582904707881 0 -0.082717466772410278 0.1150385401419584 0 -0.1138368173198773 0.1130993385288049 0 -0.082717466772410278 0.1150385401419584 0 -0.096346263250634223 0.093398483432111629 0 -0.1138368173198773 0.1130993385288049 0 -0.096346263250634223 0.093398483432111629 0 -0.1138368173198773 0.1130993385288049 0 -0.1158146975317281 0.01622541745711387 0 -0.1013745210589692 0.034906269902426082 0 -0.084686698285836762 0.01251199100243771 0 -0.1093222308133128 -0.0073945743824425439 0 -0.1158146975317281 0.01622541745711387 0 -0.084686698285836762 0.01251199100243771 0 -0.1093222308133128 -0.0073945743824425439 0 -0.13711919296946221 0.0059281162406943227 0 -0.1158146975317281 0.01622541745711387 0 -0.1321773927031008 0.025214393829852879 0 -0.1158146975317281 0.01622541745711387 0 -0.11957525328100151 0.03953531160325955 0 -0.1158146975317281 0.01622541745711387 0 -0.11957525328100151 0.03953531160325955 0 -0.1013745210589692 0.034906269902426082 0 -0.11957525328100151 0.03953531160325955 0 -0.11459615285804579 0.052649082373933398 0 -0.1013745210589692 0.034906269902426082 0 -0.11957525328100151 0.03953531160325955 0 -0.1013745210589692 0.034906269902426082 0 -0.1269962598944821 0.048064558485738838 0 -0.11957525328100151 0.03953531160325955 0 -0.11459615285804579 0.052649082373933398 0 -0.12960180451780759 0.058226860103583397 0 -0.1192984853094254 0.065118195564949341 0 -0.11459615285804579 0.052649082373933398 0 -0.12960180451780759 0.058226860103583397 0 -0.1269962598944821 0.048064558485738838 0 -0.11459615285804579 0.052649082373933398 0 -0.10484555578950309 0.066363688841068066 0 -0.1192984853094254 0.065118195564949341 0 -0.11459615285804579 0.052649082373933398 0 -0.11459615285804579 0.052649082373933398 0 -0.10076413819428311 0.053083787681275252 0 -0.1013745210589692 0.034906269902426082 0 -0.10484555578950309 0.066363688841068066 0 -0.11459615285804579 0.052649082373933398 0 -0.10076413819428311 0.053083787681275252 0 -0.090845883360871668 0.066938281252608395 0 -0.10484555578950309 0.066363688841068066 0 -0.10076413819428311 0.053083787681275252 0 -0.10076413819428311 0.053083787681275252 0 -0.1013745210589692 0.034906269902426082 0 -0.089110827458893288 0.044889184705106278 0 -0.11459615285804579 0.052649082373933398 0 -0.1013745210589692 0.034906269902426082 0 -0.1013745210589692 0.034906269902426082 0 -0.090238363465086499 0.032073980670308477 0 -0.090238363465086499 0.032073980670308477 0 -0.089110827458893288 0.044889184705106278 0 -0.082000797641805345 0.037076080011492887 0 -0.090238363465086499 0.032073980670308477 0 -0.082000797641805345 0.037076080011492887 0 -0.074576941494149979 0.027460560852695499 0 -0.1013745210589692 0.034906269902426082 0 -0.090238363465086499 0.032073980670308477 0 -0.089110827458893288 0.044889184705106278 0 -0.089110827458893288 0.044889184705106278 0 -0.082000797641805345 0.037076080011492887 0 -0.074077058149091587 0.043880593817861302 0 -0.089110827458893288 0.044889184705106278 0 -0.082122316655196828 0.051592078073368693 0 -0.074077058149091587 0.043880593817861302 0 -0.10076413819428311 0.053083787681275252 0 -0.089110827458893288 0.044889184705106278 0 -0.082122316655196828 0.051592078073368693 0 -0.075439461697939081 0.062721507075838304 0 -0.10076413819428311 0.053083787681275252 0 -0.075439461697939081 0.062721507075838304 0 -0.10076413819428311 0.053083787681275252 0 -0.082122316655196828 0.051592078073368693 0 -0.075439461697939081 0.062721507075838304 0 -0.090845883360871668 0.066938281252608395 0 -0.10076413819428311 0.053083787681275252 0 -0.075439461697939081 0.062721507075838304 0 -0.082122316655196828 0.051592078073368693 0 -0.072624672804598944 0.05302403306975137 0 -0.082122316655196828 0.051592078073368693 0 -0.072624672804598944 0.05302403306975137 0 -0.074077058149091587 0.043880593817861302 0 -0.072624672804598944 0.05302403306975137 0 -0.074077058149091587 0.043880593817861302 0 -0.061107174762283292 0.053323898884719723 0 -0.075439461697939081 0.062721507075838304 0 -0.072624672804598944 0.05302403306975137 0 -0.061107174762283292 0.053323898884719723 0 -0.074077058149091587 0.043880593817861302 0 -0.061107174762283292 0.053323898884719723 0 -0.058517021176522278 0.036370368219554743 0 -0.082000797641805345 0.037076080011492887 0 -0.074077058149091587 0.043880593817861302 0 -0.074576941494149979 0.027460560852695499 0 -0.074077058149091587 0.043880593817861302 0 -0.074576941494149979 0.027460560852695499 0 -0.058517021176522278 0.036370368219554743 0 -0.074576941494149979 0.027460560852695499 0 -0.084686698285836762 0.01251199100243771 0 -0.067931512100497624 0.0095025484431112105 0 -0.074576941494149979 0.027460560852695499 0 -0.060893698801941037 0.02227496491911338 0 -0.058517021176522278 0.036370368219554743 0 -0.074576941494149979 0.027460560852695499 0 -0.067931512100497624 0.0095025484431112105 0 -0.060893698801941037 0.02227496491911338 0 -0.090238363465086499 0.032073980670308477 0 -0.074576941494149979 0.027460560852695499 0 -0.084686698285836762 0.01251199100243771 0 -0.1013745210589692 0.034906269902426082 0 -0.090238363465086499 0.032073980670308477 0 -0.084686698285836762 0.01251199100243771 0 -0.1013745210589692 0.034906269902426082 0 -0.084686698285836762 0.01251199100243771 0 -0.06799887551270356 -0.0098822878975503917 0 -0.084686698285836762 0.01251199100243771 0 -0.067931512100497624 0.0095025484431112105 0 -0.06799887551270356 -0.0098822878975503917 0 -0.084686698285836762 0.01251199100243771 0 -0.06799887551270356 -0.0098822878975503917 0 -0.067931512100497624 0.0095025484431112105 0 -0.058884230972225227 0.00062989583273729373 0 -0.067931512100497624 0.0095025484431112105 0 -0.058884230972225227 0.00062989583273729373 0 -0.054425224298971592 0.01131517442437713 0 -0.058884230972225227 0.00062989583273729373 0 -0.048088803599084781 0.0012871322310296421 0 -0.054425224298971592 0.01131517442437713 0 -0.048088803599084781 0.0012871322310296421 0 -0.054425224298971592 0.01131517442437713 0 -0.043547430762509408 0.01051050203396125 0 -0.054425224298971592 0.01131517442437713 0 -0.047753824585968468 0.023626209973299148 0 -0.043547430762509408 0.01051050203396125 0 -0.067931512100497624 0.0095025484431112105 0 -0.054425224298971592 0.01131517442437713 0 -0.060893698801941037 0.02227496491911338 0 -0.060893698801941037 0.02227496491911338 0 -0.047753824585968468 0.023626209973299148 0 -0.058517021176522278 0.036370368219554743 0 -0.054425224298971592 0.01131517442437713 0 -0.060893698801941037 0.02227496491911338 0 -0.047753824585968468 0.023626209973299148 0 -0.047753824585968468 0.023626209973299148 0 -0.041303725717090477 0.036663808649996701 0 -0.030568394477345731 0.021949129241321232 0 -0.047753824585968468 0.023626209973299148 0 -0.043547430762509408 0.01051050203396125 0 -0.030568394477345731 0.021949129241321232 0 -0.036900906851176453 -0.0056251357002208924 0 -0.048088803599084781 0.0012871322310296421 0 -0.043547430762509408 0.01051050203396125 0 -0.036900906851176453 -0.0056251357002208924 0 -0.043547430762509408 0.01051050203396125 0 -0.030568394477345731 0.021949129241321232 0 -0.036900906851176453 -0.0056251357002208924 0 -0.030568394477345731 0.021949129241321232 0 -0.050114785201594979 0.072359226470401383 0 -0.061107174762283292 0.053323898884719723 0 -0.046605779514598301 0.057150107140930467 0 -0.061107174762283292 0.053323898884719723 0 -0.04934540491011552 0.047003145802521483 0 -0.046605779514598301 0.057150107140930467 0 -0.061107174762283292 0.053323898884719723 0 -0.04934540491011552 0.047003145802521483 0 -0.058517021176522278 0.036370368219554743 0 -0.04934540491011552 0.047003145802521483 0 -0.058517021176522278 0.036370368219554743 0 -0.041303725717090477 0.036663808649996701 0 -0.047753824585968468 0.023626209973299148 0 -0.058517021176522278 0.036370368219554743 0 -0.041303725717090477 0.036663808649996701 0 -0.041303725717090477 0.036663808649996701 0 -0.026349875569459381 0.03879069893811618 0 -0.030568394477345731 0.021949129241321232 0 -0.041303725717090477 0.036663808649996701 0 -0.038178707243810318 0.049442316596026763 0 -0.026349875569459381 0.03879069893811618 0 -0.04934540491011552 0.047003145802521483 0 -0.041303725717090477 0.036663808649996701 0 -0.038178707243810318 0.049442316596026763 0 -0.04934540491011552 0.047003145802521483 0 -0.038178707243810318 0.049442316596026763 0 -0.046605779514598301 0.057150107140930467 0 -0.034282825455187391 0.063621947950983013 0 -0.038178707243810318 0.049442316596026763 0 -0.02607882996101097 0.053299728580763907 0 -0.034282825455187391 0.063621947950983013 0 -0.038178707243810318 0.049442316596026763 0 -0.046605779514598301 0.057150107140930467 0 -0.019097135319331798 0.06526900211812936 0 -0.02607882996101097 0.053299728580763907 0 -0.013404161933412991 0.048541058371294153 0 -0.019097135319331798 0.06526900211812936 0 -0.013404161933412991 0.048541058371294153 0 -0.019097135319331798 0.06526900211812936 0 -0.034282825455187391 0.063621947950983013 0 -0.02607882996101097 0.053299728580763907 0 -0.038178707243810318 0.049442316596026763 0 -0.02607882996101097 0.053299728580763907 0 -0.026349875569459381 0.03879069893811618 0 -0.02607882996101097 0.053299728580763907 0 -0.026349875569459381 0.03879069893811618 0 -0.013404161933412991 0.048541058371294153 0 -0.026349875569459381 0.03879069893811618 0 -0.013404161933412991 0.048541058371294153 0 -0.01094523326668769 0.030853690935312011 0 -0.013404161933412991 0.048541058371294153 0 -0.01094523326668769 0.030853690935312011 0 0.0017408631506383089 0.043736373704600401 0 -0.019097135319331798 0.06526900211812936 0 -0.013404161933412991 0.048541058371294153 0 0.001016647018871197 0.063829529348394462 0 -0.013404161933412991 0.048541058371294153 0 0.0017408631506383089 0.043736373704600401 0 0.001016647018871197 0.063829529348394462 0 -0.036900906851176453 -0.0056251357002208924 0 -0.01192571365644148 0.0092235581006408288 0 -0.036900906851176453 -0.0056251357002208924 0 -0.030568394477345731 0.021949129241321232 0 -0.01192571365644148 0.0092235581006408288 0 -0.026349875569459381 0.03879069893811618 0 -0.030568394477345731 0.021949129241321232 0 -0.01094523326668769 0.030853690935312011 0 -0.030568394477345731 0.021949129241321232 0 -0.01094523326668769 0.030853690935312011 0 -0.01192571365644148 0.0092235581006408288 0 -0.01094523326668769 0.030853690935312011 0 -0.01192571365644148 0.0092235581006408288 0 0.01304947953829359 0.024072251901502511 0 -0.0139647653065136 -0.0075473042418993039 0 -0.01192571365644148 0.0092235581006408288 0 0.010873079861079091 0.0055145921489277057 0 -0.01192571365644148 0.0092235581006408288 0 0.010873079861079091 0.0055145921489277057 0 0.01304947953829359 0.024072251901502511 0 -0.0010690213167974039 -0.0019670037974292669 0 0.010873079861079091 0.0055145921489277057 0 0.010417021748207351 -0.00078749865505162858 0 0.010873079861079091 0.0055145921489277057 0 0.021259495660713831 0.00072546366398377766 0 0.010417021748207351 -0.00078749865505162858 0 -0.01192571365644148 0.0092235581006408288 0 0.01304947953829359 0.024072251901502511 0 0.010873079861079091 0.0055145921489277057 0 0.01304947953829359 0.024072251901502511 0 0.035710925028671917 0.018576488539754781 0 0.01304947953829359 0.024072251901502511 0 0.038024672733028522 0.038920945702364103 0 0.035710925028671917 0.018576488539754781 0 0.010873079861079091 0.0055145921489277057 0 0.035710925028671917 0.018576488539754781 0 0.021259495660713831 0.00072546366398377766 0 0.035710925028671917 0.018576488539754781 0 0.033795628823587942 -0.00040229243432294458 0 0.010873079861079091 0.0055145921489277057 0 0.021259495660713831 0.00072546366398377766 0 0.035710925028671917 0.018576488539754781 0 0.0017408631506383089 0.043736373704600401 0 0.018987584396127442 0.05138533796649887 0 0.001016647018871197 0.063829529348394462 0 -0.01094523326668769 0.030853690935312011 0 0.01304947953829359 0.024072251901502511 0 0.0017408631506383089 0.043736373704600401 0 0.01304947953829359 0.024072251901502511 0 0.0017408631506383089 0.043736373704600401 0 0.018987584396127442 0.05138533796649887 0 0.01304947953829359 0.024072251901502511 0 0.018987584396127442 0.05138533796649887 0 0.038024672733028522 0.038920945702364103 0 0.01304947953829359 0.024072251901502511 0 0.038024672733028522 0.038920945702364103 0 0.018987584396127442 0.05138533796649887 0 0.031473006458631887 0.059955922200576661 0 0.018903414608616321 0.075202582851954677 0 0.018987584396127442 0.05138533796649887 0 0.031473006458631887 0.059955922200576661 0 0.038024672733028522 0.038920945702364103 0 0.046604567749552253 0.060026342954769857 0 0.031473006458631887 0.059955922200576661 0 0.038024672733028522 0.038920945702364103 0 0.046604567749552253 0.060026342954769857 0 0.038024672733028522 0.038920945702364103 0 0.051778582767697812 0.046464731658342813 0 0.038024672733028522 0.038920945702364103 0 0.060548770196264749 0.031638384930581867 0 0.051778582767697812 0.046464731658342813 0 0.060548770196264749 0.031638384930581867 0 0.051778582767697812 0.046464731658342813 0 0.061936320391945729 0.055273253045655418 0 0.046604567749552253 0.060026342954769857 0 0.051778582767697812 0.046464731658342813 0 0.061936320391945729 0.055273253045655418 0 0.046604567749552253 0.060026342954769857 0 0.061936320391945729 0.055273253045655418 0 0.060104264695701473 0.069051883342976822 0 0.035710925028671917 0.018576488539754781 0 0.053634032082412977 0.0065592368806512294 0 0.033795628823587942 -0.00040229243432294458 0 0.038024672733028522 0.038920945702364103 0 0.060548770196264749 0.031638384930581867 0 0.035710925028671917 0.018576488539754781 0 0.060548770196264749 0.031638384930581867 0 0.035710925028671917 0.018576488539754781 0 0.060548770196264749 0.031638384930581867 0 0.035710925028671917 0.018576488539754781 0 0.053634032082412977 0.0065592368806512294 0 0.053634032082412977 0.0065592368806512294 0 0.071634822515017182 0.001768830129076531 0 0.074504467970933408 0.023853881306484349 0 0.071634822515017182 0.001768830129076531 0 0.084185387248347412 0.01196614795116711 0 0.074504467970933408 0.023853881306484349 0 0.084185387248347412 0.01196614795116711 0 0.1003978342016343 0.003046416883448567 0 0.091155594027020059 -0.0067354950573685667 0 0.071634822515017182 0.001768830129076531 0 0.084185387248347412 0.01196614795116711 0 0.091155594027020059 -0.0067354950573685667 0 0.084185387248347412 0.01196614795116711 0 0.074504467970933408 0.023853881306484349 0 0.085933639803639258 0.038591257611025317 0 0.084185387248347412 0.01196614795116711 0 0.085933639803639258 0.038591257611025317 0 0.084185387248347412 0.01196614795116711 0 0.092526429729436879 0.02478841164240838 0 0.085933639803639258 0.038591257611025317 0 0.084185387248347412 0.01196614795116711 0 0.092526429729436879 0.02478841164240838 0 0.1037548370439743 0.016775229648592248 0 0.060548770196264749 0.031638384930581867 0 0.053634032082412977 0.0065592368806512294 0 0.074504467970933408 0.023853881306484349 0 0.060548770196264749 0.031638384930581867 0 0.074721319396970132 0.053374000291571543 0 0.085386615363857374 0.044700281321408838 0 0.060548770196264749 0.031638384930581867 0 0.085386615363857374 0.044700281321408838 0 0.085933639803639258 0.038591257611025317 0 0.060548770196264749 0.031638384930581867 0 0.074504467970933408 0.023853881306484349 0 0.085933639803639258 0.038591257611025317 0 0.060548770196264749 0.031638384930581867 0 0.085386615363857374 0.044700281321408838 0 0.060548770196264749 0.031638384930581867 0 0.061936320391945729 0.055273253045655418 0 0.074721319396970132 0.053374000291571543 0 0.074721319396970132 0.053374000291571543 0 0.087681892358931118 0.065216367270883535 0 0.071948339263229646 0.064912847507336821 0 0.061936320391945729 0.055273253045655418 0 0.074721319396970132 0.053374000291571543 0 0.071948339263229646 0.064912847507336821 0 0.085933639803639258 0.038591257611025317 0 0.087681892358931118 0.065216367270883535 0 0.074721319396970132 0.053374000291571543 0 0.085386615363857374 0.044700281321408838 0 0.087681892358931118 0.065216367270883535 0 0.085933639803639258 0.038591257611025317 0 0.10369225958832511 0.052528212408394573 0 0.087681892358931118 0.065216367270883535 0 0.085386615363857374 0.044700281321408838 0 0.085933639803639258 0.038591257611025317 0 0.087681892358931118 0.065216367270883535 0 0.085933639803639258 0.038591257611025317 0 0.094791855675439241 0.033401039451109782 0 0.099564602781251954 0.039452834902061182 0 0.092526429729436879 0.02478841164240838 0 0.085933639803639258 0.038591257611025317 0 0.094791855675439241 0.033401039451109782 0 0.085933639803639258 0.038591257611025317 0 0.099564602781251954 0.039452834902061182 0 0.10369225958832511 0.052528212408394573 0 0.094791855675439241 0.033401039451109782 0 0.099564602781251954 0.039452834902061182 0 0.10362346066873331 0.030443991465972191 0 0.099564602781251954 0.039452834902061182 0 0.10369225958832511 0.052528212408394573 0 0.1104816651060965 0.040227974407026933 0 0.099564602781251954 0.039452834902061182 0 0.1104816651060965 0.040227974407026933 0 0.10362346066873331 0.030443991465972191 0 0.10369225958832511 0.052528212408394573 0 0.10574673396163579 0.069391875791125726 0 0.087681892358931118 0.065216367270883535 0 0.10369225958832511 0.052528212408394573 0 0.12340016490575879 0.046874822406121633 0 0.12622612717380161 0.06782907403674196 0 0.10369225958832511 0.052528212408394573 0 0.12622612717380161 0.06782907403674196 0 0.12340016490575879 0.046874822406121633 0 0.1104816651060965 0.040227974407026933 0 0.1204266836067301 0.028106190247745941 0 0.10369225958832511 0.052528212408394573 0 0.12340016490575879 0.046874822406121633 0 0.1104816651060965 0.040227974407026933 0 0.1104816651060965 0.040227974407026933 0 0.1204266836067301 0.028106190247745941 0 0.10362346066873331 0.030443991465972191 0 0.1204266836067301 0.028106190247745941 0 0.117635738176045 0.01060736597563606 0 0.1037548370439743 0.016775229648592248 0 0.117635738176045 0.01060736597563606 0 0.1003978342016343 0.003046416883448567 0 0.111052763499568 -0.0051741236291446974 0 0.117635738176045 0.01060736597563606 0 0.13162326829794649 0.011309293970379429 0 0.111052763499568 -0.0051741236291446974 0 0.13162326829794649 0.011309293970379429 0 0.111052763499568 -0.0051741236291446974 0 0.117635738176045 0.01060736597563606 0 0.1003978342016343 0.003046416883448567 0 0.1037548370439743 0.016775229648592248 0 0.084185387248347412 0.01196614795116711 0 0.1003978342016343 0.003046416883448567 0 0.1037548370439743 0.016775229648592248 0 0.1204266836067301 0.028106190247745941 0 0.10362346066873331 0.030443991465972191 0 0.1037548370439743 0.016775229648592248 0 0.092526429729436879 0.02478841164240838 0 0.094791855675439241 0.033401039451109782 0 0.10362346066873331 0.030443991465972191 0 0.092526429729436879 0.02478841164240838 0 0.10362346066873331 0.030443991465972191 0 0.1037548370439743 0.016775229648592248 0 0.1156335863390732 0.097750947760012488 0 0.089430144914226434 0.091841476930741545 0 0.095530599656032111 0.096451795412804922 0 0.1156335863390732 0.097750947760012488 0 0.089430144914226434 0.091841476930741545 0 0.1002881168690649 0.099154726836480564 0 0.095530599656032111 0.096451795412804922 0 0.1156335863390732 0.097750947760012488 0 0.1062359178385877 0.1015683331748158 0 0.10753269427651101 0.1049950376881723 0 0.1014892738697009 0.1043726204145973 0 0.1062359178385877 0.1015683331748158 0 0.1002881168690649 0.099154726836480564 0 0.1014892738697009 0.1043726204145973 0 0.10753269427651101 0.1049950376881723 0 0.1014892738697009 0.1043726204145973 0 0.1072561823880426 0.1110646281078292 0 0.10753269427651101 0.1049950376881723 0 0.1072561823880426 0.1110646281078292 0 0.1062359178385877 0.1015683331748158 0 0.1002881168690649 0.099154726836480564 0 0.1156335863390732 0.097750947760012488 0 0.095530599656032111 0.096451795412804922 0 0.096568745108430956 0.1020673853651296 0 0.092297352637030636 0.1003396738532762 0 0.1002881168690649 0.099154726836480564 0 0.095530599656032111 0.096451795412804922 0 0.096568745108430956 0.1020673853651296 0 0.096568745108430956 0.1020673853651296 0 0.1014892738697009 0.1043726204145973 0 0.093505937327198627 0.1073971154697429 0 0.096568745108430956 0.1020673853651296 0 0.093505937327198627 0.1073971154697429 0 0.092297352637030636 0.1003396738532762 0 0.1014892738697009 0.1043726204145973 0 0.1072561823880426 0.1110646281078292 0 0.093505937327198627 0.1073971154697429 0 0.1002881168690649 0.099154726836480564 0 0.096568745108430956 0.1020673853651296 0 0.1014892738697009 0.1043726204145973 0 0.1072561823880426 0.1110646281078292 0 0.090762933221051778 0.11596897662700251 0 0.09615405001627253 0.12870854768493159 0 0.1072561823880426 0.1110646281078292 0 0.09615405001627253 0.12870854768493159 0 0.1072561823880426 0.1110646281078292 0 0.093505937327198627 0.1073971154697429 0 0.090762933221051778 0.11596897662700251 0 0.1072561823880426 0.1110646281078292 0 0.1197485665525596 0.12378280399914469 0 0.105945364720791 0.1398378081657459 0 0.1072561823880426 0.1110646281078292 0 0.1197485665525596 0.12378280399914469 0 0.12220454349601249 0.11267110715563371 0 0.1197485665525596 0.12378280399914469 0 0.12220454349601249 0.11267110715563371 0 0.13227009923155661 0.1217404696001354 0 0.12220454349601249 0.11267110715563371 0 0.1156335863390732 0.097750947760012488 0 0.1337095497930447 0.1099736533109005 0 0.1072561823880426 0.1110646281078292 0 0.12220454349601249 0.11267110715563371 0 0.1156335863390732 0.097750947760012488 0 0.10753269427651101 0.1049950376881723 0 0.1072561823880426 0.1110646281078292 0 0.1156335863390732 0.097750947760012488 0 0.1072561823880426 0.1110646281078292 0 0.1156335863390732 0.097750947760012488 0 0.1062359178385877 0.1015683331748158 0 0.10753269427651101 0.1049950376881723 0 0.1156335863390732 0.097750947760012488 0 0.1156335863390732 0.097750947760012488 0 0.11794223420238779 0.094081959148804684 0 0.11371266527116029 0.09075877253532677 0 0.1156335863390732 0.097750947760012488 0 0.11794223420238779 0.094081959148804684 0 0.1156335863390732 0.097750947760012488 0 0.11794223420238779 0.094081959148804684 0 0.12836022420896409 0.092531627049253523 0 0.11794223420238779 0.094081959148804684 0 0.119563865374456 0.08661203764115305 0 0.12836022420896409 0.092531627049253523 0 0.119563865374456 0.08661203764115305 0 0.11580391746853 0.077405768433174635 0 0.12754373863290139 0.081534442741149349 0 0.119563865374456 0.08661203764115305 0 0.1115650407001636 0.084951066210873075 0 0.11580391746853 0.077405768433174635 0 0.1115650407001636 0.084951066210873075 0 0.11580391746853 0.077405768433174635 0 0.1048814477310553 0.078552390361003754 0 0.1156335863390732 0.097750947760012488 0 0.11371266527116029 0.09075877253532677 0 0.10372322630160841 0.090472040728430653 0 0.119563865374456 0.08661203764115305 0 0.1115650407001636 0.084951066210873075 0 0.11371266527116029 0.09075877253532677 0 0.1115650407001636 0.084951066210873075 0 0.11371266527116029 0.09075877253532677 0 0.10372322630160841 0.090472040728430653 0 0.11794223420238779 0.094081959148804684 0 0.119563865374456 0.08661203764115305 0 0.11371266527116029 0.09075877253532677 0 0.11580391746853 0.077405768433174635 0 0.10574673396163579 0.069391875791125726 0 0.12622612717380161 0.06782907403674196 0 0.10369225958832511 0.052528212408394573 0 0.10574673396163579 0.069391875791125726 0 0.12622612717380161 0.06782907403674196 0 0.11580391746853 0.077405768433174635 0 0.12622612717380161 0.06782907403674196 0 0.12754373863290139 0.081534442741149349 0 0.10574673396163579 0.069391875791125726 0 0.09619475944917194 0.074819442236555928 0 0.087681892358931118 0.065216367270883535 0 0.11580391746853 0.077405768433174635 0 0.10574673396163579 0.069391875791125726 0 0.1048814477310553 0.078552390361003754 0 0.10574673396163579 0.069391875791125726 0 0.09619475944917194 0.074819442236555928 0 0.1048814477310553 0.078552390361003754 0 0.09619475944917194 0.074819442236555928 0 0.098328663531878358 0.083406983081402833 0 0.089430144914226434 0.091841476930741545 0 0.1156335863390732 0.097750947760012488 0 0.10372322630160841 0.090472040728430653 0 0.089430144914226434 0.091841476930741545 0 0.1115650407001636 0.084951066210873075 0 0.10372322630160841 0.090472040728430653 0 0.1048814477310553 0.078552390361003754 0 0.10372322630160841 0.090472040728430653 0 0.1048814477310553 0.078552390361003754 0 0.098328663531878358 0.083406983081402833 0 0.09619475944917194 0.074819442236555928 0 0.1048814477310553 0.078552390361003754 0 0.098328663531878358 0.083406983081402833 0 0.10372322630160841 0.090472040728430653 0 0.098328663531878358 0.083406983081402833 0 0.089430144914226434 0.091841476930741545 0 0.089430144914226434 0.091841476930741545 0 0.079730159538380654 0.080031342417434662 0 0.087681892358931118 0.065216367270883535 0 0.089430144914226434 0.091841476930741545 0 0.087681892358931118 0.065216367270883535 0 0.089553881888809014 0.093725936076738986 0 0.089430144914226434 0.091841476930741545 0 0.091803467908491906 0.095487917146338919 0 0.089553881888809014 0.093725936076738986 0 0.089430144914226434 0.091841476930741545 0 0.085314967850970841 0.093558758301182265 0 0.089553881888809014 0.093725936076738986 0 0.089430144914226434 0.091841476930741545 0 0.089430144914226434 0.091841476930741545 0 0.079730159538380654 0.080031342417434662 0 0.081830989998010875 0.090127695005062444 0 0.081830989998010875 0.090127695005062444 0 0.085314967850970841 0.093558758301182265 0 0.081455722464855565 0.096027498078177245 0 0.089430144914226434 0.091841476930741545 0 0.081830989998010875 0.090127695005062444 0 0.089430144914226434 0.091841476930741545 0 0.081830989998010875 0.090127695005062444 0 0.085314967850970841 0.093558758301182265 0 0.09619475944917194 0.074819442236555928 0 0.089430144914226434 0.091841476930741545 0 0.087681892358931118 0.065216367270883535 0 0.087681892358931118 0.065216367270883535 0 0.071948339263229646 0.064912847507336821 0 0.077338740602424641 0.071398193416521469 0 0.079730159538380654 0.080031342417434662 0 0.087681892358931118 0.065216367270883535 0 0.077338740602424641 0.071398193416521469 0 0.079730159538380654 0.080031342417434662 0 0.077338740602424641 0.071398193416521469 0 0.069994571249157145 0.075432216470430885 0 0.071948339263229646 0.064912847507336821 0 0.077338740602424641 0.071398193416521469 0 0.069994571249157145 0.075432216470430885 0 0.069994571249157145 0.075432216470430885 0 0.060104264695701473 0.069051883342976822 0 0.060055928550927083 0.081529299228224855 0 0.071948339263229646 0.064912847507336821 0 0.069994571249157145 0.075432216470430885 0 0.060104264695701473 0.069051883342976822 0 0.061936320391945729 0.055273253045655418 0 0.071948339263229646 0.064912847507336821 0 0.060104264695701473 0.069051883342976822 0 0.081830989998010875 0.090127695005062444 0 0.071494127397624285 0.08610178076608771 0 0.07417484198071285 0.095554865692282845 0 0.079730159538380654 0.080031342417434662 0 0.069994571249157145 0.075432216470430885 0 0.071494127397624285 0.08610178076608771 0 0.079730159538380654 0.080031342417434662 0 0.081830989998010875 0.090127695005062444 0 0.071494127397624285 0.08610178076608771 0 0.069994571249157145 0.075432216470430885 0 0.071494127397624285 0.08610178076608771 0 0.060055928550927083 0.081529299228224855 0 0.071494127397624285 0.08610178076608771 0 0.07417484198071285 0.095554865692282845 0 0.062480655279804571 0.093301118683896331 0 0.071494127397624285 0.08610178076608771 0 0.060055928550927083 0.081529299228224855 0 0.062480655279804571 0.093301118683896331 0 0.067944776144049882 0.10491236143040369 0 0.07417484198071285 0.095554865692282845 0 0.062480655279804571 0.093301118683896331 0 0.067944776144049882 0.10491236143040369 0 0.079417316328112331 0.1020443569863969 0 0.075978384660917983 0.1127760489251996 0 0.067944776144049882 0.10491236143040369 0 0.07417484198071285 0.095554865692282845 0 0.079417316328112331 0.1020443569863969 0 0.081830989998010875 0.090127695005062444 0 0.07417484198071285 0.095554865692282845 0 0.081455722464855565 0.096027498078177245 0 0.085314967850970841 0.093558758301182265 0 0.081455722464855565 0.096027498078177245 0 0.086540496166470943 0.098851814405961816 0 0.081455722464855565 0.096027498078177245 0 0.079417316328112331 0.1020443569863969 0 0.086540496166470943 0.098851814405961816 0 0.07417484198071285 0.095554865692282845 0 0.081455722464855565 0.096027498078177245 0 0.079417316328112331 0.1020443569863969 0 0.079417316328112331 0.1020443569863969 0 0.086417070056797052 0.10622966437792999 0 0.075978384660917983 0.1127760489251996 0 0.079417316328112331 0.1020443569863969 0 0.086417070056797052 0.10622966437792999 0 0.086540496166470943 0.098851814405961816 0 0.086417070056797052 0.10622966437792999 0 0.092297352637030636 0.1003396738532762 0 0.086540496166470943 0.098851814405961816 0 0.086417070056797052 0.10622966437792999 0 0.093505937327198627 0.1073971154697429 0 0.092297352637030636 0.1003396738532762 0 0.092297352637030636 0.1003396738532762 0 0.091803467908491906 0.095487917146338919 0 0.089979930130922606 0.097425089187827607 0 0.095530599656032111 0.096451795412804922 0 0.092297352637030636 0.1003396738532762 0 0.091803467908491906 0.095487917146338919 0 0.095530599656032111 0.096451795412804922 0 0.089430144914226434 0.091841476930741545 0 0.091803467908491906 0.095487917146338919 0 0.089553881888809014 0.093725936076738986 0 0.091803467908491906 0.095487917146338919 0 0.089979930130922606 0.097425089187827607 0 0.089553881888809014 0.093725936076738986 0 0.085314967850970841 0.093558758301182265 0 0.086540496166470943 0.098851814405961816 0 0.089553881888809014 0.093725936076738986 0 0.089979930130922606 0.097425089187827607 0 0.086540496166470943 0.098851814405961816 0 0.092297352637030636 0.1003396738532762 0 0.089979930130922606 0.097425089187827607 0 0.086540496166470943 0.098851814405961816 0 0.090762933221051778 0.11596897662700251 0 0.075978384660917983 0.1127760489251996 0 0.083580806203604266 0.13117722807920459 0 0.086417070056797052 0.10622966437792999 0 0.093505937327198627 0.1073971154697429 0 0.090762933221051778 0.11596897662700251 0 0.086417070056797052 0.10622966437792999 0 0.090762933221051778 0.11596897662700251 0 0.075978384660917983 0.1127760489251996 0 0.075978384660917983 0.1127760489251996 0 0.064524628279163429 0.11644185729164599 0 0.070454899834163642 0.13127812458349161 0 0.067944776144049882 0.10491236143040369 0 0.075978384660917983 0.1127760489251996 0 0.064524628279163429 0.11644185729164599 0 0.064524628279163429 0.11644185729164599 0 0.056856853886687257 0.12570640920192089 0 0.070454899834163642 0.13127812458349161 0 0.064524628279163429 0.11644185729164599 0 0.054211924949990782 0.1130198837925968 0 0.056856853886687257 0.12570640920192089 0 0.054211924949990782 0.1130198837925968 0 0.041837054268921668 0.1245531197808655 0 0.056856853886687257 0.12570640920192089 0 0.067944776144049882 0.10491236143040369 0 0.064524628279163429 0.11644185729164599 0 0.054211924949990782 0.1130198837925968 0 0.067944776144049882 0.10491236143040369 0 0.054211924949990782 0.1130198837925968 0 0.052354393927161388 0.1001550038529833 0 0.052354393927161388 0.1001550038529833 0 0.062480655279804571 0.093301118683896331 0 0.049358819679285862 0.088583706275591673 0 0.067944776144049882 0.10491236143040369 0 0.052354393927161388 0.1001550038529833 0 0.062480655279804571 0.093301118683896331 0 0.052354393927161388 0.1001550038529833 0 0.039212832783944378 0.095251169911086633 0 0.049358819679285862 0.088583706275591673 0 0.054211924949990782 0.1130198837925968 0 0.052354393927161388 0.1001550038529833 0 0.042651102835712128 0.10697535422963129 0 0.052354393927161388 0.1001550038529833 0 0.042651102835712128 0.10697535422963129 0 0.039212832783944378 0.095251169911086633 0 0.039212832783944378 0.095251169911086633 0 0.035113974215237709 0.1027367338317548 0 0.030349105418764469 0.098087367937287395 0 0.042651102835712128 0.10697535422963129 0 0.039212832783944378 0.095251169911086633 0 0.035113974215237709 0.1027367338317548 0 0.042651102835712128 0.10697535422963129 0 0.035113974215237709 0.1027367338317548 0 0.032785250373202887 0.1125507689405084 0 0.035113974215237709 0.1027367338317548 0 0.032785250373202887 0.1125507689405084 0 0.02671189320988707 0.1057749259032924 0 0.042651102835712128 0.10697535422963129 0 0.032785250373202887 0.1125507689405084 0 0.041837054268921668 0.1245531197808655 0 0.054211924949990782 0.1130198837925968 0 0.042651102835712128 0.10697535422963129 0 0.041837054268921668 0.1245531197808655 0 0.046604567749552253 0.060026342954769857 0 0.060104264695701473 0.069051883342976822 0 0.048657632960355322 0.076765580661972019 0 0.060104264695701473 0.069051883342976822 0 0.048657632960355322 0.076765580661972019 0 0.060055928550927083 0.081529299228224855 0 0.048657632960355322 0.076765580661972019 0 0.060055928550927083 0.081529299228224855 0 0.049358819679285862 0.088583706275591673 0 0.060055928550927083 0.081529299228224855 0 0.062480655279804571 0.093301118683896331 0 0.049358819679285862 0.088583706275591673 0 0.039212832783944378 0.095251169911086633 0 0.049358819679285862 0.088583706275591673 0 0.039989468488761629 0.084550348728522989 0 0.039212832783944378 0.095251169911086633 0 0.039989468488761629 0.084550348728522989 0 0.027873264214387641 0.087906885266668788 0 0.039212832783944378 0.095251169911086633 0 0.027873264214387641 0.087906885266668788 0 0.030349105418764469 0.098087367937287395 0 0.039989468488761629 0.084550348728522989 0 0.034844792805834947 0.074244401527295778 0 0.027873264214387641 0.087906885266668788 0 0.048657632960355322 0.076765580661972019 0 0.049358819679285862 0.088583706275591673 0 0.039989468488761629 0.084550348728522989 0 0.048657632960355322 0.076765580661972019 0 0.039989468488761629 0.084550348728522989 0 0.034844792805834947 0.074244401527295778 0 0.046604567749552253 0.060026342954769857 0 0.048657632960355322 0.076765580661972019 0 0.034844792805834947 0.074244401527295778 0 0.046604567749552253 0.060026342954769857 0 0.031473006458631887 0.059955922200576661 0 0.034844792805834947 0.074244401527295778 0 0.018987584396127442 0.05138533796649887 0 0.018903414608616321 0.075202582851954677 0 0.031473006458631887 0.059955922200576661 0 0.034844792805834947 0.074244401527295778 0 0.018903414608616321 0.075202582851954677 0 0.018903414608616321 0.075202582851954677 0 0.027873264214387641 0.087906885266668788 0 0.0188192448211052 0.099019827737410526 0 0.034844792805834947 0.074244401527295778 0 0.018903414608616321 0.075202582851954677 0 0.027873264214387641 0.087906885266668788 0 0.018903414608616321 0.075202582851954677 0 0.016762894880641019 0.097810620271423787 0 0.0188192448211052 0.099019827737410526 0 0.018903414608616321 0.075202582851954677 0 0.0188192448211052 0.099019827737410526 0 -0.0040136069123048977 0.089903783068194118 0 0.009473257634067693 0.085715089925496118 0 0.016762894880641019 0.097810620271423787 0 0.018903414608616321 0.075202582851954677 0 0.009473257634067693 0.085715089925496118 0 0.016762894880641019 0.097810620271423787 0 0.018987584396127442 0.05138533796649887 0 0.018903414608616321 0.075202582851954677 0 0.001016647018871197 0.063829529348394462 0 0.018903414608616321 0.075202582851954677 0 0.009473257634067693 0.085715089925496118 0 0.001016647018871197 0.063829529348394462 0 -0.010170505324922139 0.077324264013514124 0 0.009473257634067693 0.085715089925496118 0 0.001016647018871197 0.063829529348394462 0 0.018735075033594079 0.1228370726228664 0 0.0188192448211052 0.099019827737410526 0 0.01136167024237387 0.10714836697530269 0 0.018735075033594079 0.1228370726228664 0 0.0188192448211052 0.099019827737410526 0 0.032785250373202887 0.1125507689405084 0 0.041837054268921668 0.1245531197808655 0 0.018735075033594079 0.1228370726228664 0 0.032785250373202887 0.1125507689405084 0 0.018735075033594079 0.1228370726228664 0 0.02671189320988707 0.1057749259032924 0 0.018735075033594079 0.1228370726228664 0 0.02671189320988707 0.1057749259032924 0 0.0188192448211052 0.099019827737410526 0 0.035113974215237709 0.1027367338317548 0 0.02671189320988707 0.1057749259032924 0 0.030349105418764469 0.098087367937287395 0 0.027873264214387641 0.087906885266668788 0 0.030349105418764469 0.098087367937287395 0 0.025440855950801158 0.098288492973523295 0 0.027873264214387641 0.087906885266668788 0 0.025440855950801158 0.098288492973523295 0 0.0188192448211052 0.099019827737410526 0 0.02671189320988707 0.1057749259032924 0 0.025440855950801158 0.098288492973523295 0 0.0188192448211052 0.099019827737410526 0 0.02671189320988707 0.1057749259032924 0 0.030349105418764469 0.098087367937287395 0 0.025440855950801158 0.098288492973523295 0 0.016762894880641019 0.097810620271423787 0 0.0188192448211052 0.099019827737410526 0 0.01136167024237387 0.10714836697530269 0 0.016762894880641019 0.097810620271423787 0 0.01136167024237387 0.10714836697530269 0 0.0024525850133381979 0.10352713562257659 0 -0.0040136069123048977 0.089903783068194118 0 0.016762894880641019 0.097810620271423787 0 0.0024525850133381979 0.10352713562257659 0 -0.0040136069123048977 0.089903783068194118 0 0.016762894880641019 0.097810620271423787 0 0.01136167024237387 0.10714836697530269 0 0.0024525850133381979 0.10352713562257659 0 0.0010414464130725171 0.11483135537457009 0 0.018735075033594079 0.1228370726228664 0 0.01136167024237387 0.10714836697530269 0 0.0010414464130725171 0.11483135537457009 0 -0.0030990072154621 0.12900941214742401 0 0.018735075033594079 0.1228370726228664 0 0.0010414464130725171 0.11483135537457009 0 -0.0030990072154621 0.12900941214742401 0 0.018735075033594079 0.1228370726228664 0 0.0057190146598268873 0.13865065772656579 0 0.018735075033594079 0.1228370726228664 0 0.0057190146598268873 0.13865065772656579 0 0.018650905246082951 0.14665431750832231 0 0.018735075033594079 0.1228370726228664 0 0.018650905246082951 0.14665431750832231 0 0.018735075033594079 0.1228370726228664 0 0.018650905246082951 0.14665431750832231 0 0.033153673251378621 0.13821624274601599 0 0.041837054268921668 0.1245531197808655 0 0.018735075033594079 0.1228370726228664 0 0.033153673251378621 0.13821624274601599 0 0.018650905246082951 0.14665431750832231 0 0.03023450399329659 0.1668056076064646 0 0.040654889941899038 0.15223558978548929 0 0.018650905246082951 0.14665431750832231 0 0.033153673251378621 0.13821624274601599 0 0.040654889941899038 0.15223558978548929 0 0.0057190146598268873 0.13865065772656579 0 0.018650905246082951 0.14665431750832231 0 0.001880762168824652 0.1528316273275977 0 0.018650905246082951 0.14665431750832231 0 0.001880762168824652 0.1528316273275977 0 0.014180091119791091 0.16390058312115441 0 -0.0075726619339051464 0.14192085902661841 0 0.0057190146598268873 0.13865065772656579 0 0.001880762168824652 0.1528316273275977 0 0.001880762168824652 0.1528316273275977 0 0.0030742250649868378 0.1652486008937579 0 0.014180091119791091 0.16390058312115441 0 -0.0051588144142419448 0.17414820724869079 0 0.0030742250649868378 0.1652486008937579 0 0.0091902345057507436 0.17494414489032831 0 0.0030742250649868378 0.1652486008937579 0 0.014180091119791091 0.16390058312115441 0 0.0091902345057507436 0.17494414489032831 0 -0.0051588144142419448 0.17414820724869079 0 0.0021405894441073061 0.18527508749141491 0 0.0091902345057507436 0.17494414489032831 0 0.0091902345057507436 0.17494414489032831 0 0.0133980491939618 0.18519044985148311 0 0.022571095067456561 0.17720548471695979 0 0.014180091119791091 0.16390058312115441 0 0.0091902345057507436 0.17494414489032831 0 0.022571095067456561 0.17720548471695979 0 0.0021405894441073061 0.18527508749141491 0 0.0091902345057507436 0.17494414489032831 0 0.0133980491939618 0.18519044985148311 0 0.022571095067456561 0.17720548471695979 0 0.03023450399329659 0.1668056076064646 0 0.039402057910411813 0.18061125693445779 0 0.022571095067456561 0.17720548471695979 0 0.039402057910411813 0.18061125693445779 0 0.029021633681527371 0.1917808658978708 0 0.0133980491939618 0.18519044985148311 0 0.022571095067456561 0.17720548471695979 0 0.029021633681527371 0.1917808658978708 0 0.014180091119791091 0.16390058312115441 0 0.022571095067456561 0.17720548471695979 0 0.03023450399329659 0.1668056076064646 0 0.018650905246082951 0.14665431750832231 0 0.014180091119791091 0.16390058312115441 0 0.03023450399329659 0.1668056076064646 0 0.03023450399329659 0.1668056076064646 0 0.049634841049071857 0.16930623500593761 0 0.03023450399329659 0.1668056076064646 0 0.049634841049071857 0.16930623500593761 0 0.040654889941899038 0.15223558978548929 0 0.039402057910411813 0.18061125693445779 0 0.053455394764435907 0.18652878131839551 0 0.029021633681527371 0.1917808658978708 0 0.03023450399329659 0.1668056076064646 0 0.039402057910411813 0.18061125693445779 0 0.049634841049071857 0.16930623500593761 0 0.039402057910411813 0.18061125693445779 0 0.049782972416386101 0.17843397317993151 0 0.049634841049071857 0.16930623500593761 0 0.056428218552119748 0.17876368088657921 0 0.055895386804587117 0.19268910495109859 0 0.069035178104847258 0.17180686240540971 0 0.056428218552119748 0.17876368088657921 0 0.049634841049071857 0.16930623500593761 0 0.069035178104847258 0.17180686240540971 0 0.055895386804587117 0.19268910495109859 0 0.069035178104847258 0.17180686240540971 0 0.039402057910411813 0.18061125693445779 0 0.053455394764435907 0.18652878131839551 0 0.049782972416386101 0.17843397317993151 0 0.053455394764435907 0.18652878131839551 0 0.049782972416386101 0.17843397317993151 0 0.056428218552119748 0.17876368088657921 0 0.049782972416386101 0.17843397317993151 0 0.056428218552119748 0.17876368088657921 0 0.049634841049071857 0.16930623500593761 0 0.053455394764435907 0.18652878131839551 0 0.056428218552119748 0.17876368088657921 0 0.055895386804587117 0.19268910495109859 0 0.049634841049071857 0.16930623500593761 0 0.062782505472912351 0.1644915979217782 0 0.069035178104847258 0.17180686240540971 0 0.049634841049071857 0.16930623500593761 0 0.069035178104847258 0.17180686240540971 0 0.049634841049071857 0.16930623500593761 0 0.058417136084020022 0.1559153190313641 0 0.040654889941899038 0.15223558978548929 0 0.049634841049071857 0.16930623500593761 0 0.058417136084020022 0.1559153190313641 0 0.062782505472912351 0.1644915979217782 0 0.058417136084020022 0.1559153190313641 0 0.053883740737737468 0.140117972571739 0 0.040654889941899038 0.15223558978548929 0 0.058417136084020022 0.1559153190313641 0 0.053883740737737468 0.140117972571739 0 0.071170693308862915 0.1495634846590693 0 0.056856853886687257 0.12570640920192089 0 0.053883740737737468 0.140117972571739 0 0.070454899834163642 0.13127812458349161 0 0.041837054268921668 0.1245531197808655 0 0.056856853886687257 0.12570640920192089 0 0.053883740737737468 0.140117972571739 0 0.041837054268921668 0.1245531197808655 0 0.053883740737737468 0.140117972571739 0 0.033153673251378621 0.13821624274601599 0 0.053883740737737468 0.140117972571739 0 0.033153673251378621 0.13821624274601599 0 0.040654889941899038 0.15223558978548929 0 0.01824544208044231 0.23040764537846739 0 0.041198497273589277 0.23677087327239019 0 0.025514704308534739 0.25899389006193202 0 0.0098196489738565339 0.24907858526724799 0 0.01824544208044231 0.23040764537846739 0 0.025514704308534739 0.25899389006193202 0 0.01824544208044231 0.23040764537846739 0 0.025514704308534739 0.25899389006193202 0 -0.0053765651385902042 0.25470293159257312 0 0.0098196489738565339 0.24907858526724799 0 0.0023639549543397372 0.23696247935464901 0 0.0098196489738565339 0.24907858526724799 0 0.0023639549543397372 0.23696247935464901 0 0.01824544208044231 0.23040764537846739 0 0.0023639549543397372 0.23696247935464901 0 0.0068987946310845203 0.22141302226455389 0 0.01824544208044231 0.23040764537846739 0 -0.0036290919011524141 0.22785352363530409 0 0.0023639549543397372 0.23696247935464901 0 0.0068987946310845203 0.22141302226455389 0 -0.002687401871250667 0.21339451792298139 0 -0.0036290919011524141 0.22785352363530409 0 0.0068987946310845203 0.22141302226455389 0 0.01824544208044231 0.23040764537846739 0 0.02654457674175139 0.20856540558851361 0 0.031540096308007338 0.221822874277009 0 0.01824544208044231 0.23040764537846739 0 0.031540096308007338 0.221822874277009 0 0.041198497273589277 0.23677087327239019 0 0.01824544208044231 0.23040764537846739 0 0.02654457674175139 0.20856540558851361 0 0.01097617985234868 0.20182140069500321 0 0.02654457674175139 0.20856540558851361 0 0.021372955744707239 0.19971401970943989 0 0.036109411950416177 0.20634256094155509 0 0.02654457674175139 0.20856540558851361 0 0.01097617985234868 0.20182140069500321 0 0.021372955744707239 0.19971401970943989 0 0.0068987946310845203 0.22141302226455389 0 0.0034770176162481859 0.20746768799666829 0 0.01097617985234868 0.20182140069500321 0 0.01824544208044231 0.23040764537846739 0 0.01097617985234868 0.20182140069500321 0 0.0068987946310845203 0.22141302226455389 0 0.01824544208044231 0.23040764537846739 0 0.01097617985234868 0.20182140069500321 0 -0.002687401871250667 0.21339451792298139 0 0.0068987946310845203 0.22141302226455389 0 0.0034770176162481859 0.20746768799666829 0 0.01097617985234868 0.20182140069500321 0 0.0045878725986188366 0.19703295047734609 0 0.021372955744707239 0.19971401970943989 0 -0.0032779349438643909 0.20319753551069439 0 0.0034770176162481859 0.20746768799666829 0 0.0045878725986188366 0.19703295047734609 0 0.0034770176162481859 0.20746768799666829 0 0.01097617985234868 0.20182140069500321 0 0.0045878725986188366 0.19703295047734609 0 0.0021405894441073061 0.18527508749141491 0 0.0133980491939618 0.18519044985148311 0 0.0045878725986188366 0.19703295047734609 0 -0.0034766562411832689 0.19053514107700731 0 0.0021405894441073061 0.18527508749141491 0 0.0045878725986188366 0.19703295047734609 0 0.0045878725986188366 0.19703295047734609 0 0.021372955744707239 0.19971401970943989 0 0.029021633681527371 0.1917808658978708 0 0.0045878725986188366 0.19703295047734609 0 0.029021633681527371 0.1917808658978708 0 0.0133980491939618 0.18519044985148311 0 0.0045878725986188366 0.19703295047734609 0 0.029021633681527371 0.1917808658978708 0 0.021372955744707239 0.19971401970943989 0 0.029021633681527371 0.1917808658978708 0 0.036109411950416177 0.20634256094155509 0 0.053455394764435907 0.18652878131839551 0 0.029021633681527371 0.1917808658978708 0 0.043447484541059067 0.1981825321211417 0 0.053455394764435907 0.18652878131839551 0 0.029021633681527371 0.1917808658978708 0 0.029021633681527371 0.1917808658978708 0 0.043447484541059067 0.1981825321211417 0 0.036109411950416177 0.20634256094155509 0 0.055895386804587117 0.19268910495109859 0 0.056882290238644377 0.21454785648284899 0 0.072566083203699533 0.1923248396933078 0 0.053455394764435907 0.18652878131839551 0 0.043447484541059067 0.1981825321211417 0 0.055895386804587117 0.19268910495109859 0 0.043447484541059067 0.1981825321211417 0 0.055895386804587117 0.19268910495109859 0 0.042755595504328753 0.2135713474967886 0 0.055895386804587117 0.19268910495109859 0 0.042755595504328753 0.2135713474967886 0 0.055895386804587117 0.19268910495109859 0 0.056882290238644377 0.21454785648284899 0 0.042755595504328753 0.2135713474967886 0 0.043447484541059067 0.1981825321211417 0 0.042755595504328753 0.2135713474967886 0 0.036109411950416177 0.20634256094155509 0 0.02654457674175139 0.20856540558851361 0 0.036109411950416177 0.20634256094155509 0 0.031540096308007338 0.221822874277009 0 0.042755595504328753 0.2135713474967886 0 0.036109411950416177 0.20634256094155509 0 0.031540096308007338 0.221822874277009 0 0.042755595504328753 0.2135713474967886 0 0.031540096308007338 0.221822874277009 0 0.041198497273589277 0.23677087327239019 0 0.056882290238644377 0.21454785648284899 0 0.042755595504328753 0.2135713474967886 0 0.041198497273589277 0.23677087327239019 0 0.056882290238644377 0.21454785648284899 0 0.041198497273589277 0.23677087327239019 0 0.064287906083042565 0.23545601951890041 0 0.056882290238644377 0.21454785648284899 0 0.041198497273589277 0.23677087327239019 0 0.041198497273589277 0.23677087327239019 0 0.064287906083042565 0.23545601951890041 0 0.054632527195341951 0.25609310062991503 0 0.041198497273589277 0.23677087327239019 0 0.025514704308534739 0.25899389006193202 0 0.084452454610703109 0.24053838717567561 0 0.071955590129945443 0.25108389837817918 0 0.086231138119857415 0.25636820749620531 0 0.084452454610703109 0.24053838717567561 0 0.10148749821634501 0.24791079639650351 0 0.084452454610703109 0.24053838717567561 0 0.10148749821634501 0.24791079639650351 0 0.086231138119857415 0.25636820749620531 0 0.064287906083042565 0.23545601951890041 0 0.054632527195341951 0.25609310062991503 0 0.071955590129945443 0.25108389837817918 0 0.084452454610703109 0.24053838717567561 0 0.064287906083042565 0.23545601951890041 0 0.080158383454505058 0.2277771535360327 0 0.084452454610703109 0.24053838717567561 0 0.064287906083042565 0.23545601951890041 0 0.071955590129945443 0.25108389837817918 0 0.064287906083042565 0.23545601951890041 0 0.070464475735603715 0.22103890595801531 0 0.080158383454505058 0.2277771535360327 0 0.056882290238644377 0.21454785648284899 0 0.064287906083042565 0.23545601951890041 0 0.070464475735603715 0.22103890595801531 0 0.070464475735603715 0.22103890595801531 0 0.080158383454505058 0.2277771535360327 0 0.083688081234002301 0.21622484789760019 0 0.084452454610703109 0.24053838717567561 0 0.080158383454505058 0.2277771535360327 0 0.097898999609173629 0.22562760712997221 0 0.080158383454505058 0.2277771535360327 0 0.083688081234002301 0.21622484789760019 0 0.097898999609173629 0.22562760712997221 0 0.083688081234002301 0.21622484789760019 0 0.096149552115319337 0.2088480340846047 0 0.097898999609173629 0.22562760712997221 0 0.083688081234002301 0.21622484789760019 0 0.073763240915275016 0.2084496759905218 0 0.085215274164425162 0.19811192992083629 0 0.083688081234002301 0.21622484789760019 0 0.085215274164425162 0.19811192992083629 0 0.096149552115319337 0.2088480340846047 0 0.056882290238644377 0.21454785648284899 0 0.073763240915275016 0.2084496759905218 0 0.072566083203699533 0.1923248396933078 0 0.056882290238644377 0.21454785648284899 0 0.072566083203699533 0.1923248396933078 0 0.070464475735603715 0.22103890595801531 0 0.083688081234002301 0.21622484789760019 0 0.073763240915275016 0.2084496759905218 0 0.056882290238644377 0.21454785648284899 0 0.070464475735603715 0.22103890595801531 0 0.073763240915275016 0.2084496759905218 0 0.073763240915275016 0.2084496759905218 0 0.072566083203699533 0.1923248396933078 0 0.085215274164425162 0.19811192992083629 0 0.072566083203699533 0.1923248396933078 0 0.085215274164425162 0.19811192992083629 0 0.081398026202644747 0.18414073053191379 0 0.085215274164425162 0.19811192992083629 0 0.081398026202644747 0.18414073053191379 0 0.093515016601125947 0.184381570948703 0 0.085215274164425162 0.19811192992083629 0 0.1035156957301559 0.1931703997955774 0 0.096149552115319337 0.2088480340846047 0 0.085215274164425162 0.19811192992083629 0 0.1035156957301559 0.1931703997955774 0 0.093515016601125947 0.184381570948703 0 0.1035156957301559 0.1931703997955774 0 0.1200146126140107 0.1954694167724465 0 0.1042819797734048 0.17635003697721241 0 0.1035156957301559 0.1931703997955774 0 0.1200146126140107 0.1954694167724465 0 0.11042970983883971 0.21110538567903739 0 0.11042970983883971 0.21110538567903739 0 0.13005588437042109 0.22229091508470181 0 0.1200146126140107 0.1954694167724465 0 0.11042970983883971 0.21110538567903739 0 0.1348483357580065 0.2144729306314066 0 0.1035156957301559 0.1931703997955774 0 0.11042970983883971 0.21110538567903739 0 0.096149552115319337 0.2088480340846047 0 0.11042970983883971 0.21110538567903739 0 0.096149552115319337 0.2088480340846047 0 0.097898999609173629 0.22562760712997221 0 0.097898999609173629 0.22562760712997221 0 0.1155573692879505 0.22505775278482471 0 0.10513904445095 0.23664600308855899 0 0.084452454610703109 0.24053838717567561 0 0.097898999609173629 0.22562760712997221 0 0.10513904445095 0.23664600308855899 0 0.11042970983883971 0.21110538567903739 0 0.097898999609173629 0.22562760712997221 0 0.1155573692879505 0.22505775278482471 0 0.11042970983883971 0.21110538567903739 0 0.1155573692879505 0.22505775278482471 0 0.13005588437042109 0.22229091508470181 0 0.1155573692879505 0.22505775278482471 0 0.1243760278998567 0.2301764676573424 0 0.13005588437042109 0.22229091508470181 0 0.1155573692879505 0.22505775278482471 0 0.1243760278998567 0.2301764676573424 0 0.1179336768660661 0.23631503511891219 0 0.1155573692879505 0.22505775278482471 0 0.1179336768660661 0.23631503511891219 0 0.10513904445095 0.23664600308855899 0 0.1179336768660661 0.23631503511891219 0 0.1135042681154614 0.24442643992546559 0 0.10513904445095 0.23664600308855899 0 0.1135042681154614 0.24442643992546559 0 0.10148749821634501 0.24791079639650351 0 0.1185225418219875 0.25528320561733031 0 0.1179336768660661 0.23631503511891219 0 0.1238176916648828 0.24490491638607981 0 0.13136892594410321 0.23692495532828509 0 0.1243760278998567 0.2301764676573424 0 0.1179336768660661 0.23631503511891219 0 0.13136892594410321 0.23692495532828509 0 0.1179336768660661 0.23631503511891219 0 0.1238176916648828 0.24490491638607981 0 0.1135042681154614 0.24442643992546559 0 0.1238176916648828 0.24490491638607981 0 0.1135042681154614 0.24442643992546559 0 0.1185225418219875 0.25528320561733031 0 0.1135042681154614 0.24442643992546559 0 0.10513904445095 0.23664600308855899 0 0.10148749821634501 0.24791079639650351 0 0.084452454610703109 0.24053838717567561 0 0.10513904445095 0.23664600308855899 0 0.10148749821634501 0.24791079639650351 0 0.085051917644502123 0.14635246726203391 0 0.093024675364848514 0.14872674457202981 0 0.09615405001627253 0.12870854768493159 0 0.084637763138603883 0.15014806064585859 0 0.093024675364848514 0.14872674457202981 0 0.098306695964931107 0.16765935918371089 0 0.085051917644502123 0.14635246726203391 0 0.073949785272732022 0.16399638683913639 0 0.085051917644502123 0.14635246726203391 0 0.084637763138603883 0.15014806064585859 0 0.073949785272732022 0.16399638683913639 0 0.085051917644502123 0.14635246726203391 0 0.084637763138603883 0.15014806064585859 0 0.093024675364848514 0.14872674457202981 0 0.085051917644502123 0.14635246726203391 0 0.083580806203604266 0.13117722807920459 0 0.09615405001627253 0.12870854768493159 0 0.085051917644502123 0.14635246726203391 0 0.09615405001627253 0.12870854768493159 0 0.090762933221051778 0.11596897662700251 0 0.083580806203604266 0.13117722807920459 0 0.09615405001627253 0.12870854768493159 0 0.085051917644502123 0.14635246726203391 0 0.083580806203604266 0.13117722807920459 0 0.070454899834163642 0.13127812458349161 0 0.053883740737737468 0.140117972571739 0 0.070454899834163642 0.13127812458349161 0 0.071170693308862915 0.1495634846590693 0 0.075978384660917983 0.1127760489251996 0 0.083580806203604266 0.13117722807920459 0 0.070454899834163642 0.13127812458349161 0 0.085051917644502123 0.14635246726203391 0 0.071170693308862915 0.1495634846590693 0 0.073949785272732022 0.16399638683913639 0 0.085051917644502123 0.14635246726203391 0 0.070454899834163642 0.13127812458349161 0 0.071170693308862915 0.1495634846590693 0 0.058417136084020022 0.1559153190313641 0 0.071170693308862915 0.1495634846590693 0 0.067297753719681691 0.15839459399643921 0 0.069035178104847258 0.17180686240540971 0 0.073949785272732022 0.16399638683913639 0 0.086658578939125944 0.17407844969131139 0 0.058417136084020022 0.1559153190313641 0 0.067297753719681691 0.15839459399643921 0 0.062782505472912351 0.1644915979217782 0 0.067297753719681691 0.15839459399643921 0 0.067873362930078257 0.16461326665985479 0 0.072378014422871895 0.16376001231579149 0 0.067297753719681691 0.15839459399643921 0 0.062782505472912351 0.1644915979217782 0 0.067873362930078257 0.16461326665985479 0 0.069035178104847258 0.17180686240540971 0 0.067873362930078257 0.16461326665985479 0 0.072378014422871895 0.16376001231579149 0 0.062782505472912351 0.1644915979217782 0 0.069035178104847258 0.17180686240540971 0 0.067873362930078257 0.16461326665985479 0 0.069035178104847258 0.17180686240540971 0 0.073949785272732022 0.16399638683913639 0 0.069035178104847258 0.17180686240540971 0 0.072378014422871895 0.16376001231579149 0 0.073949785272732022 0.16399638683913639 0 0.071170693308862915 0.1495634846590693 0 0.067297753719681691 0.15839459399643921 0 0.073949785272732022 0.16399638683913639 0 0.067297753719681691 0.15839459399643921 0 0.072378014422871895 0.16376001231579149 0 0.073949785272732022 0.16399638683913639 0 0.072378014422871895 0.16376001231579149 0 0.073949785272732022 0.16399638683913639 0 0.072566083203699533 0.1923248396933078 0 0.069035178104847258 0.17180686240540971 0 0.081398026202644747 0.18414073053191379 0 0.055895386804587117 0.19268910495109859 0 0.072566083203699533 0.1923248396933078 0 0.069035178104847258 0.17180686240540971 0 0.069035178104847258 0.17180686240540971 0 0.086658578939125944 0.17407844969131139 0 0.069035178104847258 0.17180686240540971 0 0.081398026202644747 0.18414073053191379 0 0.086658578939125944 0.17407844969131139 0 0.081398026202644747 0.18414073053191379 0 0.086658578939125944 0.17407844969131139 0 0.093515016601125947 0.184381570948703 0 0.084637763138603883 0.15014806064585859 0 0.073949785272732022 0.16399638683913639 0 0.098306695964931107 0.16765935918371089 0 0.084637763138603883 0.15014806064585859 0 0.098306695964931107 0.16765935918371089 0 0.073949785272732022 0.16399638683913639 0 0.098306695964931107 0.16765935918371089 0 0.073949785272732022 0.16399638683913639 0 0.086658578939125944 0.17407844969131139 0 0.098306695964931107 0.16765935918371089 0 0.098306695964931107 0.16765935918371089 0 0.10463454705354019 0.16861098822366261 0 0.099437551920094319 0.1538028948096673 0 0.093024675364848514 0.14872674457202981 0 0.098306695964931107 0.16765935918371089 0 0.099437551920094319 0.1538028948096673 0 0.098306695964931107 0.16765935918371089 0 0.10463454705354019 0.16861098822366261 0 0.098306695964931107 0.16765935918371089 0 0.10463454705354019 0.16861098822366261 0 0.1042819797734048 0.17635003697721241 0 0.1035156957301559 0.1931703997955774 0 0.093515016601125947 0.184381570948703 0 0.1042819797734048 0.17635003697721241 0 0.086658578939125944 0.17407844969131139 0 0.093515016601125947 0.184381570948703 0 0.1042819797734048 0.17635003697721241 0 0.1035156957301559 0.1931703997955774 0 0.1042819797734048 0.17635003697721241 0 0.086658578939125944 0.17407844969131139 0 0.098306695964931107 0.16765935918371089 0 0.1042819797734048 0.17635003697721241 0 0.086658578939125944 0.17407844969131139 0 0.1042819797734048 0.17635003697721241 0 0.098306695964931107 0.16765935918371089 0 0.1042819797734048 0.17635003697721241 0 0.10463454705354019 0.16861098822366261 0 0.108343380064243 0.17687353555449481 0 0.1042819797734048 0.17635003697721241 0 0.10463454705354019 0.16861098822366261 0 0.1042819797734048 0.17635003697721241 0 0.108343380064243 0.17687353555449481 0 0.1042819797734048 0.17635003697721241 0 0.1200146126140107 0.1954694167724465 0 0.1042819797734048 0.17635003697721241 0 0.10463454705354019 0.16861098822366261 0 0.108343380064243 0.17687353555449481 0 0.12036703782368161 0.17991102482518639 0 0.10463454705354019 0.16861098822366261 0 0.12036703782368161 0.17991102482518639 0 0.1333351036914272 0.17292719016597891 0 0.1200146126140107 0.1954694167724465 0 0.108343380064243 0.17687353555449481 0 0.1042819797734048 0.17635003697721241 0 0.1200146126140107 0.1954694167724465 0 0.108343380064243 0.17687353555449481 0 0.12036703782368161 0.17991102482518639 0 0.10463454705354019 0.16861098822366261 0 0.11991413234655771 0.16361028318829179 0 0.1333351036914272 0.17292719016597891 0 0.10463454705354019 0.16861098822366261 0 0.11991413234655771 0.16361028318829179 0 0.105945364720791 0.1398378081657459 0 0.10463454705354019 0.16861098822366261 0 0.1333351036914272 0.17292719016597891 0 0.105945364720791 0.1398378081657459 0 0.12790696203591231 0.1359390878551987 0 0.12776646877314529 0.1515289379647399 0 0.11991413234655771 0.16361028318829179 0 0.105945364720791 0.1398378081657459 0 0.12776646877314529 0.1515289379647399 0 0.10463454705354019 0.16861098822366261 0 0.105945364720791 0.1398378081657459 0 0.10463454705354019 0.16861098822366261 0 0.099437551920094319 0.1538028948096673 0 0.105945364720791 0.1398378081657459 0 0.093024675364848514 0.14872674457202981 0 0.099437551920094319 0.1538028948096673 0 0.105945364720791 0.1398378081657459 0 0.1072561823880426 0.1110646281078292 0 0.105945364720791 0.1398378081657459 0 0.093024675364848514 0.14872674457202981 0 0.09615405001627253 0.12870854768493159 0 0.105945364720791 0.1398378081657459 0 0.1072561823880426 0.1110646281078292 0 0.09615405001627253 0.12870854768493159 0 0.105945364720791 0.1398378081657459 0 0.1197485665525596 0.12378280399914469 0 0.105945364720791 0.1398378081657459 0 0.12790696203591231 0.1359390878551987 0 0.1197485665525596 0.12378280399914469 0 0.12790696203591231 0.1359390878551987 0 0.13227009923155661 0.1217404696001354 0 0.12790696203591231 0.1359390878551987 0 0.14071796957562399 0.13360818130983479 0 0.13961792374118959 0.14589077937009889 0 0.14071796957562399 0.13360818130983479 0 0.13227009923155661 0.1217404696001354 0 0.1426883030740152 0.1248218674886631 0 0.12790696203591231 0.1359390878551987 0 0.14071796957562399 0.13360818130983479 0 0.13227009923155661 0.1217404696001354 0 0.14071796957562399 0.13360818130983479 0 0.13961792374118959 0.14589077937009889 0 0.1567120625855031 0.1359140248086787 0 0.14071796957562399 0.13360818130983479 0 0.1567120625855031 0.1359140248086787 0 0.1426883030740152 0.1248218674886631 0 0.1567120625855031 0.1359140248086787 0 0.15085115082574091 0.1210206254230821 0 0.1567120625855031 0.1359140248086787 0 0.1426883030740152 0.1248218674886631 0 0.15085115082574091 0.1210206254230821 0 0.14976281630174421 0.15377740133380771 0 0.1567120625855031 0.1359140248086787 0 0.14976281630174421 0.15377740133380771 0 0.13961792374118959 0.14589077937009889 0 0.1567120625855031 0.1359140248086787 0 0.14976281630174421 0.15377740133380771 0 0.13961792374118959 0.14589077937009889 0 0.1369807412441767 0.16023357084433559 0 0.13961792374118959 0.14589077937009889 0 0.12776646877314529 0.1515289379647399 0 0.1369807412441767 0.16023357084433559 0 0.12790696203591231 0.1359390878551987 0 0.13961792374118959 0.14589077937009889 0 0.12776646877314529 0.1515289379647399 0 0.11991413234655771 0.16361028318829179 0 0.12776646877314529 0.1515289379647399 0 0.12949911151382679 0.16207499554083649 0 0.12776646877314529 0.1515289379647399 0 0.12949911151382679 0.16207499554083649 0 0.1369807412441767 0.16023357084433559 0 0.11991413234655771 0.16361028318829179 0 0.12949911151382679 0.16207499554083649 0 0.1333351036914272 0.17292719016597891 0 0.12949911151382679 0.16207499554083649 0 0.1369807412441767 0.16023357084433559 0 0.1333351036914272 0.17292719016597891 0 0.1369807412441767 0.16023357084433559 0 0.1333351036914272 0.17292719016597891 0 0.14281357001798581 0.17164077785893689 0 0.1200146126140107 0.1954694167724465 0 0.12036703782368161 0.17991102482518639 0 0.13550754569518719 0.18567399340934959 0 0.12036703782368161 0.17991102482518639 0 0.1333351036914272 0.17292719016597891 0 0.13550754569518719 0.18567399340934959 0 0.1333351036914272 0.17292719016597891 0 0.13550754569518719 0.18567399340934959 0 0.14693338663056371 0.18096092101390679 0 0.1333351036914272 0.17292719016597891 0 0.14693338663056371 0.18096092101390679 0 0.16203566032931421 0.17724339210829509 0 0.1333351036914272 0.17292719016597891 0 0.14281357001798581 0.17164077785893689 0 0.16203566032931421 0.17724339210829509 0 0.1333351036914272 0.17292719016597891 0 0.16203566032931421 0.17724339210829509 0 0.13550754569518719 0.18567399340934959 0 0.14693338663056371 0.18096092101390679 0 0.14799056986721701 0.1901244490692221 0 0.14693338663056371 0.18096092101390679 0 0.15547991936900649 0.1844536891043784 0 0.14799056986721701 0.1901244490692221 0 0.14693338663056371 0.18096092101390679 0 0.15547991936900649 0.1844536891043784 0 0.16203566032931421 0.17724339210829509 0 0.14976281630174421 0.15377740133380771 0 0.1369807412441767 0.16023357084433559 0 0.14281357001798581 0.17164077785893689 0 0.14976281630174421 0.15377740133380771 0 0.14281357001798581 0.17164077785893689 0 0.14281357001798581 0.17164077785893689 0 0.1547560307496815 0.16644319754265949 0 0.16203566032931421 0.17724339210829509 0 0.14976281630174421 0.15377740133380771 0 0.14281357001798581 0.17164077785893689 0 0.1547560307496815 0.16644319754265949 0 0.14976281630174421 0.15377740133380771 0 0.1547560307496815 0.16644319754265949 0 0.16714715398803709 0.1624310566722377 0 0.1547560307496815 0.16644319754265949 0 0.16714715398803709 0.1624310566722377 0 0.16203566032931421 0.17724339210829509 0 0.16714715398803709 0.1624310566722377 0 0.16913472753867881 0.17793222107462911 0 0.16714715398803709 0.1624310566722377 0 0.16913472753867881 0.17793222107462911 0 0.17509816627940289 0.1826356948631889 0 0.16714715398803709 0.1624310566722377 0 0.17509816627940289 0.1826356948631889 0 0.15547991936900649 0.1844536891043784 0 0.16129334197381859 0.18330628030698581 0 0.15885493459413111 0.19163438256998949 0 0.15547991936900649 0.1844536891043784 0 0.16129334197381859 0.18330628030698581 0 0.16203566032931421 0.17724339210829509 0 0.16714715398803709 0.1624310566722377 0 0.16203566032931421 0.17724339210829509 0 0.16913472753867881 0.17793222107462911 0 0.16129334197381859 0.18330628030698581 0 0.16203566032931421 0.17724339210829509 0 0.16913472753867881 0.17793222107462911 0 0.16913472753867881 0.17793222107462911 0 0.17509816627940289 0.1826356948631889 0 0.17112230108932211 0.19343338547702019 0 0.16913472753867881 0.17793222107462911 0 0.17112230108932211 0.19343338547702019 0 0.16913472753867881 0.17793222107462911 0 0.17112230108932211 0.19343338547702019 0 0.16498702432548371 0.1877146731427651 0 0.16129334197381859 0.18330628030698581 0 0.16913472753867881 0.17793222107462911 0 0.16498702432548371 0.1877146731427651 0 0.17509816627940289 0.1826356948631889 0 0.1824338270074092 0.16271344116436881 0 0.17509816627940289 0.1826356948631889 0 0.1824338270074092 0.16271344116436881 0 0.19265253473434499 0.17961504712923279 0 0.16714715398803709 0.1624310566722377 0 0.17509816627940289 0.1826356948631889 0 0.1824338270074092 0.16271344116436881 0 0.16714715398803709 0.1624310566722377 0 0.1824338270074092 0.16271344116436881 0 0.1750096885596579 0.1505041380914578 0 0.1824338270074092 0.16271344116436881 0 0.18976948773541649 0.14279118746554911 0 0.1824338270074092 0.16271344116436881 0 0.1750096885596579 0.1505041380914578 0 0.18976948773541649 0.14279118746554911 0 0.1750096885596579 0.1505041380914578 0 0.17126056422282651 0.13141147479892981 0 0.18976948773541649 0.14279118746554911 0 0.17126056422282651 0.13141147479892981 0 0.18976948773541649 0.14279118746554911 0 0.17985699198080149 0.12181250809276491 0 0.17126056422282651 0.13141147479892981 0 0.16458282487053469 0.1424317528882974 0 0.1620184957530334 0.1224324491043569 0 0.1567120625855031 0.1359140248086787 0 0.16458282487053469 0.1424317528882974 0 0.1620184957530334 0.1224324491043569 0 0.16458282487053469 0.1424317528882974 0 0.1620184957530334 0.1224324491043569 0 0.1567120625855031 0.1359140248086787 0 0.15085115082574091 0.1210206254230821 0 0.1620184957530334 0.1224324491043569 0 0.1567120625855031 0.1359140248086787 0 0.1620184957530334 0.1224324491043569 0 0.16714715398803709 0.1624310566722377 0 0.16458282487053469 0.1424317528882974 0 0.16714715398803709 0.1624310566722377 0 0.1567120625855031 0.1359140248086787 0 0.16458282487053469 0.1424317528882974 0 0.1750096885596579 0.1505041380914578 0 0.17126056422282651 0.13141147479892981 0 0.16458282487053469 0.1424317528882974 0 0.16714715398803709 0.1624310566722377 0 0.1750096885596579 0.1505041380914578 0 0.16458282487053469 0.1424317528882974 0 0.16714715398803709 0.1624310566722377 0 0.1567120625855031 0.1359140248086787 0 0.14976281630174421 0.15377740133380771 0 0.16714715398803709 0.1624310566722377 0 0.1567120625855031 0.1359140248086787 0 0.13836745630598729 0.2498439252871798 0 0.1496820589020024 0.23347644449036639 0 0.1582123707899874 0.2444046449570304 0 0.13836745630598729 0.2498439252871798 0 0.1582123707899874 0.2444046449570304 0 0.1496820589020024 0.23347644449036639 0 0.1582123707899874 0.2444046449570304 0 0.13836745630598729 0.2498439252871798 0 0.13136892594410321 0.23692495532828509 0 0.1496820589020024 0.23347644449036639 0 0.1238176916648828 0.24490491638607981 0 0.13836745630598729 0.2498439252871798 0 0.13136892594410321 0.23692495532828509 0 0.13136892594410321 0.23692495532828509 0 0.13005588437042109 0.22229091508470181 0 0.1496820589020024 0.23347644449036639 0 0.13005588437042109 0.22229091508470181 0 0.1496820589020024 0.23347644449036639 0 0.1348483357580065 0.2144729306314066 0 0.13005588437042109 0.22229091508470181 0 0.1496820589020024 0.23347644449036639 0 0.1243760278998567 0.2301764676573424 0 0.13136892594410321 0.23692495532828509 0 0.13005588437042109 0.22229091508470181 0 0.1496820589020024 0.23347644449036639 0 0.1348483357580065 0.2144729306314066 0 0.1496820589020024 0.23347644449036639 0 0.15228926864005829 0.21264746224336181 0 0.1348483357580065 0.2144729306314066 0 0.1496820589020024 0.23347644449036639 0 0.15228926864005829 0.21264746224336181 0 0.1633239162833488 0.22830598039072761 0 0.15228926864005829 0.21264746224336181 0 0.1348483357580065 0.2144729306314066 0 0.1403418570279435 0.19936902924961319 0 0.15228926864005829 0.21264746224336181 0 0.15154083097092799 0.19908186581639481 0 0.15965763489420531 0.2024883794463862 0 0.15228926864005829 0.21264746224336181 0 0.1403418570279435 0.19936902924961319 0 0.15154083097092799 0.19908186581639481 0 0.11042970983883971 0.21110538567903739 0 0.13005588437042109 0.22229091508470181 0 0.1348483357580065 0.2144729306314066 0 0.1200146126140107 0.1954694167724465 0 0.1348483357580065 0.2144729306314066 0 0.1200146126140107 0.1954694167724465 0 0.1348483357580065 0.2144729306314066 0 0.1403418570279435 0.19936902924961319 0 0.1200146126140107 0.1954694167724465 0 0.13550754569518719 0.18567399340934959 0 0.1403418570279435 0.19936902924961319 0 0.13550754569518719 0.18567399340934959 0 0.1403418570279435 0.19936902924961319 0 0.14799056986721701 0.1901244490692221 0 0.1403418570279435 0.19936902924961319 0 0.14799056986721701 0.1901244490692221 0 0.15154083097092799 0.19908186581639481 0 0.14799056986721701 0.1901244490692221 0 0.15154083097092799 0.19908186581639481 0 0.15885493459413111 0.19163438256998949 0 0.15547991936900649 0.1844536891043784 0 0.14799056986721701 0.1901244490692221 0 0.15885493459413111 0.19163438256998949 0 0.16129334197381859 0.18330628030698581 0 0.15885493459413111 0.19163438256998949 0 0.16498702432548371 0.1877146731427651 0 0.15885493459413111 0.19163438256998949 0 0.16511095189269709 0.19829818384451381 0 0.1659860677948122 0.19345755327731401 0 0.15885493459413111 0.19163438256998949 0 0.1659860677948122 0.19345755327731401 0 0.16498702432548371 0.1877146731427651 0 0.15885493459413111 0.19163438256998949 0 0.15965763489420531 0.2024883794463862 0 0.16511095189269709 0.19829818384451381 0 0.15154083097092799 0.19908186581639481 0 0.15885493459413111 0.19163438256998949 0 0.15965763489420531 0.2024883794463862 0 0.16511095189269709 0.19829818384451381 0 0.17026040350754981 0.1957741347187244 0 0.1659860677948122 0.19345755327731401 0 0.16511095189269709 0.19829818384451381 0 0.17026040350754981 0.1957741347187244 0 0.17274104556137221 0.20605803736908099 0 0.17026040350754981 0.1957741347187244 0 0.17112230108932211 0.19343338547702019 0 0.17274104556137221 0.20605803736908099 0 0.15965763489420531 0.2024883794463862 0 0.16511095189269709 0.19829818384451381 0 0.17274104556137221 0.20605803736908099 0 0.17026040350754981 0.1957741347187244 0 0.17112230108932211 0.19343338547702019 0 0.17026040350754981 0.1957741347187244 0 0.17112230108932211 0.19343338547702019 0 0.1659860677948122 0.19345755327731401 0 0.17112230108932211 0.19343338547702019 0 0.1659860677948122 0.19345755327731401 0 0.16498702432548371 0.1877146731427651 0 0.17509816627940289 0.1826356948631889 0 0.17112230108932211 0.19343338547702019 0 0.1830130295305743 0.20274847326932591 0 0.17509816627940289 0.1826356948631889 0 0.17112230108932211 0.19343338547702019 0 0.17509816627940289 0.1826356948631889 0 0.1830130295305743 0.20274847326932591 0 0.19265253473434499 0.17961504712923279 0 0.17509816627940289 0.1826356948631889 0 0.1830130295305743 0.20274847326932591 0 0.17112230108932211 0.19343338547702019 0 0.17274104556137221 0.20605803736908099 0 0.17112230108932211 0.19343338547702019 0 0.1830130295305743 0.20274847326932591 0 0.17274104556137221 0.20605803736908099 0 0.17274104556137221 0.20605803736908099 0 0.17486936861339919 0.22265691267620849 0 0.17274104556137221 0.20605803736908099 0 0.1828077235702838 0.21536554707536279 0 0.17486936861339919 0.22265691267620849 0 0.1830130295305743 0.20274847326932591 0 0.17274104556137221 0.20605803736908099 0 0.17274104556137221 0.20605803736908099 0 0.1854485354439398 0.20893743562886449 0 0.1828077235702838 0.21536554707536279 0 0.1830130295305743 0.20274847326932591 0 0.17274104556137221 0.20605803736908099 0 0.1854485354439398 0.20893743562886449 0 0.1830130295305743 0.20274847326932591 0 0.1854485354439398 0.20893743562886449 0 0.1854485354439398 0.20893743562886449 0 0.1828077235702838 0.21536554707536279 0 0.19268452715253259 0.21534105747640839 0 0.15228926864005829 0.21264746224336181 0 0.17274104556137221 0.20605803736908099 0 0.16543609506699131 0.21688338783816979 0 0.15228926864005829 0.21264746224336181 0 0.15965763489420531 0.2024883794463862 0 0.17274104556137221 0.20605803736908099 0 0.15228926864005829 0.21264746224336181 0 0.17274104556137221 0.20605803736908099 0 0.17274104556137221 0.20605803736908099 0 0.16543609506699131 0.21688338783816979 0 0.17486936861339919 0.22265691267620849 0 0.1633239162833488 0.22830598039072761 0 0.17486936861339919 0.22265691267620849 0 0.1769976916654257 0.23925578798333619 0 0.15228926864005829 0.21264746224336181 0 0.16543609506699131 0.21688338783816979 0 0.1633239162833488 0.22830598039072761 0 0.16543609506699131 0.21688338783816979 0 0.1633239162833488 0.22830598039072761 0 0.17486936861339919 0.22265691267620849 0 0.17486936861339919 0.22265691267620849 0 0.1769976916654257 0.23925578798333619 0 0.17486936861339919 0.22265691267620849 0 0.1833538426208971 0.2300395399590239 0 0.1769976916654257 0.23925578798333619 0 0.17486936861339919 0.22265691267620849 0 0.1833538426208971 0.2300395399590239 0 0.18829514108017459 0.2238342922262514 0 0.1828077235702838 0.21536554707536279 0 0.17486936861339919 0.22265691267620849 0 0.18829514108017459 0.2238342922262514 0 0.1769976916654257 0.23925578798333619 0 0.188788352349437 0.2486923718105859 0 0.19554126487626461 0.23417319147742879 0 0.1833538426208971 0.2300395399590239 0 0.1769976916654257 0.23925578798333619 0 0.19554126487626461 0.23417319147742879 0 0.1769976916654257 0.23925578798333619 0 0.17660249971292161 0.24881918903895031 0 0.1795440413456616 0.25911486942791973 0 0.1769976916654257 0.23925578798333619 0 0.19554126487626461 0.23417319147742879 0 0.1769976916654257 0.23925578798333619 0 0.1795440413456616 0.25911486942791973 0 0.1769976916654257 0.23925578798333619 0 0.188788352349437 0.2486923718105859 0 0.1795440413456616 0.25911486942791973 0 0.1769976916654257 0.23925578798333619 0 0.17660249971292161 0.24881918903895031 0 0.16540004083399479 0.24243458092266479 0 0.17660249971292161 0.24881918903895031 0 0.16540004083399479 0.24243458092266479 0 0.1656904407291214 0.25398481605413842 0 0.17660249971292161 0.24881918903895031 0 0.16540004083399479 0.24243458092266479 0 0.1496820589020024 0.23347644449036639 0 0.16540004083399479 0.24243458092266479 0 0.1496820589020024 0.23347644449036639 0 0.16540004083399479 0.24243458092266479 0 0.1582123707899874 0.2444046449570304 0 0.1496820589020024 0.23347644449036639 0 0.1633239162833488 0.22830598039072761 0 0.16540004083399479 0.24243458092266479 0 0.1769976916654257 0.23925578798333619 0 0.16540004083399479 0.24243458092266479 0 0.1633239162833488 0.22830598039072761 0 0.1769976916654257 0.23925578798333619 0 0.16540004083399479 0.24243458092266479 0 0.1582123707899874 0.2444046449570304 0 0.1656904407291214 0.25398481605413842 0 0.16540004083399479 0.24243458092266479 0 0.1582123707899874 0.2444046449570304 0 0.1656904407291214 0.25398481605413842 0 0.16540004083399479 0.24243458092266479 0 0.1582123707899874 0.2444046449570304 0 0.21917711640616669 0.23178902800878909 0 0.2148249139701513 0.25353746840638303 0 0.20890060047308209 0.24008437007675029 0 0.21917711640616669 0.23178902800878909 0 0.2148249139701513 0.25353746840638303 0 0.20890060047308209 0.24008437007675029 0 0.19554126487626461 0.23417319147742879 0 0.2140848380871036 0.22909059497152179 0 0.20890060047308209 0.24008437007675029 0 0.2004570248863248 0.25152357100306377 0 0.2148249139701513 0.25353746840638303 0 0.20890060047308209 0.24008437007675029 0 0.19554126487626461 0.23417319147742879 0 0.2004570248863248 0.25152357100306377 0 0.188788352349437 0.2486923718105859 0 0.19554126487626461 0.23417319147742879 0 0.2004570248863248 0.25152357100306377 0 0.19554126487626461 0.23417319147742879 0 0.19892498405292611 0.22600542205216631 0 0.2140848380871036 0.22909059497152179 0 0.1833538426208971 0.2300395399590239 0 0.19554126487626461 0.23417319147742879 0 0.18829514108017459 0.2238342922262514 0 0.19554126487626461 0.23417319147742879 0 0.18829514108017459 0.2238342922262514 0 0.19892498405292611 0.22600542205216631 0 0.18829514108017459 0.2238342922262514 0 0.19892498405292611 0.22600542205216631 0 0.19268452715253259 0.21534105747640839 0 0.19892498405292611 0.22600542205216631 0 0.20720440990156461 0.22326580014446781 0 0.20182857368119919 0.21659179116595209 0 0.19892498405292611 0.22600542205216631 0 0.20182857368119919 0.21659179116595209 0 0.19268452715253259 0.21534105747640839 0 0.20720440990156461 0.22326580014446781 0 0.21211224065031609 0.22001972190016611 0 0.20182857368119919 0.21659179116595209 0 0.21211224065031609 0.22001972190016611 0 0.22352931884218219 0.21004058761119529 0 0.21917711640616669 0.23178902800878909 0 0.19554126487626461 0.23417319147742879 0 0.2140848380871036 0.22909059497152179 0 0.19892498405292611 0.22600542205216631 0 0.20720440990156461 0.22326580014446781 0 0.2140848380871036 0.22909059497152179 0 0.2140848380871036 0.22909059497152179 0 0.21211224065031609 0.22001972190016611 0 0.21917711640616669 0.23178902800878909 0 0.20890060047308209 0.24008437007675029 0 0.2140848380871036 0.22909059497152179 0 0.21917711640616669 0.23178902800878909 0 0.20720440990156461 0.22326580014446781 0 0.2140848380871036 0.22909059497152179 0 0.21211224065031609 0.22001972190016611 0 0.21211224065031609 0.22001972190016611 0 0.2078448392483592 0.20986185181291681 0 0.22352931884218219 0.21004058761119529 0 0.2078448392483592 0.20986185181291681 0 0.20544727540438709 0.1955203102414643 0 0.22352931884218219 0.21004058761119529 0 0.2078448392483592 0.20986185181291681 0 0.1963067876637114 0.2071368481458061 0 0.20544727540438709 0.1955203102414643 0 0.21211224065031609 0.22001972190016611 0 0.2078448392483592 0.20986185181291681 0 0.20182857368119919 0.21659179116595209 0 0.20182857368119919 0.21659179116595209 0 0.19268452715253259 0.21534105747640839 0 0.1963067876637114 0.2071368481458061 0 0.2078448392483592 0.20986185181291681 0 0.20182857368119919 0.21659179116595209 0 0.1963067876637114 0.2071368481458061 0 0.1828077235702838 0.21536554707536279 0 0.18829514108017459 0.2238342922262514 0 0.19268452715253259 0.21534105747640839 0 0.1854485354439398 0.20893743562886449 0 0.19268452715253259 0.21534105747640839 0 0.1963067876637114 0.2071368481458061 0 0.1830130295305743 0.20274847326932591 0 0.1854485354439398 0.20893743562886449 0 0.1963067876637114 0.2071368481458061 0 0.1830130295305743 0.20274847326932591 0 0.20544727540438709 0.1955203102414643 0 0.1830130295305743 0.20274847326932591 0 0.1963067876637114 0.2071368481458061 0 0.20544727540438709 0.1955203102414643 0 0.1830130295305743 0.20274847326932591 0 0.20544727540438709 0.1955203102414643 0 0.19265253473434499 0.17961504712923279 0 0.20544727540438709 0.1955203102414643 0 0.22788152127819961 0.1882921472136018 0 0.21897230663779629 0.18093281102888939 0 0.20544727540438709 0.1955203102414643 0 0.22788152127819961 0.1882921472136018 0 0.22788152127819961 0.1882921472136018 0 0.22352931884218219 0.21004058761119529 0 0.23388042057983599 0.19563744338480221 0 0.2397934480118703 0.20305204217784681 0 0.22352931884218219 0.21004058761119529 0 0.23388042057983599 0.19563744338480221 0 0.22788152127819961 0.1882921472136018 0 0.22352931884218219 0.21004058761119529 0 0.20544727540438709 0.1955203102414643 0 0.22788152127819961 0.1882921472136018 0 0.22352931884218219 0.21004058761119529 0 0.23388042057983599 0.19563744338480221 0 0.22788152127819961 0.1882921472136018 0 0.23446290618832791 0.18617166929127399 0 0.23388042057983599 0.19563744338480221 0 0.24237584989740679 0.18790697330907211 0 0.23446290618832791 0.18617166929127399 0 0.2397934480118703 0.20305204217784681 0 0.25053223063961699 0.209180953877251 0 0.25327692367436438 0.19184118522532931 0 0.24237584989740679 0.18790697330907211 0 0.2397934480118703 0.20305204217784681 0 0.25327692367436438 0.19184118522532931 0 0.23388042057983599 0.19563744338480221 0 0.24237584989740679 0.18790697330907211 0 0.2397934480118703 0.20305204217784681 0 0.2397934480118703 0.20305204217784681 0 0.23782290017268881 0.22094249809482111 0 0.25053223063961699 0.209180953877251 0 0.23782290017268881 0.22094249809482111 0 0.24928818712813069 0.22177134864970191 0 0.25053223063961699 0.209180953877251 0 0.2397934480118703 0.20305204217784681 0 0.22352931884218219 0.21004058761119529 0 0.23782290017268881 0.22094249809482111 0 0.22352931884218219 0.21004058761119529 0 0.21917711640616669 0.23178902800878909 0 0.23782290017268881 0.22094249809482111 0 0.21917711640616669 0.23178902800878909 0 0.23782290017268881 0.22094249809482111 0 0.2347272103877184 0.2362731469857971 0 0.22352931884218219 0.21004058761119529 0 0.21917711640616669 0.23178902800878909 0 0.23782290017268881 0.22094249809482111 0 0.24928818712813069 0.22177134864970191 0 0.24771278979313671 0.23449037935316691 0 0.23782290017268881 0.22094249809482111 0 0.2347272103877184 0.2362731469857971 0 0.24771278979313671 0.23449037935316691 0 0.24771278979313671 0.23449037935316691 0 0.24146168562089759 0.25309978414275958 0 0.26007206654130183 0.24598283735499671 0 0.2347272103877184 0.2362731469857971 0 0.24771278979313671 0.23449037935316691 0 0.24146168562089759 0.25309978414275958 0 0.21917711640616669 0.23178902800878909 0 0.2347272103877184 0.2362731469857971 0 0.2148249139701513 0.25353746840638303 0 0.2347272103877184 0.2362731469857971 0 0.2148249139701513 0.25353746840638303 0 0.2347272103877184 0.2362731469857971 0 0.2148249139701513 0.25353746840638303 0 0.24146168562089759 0.25309978414275958 0 0.2105618152528016 0.15286977233098731 0 0.21602914332695389 0.13943818218715509 0 0.20568868615826311 0.1347154193320115 0 0.2105618152528016 0.15286977233098731 0 0.21602914332695389 0.13943818218715509 0 0.2242208621982173 0.14854858457697551 0 0.21602914332695389 0.13943818218715509 0 0.21348326422818631 0.127078085556424 0 0.22644681293078869 0.13533261864929011 0 0.21602914332695389 0.13943818218715509 0 0.21348326422818631 0.127078085556424 0 0.20568868615826311 0.1347154193320115 0 0.21348326422818631 0.127078085556424 0 0.20568868615826311 0.1347154193320115 0 0.20829358632635669 0.1235542100756452 0 0.20568868615826311 0.1347154193320115 0 0.20829358632635669 0.1235542100756452 0 0.19710514846342439 0.12286893376672969 0 0.21348326422818631 0.127078085556424 0 0.20829358632635669 0.1235542100756452 0 0.20568868615826311 0.1347154193320115 0 0.18976948773541649 0.14279118746554911 0 0.19710514846342439 0.12286893376672969 0 0.18976948773541649 0.14279118746554911 0 0.19710514846342439 0.12286893376672969 0 0.17985699198080149 0.12181250809276491 0 0.18976948773541649 0.14279118746554911 0 0.19710514846342439 0.12286893376672969 0 0.1824338270074092 0.16271344116436881 0 0.18976948773541649 0.14279118746554911 0 0.1978122488785066 0.16200193622106121 0 0.2105618152528016 0.15286977233098731 0 0.20568868615826311 0.1347154193320115 0 0.18976948773541649 0.14279118746554911 0 0.2105618152528016 0.15286977233098731 0 0.18976948773541649 0.14279118746554911 0 0.1978122488785066 0.16200193622106121 0 0.1978122488785066 0.16200193622106121 0 0.19265253473434499 0.17961504712923279 0 0.2105777429490181 0.17212062101680839 0 0.1824338270074092 0.16271344116436881 0 0.1978122488785066 0.16200193622106121 0 0.19265253473434499 0.17961504712923279 0 0.20544727540438709 0.1955203102414643 0 0.19265253473434499 0.17961504712923279 0 0.2105777429490181 0.17212062101680839 0 0.20544727540438709 0.1955203102414643 0 0.2105777429490181 0.17212062101680839 0 0.21897230663779629 0.18093281102888939 0 0.2105618152528016 0.15286977233098731 0 0.2105777429490181 0.17212062101680839 0 0.23198268691957999 0.16779816564368211 0 0.2105618152528016 0.15286977233098731 0 0.1978122488785066 0.16200193622106121 0 0.2105777429490181 0.17212062101680839 0 0.2105618152528016 0.15286977233098731 0 0.23198268691957999 0.16779816564368211 0 0.2242208621982173 0.14854858457697551 0 0.23198268691957999 0.16779816564368211 0 0.23608385256096209 0.14730418407376281 0 0.2105777429490181 0.17212062101680839 0 0.23198268691957999 0.16779816564368211 0 0.21897230663779629 0.18093281102888939 0 0.22788152127819961 0.1882921472136018 0 0.23198268691957999 0.16779816564368211 0 0.21897230663779629 0.18093281102888939 0 0.22788152127819961 0.1882921472136018 0 0.23198268691957999 0.16779816564368211 0 0.2363253893303543 0.17656610184392041 0 0.22788152127819961 0.1882921472136018 0 0.23198268691957999 0.16779816564368211 0 0.22788152127819961 0.1882921472136018 0 0.23446290618832791 0.18617166929127399 0 0.2363253893303543 0.17656610184392041 0 0.22788152127819961 0.1882921472136018 0 0.23446290618832791 0.18617166929127399 0 0.24237584989740679 0.18790697330907211 0 0.23446290618832791 0.18617166929127399 0 0.2363253893303543 0.17656610184392041 0 0.2363253893303543 0.17656610184392041 0 0.24865668826696641 0.1784961764540462 0 0.24799445479753701 0.16393354422487799 0 0.24237584989740679 0.18790697330907211 0 0.24865668826696641 0.1784961764540462 0 0.25327692367436438 0.19184118522532931 0 0.24237584989740679 0.18790697330907211 0 0.2363253893303543 0.17656610184392041 0 0.24865668826696641 0.1784961764540462 0 0.23198268691957999 0.16779816564368211 0 0.24799445479753701 0.16393354422487799 0 0.23608385256096209 0.14730418407376281 0 0.23198268691957999 0.16779816564368211 0 0.2363253893303543 0.17656610184392041 0 0.24799445479753701 0.16393354422487799 0 0.23608385256096209 0.14730418407376281 0 0.245148776391031 0.13846087242486829 0 0.25389438544166032 0.14621631020051851 0 0.24799445479753701 0.16393354422487799 0 0.23608385256096209 0.14730418407376281 0 0.25389438544166032 0.14621631020051851 0 0.23198268691957999 0.16779816564368211 0 0.23608385256096209 0.14730418407376281 0 0.2242208621982173 0.14854858457697551 0 0.23608385256096209 0.14730418407376281 0 0.2242208621982173 0.14854858457697551 0 0.22644681293078869 0.13533261864929011 0 0.21602914332695389 0.13943818218715509 0 0.2242208621982173 0.14854858457697551 0 0.22644681293078869 0.13533261864929011 0 0.21348326422818631 0.127078085556424 0 0.23816031204630961 0.1253835056226604 0 0.20829358632635669 0.1235542100756452 0 0.21348326422818631 0.127078085556424 0 0.22644681293078869 0.13533261864929011 0 0.23816031204630961 0.1253835056226604 0 0.23608385256096209 0.14730418407376281 0 0.22644681293078869 0.13533261864929011 0 0.2344168414350486 0.13284611217665851 0 0.22644681293078869 0.13533261864929011 0 0.23816031204630961 0.1253835056226604 0 0.2344168414350486 0.13284611217665851 0 0.23608385256096209 0.14730418407376281 0 0.24018501820234431 0.12681020250384351 0 0.245148776391031 0.13846087242486829 0 0.23816031204630961 0.1253835056226604 0 0.24018501820234431 0.12681020250384351 0 0.2344168414350486 0.13284611217665851 0 0.23816031204630961 0.1253835056226604 0 0.2588486672835914 0.12665063870130761 0 0.23608385256096209 0.14730418407376281 0 0.24018501820234431 0.12681020250384351 0 0.23608385256096209 0.14730418407376281 0 0.24018501820234431 0.12681020250384351 0 0.2344168414350486 0.13284611217665851 0 0.245148776391031 0.13846087242486829 0 0.2477059442553762 0.13254331619474599 0 0.25214324428892337 0.13609380042926811 0 0.24018501820234431 0.12681020250384351 0 0.2477059442553762 0.13254331619474599 0 0.25334673813920622 0.128808389421004 0 0.24018501820234431 0.12681020250384351 0 0.245148776391031 0.13846087242486829 0 0.2477059442553762 0.13254331619474599 0 0.23816031204630961 0.1253835056226604 0 0.25334673813920622 0.128808389421004 0 0.23816031204630961 0.1253835056226604 0 0.24018501820234431 0.12681020250384351 0 0.25334673813920622 0.128808389421004 0 0.23816031204630961 0.1253835056226604 0 0.25137412493594458 0.12084510434657129 0 0.2588486672835914 0.12665063870130761 0 0.23816031204630961 0.1253835056226604 0 0.24840820095022001 0.11440693261336581 0 0.25137412493594458 0.12084510434657129 0 0.23816031204630961 0.1253835056226604 0 0.24840820095022001 0.11440693261336581 0 0.2332020296518357 0.111735264545061 0 0.24840820095022001 0.11440693261336581 0 0.24291795956137399 0.1022484570291577 0 0.2332020296518357 0.111735264545061 0 0.24291795956137399 0.1022484570291577 0 0.22995957629003971 0.1012935105267407 0 0.2332020296518357 0.111735264545061 0 0.24291795956137399 0.1022484570291577 0 0.2294342715887922 0.086968393849165146 0 0.22995957629003971 0.1012935105267407 0 0.2229233242627624 0.095914947120004368 0 0.22921463322521321 0.089510545615428358 0 0.24291795956137399 0.1022484570291577 0 0.22995957629003971 0.1012935105267407 0 0.22921463322521321 0.089510545615428358 0 0.22995957629003971 0.1012935105267407 0 0.22098692842637641 0.10606655640757499 0 0.2332020296518357 0.111735264545061 0 0.22995957629003971 0.1012935105267407 0 0.22098692842637641 0.10606655640757499 0 0.2229233242627624 0.095914947120004368 0 0.23816031204630961 0.1253835056226604 0 0.21877920063669479 0.1210126250708668 0 0.23816031204630961 0.1253835056226604 0 0.20829358632635669 0.1235542100756452 0 0.23816031204630961 0.1253835056226604 0 0.21877920063669479 0.1210126250708668 0 0.20829358632635669 0.1235542100756452 0 0.23816031204630961 0.1253835056226604 0 0.2332020296518357 0.111735264545061 0 0.21877920063669479 0.1210126250708668 0 0.22098692842637641 0.10606655640757499 0 0.2332020296518357 0.111735264545061 0 0.21877920063669479 0.1210126250708668 0 0.21877920063669479 0.1210126250708668 0 0.19939808922708091 0.1166417445190695 0 0.21877920063669479 0.1210126250708668 0 0.20829358632635669 0.1235542100756452 0 0.19939808922708091 0.1166417445190695 0 0.21877920063669479 0.1210126250708668 0 0.2111521380187015 0.1103431241005948 0 0.19939808922708091 0.1166417445190695 0 0.20829358632635669 0.1235542100756452 0 0.19939808922708091 0.1166417445190695 0 0.22098692842637641 0.10606655640757499 0 0.21877920063669479 0.1210126250708668 0 0.2111521380187015 0.1103431241005948 0 0.2229233242627624 0.095914947120004368 0 0.2066516883592715 0.096942354443772749 0 0.21660802145628499 0.089937716106078869 0 0.2111521380187015 0.1103431241005948 0 0.2066516883592715 0.096942354443772749 0 0.19939808922708091 0.1166417445190695 0 0.22098692842637641 0.10606655640757499 0 0.2111521380187015 0.1103431241005948 0 0.2066516883592715 0.096942354443772749 0 0.22098692842637641 0.10606655640757499 0 0.2229233242627624 0.095914947120004368 0 0.2066516883592715 0.096942354443772749 0 0.19274350455864719 0.098731566298841944 0 0.19747462465251531 0.1162079595970759 0 0.18438424349863519 0.10731937844525589 0 0.2066516883592715 0.096942354443772749 0 0.19274350455864719 0.098731566298841944 0 0.19747462465251531 0.1162079595970759 0 0.2066516883592715 0.096942354443772749 0 0.19939808922708091 0.1166417445190695 0 0.19274350455864719 0.098731566298841944 0 0.1899832693808981 0.087207282535467792 0 0.1813736541239622 0.096643499483624995 0 0.2066516883592715 0.096942354443772749 0 0.19939808922708091 0.1166417445190695 0 0.19747462465251531 0.1162079595970759 0 0.19747462465251531 0.1162079595970759 0 0.18438424349863519 0.10731937844525589 0 0.19747462465251531 0.1162079595970759 0 0.18226112071026471 0.11277696912906759 0 0.18438424349863519 0.10731937844525589 0 0.19747462465251531 0.1162079595970759 0 0.18226112071026471 0.11277696912906759 0 0.19710514846342439 0.12286893376672969 0 0.17985699198080149 0.12181250809276491 0 0.19710514846342439 0.12286893376672969 0 0.19747462465251531 0.1162079595970759 0 0.18226112071026471 0.11277696912906759 0 0.20829358632635669 0.1235542100756452 0 0.19710514846342439 0.12286893376672969 0 0.19939808922708091 0.1166417445190695 0 0.20829358632635669 0.1235542100756452 0 0.19710514846342439 0.12286893376672969 0 0.19710514846342439 0.12286893376672969 0 0.19939808922708091 0.1166417445190695 0 0.19710514846342439 0.12286893376672969 0 0.19939808922708091 0.1166417445190695 0 0.19747462465251531 0.1162079595970759 0 0.19939808922708091 0.1166417445190695 0 0.19747462465251531 0.1162079595970759 0 0.19646089772674 0.075361425547207483 0 0.18674781540538871 0.08100403414777245 0 0.18006177890638431 0.075490679725150014 0 0.19646089772674 0.075361425547207483 0 0.1933347826930823 0.060759546768951851 0 0.1767546078390663 0.059172910654314632 0 0.20245827747030379 0.075071461512889306 0 0.19646089772674 0.075361425547207483 0 0.1933347826930823 0.060759546768951851 0 0.19646089772674 0.075361425547207483 0 0.1899832693808981 0.087207282535467792 0 0.18674781540538871 0.08100403414777245 0 0.19274350455864719 0.098731566298841944 0 0.1899832693808981 0.087207282535467792 0 0.20174659934571029 0.085192292516195325 0 0.2066516883592715 0.096942354443772749 0 0.19274350455864719 0.098731566298841944 0 0.20174659934571029 0.085192292516195325 0 0.19646089772674 0.075361425547207483 0 0.1899832693808981 0.087207282535467792 0 0.20174659934571029 0.085192292516195325 0 0.20245827747030379 0.075071461512889306 0 0.19646089772674 0.075361425547207483 0 0.20174659934571029 0.085192292516195325 0 0.2066516883592715 0.096942354443772749 0 0.21660802145628499 0.089937716106078869 0 0.2139052874914612 0.077242964368475581 0 0.2066516883592715 0.096942354443772749 0 0.20174659934571029 0.085192292516195325 0 0.2139052874914612 0.077242964368475581 0 0.2066516883592715 0.096942354443772749 0 0.2139052874914612 0.077242964368475581 0 0.20245827747030379 0.075071461512889306 0 0.20174659934571029 0.085192292516195325 0 0.2139052874914612 0.077242964368475581 0 0.21660802145628499 0.089937716106078869 0 0.2139052874914612 0.077242964368475581 0 0.22066281660893039 0.08815154330249679 0 0.20245827747030379 0.075071461512889306 0 0.2139052874914612 0.077242964368475581 0 0.1933347826930823 0.060759546768951851 0 0.21595058361621081 0.071688330669172226 0 0.2008057978172573 0.054525868564886178 0 0.2139052874914612 0.077242964368475581 0 0.1933347826930823 0.060759546768951851 0 0.21595058361621081 0.071688330669172226 0 0.2139052874914612 0.077242964368475581 0 0.1933347826930823 0.060759546768951851 0 0.21595058361621081 0.071688330669172226 0 0.2139052874914612 0.077242964368475581 0 0.21595058361621081 0.071688330669172226 0 0.22977253446495799 0.071121306143871243 0 0.22543052877653019 0.045942609930792612 0 0.21595058361621081 0.071688330669172226 0 0.22977253446495799 0.071121306143871243 0 0.2294342715887922 0.086968393849165146 0 0.22977253446495799 0.071121306143871243 0 0.2294342715887922 0.086968393849165146 0 0.23807492530058569 0.079481122261878159 0 0.2229233242627624 0.095914947120004368 0 0.22066281660893039 0.08815154330249679 0 0.22921463322521321 0.089510545615428358 0 0.2229233242627624 0.095914947120004368 0 0.21660802145628499 0.089937716106078869 0 0.22066281660893039 0.08815154330249679 0 0.2139052874914612 0.077242964368475581 0 0.22066281660893039 0.08815154330249679 0 0.22921463322521321 0.089510545615428358 0 0.21595058361621081 0.071688330669172226 0 0.2294342715887922 0.086968393849165146 0 0.21595058361621081 0.071688330669172226 0 0.2139052874914612 0.077242964368475581 0 0.2294342715887922 0.086968393849165146 0 0.2139052874914612 0.077242964368475581 0 0.22921463322521321 0.089510545615428358 0 0.2139052874914612 0.077242964368475581 0 0.22921463322521321 0.089510545615428358 0 0.2294342715887922 0.086968393849165146 0 0.24291795956137399 0.1022484570291577 0 0.22921463322521321 0.089510545615428358 0 0.2294342715887922 0.086968393849165146 0 0.24291795956137399 0.1022484570291577 0 0.24001164687283391 0.087860881032970975 0 0.24961943104058359 0.082745550991682973 0 0.24291795956137399 0.1022484570291577 0 0.2294342715887922 0.086968393849165146 0 0.24001164687283391 0.087860881032970975 0 0.2294342715887922 0.086968393849165146 0 0.24001164687283391 0.087860881032970975 0 0.23807492530058569 0.079481122261878159 0 0.24001164687283391 0.087860881032970975 0 0.23807492530058569 0.079481122261878159 0 0.24961943104058359 0.082745550991682973 0 0.23807492530058569 0.079481122261878159 0 0.24961943104058359 0.082745550991682973 0 0.24157985373237181 0.065308505426636604 0 0.22977253446495799 0.071121306143871243 0 0.23807492530058569 0.079481122261878159 0 0.24157985373237181 0.065308505426636604 0 0.24157985373237181 0.065308505426636604 0 0.22543052877653019 0.045942609930792612 0 0.25321812939551791 0.047923410168883913 0 0.22543052877653019 0.045942609930792612 0 0.25017114714460148 0.027935038219416852 0 0.25321812939551791 0.047923410168883913 0 0.22977253446495799 0.071121306143871243 0 0.24157985373237181 0.065308505426636604 0 0.22543052877653019 0.045942609930792612 0 0.21595058361621081 0.071688330669172226 0 0.22543052877653019 0.045942609930792612 0 0.2364155492444879 0.01524344595638903 0 0.2453786940251601 -0.0068958978480940566 0 0.2252186252630293 -0.001905012025652924 0 0.2364155492444879 0.01524344595638903 0 0.26602224933683999 0.001585018043547347 0 0.2453786940251601 -0.0068958978480940566 0 0.22543052877653019 0.045942609930792612 0 0.2364155492444879 0.01524344595638903 0 0.25017114714460148 0.027935038219416852 0 0.22543052877653019 0.045942609930792612 0 0.2364155492444879 0.01524344595638903 0 0.2166025557268057 0.01847297511256879 0 0.2364155492444879 0.01524344595638903 0 0.2166025557268057 0.01847297511256879 0 0.2252186252630293 -0.001905012025652924 0 0.2056422560813041 0.0044678359364639644 0 0.2166025557268057 0.01847297511256879 0 0.19123036879170949 0.01431327226320799 0 0.2056422560813041 0.0044678359364639644 0 0.2166025557268057 0.01847297511256879 0 0.2252186252630293 -0.001905012025652924 0 0.2166025557268057 0.01847297511256879 0 0.19123036879170949 0.01431327226320799 0 0.2072971735655624 0.033534252429154553 0 0.19123036879170949 0.01431327226320799 0 0.2072971735655624 0.033534252429154553 0 0.18566101201830409 0.037363406460599692 0 0.2056422560813041 0.0044678359364639644 0 0.19123036879170949 0.01431327226320799 0 0.19616664162111261 -0.0092357271221407307 0 0.21595058361621081 0.071688330669172226 0 0.2008057978172573 0.054525868564886178 0 0.1933347826930823 0.060759546768951851 0 0.21595058361621081 0.071688330669172226 0 0.21328516740018061 0.055957265969174663 0 0.2008057978172573 0.054525868564886178 0 0.21595058361621081 0.071688330669172226 0 0.22543052877653019 0.045942609930792612 0 0.21328516740018061 0.055957265969174663 0 0.21328516740018061 0.055957265969174663 0 0.21178970886120871 0.046423002226452063 0 0.2008057978172573 0.054525868564886178 0 0.22543052877653019 0.045942609930792612 0 0.21328516740018061 0.055957265969174663 0 0.21178970886120871 0.046423002226452063 0 0.21178970886120871 0.046423002226452063 0 0.2072971735655624 0.033534252429154553 0 0.2008057978172573 0.054525868564886178 0 0.22543052877653019 0.045942609930792612 0 0.21178970886120871 0.046423002226452063 0 0.2072971735655624 0.033534252429154553 0 0.22543052877653019 0.045942609930792612 0 0.2166025557268057 0.01847297511256879 0 0.2072971735655624 0.033534252429154553 0 0.2008057978172573 0.054525868564886178 0 0.18566101201830409 0.037363406460599692 0 0.2072971735655624 0.033534252429154553 0 0.2008057978172573 0.054525868564886178 0 0.18566101201830409 0.037363406460599692 0 0.2008057978172573 0.054525868564886178 0 0.1933347826930823 0.060759546768951851 0 0.18566101201830409 0.037363406460599692 0 0.1933347826930823 0.060759546768951851 0 0.17276427789470361 0.044276129169427657 0 0.18566101201830409 0.037363406460599692 0 0.1933347826930823 0.060759546768951851 0 0.1767546078390663 0.059172910654314632 0 0.17276427789470361 0.044276129169427657 0 0.1933347826930823 0.060759546768951851 0 0.17276427789470361 0.044276129169427657 0 0.17276427789470361 0.044276129169427657 0 0.18566101201830409 0.037363406460599692 0 0.17051622621935089 0.020200944356313231 0 0.17276427789470361 0.044276129169427657 0 0.15704831795139251 0.042984395761421768 0 0.15219377309632509 0.027792711569903539 0 0.17276427789470361 0.044276129169427657 0 0.15219377309632509 0.027792711569903539 0 0.1767546078390663 0.059172910654314632 0 0.15704831795139251 0.042984395761421768 0 0.1767546078390663 0.059172910654314632 0 0.15704831795139251 0.042984395761421768 0 0.15645842583778699 0.063790969125866737 0 0.1767546078390663 0.059172910654314632 0 0.17276427789470361 0.044276129169427657 0 0.15704831795139251 0.042984395761421768 0 0.19123036879170949 0.01431327226320799 0 0.17051622621935089 0.020200944356313231 0 0.16895567864545941 0.004835180427338678 0 0.19123036879170949 0.01431327226320799 0 0.16895567864545941 0.004835180427338678 0 0.17979020566437609 -0.0061718643226255166 0 0.18566101201830409 0.037363406460599692 0 0.17051622621935089 0.020200944356313231 0 0.19123036879170949 0.01431327226320799 0 0.18566101201830409 0.037363406460599692 0 0.17051622621935089 0.020200944356313231 0 0.17051622621935089 0.020200944356313231 0 0.1526184812893058 0.0087924494580814833 0 0.15219377309632509 0.027792711569903539 0 0.17276427789470361 0.044276129169427657 0 0.17051622621935089 0.020200944356313231 0 0.15219377309632509 0.027792711569903539 0 0.16895567864545941 0.004835180427338678 0 0.1526184812893058 0.0087924494580814833 0 0.15466091238919971 -0.0093276693272003365 0 0.17051622621935089 0.020200944356313231 0 0.16895567864545941 0.004835180427338678 0 0.1526184812893058 0.0087924494580814833 0 0.1526184812893058 0.0087924494580814833 0 0.13162326829794649 0.011309293970379429 0 0.13982110672202591 -0.0020998739402764322 0 0.1526184812893058 0.0087924494580814833 0 0.15219377309632509 0.027792711569903539 0 0.13162326829794649 0.011309293970379429 0 0.15219377309632509 0.027792711569903539 0 0.13162326829794649 0.011309293970379429 0 0.117635738176045 0.01060736597563606 0 0.13734202806371881 0.02679588086852893 0 0.13162326829794649 0.011309293970379429 0 0.1204266836067301 0.028106190247745941 0 0.117635738176045 0.01060736597563606 0 0.13734202806371881 0.02679588086852893 0 0.15219377309632509 0.027792711569903539 0 0.13734202806371881 0.02679588086852893 0 0.13162326829794649 0.011309293970379429 0 0.117635738176045 0.01060736597563606 0 0.13734202806371881 0.02679588086852893 0 0.13162326829794649 0.011309293970379429 0 0.13982110672202591 -0.0020998739402764322 0 0.12668019528294311 -0.0069025068300239542 0 0.14053202254027791 0.052776448756158598 0 0.12622612717380161 0.06782907403674196 0 0.15645842583778699 0.063790969125866737 0 0.15704831795139251 0.042984395761421768 0 0.14053202254027791 0.052776448756158598 0 0.15645842583778699 0.063790969125866737 0 0.15704831795139251 0.042984395761421768 0 0.15219377309632509 0.027792711569903539 0 0.13734202806371881 0.02679588086852893 0 0.15704831795139251 0.042984395761421768 0 0.13667051019140339 0.040171779957255377 0 0.14053202254027791 0.052776448756158598 0 0.15704831795139251 0.042984395761421768 0 0.13734202806371881 0.02679588086852893 0 0.15704831795139251 0.042984395761421768 0 0.13734202806371881 0.02679588086852893 0 0.13667051019140339 0.040171779957255377 0 0.12340016490575879 0.046874822406121633 0 0.13667051019140339 0.040171779957255377 0 0.14053202254027791 0.052776448756158598 0 0.12340016490575879 0.046874822406121633 0 0.1204266836067301 0.028106190247745941 0 0.13667051019140339 0.040171779957255377 0 0.1204266836067301 0.028106190247745941 0 0.13734202806371881 0.02679588086852893 0 0.13667051019140339 0.040171779957255377 0 0.12340016490575879 0.046874822406121633 0 0.14053202254027791 0.052776448756158598 0 0.12622612717380161 0.06782907403674196 0 0.12622612717380161 0.06782907403674196 0 0.14875999475927809 0.083129935665089333 0 0.12622612717380161 0.06782907403674196 0 0.14875999475927809 0.083129935665089333 0 0.12754373863290139 0.081534442741149349 0 0.12622612717380161 0.06782907403674196 0 0.14875999475927809 0.083129935665089333 0 0.15645842583778699 0.063790969125866737 0 0.14875999475927809 0.083129935665089333 0 0.12836022420896409 0.092531627049253523 0 0.14134060155354411 0.10354846321053369 0 0.14875999475927809 0.083129935665089333 0 0.12754373863290139 0.081534442741149349 0 0.12836022420896409 0.092531627049253523 0 0.119563865374456 0.08661203764115305 0 0.12754373863290139 0.081534442741149349 0 0.12836022420896409 0.092531627049253523 0 0.1156335863390732 0.097750947760012488 0 0.14134060155354411 0.10354846321053369 0 0.1156335863390732 0.097750947760012488 0 0.1337095497930447 0.1099736533109005 0 0.14134060155354411 0.10354846321053369 0 0.1156335863390732 0.097750947760012488 0 0.12836022420896409 0.092531627049253523 0 0.14134060155354411 0.10354846321053369 0 0.1337095497930447 0.1099736533109005 0 0.14499023906597799 0.10612722603748589 0 0.14134060155354411 0.10354846321053369 0 0.12220454349601249 0.11267110715563371 0 0.13227009923155661 0.1217404696001354 0 0.1337095497930447 0.1099736533109005 0 0.1337095497930447 0.1099736533109005 0 0.14106684694417571 0.1167792830609644 0 0.14499023906597799 0.10612722603748589 0 0.13227009923155661 0.1217404696001354 0 0.1337095497930447 0.1099736533109005 0 0.14106684694417571 0.1167792830609644 0 0.13227009923155661 0.1217404696001354 0 0.1426883030740152 0.1248218674886631 0 0.14106684694417571 0.1167792830609644 0 0.1426883030740152 0.1248218674886631 0 0.14106684694417571 0.1167792830609644 0 0.15085115082574091 0.1210206254230821 0 0.14106684694417571 0.1167792830609644 0 0.15085115082574091 0.1210206254230821 0 0.14499023906597799 0.10612722603748589 0 0.15085115082574091 0.1210206254230821 0 0.14499023906597799 0.10612722603748589 0 0.15085115082574091 0.1210206254230821 0 0.14499023906597799 0.10612722603748589 0 0.16058906419623289 0.1206323742265014 0 0.14499023906597799 0.10612722603748589 0 0.14134060155354411 0.10354846321053369 0 0.16704761676801461 0.10934597866105671 0 0.14134060155354411 0.10354846321053369 0 0.15593260882593821 0.098738464016732405 0 0.16704761676801461 0.10934597866105671 0 0.14875999475927809 0.083129935665089333 0 0.14134060155354411 0.10354846321053369 0 0.15593260882593821 0.098738464016732405 0 0.14134060155354411 0.10354846321053369 0 0.16704761676801461 0.10934597866105671 0 0.16704761676801461 0.10934597866105671 0 0.1712938623447551 0.098430797293435887 0 0.1755636190373823 0.1070297276323485 0 0.16704761676801461 0.10934597866105671 0 0.1712938623447551 0.098430797293435887 0 0.15593260882593821 0.098738464016732405 0 0.16704761676801461 0.10934597866105671 0 0.1712938623447551 0.098430797293435887 0 0.16260883549817881 0.1207560824187968 0 0.17985699198080149 0.12181250809276491 0 0.14499023906597799 0.10612722603748589 0 0.16704761676801461 0.10934597866105671 0 0.16058906419623289 0.1206323742265014 0 0.17126056422282651 0.13141147479892981 0 0.16260883549817881 0.1207560824187968 0 0.17985699198080149 0.12181250809276491 0 0.15085115082574091 0.1210206254230821 0 0.1620184957530334 0.1224324491043569 0 0.16058906419623289 0.1206323742265014 0 0.1620184957530334 0.1224324491043569 0 0.16260883549817881 0.1207560824187968 0 0.1620184957530334 0.1224324491043569 0 0.16058906419623289 0.1206323742265014 0 0.16260883549817881 0.1207560824187968 0 0.16058906419623289 0.1206323742265014 0 0.16260883549817881 0.1207560824187968 0 0.16704761676801461 0.10934597866105671 0 0.16058906419623289 0.1206323742265014 0 0.16260883549817881 0.1207560824187968 0 0.16704761676801461 0.10934597866105671 0 0.16260883549817881 0.1207560824187968 0 0.17369076686059659 0.11533422286205949 0 0.16704761676801461 0.10934597866105671 0 0.16260883549817881 0.1207560824187968 0 0.17126056422282651 0.13141147479892981 0 0.1620184957530334 0.1224324491043569 0 0.16260883549817881 0.1207560824187968 0 0.19710514846342439 0.12286893376672969 0 0.18226112071026471 0.11277696912906759 0 0.17985699198080149 0.12181250809276491 0 0.16260883549817881 0.1207560824187968 0 0.17369076686059659 0.11533422286205949 0 0.17985699198080149 0.12181250809276491 0 0.17369076686059659 0.11533422286205949 0 0.18226112071026471 0.11277696912906759 0 0.17985699198080149 0.12181250809276491 0 0.16704761676801461 0.10934597866105671 0 0.18226112071026471 0.11277696912906759 0 0.1755636190373823 0.1070297276323485 0 0.16704761676801461 0.10934597866105671 0 0.17369076686059659 0.11533422286205949 0 0.18226112071026471 0.11277696912906759 0 0.16704761676801461 0.10934597866105671 0 0.18226112071026471 0.11277696912906759 0 0.1712938623447551 0.098430797293435887 0 0.18438424349863519 0.10731937844525589 0 0.1813736541239622 0.096643499483624995 0 0.1712938623447551 0.098430797293435887 0 0.1813736541239622 0.096643499483624995 0 0.17375861417272681 0.092095032500215404 0 0.1712938623447551 0.098430797293435887 0 0.17375861417272681 0.092095032500215404 0 0.1712938623447551 0.098430797293435887 0 0.1755636190373823 0.1070297276323485 0 0.18438424349863519 0.10731937844525589 0 0.1712938623447551 0.098430797293435887 0 0.18438424349863519 0.10731937844525589 0 0.18226112071026471 0.11277696912906759 0 0.1755636190373823 0.1070297276323485 0 0.18438424349863519 0.10731937844525589 0 0.19274350455864719 0.098731566298841944 0 0.18438424349863519 0.10731937844525589 0 0.1813736541239622 0.096643499483624995 0 0.1899832693808981 0.087207282535467792 0 0.1813736541239622 0.096643499483624995 0 0.18048531560753231 0.085956748783264536 0 0.18048531560753231 0.085956748783264536 0 0.17375861417272681 0.092095032500215404 0 0.17388165320553201 0.081396407092069412 0 0.1813736541239622 0.096643499483624995 0 0.18048531560753231 0.085956748783264536 0 0.17375861417272681 0.092095032500215404 0 0.18048531560753231 0.085956748783264536 0 0.17388165320553201 0.081396407092069412 0 0.18006177890638431 0.075490679725150014 0 0.18048531560753231 0.085956748783264536 0 0.18674781540538871 0.08100403414777245 0 0.18006177890638431 0.075490679725150014 0 0.1899832693808981 0.087207282535467792 0 0.18048531560753231 0.085956748783264536 0 0.18674781540538871 0.08100403414777245 0 0.19646089772674 0.075361425547207483 0 0.1767546078390663 0.059172910654314632 0 0.19646089772674 0.075361425547207483 0 0.1767546078390663 0.059172910654314632 0 0.18006177890638431 0.075490679725150014 0 0.1767546078390663 0.059172910654314632 0 0.18006177890638431 0.075490679725150014 0 0.16988349453651341 0.071715393109957337 0 0.17388165320553201 0.081396407092069412 0 0.18006177890638431 0.075490679725150014 0 0.16988349453651341 0.071715393109957337 0 0.15645842583778699 0.063790969125866737 0 0.16988349453651341 0.071715393109957337 0 0.1652190628045033 0.081724181341759822 0 0.14875999475927809 0.083129935665089333 0 0.15645842583778699 0.063790969125866737 0 0.1652190628045033 0.081724181341759822 0 0.1767546078390663 0.059172910654314632 0 0.15645842583778699 0.063790969125866737 0 0.16988349453651341 0.071715393109957337 0 0.1712938623447551 0.098430797293435887 0 0.17375861417272681 0.092095032500215404 0 0.1652190628045033 0.081724181341759822 0 0.14875999475927809 0.083129935665089333 0 0.15593260882593821 0.098738464016732405 0 0.1712938623447551 0.098430797293435887 0 0.14875999475927809 0.083129935665089333 0 0.1712938623447551 0.098430797293435887 0 0.1652190628045033 0.081724181341759822 0 0.14875999475927809 0.083129935665089333 0 0.1712938623447551 0.098430797293435887 0 0.17388165320553201 0.081396407092069412 0 0.16988349453651341 0.071715393109957337 0 0.1652190628045033 0.081724181341759822 0 0.17375861417272681 0.092095032500215404 0 0.17388165320553201 0.081396407092069412 0 0.1652190628045033 0.081724181341759822 0 0.1063698352549685 0.47612105880577721 0 0.1104508424712793 0.49021265238869632 0 0.085991143028624276 0.48042530477739098 0 0.1063698352549685 0.47612105880577721 0 0.09928047883942244 0.46481778817942287 0 0.085991143028624276 0.48042530477739098 0 0.1063698352549685 0.47612105880577721 0 0.1137031824129478 0.47002893028295001 0 0.09928047883942244 0.46481778817942287 0 0.1104508424712793 0.49021265238869632 0 0.085991143028624276 0.48042530477739098 0 0.1058284706322776 0.5 0 0.1104508424712793 0.49021265238869632 0 0.085991143028624276 0.48042530477739098 0 0.1104508424712793 0.49021265238869632 0 0.1349105419139347 0.50000000000000089 0 0.1104508424712793 0.49021265238869632 0 0.1172784241851602 0.48239011809730559 0 0.1349105419139347 0.50000000000000089 0 0.1058284706322776 0.5 0 0.1104508424712793 0.49021265238869632 0 0.1349105419139347 0.50000000000000089 0 0.1172784241851602 0.48239011809730559 0 0.1137031824129478 0.47002893028295001 0 0.12633670454979751 0.4773000659454385 0 0.1063698352549685 0.47612105880577721 0 0.1104508424712793 0.49021265238869632 0 0.1172784241851602 0.48239011809730559 0 0.1063698352549685 0.47612105880577721 0 0.1172784241851602 0.48239011809730559 0 0.1137031824129478 0.47002893028295001 0 0.1137031824129478 0.47002893028295001 0 0.1214684810538849 0.46526649887380112 0 0.12633670454979751 0.4773000659454385 0 0.1214684810538849 0.46526649887380112 0 0.1217963043948825 0.45489592595541439 0 0.11211927828144171 0.46051461359786061 0 0.1217963043948825 0.45489592595541439 0 0.11211927828144171 0.46051461359786061 0 0.11166266856374631 0.45133589563795767 0 0.1137031824129478 0.47002893028295001 0 0.1214684810538849 0.46526649887380112 0 0.11211927828144171 0.46051461359786061 0 0.1239128792744965 0.4450890007155488 0 0.10987236013042601 0.43083481362690912 0 0.13267226055322601 0.44059772862736118 0 0.1217963043948825 0.45489592595541439 0 0.1239128792744965 0.4450890007155488 0 0.11597449591066381 0.44522024121029791 0 0.1217963043948825 0.45489592595541439 0 0.11166266856374631 0.45133589563795767 0 0.11597449591066381 0.44522024121029791 0 0.11166266856374631 0.45133589563795767 0 0.11597449591066381 0.44522024121029791 0 0.10766282546792021 0.442928671482474 0 0.1239128792744965 0.4450890007155488 0 0.11597449591066381 0.44522024121029791 0 0.10987236013042601 0.43083481362690912 0 0.11597449591066381 0.44522024121029791 0 0.10766282546792021 0.442928671482474 0 0.10987236013042601 0.43083481362690912 0 0.10152219740740991 0.45099068894757832 0 0.080597364117558731 0.45291750332881547 0 0.099663284649148115 0.43519704949154547 0 0.10766282546792021 0.442928671482474 0 0.10152219740740991 0.45099068894757832 0 0.099663284649148115 0.43519704949154547 0 0.11166266856374631 0.45133589563795767 0 0.10766282546792021 0.442928671482474 0 0.10152219740740991 0.45099068894757832 0 0.10152219740740991 0.45099068894757832 0 0.09928047883942244 0.46481778817942287 0 0.080597364117558731 0.45291750332881547 0 0.1137031824129478 0.47002893028295001 0 0.11211927828144171 0.46051461359786061 0 0.09928047883942244 0.46481778817942287 0 0.11211927828144171 0.46051461359786061 0 0.11166266856374631 0.45133589563795767 0 0.10152219740740991 0.45099068894757832 0 0.11211927828144171 0.46051461359786061 0 0.10152219740740991 0.45099068894757832 0 0.09928047883942244 0.46481778817942287 0 0.09928047883942244 0.46481778817942287 0 0.080597364117558731 0.45291750332881547 0 0.085991143028624276 0.48042530477739098 0 0.080597364117558731 0.45291750332881547 0 0.089358511469130153 0.42839270578543281 0 0.099663284649148115 0.43519704949154547 0 0.080597364117558731 0.45291750332881547 0 0.099663284649148115 0.43519704949154547 0 0.080597364117558731 0.45291750332881547 0 0.062974917109199627 0.43809366858153809 0 0.075166231665628802 0.42512195364195582 0 0.080597364117558731 0.45291750332881547 0 0.062974917109199627 0.43809366858153809 0 0.05870052706015625 0.45210419241280109 0 0.080597364117558731 0.45291750332881547 0 0.061531443585969278 0.4706379571660857 0 0.05870052706015625 0.45210419241280109 0 0.080597364117558731 0.45291750332881547 0 0.061531443585969278 0.4706379571660857 0 0.080597364117558731 0.45291750332881547 0 0.085991143028624276 0.48042530477739098 0 0.061531443585969278 0.4706379571660857 0 0.085991143028624276 0.48042530477739098 0 0.063660921245903834 0.48715830615924932 0 0.061531443585969278 0.4706379571660857 0 0.085991143028624276 0.48042530477739098 0 0.061531443585969278 0.4706379571660857 0 0.1058284706322776 0.5 0 0.085991143028624276 0.48042530477739098 0 0.076746399350620442 0.5 0 0.085991143028624276 0.48042530477739098 0 0.076746399350620442 0.5 0 0.063660921245903834 0.48715830615924932 0 0.076746399350620442 0.5 0 0.063660921245903834 0.48715830615924932 0 0.047664328068963369 0.5 0 0.063660921245903834 0.48715830615924932 0 0.047664328068963369 0.5 0 0.046371292195341807 0.48472826885276948 0 0.063660921245903834 0.48715830615924932 0 0.061531443585969278 0.4706379571660857 0 0.046371292195341807 0.48472826885276948 0 0.061531443585969278 0.4706379571660857 0 0.046371292195341807 0.48472826885276948 0 0.042220943572860242 0.46291101936705359 0 0.061531443585969278 0.4706379571660857 0 0.046371292195341807 0.48472826885276948 0 0.034434297849690369 0.47764286337759893 0 0.046371292195341807 0.48472826885276948 0 0.042220943572860242 0.46291101936705359 0 0.034434297849690369 0.47764286337759893 0 0.046371292195341807 0.48472826885276948 0 0.033667550335675603 0.48944300064882662 0 0.034434297849690369 0.47764286337759893 0 0.028574015181654689 0.4690232106195813 0 0.042220943572860242 0.46291101936705359 0 0.047664328068963369 0.5 0 0.033667550335675603 0.48944300064882662 0 0.01858225678730618 0.5 0 0.047664328068963369 0.5 0 0.046371292195341807 0.48472826885276948 0 0.033667550335675603 0.48944300064882662 0 0.033667550335675603 0.48944300064882662 0 0.01858225678730618 0.5 0 0.02133768796291954 0.48210881739976369 0 0.028574015181654689 0.4690232106195813 0 0.02133768796291954 0.48210881739976369 0 0.008313226868631108 0.45607532714149451 0 0.034434297849690369 0.47764286337759893 0 0.033667550335675603 0.48944300064882662 0 0.02133768796291954 0.48210881739976369 0 0.034434297849690369 0.47764286337759893 0 0.028574015181654689 0.4690232106195813 0 0.02133768796291954 0.48210881739976369 0 0.02133768796291954 0.48210881739976369 0 0.0067600946700270273 0.47816777778970271 0 0.0065726087299690919 0.48870131786084792 0 0.02133768796291954 0.48210881739976369 0 0.0067600946700270273 0.47816777778970271 0 0.003865451942241316 0.46645998822954698 0 -0.003317181276056179 0.4832299941147733 0 0.0067600946700270273 0.47816777778970271 0 0.003865451942241316 0.46645998822954698 0 0.02133768796291954 0.48210881739976369 0 0.008313226868631108 0.45607532714149451 0 -0.003317181276056179 0.4832299941147733 0 0.003865451942241316 0.46645998822954698 0 -0.003317181276056179 0.4832299941147733 0 0.0067600946700270273 0.47816777778970271 0 0.0065726087299690919 0.48870131786084792 0 0.01858225678730618 0.5 0 0.02133768796291954 0.48210881739976369 0 0.0065726087299690919 0.48870131786084792 0 -0.0104998144943511 0.50000000000000067 0 0.01858225678730618 0.5 0 0.0065726087299690919 0.48870131786084792 0 -0.0041427141010954563 0.43117820352575181 0 0.008313226868631108 0.45607532714149451 0 -0.0041427141010954563 0.43117820352575181 0 0.01450260092375362 0.44162438189958669 0 0.008313226868631108 0.45607532714149451 0 0.01450260092375362 0.44162438189958669 0 0.008313226868631108 0.45607532714149451 0 0.01450260092375362 0.44162438189958669 0 0.008313226868631108 0.45607532714149451 0 0.02291044355975114 0.45518408156802159 0 -0.0080611892009694042 0.45966402297224568 0 0.003865451942241316 0.46645998822954698 0 0.008313226868631108 0.45607532714149451 0 0.02133768796291954 0.48210881739976369 0 0.003865451942241316 0.46645998822954698 0 0.008313226868631108 0.45607532714149451 0 0.003865451942241316 0.46645998822954698 0 0.008313226868631108 0.45607532714149451 0 0.028574015181654689 0.4690232106195813 0 0.02291044355975114 0.45518408156802159 0 0.042220943572860242 0.46291101936705359 0 0.028574015181654689 0.4690232106195813 0 0.008313226868631108 0.45607532714149451 0 0.02291044355975114 0.45518408156802159 0 0.01450260092375362 0.44162438189958669 0 0.02291044355975114 0.45518408156802159 0 0.030124268371240381 0.44208190799368707 0 0.030124268371240381 0.44208190799368707 0 0.045187335182337057 0.43956011453996952 0 0.042220943572860242 0.46291101936705359 0 0.02291044355975114 0.45518408156802159 0 0.042220943572860242 0.46291101936705359 0 0.02291044355975114 0.45518408156802159 0 0.030124268371240381 0.44208190799368707 0 0.042220943572860242 0.46291101936705359 0 0.061531443585969278 0.4706379571660857 0 0.042220943572860242 0.46291101936705359 0 0.061531443585969278 0.4706379571660857 0 0.042220943572860242 0.46291101936705359 0 0.05870052706015625 0.45210419241280109 0 0.062974917109199627 0.43809366858153809 0 0.045187335182337057 0.43956011453996952 0 0.05870052706015625 0.45210419241280109 0 0.045187335182337057 0.43956011453996952 0 0.042220943572860242 0.46291101936705359 0 0.05870052706015625 0.45210419241280109 0 0.062974917109199627 0.43809366858153809 0 0.045187335182337057 0.43956011453996952 0 0.055223127520317272 0.42076457898414849 0 0.055223127520317272 0.42076457898414849 0 0.049910497270125469 0.40389767255475639 0 0.067911466746526983 0.40406965793341709 0 0.055223127520317272 0.42076457898414849 0 0.033562210441961171 0.41154978258243019 0 0.036464791502065712 0.42760094980250563 0 0.055223127520317272 0.42076457898414849 0 0.033562210441961171 0.41154978258243019 0 0.055223127520317272 0.42076457898414849 0 0.033562210441961171 0.41154978258243019 0 0.049910497270125469 0.40389767255475639 0 0.045187335182337057 0.43956011453996952 0 0.055223127520317272 0.42076457898414849 0 0.036464791502065712 0.42760094980250563 0 0.030124268371240381 0.44208190799368707 0 0.045187335182337057 0.43956011453996952 0 0.036464791502065712 0.42760094980250563 0 0.030124268371240381 0.44208190799368707 0 0.036464791502065712 0.42760094980250563 0 0.02069197497887635 0.42717343665767898 0 0.033562210441961171 0.41154978258243019 0 0.036464791502065712 0.42760094980250563 0 0.02069197497887635 0.42717343665767898 0 0.01450260092375362 0.44162438189958669 0 0.030124268371240381 0.44208190799368707 0 0.02069197497887635 0.42717343665767898 0 0.01450260092375362 0.44162438189958669 0 0.02069197497887635 0.42717343665767898 0 0.02069197497887635 0.42717343665767898 0 0.016452618500034839 0.41568247403494252 0 0.0097656019727410948 0.42762994459337322 0 0.033562210441961171 0.41154978258243019 0 0.01190129336360431 0.40233498618071378 0 0.033562210441961171 0.41154978258243019 0 0.016452618500034839 0.41568247403494252 0 0.01190129336360431 0.40233498618071378 0 0.033562210441961171 0.41154978258243019 0 0.02069197497887635 0.42717343665767898 0 0.016452618500034839 0.41568247403494252 0 0.016452618500034839 0.41568247403494252 0 0.0038792896312541398 0.41675659485323269 0 0.0097656019727410948 0.42762994459337322 0 0.016452618500034839 0.41568247403494252 0 0.0038792896312541398 0.41675659485323269 0 0.01190129336360431 0.40233498618071378 0 0.0038792896312541398 0.41675659485323269 0 0.01190129336360431 0.40233498618071378 0 -0.00178812290019577 0.40542848477950227 0 0.0038792896312541398 0.41675659485323269 0 0.01190129336360431 0.40233498618071378 0 -0.0041427141010954563 0.43117820352575181 0 0.0038792896312541398 0.41675659485323269 0 0.0097656019727410948 0.42762994459337322 0 -0.0041427141010954563 0.43117820352575181 0 0.01450260092375362 0.44162438189958669 0 0.0097656019727410948 0.42762994459337322 0 0.01450260092375362 0.44162438189958669 0 0.02069197497887635 0.42717343665767898 0 0.0097656019727410948 0.42762994459337322 0 -0.0069068780647111904 0.38028717016417002 0 0.0074705024925483098 0.38588226540941539 0 0.0013503109674801231 0.36998046726524803 0 0.011653707624183249 0.37529245869211608 0 0.0074705024925483098 0.38588226540941539 0 0.023926970176385939 0.38071574854352269 0 0.0074705024925483098 0.38588226540941539 0 0.01190129336360431 0.40233498618071378 0 0.023926970176385939 0.38071574854352269 0 0.011653707624183249 0.37529245869211608 0 0.0074705024925483098 0.38588226540941539 0 0.0013503109674801231 0.36998046726524803 0 -0.0074555354316463863 0.39410037470577192 0 0.0074705024925483098 0.38588226540941539 0 0.01190129336360431 0.40233498618071378 0 -0.0074555354316463863 0.39410037470577192 0 0.01190129336360431 0.40233498618071378 0 -0.00178812290019577 0.40542848477950227 0 -0.0074555354316463863 0.39410037470577192 0 0.01190129336360431 0.40233498618071378 0 0.01190129336360431 0.40233498618071378 0 0.023926970176385939 0.38071574854352269 0 0.01190129336360431 0.40233498618071378 0 0.023926970176385939 0.38071574854352269 0 0.037088745271515143 0.39368427658428912 0 0.033562210441961171 0.41154978258243019 0 0.01190129336360431 0.40233498618071378 0 0.037088745271515143 0.39368427658428912 0 0.023926970176385939 0.38071574854352269 0 0.043297479824803801 0.37723406192464248 0 0.037088745271515143 0.39368427658428912 0 0.043297479824803801 0.37723406192464248 0 0.037088745271515143 0.39368427658428912 0 0.055766936370306767 0.38942006668949702 0 0.033562210441961171 0.41154978258243019 0 0.037088745271515143 0.39368427658428912 0 0.049910497270125469 0.40389767255475639 0 0.037088745271515143 0.39368427658428912 0 0.049910497270125469 0.40389767255475639 0 0.055766936370306767 0.38942006668949702 0 0.049910497270125469 0.40389767255475639 0 0.055766936370306767 0.38942006668949702 0 0.067911466746526983 0.40406965793341709 0 0.043297479824803801 0.37723406192464248 0 0.055766936370306767 0.38942006668949702 0 0.063727723451410534 0.36587260418476641 0 0.070103944511574992 0.38306294696849191 0 0.084482970460401235 0.37662932842237501 0 0.063727723451410534 0.36587260418476641 0 0.055766936370306767 0.38942006668949702 0 0.070103944511574992 0.38306294696849191 0 0.063727723451410534 0.36587260418476641 0 0.070103944511574992 0.38306294696849191 0 0.084482970460401235 0.37662932842237501 0 0.080899831379304399 0.39408803446327711 0 0.084482970460401235 0.37662932842237501 0 0.080899831379304399 0.39408803446327711 0 0.095821715359335022 0.39053482388000338 0 0.080899831379304399 0.39408803446327711 0 0.089658311173945238 0.40989458011397512 0 0.095821715359335022 0.39053482388000338 0 0.080899831379304399 0.39408803446327711 0 0.067911466746526983 0.40406965793341709 0 0.089658311173945238 0.40989458011397512 0 0.070103944511574992 0.38306294696849191 0 0.080899831379304399 0.39408803446327711 0 0.067911466746526983 0.40406965793341709 0 0.055766936370306767 0.38942006668949702 0 0.070103944511574992 0.38306294696849191 0 0.067911466746526983 0.40406965793341709 0 0.055223127520317272 0.42076457898414849 0 0.067911466746526983 0.40406965793341709 0 0.075166231665628802 0.42512195364195582 0 0.067911466746526983 0.40406965793341709 0 0.075166231665628802 0.42512195364195582 0 0.089658311173945238 0.40989458011397512 0 0.062974917109199627 0.43809366858153809 0 0.055223127520317272 0.42076457898414849 0 0.075166231665628802 0.42512195364195582 0 0.080597364117558731 0.45291750332881547 0 0.075166231665628802 0.42512195364195582 0 0.089358511469130153 0.42839270578543281 0 0.089358511469130153 0.42839270578543281 0 0.089658311173945238 0.40989458011397512 0 0.10170736573936991 0.41883244235087203 0 0.075166231665628802 0.42512195364195582 0 0.089358511469130153 0.42839270578543281 0 0.089658311173945238 0.40989458011397512 0 0.10170736573936991 0.41883244235087203 0 0.1187292051807374 0.41747659565427558 0 0.1069451111670128 0.40486183517343483 0 0.089658311173945238 0.40989458011397512 0 0.10170736573936991 0.41883244235087203 0 0.1069451111670128 0.40486183517343483 0 0.089358511469130153 0.42839270578543281 0 0.10170736573936991 0.41883244235087203 0 0.099663284649148115 0.43519704949154547 0 0.10170736573936991 0.41883244235087203 0 0.099663284649148115 0.43519704949154547 0 0.1187292051807374 0.41747659565427558 0 0.099663284649148115 0.43519704949154547 0 0.1187292051807374 0.41747659565427558 0 0.10766282546792021 0.442928671482474 0 0.099663284649148115 0.43519704949154547 0 0.10987236013042601 0.43083481362690912 0 0.10987236013042601 0.43083481362690912 0 0.1187292051807374 0.41747659565427558 0 0.12620233195429839 0.42416344974828118 0 0.10987236013042601 0.43083481362690912 0 0.13267226055322601 0.44059772862736118 0 0.10987236013042601 0.43083481362690912 0 0.1239057842265244 0.43392498190170392 0 0.12620233195429839 0.42416344974828118 0 0.099663284649148115 0.43519704949154547 0 0.10987236013042601 0.43083481362690912 0 0.1187292051807374 0.41747659565427558 0 0.10987236013042601 0.43083481362690912 0 0.1239057842265244 0.43392498190170392 0 0.13267226055322601 0.44059772862736118 0 0.1187292051807374 0.41747659565427558 0 0.1200615964809767 0.39904280466233172 0 0.1069451111670128 0.40486183517343483 0 0.1200615964809767 0.39904280466233172 0 0.1123840315637407 0.3906630216550917 0 0.1244545087810657 0.3824564290118504 0 0.1200615964809767 0.39904280466233172 0 0.1123840315637407 0.3906630216550917 0 0.1069451111670128 0.40486183517343483 0 0.1123840315637407 0.3906630216550917 0 0.1244545087810657 0.3824564290118504 0 0.1053125312081498 0.37090542153649281 0 0.084482970460401235 0.37662932842237501 0 0.095821715359335022 0.39053482388000338 0 0.1053125312081498 0.37090542153649281 0 0.1123840315637407 0.3906630216550917 0 0.095821715359335022 0.39053482388000338 0 0.1053125312081498 0.37090542153649281 0 0.1123840315637407 0.3906630216550917 0 0.095821715359335022 0.39053482388000338 0 0.1069451111670128 0.40486183517343483 0 0.089658311173945238 0.40989458011397512 0 0.095821715359335022 0.39053482388000338 0 0.1069451111670128 0.40486183517343483 0 0.10461488998583079 0.34562470556563601 0 0.1053125312081498 0.37090542153649281 0 0.089912257837138784 0.35854141768190401 0 0.1244545087810657 0.3824564290118504 0 0.1053125312081498 0.37090542153649281 0 0.12700131613561219 0.35737421663998448 0 0.10461488998583079 0.34562470556563601 0 0.1053125312081498 0.37090542153649281 0 0.12700131613561219 0.35737421663998448 0 0.10461488998583079 0.34562470556563601 0 0.12702778418690511 0.32652750820722171 0 0.12700131613561219 0.35737421663998448 0 0.10461488998583079 0.34562470556563601 0 0.10109267685702419 0.32014056617718828 0 0.12702778418690511 0.32652750820722171 0 0.10109267685702419 0.32014056617718828 0 0.12705354576683239 0.30221262907165608 0 0.12702778418690511 0.32652750820722171 0 0.10461488998583079 0.34562470556563601 0 0.10109267685702419 0.32014056617718828 0 0.076774486125402955 0.33944209071881593 0 0.10109267685702419 0.32014056617718828 0 0.076774486125402955 0.33944209071881593 0 0.073839086005423896 0.31164599072861149 0 0.076774486125402955 0.33944209071881593 0 0.050207412723741067 0.32423963029641079 0 0.073839086005423896 0.31164599072861149 0 0.076774486125402955 0.33944209071881593 0 0.063727723451410534 0.36587260418476641 0 0.047544852796509482 0.34479228161216829 0 0.076774486125402955 0.33944209071881593 0 0.089912257837138784 0.35854141768190401 0 0.063727723451410534 0.36587260418476641 0 0.10461488998583079 0.34562470556563601 0 0.076774486125402955 0.33944209071881593 0 0.089912257837138784 0.35854141768190401 0 0.084482970460401235 0.37662932842237501 0 0.089912257837138784 0.35854141768190401 0 0.063727723451410534 0.36587260418476641 0 0.084482970460401235 0.37662932842237501 0 0.1053125312081498 0.37090542153649281 0 0.089912257837138784 0.35854141768190401 0 0.043297479824803801 0.37723406192464248 0 0.063727723451410534 0.36587260418476641 0 0.035952646989167461 0.35909651090633138 0 0.063727723451410534 0.36587260418476641 0 0.047544852796509482 0.34479228161216829 0 0.035952646989167461 0.35909651090633138 0 0.047544852796509482 0.34479228161216829 0 0.035952646989167461 0.35909651090633138 0 0.02938118465938002 0.34661180636478528 0 0.023926970176385939 0.38071574854352269 0 0.043297479824803801 0.37723406192464248 0 0.035952646989167461 0.35909651090633138 0 0.023926970176385939 0.38071574854352269 0 0.035952646989167461 0.35909651090633138 0 0.01386704686031863 0.36459135355027861 0 0.023926970176385939 0.38071574854352269 0 0.035952646989167461 0.35909651090633138 0 0.011653707624183249 0.37529245869211608 0 0.023926970176385939 0.38071574854352269 0 0.01386704686031863 0.36459135355027861 0 0.035952646989167461 0.35909651090633138 0 0.02938118465938002 0.34661180636478528 0 0.0167041027488764 0.35257988687610592 0 0.035952646989167461 0.35909651090633138 0 0.0167041027488764 0.35257988687610592 0 0.01386704686031863 0.36459135355027861 0 0.02938118465938002 0.34661180636478528 0 0.0167041027488764 0.35257988687610592 0 0.01553113159280259 0.34283164649007852 0 0.0167041027488764 0.35257988687610592 0 0.0078882559829680076 0.35435436720602709 0 0.0094437707158385644 0.34907571828868778 0 0.0167041027488764 0.35257988687610592 0 0.0078882559829680076 0.35435436720602709 0 0.01386704686031863 0.36459135355027861 0 0.0094437707158385644 0.34907571828868778 0 0.007263683341510758 0.34471677154446689 0 0.01553113159280259 0.34283164649007852 0 0.0167041027488764 0.35257988687610592 0 0.0094437707158385644 0.34907571828868778 0 0.01553113159280259 0.34283164649007852 0 0.007263683341510758 0.34471677154446689 0 0.0048242844513376858 0.34816487854211992 0 0.0020375589431177251 0.34499087952597668 0 0.0094437707158385644 0.34907571828868778 0 0.007263683341510758 0.34471677154446689 0 0.0048242844513376858 0.34816487854211992 0 0.0078882559829680076 0.35435436720602709 0 0.0094437707158385644 0.34907571828868778 0 0.0048242844513376858 0.34816487854211992 0 0.0078882559829680076 0.35435436720602709 0 0.0048242844513376858 0.34816487854211992 0 0.00071743957548701129 0.35115971082290298 0 -0.0010140984898514009 0.34509349531049133 0 0.00071743957548701129 0.35115971082290298 0 0.001641296120022755 0.34735224105037271 0 0.0048242844513376858 0.34816487854211992 0 0.00071743957548701129 0.35115971082290298 0 0.001641296120022755 0.34735224105037271 0 0.0048242844513376858 0.34816487854211992 0 0.001641296120022755 0.34735224105037271 0 0.0020375589431177251 0.34499087952597668 0 -0.0010140984898514009 0.34509349531049133 0 0.001641296120022755 0.34735224105037271 0 0.0020375589431177251 0.34499087952597668 0 -0.0010140984898514009 0.34509349531049133 0 0.0020375589431177251 0.34499087952597668 0 0.0078882559829680076 0.35435436720602709 0 0.00071743957548701129 0.35115971082290298 0 0.0017728915459497561 0.36055465515606772 0 0.0017728915459497561 0.36055465515606772 0 0.0013503109674801231 0.36998046726524803 0 0.01386704686031863 0.36459135355027861 0 0.011653707624183249 0.37529245869211608 0 0.0013503109674801231 0.36998046726524803 0 0.01386704686031863 0.36459135355027861 0 0.0078882559829680076 0.35435436720602709 0 0.0017728915459497561 0.36055465515606772 0 0.01386704686031863 0.36459135355027861 0 0.009487388233964434 0.32521442177448112 0 0.014735594300994651 0.33208680250222972 0 0.021361200557316589 0.31967841036024908 0 0.009487388233964434 0.32521442177448112 0 0.0069627414015887646 0.31622612010653162 0 0.021361200557316589 0.31967841036024908 0 0.0069627414015887646 0.31622612010653162 0 0.021361200557316589 0.31967841036024908 0 0.01414227198185208 0.31047388526271458 0 -0.00089345811280322289 0.31281964192298528 0 0.0069627414015887646 0.31622612010653162 0 0.00039920024997303749 0.32204683334877421 0 0.009487388233964434 0.32521442177448112 0 0.00039920024997303749 0.32204683334877421 0 0.0042723060148418691 0.33151040961871148 0 0.009487388233964434 0.32521442177448112 0 0.0069627414015887646 0.31622612010653162 0 0.00039920024997303749 0.32204683334877421 0 -0.002362718422269084 0.33650576944850441 0 0.0042723060148418691 0.33151040961871148 0 0.0065883502374982778 0.33952722083061521 0 -0.002362718422269084 0.33650576944850441 0 -0.00187256140503479 0.34084480581969251 0 0.0065883502374982778 0.33952722083061521 0 -0.00187256140503479 0.34084480581969251 0 -0.0010140984898514009 0.34509349531049133 0 0.0065883502374982778 0.33952722083061521 0 -0.0010140984898514009 0.34509349531049133 0 0.0020375589431177251 0.34499087952597668 0 0.0065883502374982778 0.33952722083061521 0 -0.0010140984898514009 0.34509349531049133 0 0.0065883502374982778 0.33952722083061521 0 0.007263683341510758 0.34471677154446689 0 0.0020375589431177251 0.34499087952597668 0 0.0065883502374982778 0.33952722083061521 0 0.007263683341510758 0.34471677154446689 0 0.0065883502374982778 0.33952722083061521 0 0.01553113159280259 0.34283164649007852 0 0.0065883502374982778 0.33952722083061521 0 0.01553113159280259 0.34283164649007852 0 0.014735594300994651 0.33208680250222972 0 0.0042723060148418691 0.33151040961871148 0 0.0065883502374982778 0.33952722083061521 0 0.014735594300994651 0.33208680250222972 0 0.009487388233964434 0.32521442177448112 0 0.0042723060148418691 0.33151040961871148 0 0.014735594300994651 0.33208680250222972 0 0.014735594300994651 0.33208680250222972 0 0.031173189169544171 0.33375870593924262 0 0.021361200557316589 0.31967841036024908 0 0.02938118465938002 0.34661180636478528 0 0.01553113159280259 0.34283164649007852 0 0.031173189169544171 0.33375870593924262 0 0.01553113159280259 0.34283164649007852 0 0.014735594300994651 0.33208680250222972 0 0.031173189169544171 0.33375870593924262 0 0.031173189169544171 0.33375870593924262 0 0.021361200557316589 0.31967841036024908 0 0.034531028706290358 0.32201534941784621 0 0.021361200557316589 0.31967841036024908 0 0.034531028706290358 0.32201534941784621 0 0.035382312374559619 0.31038465107548202 0 0.034531028706290358 0.32201534941784621 0 0.050207412723741067 0.32423963029641079 0 0.035382312374559619 0.31038465107548202 0 0.031173189169544171 0.33375870593924262 0 0.034531028706290358 0.32201534941784621 0 0.050207412723741067 0.32423963029641079 0 0.047544852796509482 0.34479228161216829 0 0.02938118465938002 0.34661180636478528 0 0.031173189169544171 0.33375870593924262 0 0.047544852796509482 0.34479228161216829 0 0.031173189169544171 0.33375870593924262 0 0.050207412723741067 0.32423963029641079 0 0.076774486125402955 0.33944209071881593 0 0.047544852796509482 0.34479228161216829 0 0.050207412723741067 0.32423963029641079 0 0.050207412723741067 0.32423963029641079 0 0.051330564964894278 0.30054801303897127 0 0.073839086005423896 0.31164599072861149 0 0.051330564964894278 0.30054801303897127 0 0.047322618103323277 0.27745687893597332 0 0.068072554241300043 0.2905043820852084 0 0.051330564964894278 0.30054801303897127 0 0.033159406341017869 0.28905654511214213 0 0.047322618103323277 0.27745687893597332 0 0.050207412723741067 0.32423963029641079 0 0.051330564964894278 0.30054801303897127 0 0.035382312374559619 0.31038465107548202 0 0.051330564964894278 0.30054801303897127 0 0.033159406341017869 0.28905654511214213 0 0.035382312374559619 0.31038465107548202 0 0.021361200557316589 0.31967841036024908 0 0.035382312374559619 0.31038465107548202 0 0.023169372159057209 0.30562841904324911 0 0.033159406341017869 0.28905654511214213 0 0.035382312374559619 0.31038465107548202 0 0.023169372159057209 0.30562841904324911 0 0.021361200557316589 0.31967841036024908 0 0.023169372159057209 0.30562841904324911 0 0.01414227198185208 0.31047388526271458 0 0.023169372159057209 0.30562841904324911 0 0.01602890696596011 0.29576189583594042 0 0.01414227198185208 0.31047388526271458 0 0.033159406341017869 0.28905654511214213 0 0.02123753907833309 0.28378308311488593 0 0.01602890696596011 0.29576189583594042 0 0.033159406341017869 0.28905654511214213 0 0.023169372159057209 0.30562841904324911 0 0.01602890696596011 0.29576189583594042 0 0.033159406341017869 0.28905654511214213 0 0.029337055324776921 0.27402521758703691 0 0.033159406341017869 0.28905654511214213 0 0.02123753907833309 0.28378308311488593 0 0.029337055324776921 0.27402521758703691 0 0.02123753907833309 0.28378308311488593 0 0.01602890696596011 0.29576189583594042 0 0.01129882064794634 0.2854446769742261 0 0.01602890696596011 0.29576189583594042 0 0.01129882064794634 0.2854446769742261 0 0.0029653021229256679 0.29229565189105722 0 0.01129882064794634 0.2854446769742261 0 0.0029653021229256679 0.29229565189105722 0 0.002795744170032055 0.27876245576157882 0 -0.0044395502485222883 0.30354347077297689 0 0.0029653021229256679 0.29229565189105722 0 0.0056490177755969826 0.30431772026844278 0 -0.00089345811280322289 0.31281964192298528 0 0.0069627414015887646 0.31622612010653162 0 0.0056490177755969826 0.30431772026844278 0 -0.0044395502485222883 0.30354347077297689 0 -0.00089345811280322289 0.31281964192298528 0 0.0056490177755969826 0.30431772026844278 0 0.0069627414015887646 0.31622612010653162 0 0.0056490177755969826 0.30431772026844278 0 0.01414227198185208 0.31047388526271458 0 0.01602890696596011 0.29576189583594042 0 0.0029653021229256679 0.29229565189105722 0 0.0056490177755969826 0.30431772026844278 0 0.01602890696596011 0.29576189583594042 0 0.0056490177755969826 0.30431772026844278 0 0.01414227198185208 0.31047388526271458 0 0.0098196489738565339 0.24907858526724799 0 0.01025151234772265 0.26209185674429819 0 0.025514704308534739 0.25899389006193202 0 -0.0053765651385902042 0.25470293159257312 0 0.0098196489738565339 0.24907858526724799 0 0.01025151234772265 0.26209185674429819 0 -0.0050120886927738752 0.26825511850815892 0 0.01025151234772265 0.26209185674429819 0 0.002795744170032055 0.27876245576157882 0 0.01025151234772265 0.26209185674429819 0 0.002795744170032055 0.27876245576157882 0 0.01484775156357063 0.27410833785352989 0 0.01129882064794634 0.2854446769742261 0 0.002795744170032055 0.27876245576157882 0 0.01484775156357063 0.27410833785352989 0 0.01484775156357063 0.27410833785352989 0 0.025514704308534739 0.25899389006193202 0 0.01484775156357063 0.27410833785352989 0 0.029337055324776921 0.27402521758703691 0 0.025514704308534739 0.25899389006193202 0 0.02123753907833309 0.28378308311488593 0 0.01129882064794634 0.2854446769742261 0 0.01484775156357063 0.27410833785352989 0 0.02123753907833309 0.28378308311488593 0 0.01484775156357063 0.27410833785352989 0 0.029337055324776921 0.27402521758703691 0 0.029337055324776921 0.27402521758703691 0 0.025514704308534739 0.25899389006193202 0 0.01025151234772265 0.26209185674429819 0 0.01484775156357063 0.27410833785352989 0 0.025514704308534739 0.25899389006193202 0 0.041198497273589277 0.23677087327239019 0 0.03960108044111324 0.26066799209744951 0 0.054632527195341951 0.25609310062991503 0 0.041198497273589277 0.23677087327239019 0 0.025514704308534739 0.25899389006193202 0 0.03960108044111324 0.26066799209744951 0 0.029337055324776921 0.27402521758703691 0 0.025514704308534739 0.25899389006193202 0 0.03960108044111324 0.26066799209744951 0 0.033159406341017869 0.28905654511214213 0 0.029337055324776921 0.27402521758703691 0 0.047322618103323277 0.27745687893597332 0 0.029337055324776921 0.27402521758703691 0 0.03960108044111324 0.26066799209744951 0 0.047322618103323277 0.27745687893597332 0 0.047322618103323277 0.27745687893597332 0 0.054632527195341951 0.25609310062991503 0 0.070173924640782148 0.26696377707019958 0 0.047322618103323277 0.27745687893597332 0 0.070173924640782148 0.26696377707019958 0 0.068072554241300043 0.2905043820852084 0 0.03960108044111324 0.26066799209744951 0 0.047322618103323277 0.27745687893597332 0 0.054632527195341951 0.25609310062991503 0 0.071955590129945443 0.25108389837817918 0 0.086231138119857415 0.25636820749620531 0 0.070173924640782148 0.26696377707019958 0 0.054632527195341951 0.25609310062991503 0 0.071955590129945443 0.25108389837817918 0 0.070173924640782148 0.26696377707019958 0 0.086231138119857415 0.25636820749620531 0 0.092118934599372732 0.27366999629543448 0 0.098420879217757856 0.26063371267202651 0 0.086231138119857415 0.25636820749620531 0 0.092118934599372732 0.27366999629543448 0 0.070173924640782148 0.26696377707019958 0 0.092118934599372732 0.27366999629543448 0 0.070173924640782148 0.26696377707019958 0 0.068072554241300043 0.2905043820852084 0 0.051330564964894278 0.30054801303897127 0 0.068072554241300043 0.2905043820852084 0 0.073839086005423896 0.31164599072861149 0 0.10109267685702419 0.32014056617718828 0 0.073839086005423896 0.31164599072861149 0 0.097563050004066176 0.29635850557843219 0 0.068072554241300043 0.2905043820852084 0 0.073839086005423896 0.31164599072861149 0 0.097563050004066176 0.29635850557843219 0 0.068072554241300043 0.2905043820852084 0 0.097563050004066176 0.29635850557843219 0 0.092118934599372732 0.27366999629543448 0 0.068072554241300043 0.2905043820852084 0 0.097563050004066176 0.29635850557843219 0 0.092118934599372732 0.27366999629543448 0 0.097563050004066176 0.29635850557843219 0 0.1098312068304845 0.28394858271410878 0 0.10109267685702419 0.32014056617718828 0 0.097563050004066176 0.29635850557843219 0 0.12705354576683239 0.30221262907165608 0 0.097563050004066176 0.29635850557843219 0 0.12705354576683239 0.30221262907165608 0 0.097563050004066176 0.29635850557843219 0 0.1098312068304845 0.28394858271410878 0 0.12705354576683239 0.30221262907165608 0 0.1098312068304845 0.28394858271410878 0 0.12369611862993531 0.27696634453023949 0 0.12705354576683239 0.30221262907165608 0 0.1098312068304845 0.28394858271410878 0 0.12369611862993531 0.27696634453023949 0 0.1093336576381654 0.2685807032493468 0 0.12369611862993531 0.27696634453023949 0 0.1199267883608896 0.26513137375234619 0 0.1093336576381654 0.2685807032493468 0 0.10148749821634501 0.24791079639650351 0 0.1185225418219875 0.25528320561733031 0 0.1199267883608896 0.26513137375234619 0 0.1185225418219875 0.25528320561733031 0 0.11441767348333701 0.26034132664551002 0 0.10148749821634501 0.24791079639650351 0 0.1185225418219875 0.25528320561733031 0 0.116113460488704 0.25594350922913978 0 0.1185225418219875 0.25528320561733031 0 0.116113460488704 0.25594350922913978 0 0.1185225418219875 0.25528320561733031 0 0.116113460488704 0.25594350922913978 0 0.11441767348333701 0.26034132664551002 0 0.116113460488704 0.25594350922913978 0 0.11441767348333701 0.26034132664551002 0 0.10784204487850731 0.25863619910675961 0 0.11441767348333701 0.26034132664551002 0 0.10784204487850731 0.25863619910675961 0 0.1093336576381654 0.2685807032493468 0 0.1199267883608896 0.26513137375234619 0 0.11441767348333701 0.26034132664551002 0 0.1093336576381654 0.2685807032493468 0 0.10784204487850731 0.25863619910675961 0 0.098420879217757856 0.26063371267202651 0 0.1093336576381654 0.2685807032493468 0 0.10148749821634501 0.24791079639650351 0 0.10784204487850731 0.25863619910675961 0 0.098420879217757856 0.26063371267202651 0 0.10148749821634501 0.24791079639650351 0 0.116113460488704 0.25594350922913978 0 0.10784204487850731 0.25863619910675961 0 0.10148749821634501 0.24791079639650351 0 0.086231138119857415 0.25636820749620531 0 0.098420879217757856 0.26063371267202651 0 0.092118934599372732 0.27366999629543448 0 0.098420879217757856 0.26063371267202651 0 0.1093336576381654 0.2685807032493468 0 0.092118934599372732 0.27366999629543448 0 0.1098312068304845 0.28394858271410878 0 0.1093336576381654 0.2685807032493468 0 0.13949112505664091 0.26435796820471119 0 0.14098986175964101 0.2858209796791692 0 0.16045970829129491 0.27343273079209091 0 0.13949112505664091 0.26435796820471119 0 0.16045970829129491 0.27343273079209091 0 0.1517832348584128 0.25713178010324278 0 0.13949112505664091 0.26435796820471119 0 0.16045970829129491 0.27343273079209091 0 0.13836745630598729 0.2498439252871798 0 0.1582123707899874 0.2444046449570304 0 0.1517832348584128 0.25713178010324278 0 0.13836745630598729 0.2498439252871798 0 0.1517832348584128 0.25713178010324278 0 0.13949112505664091 0.26435796820471119 0 0.1185225418219875 0.25528320561733031 0 0.13949112505664091 0.26435796820471119 0 0.13836745630598729 0.2498439252871798 0 0.1185225418219875 0.25528320561733031 0 0.13949112505664091 0.26435796820471119 0 0.13836745630598729 0.2498439252871798 0 0.1185225418219875 0.25528320561733031 0 0.1238176916648828 0.24490491638607981 0 0.13836745630598729 0.2498439252871798 0 0.1185225418219875 0.25528320561733031 0 0.1199267883608896 0.26513137375234619 0 0.1185225418219875 0.25528320561733031 0 0.13949112505664091 0.26435796820471119 0 0.12369611862993531 0.27696634453023949 0 0.13949112505664091 0.26435796820471119 0 0.14098986175964101 0.2858209796791692 0 0.12369611862993531 0.27696634453023949 0 0.1199267883608896 0.26513137375234619 0 0.13949112505664091 0.26435796820471119 0 0.12369611862993531 0.27696634453023949 0 0.12705354576683239 0.30221262907165608 0 0.14098986175964101 0.2858209796791692 0 0.12705354576683239 0.30221262907165608 0 0.15654404152959869 0.30806675256487998 0 0.12702778418690511 0.32652750820722171 0 0.12705354576683239 0.30221262907165608 0 0.14098986175964101 0.2858209796791692 0 0.15654404152959869 0.30806675256487998 0 0.12705354576683239 0.30221262907165608 0 0.15654404152959869 0.30806675256487998 0 0.14098986175964101 0.2858209796791692 0 0.16252920546865851 0.29065529654857708 0 0.15654404152959869 0.30806675256487998 0 0.14098986175964101 0.2858209796791692 0 0.16252920546865851 0.29065529654857708 0 0.16045970829129491 0.27343273079209091 0 0.16252920546865851 0.29065529654857708 0 0.1752763338385819 0.2878440320708936 0 0.16045970829129491 0.27343273079209091 0 0.16252920546865851 0.29065529654857708 0 0.17770028629595469 0.29825301028137452 0 0.1752763338385819 0.2878440320708936 0 0.16252920546865851 0.29065529654857708 0 0.15654404152959869 0.30806675256487998 0 0.17770028629595469 0.29825301028137452 0 0.15654404152959869 0.30806675256487998 0 0.18603453729236491 0.31392087605810393 0 0.15654404152959869 0.30806675256487998 0 0.17770028629595469 0.29825301028137452 0 0.18603453729236491 0.31392087605810393 0 0.17770028629595469 0.29825301028137452 0 0.18924861644758709 0.30308912616449751 0 0.18603453729236491 0.31392087605810393 0 0.17770028629595469 0.29825301028137452 0 0.18823788355808571 0.29321411680437559 0 0.18924861644758709 0.30308912616449751 0 0.1752763338385819 0.2878440320708936 0 0.1814282915259495 0.28250749337946929 0 0.16045970829129491 0.27343273079209091 0 0.1752763338385819 0.2878440320708936 0 0.18085454433982689 0.29071782657166523 0 0.1814282915259495 0.28250749337946929 0 0.1752763338385819 0.2878440320708936 0 0.1814282915259495 0.28250749337946929 0 0.17770028629595469 0.29825301028137452 0 0.1752763338385819 0.2878440320708936 0 0.18085454433982689 0.29071782657166523 0 0.17770028629595469 0.29825301028137452 0 0.18085454433982689 0.29071782657166523 0 0.18823788355808571 0.29321411680437559 0 0.18085454433982689 0.29071782657166523 0 0.1814282915259495 0.28250749337946929 0 0.18823788355808571 0.29321411680437559 0 0.1814282915259495 0.28250749337946929 0 0.17984783184040529 0.26924034007635822 0 0.16045970829129491 0.27343273079209091 0 0.1814282915259495 0.28250749337946929 0 0.17984783184040529 0.26924034007635822 0 0.19812660274805019 0.26802248089292602 0 0.1814282915259495 0.28250749337946929 0 0.16045970829129491 0.27343273079209091 0 0.17984783184040529 0.26924034007635822 0 0.16045970829129491 0.27343273079209091 0 0.16912841458642619 0.263886776964945 0 0.16045970829129491 0.27343273079209091 0 0.16176544961631381 0.2621090259786043 0 0.16912841458642619 0.263886776964945 0 0.1517832348584128 0.25713178010324278 0 0.16045970829129491 0.27343273079209091 0 0.16176544961631381 0.2621090259786043 0 0.1517832348584128 0.25713178010324278 0 0.16176544961631381 0.2621090259786043 0 0.1656904407291214 0.25398481605413842 0 0.1582123707899874 0.2444046449570304 0 0.1517832348584128 0.25713178010324278 0 0.1656904407291214 0.25398481605413842 0 0.16176544961631381 0.2621090259786043 0 0.16912841458642619 0.263886776964945 0 0.1656904407291214 0.25398481605413842 0 0.16912841458642619 0.263886776964945 0 0.1656904407291214 0.25398481605413842 0 0.1795440413456616 0.25911486942791973 0 0.17660249971292161 0.24881918903895031 0 0.1656904407291214 0.25398481605413842 0 0.1795440413456616 0.25911486942791973 0 0.17984783184040529 0.26924034007635822 0 0.16912841458642619 0.263886776964945 0 0.1795440413456616 0.25911486942791973 0 0.17984783184040529 0.26924034007635822 0 0.1795440413456616 0.25911486942791973 0 0.18943633946185581 0.25938032594548383 0 0.188788352349437 0.2486923718105859 0 0.1795440413456616 0.25911486942791973 0 0.18943633946185581 0.25938032594548383 0 0.188788352349437 0.2486923718105859 0 0.18943633946185581 0.25938032594548383 0 0.2004570248863248 0.25152357100306377 0 0.18943633946185581 0.25938032594548383 0 0.2004570248863248 0.25152357100306377 0 0.19812660274805019 0.26802248089292602 0 0.17984783184040529 0.26924034007635822 0 0.18943633946185581 0.25938032594548383 0 0.19812660274805019 0.26802248089292602 0 0.1814282915259495 0.28250749337946929 0 0.19812660274805019 0.26802248089292602 0 0.1814282915259495 0.28250749337946929 0 0.1952423082753531 0.28044183085217789 0 0.19812660274805019 0.26802248089292602 0 0.1952423082753531 0.28044183085217789 0 0.19812660274805019 0.26802248089292602 0 0.20763121053427569 0.28311150957917203 0 0.19812660274805019 0.26802248089292602 0 0.21128766125858089 0.2712135142474959 0 0.20763121053427569 0.28311150957917203 0 0.21128766125858089 0.2712135142474959 0 0.21880519535621709 0.2816244859603359 0 0.20763121053427569 0.28311150957917203 0 0.21128766125858089 0.2712135142474959 0 0.2148249139701513 0.25353746840638303 0 0.2004570248863248 0.25152357100306377 0 0.19812660274805019 0.26802248089292602 0 0.2148249139701513 0.25353746840638303 0 0.19812660274805019 0.26802248089292602 0 0.2148249139701513 0.25353746840638303 0 0.19812660274805019 0.26802248089292602 0 0.21128766125858089 0.2712135142474959 0 0.2148249139701513 0.25353746840638303 0 0.21128766125858089 0.2712135142474959 0 0.2148249139701513 0.25353746840638303 0 0.23192837431552499 0.2689776739335572 0 0.2148249139701513 0.25353746840638303 0 0.23192837431552499 0.2689776739335572 0 0.24146168562089759 0.25309978414275958 0 0.23192837431552499 0.2689776739335572 0 0.229349968338392 0.28614678861265991 0 0.21880519535621709 0.2816244859603359 0 0.21128766125858089 0.2712135142474959 0 0.23192837431552499 0.2689776739335572 0 0.21880519535621709 0.2816244859603359 0 0.23192837431552499 0.2689776739335572 0 0.25683963026327877 0.27532887118353699 0 0.23192837431552499 0.2689776739335572 0 0.2431977174998369 0.29118369766733282 0 0.25683963026327877 0.27532887118353699 0 0.23192837431552499 0.2689776739335572 0 0.24146168562089759 0.25309978414275958 0 0.25683963026327877 0.27532887118353699 0 0.23928814523458961 0.30754802329370362 0 0.2431977174998369 0.29118369766733282 0 0.23050459158720629 0.29483488744162573 0 0.23928814523458961 0.30754802329370362 0 0.2431977174998369 0.29118369766733282 0 0.25747878611072272 0.29615876460580609 0 0.23928814523458961 0.30754802329370362 0 0.26049258889270799 0.31672486132045591 0 0.23192837431552499 0.2689776739335572 0 0.2431977174998369 0.29118369766733282 0 0.229349968338392 0.28614678861265991 0 0.23050459158720629 0.29483488744162573 0 0.229349968338392 0.28614678861265991 0 0.22260342528674171 0.29092474236748112 0 0.2431977174998369 0.29118369766733282 0 0.23050459158720629 0.29483488744162573 0 0.229349968338392 0.28614678861265991 0 0.229349968338392 0.28614678861265991 0 0.21880519535621709 0.2816244859603359 0 0.22260342528674171 0.29092474236748112 0 0.23050459158720629 0.29483488744162573 0 0.22260342528674171 0.29092474236748112 0 0.21808370157647111 0.2983711852669515 0 0.21808370157647111 0.2983711852669515 0 0.21855078456939189 0.3126447803939526 0 0.2318437681554241 0.31780623030634908 0 0.23928814523458961 0.30754802329370362 0 0.21808370157647111 0.2983711852669515 0 0.23928814523458961 0.30754802329370362 0 0.21808370157647111 0.2983711852669515 0 0.2318437681554241 0.31780623030634908 0 0.23928814523458961 0.30754802329370362 0 0.23050459158720629 0.29483488744162573 0 0.21808370157647111 0.2983711852669515 0 0.21808370157647111 0.2983711852669515 0 0.2318437681554241 0.31780623030634908 0 0.2121210674326286 0.30628747872351542 0 0.2059409368141959 0.31277132010884551 0 0.21855078456939189 0.3126447803939526 0 0.2121210674326286 0.30628747872351542 0 0.21808370157647111 0.2983711852669515 0 0.21855078456939189 0.3126447803939526 0 0.2121210674326286 0.30628747872351542 0 0.21808370157647111 0.2983711852669515 0 0.20590884677045559 0.30136262912431172 0 0.20590884677045559 0.30136262912431172 0 0.1975989398157241 0.30254585756738722 0 0.2059409368141959 0.31277132010884551 0 0.2121210674326286 0.30628747872351542 0 0.20590884677045559 0.30136262912431172 0 0.2059409368141959 0.31277132010884551 0 0.21808370157647111 0.2983711852669515 0 0.21407840770159389 0.2927140130136342 0 0.1997559965512101 0.29043933932321092 0 0.21808370157647111 0.2983711852669515 0 0.1997559965512101 0.29043933932321092 0 0.21808370157647111 0.2983711852669515 0 0.20590884677045559 0.30136262912431172 0 0.1997559965512101 0.29043933932321092 0 0.21880519535621709 0.2816244859603359 0 0.22260342528674171 0.29092474236748112 0 0.21407840770159389 0.2927140130136342 0 0.21880519535621709 0.2816244859603359 0 0.21407840770159389 0.2927140130136342 0 0.20763121053427569 0.28311150957917203 0 0.22260342528674171 0.29092474236748112 0 0.21808370157647111 0.2983711852669515 0 0.21407840770159389 0.2927140130136342 0 0.21808370157647111 0.2983711852669515 0 0.21407840770159389 0.2927140130136342 0 0.21407840770159389 0.2927140130136342 0 0.20763121053427569 0.28311150957917203 0 0.1997559965512101 0.29043933932321092 0 0.1814282915259495 0.28250749337946929 0 0.1997559965512101 0.29043933932321092 0 0.18823788355808571 0.29321411680437559 0 0.1814282915259495 0.28250749337946929 0 0.1952423082753531 0.28044183085217789 0 0.1997559965512101 0.29043933932321092 0 0.1814282915259495 0.28250749337946929 0 0.1997559965512101 0.29043933932321092 0 0.1952423082753531 0.28044183085217789 0 0.20763121053427569 0.28311150957917203 0 0.1997559965512101 0.29043933932321092 0 0.1997559965512101 0.29043933932321092 0 0.18823788355808571 0.29321411680437559 0 0.1975989398157241 0.30254585756738722 0 0.19592448892505249 0.31096276973061449 0 0.1975989398157241 0.30254585756738722 0 0.2059409368141959 0.31277132010884551 0 0.20590884677045559 0.30136262912431172 0 0.1997559965512101 0.29043933932321092 0 0.1975989398157241 0.30254585756738722 0 0.18823788355808571 0.29321411680437559 0 0.1975989398157241 0.30254585756738722 0 0.18924861644758709 0.30308912616449751 0 0.19592448892505249 0.31096276973061449 0 0.18924861644758709 0.30308912616449751 0 0.18603453729236491 0.31392087605810393 0 0.18924861644758709 0.30308912616449751 0 0.18603453729236491 0.31392087605810393 0 0.19592448892505249 0.31096276973061449 0 0.1975989398157241 0.30254585756738722 0 0.18924861644758709 0.30308912616449751 0 0.1975957539468052 0.32487893996751488 0 0.17898454433871711 0.33675043909229191 0 0.18603453729236491 0.31392087605810393 0 0.19592448892505249 0.31096276973061449 0 0.1975957539468052 0.32487893996751488 0 0.18603453729236491 0.31392087605810393 0 0.19592448892505249 0.31096276973061449 0 0.1975957539468052 0.32487893996751488 0 0.2059409368141959 0.31277132010884551 0 0.1975957539468052 0.32487893996751488 0 0.1919636474369403 0.34571772640767229 0 0.17898454433871711 0.33675043909229191 0 0.1975957539468052 0.32487893996751488 0 0.20902784641329 0.33672040181370738 0 0.1919636474369403 0.34571772640767229 0 0.20902784641329 0.33672040181370738 0 0.22780950799919561 0.33249528033859638 0 0.21882194258488261 0.34631905448938738 0 0.1975957539468052 0.32487893996751488 0 0.20902784641329 0.33672040181370738 0 0.21414774380778689 0.32406406632652057 0 0.20902784641329 0.33672040181370738 0 0.21414774380778689 0.32406406632652057 0 0.22780950799919561 0.33249528033859638 0 0.1975957539468052 0.32487893996751488 0 0.2059409368141959 0.31277132010884551 0 0.21414774380778689 0.32406406632652057 0 0.2059409368141959 0.31277132010884551 0 0.21414774380778689 0.32406406632652057 0 0.21855078456939189 0.3126447803939526 0 0.21414774380778689 0.32406406632652057 0 0.21855078456939189 0.3126447803939526 0 0.22292226252044481 0.32072732214874711 0 0.2318437681554241 0.31780623030634908 0 0.22780950799919561 0.33249528033859638 0 0.24316159043831209 0.33379179146288218 0 0.21855078456939189 0.3126447803939526 0 0.2318437681554241 0.31780623030634908 0 0.22292226252044481 0.32072732214874711 0 0.2318437681554241 0.31780623030634908 0 0.22292226252044481 0.32072732214874711 0 0.22780950799919561 0.33249528033859638 0 0.21414774380778689 0.32406406632652057 0 0.22292226252044481 0.32072732214874711 0 0.22780950799919561 0.33249528033859638 0 0.22780950799919561 0.33249528033859638 0 0.24235229286592139 0.33702858533364372 0 0.2305787102446317 0.35787982773529642 0 0.22780950799919561 0.33249528033859638 0 0.24235229286592139 0.33702858533364372 0 0.24316159043831209 0.33379179146288218 0 0.24560383473437741 0.33724127534574661 0 0.24316159043831209 0.33379179146288218 0 0.25204442643060948 0.35409227297074669 0 0.24235229286592139 0.33702858533364372 0 0.24316159043831209 0.33379179146288218 0 0.2452763342502926 0.34665213495858632 0 0.24560383473437741 0.33724127534574661 0 0.24316159043831209 0.33379179146288218 0 0.24601747154800041 0.3276264900319264 0 0.24560383473437741 0.33724127534574661 0 0.24601747154800041 0.3276264900319264 0 0.25262878158049362 0.33438613234917652 0 0.24560383473437741 0.33724127534574661 0 0.24316159043831209 0.33379179146288218 0 0.23928814523458961 0.30754802329370362 0 0.24618121520090841 0.32036120452743461 0 0.26049258889270799 0.31672486132045591 0 0.2318437681554241 0.31780623030634908 0 0.24316159043831209 0.33379179146288218 0 0.2318437681554241 0.31780623030634908 0 0.24316159043831209 0.33379179146288218 0 0.24601747154800041 0.3276264900319264 0 0.24601747154800041 0.3276264900319264 0 0.24618121520090841 0.32036120452743461 0 0.25521641233417602 0.32719746098940711 0 0.23928814523458961 0.30754802329370362 0 0.2318437681554241 0.31780623030634908 0 0.24618121520090841 0.32036120452743461 0 0.2318437681554241 0.31780623030634908 0 0.24601747154800041 0.3276264900319264 0 0.24618121520090841 0.32036120452743461 0 0.2375727197824804 0.36832598963851559 0 0.2431225076945859 0.35962908690671008 0 0.2305787102446317 0.35787982773529642 0 0.2375727197824804 0.36832598963851559 0 0.24399187031233091 0.36674843365178478 0 0.2431225076945859 0.35962908690671008 0 0.2375727197824804 0.36832598963851559 0 0.24235292899354871 0.3701465403533527 0 0.2456043612611116 0.37589955046931212 0 0.2375727197824804 0.36832598963851559 0 0.24235292899354871 0.3701465403533527 0 0.24399187031233091 0.36674843365178478 0 0.2452535022616707 0.37091754916647501 0 0.24831175303979541 0.3703449503069145 0 0.24399187031233091 0.36674843365178478 0 0.24235292899354871 0.3701465403533527 0 0.2452535022616707 0.37091754916647501 0 0.24399187031233091 0.36674843365178478 0 0.2452535022616707 0.37091754916647501 0 0.24645855413557 0.37275820652443592 0 0.2456043612611116 0.37589955046931212 0 0.24235292899354871 0.3701465403533527 0 0.2452535022616707 0.37091754916647501 0 0.2456043612611116 0.37589955046931212 0 0.24645855413557 0.37275820652443592 0 0.24831175303979541 0.3703449503069145 0 0.2472339691351505 0.37510559615395539 0 0.24645855413557 0.37275820652443592 0 0.2472339691351505 0.37510559615395539 0 0.2456043612611116 0.37589955046931212 0 0.2452535022616707 0.37091754916647501 0 0.24645855413557 0.37275820652443592 0 0.24831175303979541 0.3703449503069145 0 0.24831175303979541 0.3703449503069145 0 0.24927098514717019 0.36407586248533119 0 0.24399187031233091 0.36674843365178478 0 0.24927098514717019 0.36407586248533119 0 0.24399187031233091 0.36674843365178478 0 0.2431225076945859 0.35962908690671008 0 0.2431225076945859 0.35962908690671008 0 0.2452763342502926 0.34665213495858632 0 0.25204442643060948 0.35409227297074669 0 0.24927098514717019 0.36407586248533119 0 0.2431225076945859 0.35962908690671008 0 0.25204442643060948 0.35409227297074669 0 0.24235229286592139 0.33702858533364372 0 0.2305787102446317 0.35787982773529642 0 0.24316159043831209 0.33379179146288218 0 0.25204442643060948 0.35409227297074669 0 0.24235229286592139 0.33702858533364372 0 0.2452763342502926 0.34665213495858632 0 0.2305787102446317 0.35787982773529642 0 0.24316159043831209 0.33379179146288218 0 0.2452763342502926 0.34665213495858632 0 0.25204442643060948 0.35409227297074669 0 0.2431225076945859 0.35962908690671008 0 0.2452763342502926 0.34665213495858632 0 0.2305787102446317 0.35787982773529642 0 0.22780950799919561 0.33249528033859638 0 0.2305787102446317 0.35787982773529642 0 0.21882194258488261 0.34631905448938738 0 0.2305787102446317 0.35787982773529642 0 0.21882194258488261 0.34631905448938738 0 0.21516698347331609 0.3610057411293765 0 0.2375727197824804 0.36832598963851559 0 0.21880512762334151 0.37873107013694879 0 0.2456043612611116 0.37589955046931212 0 0.2305787102446317 0.35787982773529642 0 0.21516698347331609 0.3610057411293765 0 0.21880512762334151 0.37873107013694879 0 0.2375727197824804 0.36832598963851559 0 0.2305787102446317 0.35787982773529642 0 0.21880512762334151 0.37873107013694879 0 0.2305787102446317 0.35787982773529642 0 0.21880512762334151 0.37873107013694879 0 0.21516698347331609 0.3610057411293765 0 0.2032911725275045 0.36856511835250472 0 0.21880512762334151 0.37873107013694879 0 0.21516698347331609 0.3610057411293765 0 0.2032911725275045 0.36856511835250472 0 0.2043379643862199 0.35353363493274498 0 0.20902784641329 0.33672040181370738 0 0.21882194258488261 0.34631905448938738 0 0.2043379643862199 0.35353363493274498 0 0.21882194258488261 0.34631905448938738 0 0.21516698347331609 0.3610057411293765 0 0.2043379643862199 0.35353363493274498 0 0.2043379643862199 0.35353363493274498 0 0.1919636474369403 0.34571772640767229 0 0.189820015882909 0.362818178332246 0 0.20902784641329 0.33672040181370738 0 0.2043379643862199 0.35353363493274498 0 0.1919636474369403 0.34571772640767229 0 0.2032911725275045 0.36856511835250472 0 0.189820015882909 0.362818178332246 0 0.18922347414808019 0.38185657121465172 0 0.2032911725275045 0.36856511835250472 0 0.2043379643862199 0.35353363493274498 0 0.189820015882909 0.362818178332246 0 0.17201575965370061 0.35960476430752908 0 0.16504697496868409 0.3824590895227663 0 0.18056686246995571 0.37530787544336491 0 0.189820015882909 0.362818178332246 0 0.18056686246995571 0.37530787544336491 0 0.18922347414808019 0.38185657121465172 0 0.189820015882909 0.362818178332246 0 0.17201575965370061 0.35960476430752908 0 0.18056686246995571 0.37530787544336491 0 0.17201575965370061 0.35960476430752908 0 0.16504697496868409 0.3824590895227663 0 0.17201575965370061 0.35960476430752908 0 0.15285108947088599 0.3589918419995799 0 0.16504697496868409 0.3824590895227663 0 0.17201575965370061 0.35960476430752908 0 0.16361418012682749 0.34375213348202333 0 0.15285108947088599 0.3589918419995799 0 0.17201575965370061 0.35960476430752908 0 0.16361418012682749 0.34375213348202333 0 0.17898454433871711 0.33675043909229191 0 0.17201575965370061 0.35960476430752908 0 0.17898454433871711 0.33675043909229191 0 0.1919636474369403 0.34571772640767229 0 0.17201575965370061 0.35960476430752908 0 0.17898454433871711 0.33675043909229191 0 0.1919636474369403 0.34571772640767229 0 0.189820015882909 0.362818178332246 0 0.17201575965370061 0.35960476430752908 0 0.17898454433871711 0.33675043909229191 0 0.18603453729236491 0.31392087605810393 0 0.17898454433871711 0.33675043909229191 0 0.18603453729236491 0.31392087605810393 0 0.16797600303291019 0.32458619473944872 0 0.15654404152959869 0.30806675256487998 0 0.16797600303291019 0.32458619473944872 0 0.1491750305222842 0.33587567451897937 0 0.15654404152959869 0.30806675256487998 0 0.18603453729236491 0.31392087605810393 0 0.16797600303291019 0.32458619473944872 0 0.16361418012682749 0.34375213348202333 0 0.17898454433871711 0.33675043909229191 0 0.16797600303291019 0.32458619473944872 0 0.16361418012682749 0.34375213348202333 0 0.16797600303291019 0.32458619473944872 0 0.1491750305222842 0.33587567451897937 0 0.15654404152959869 0.30806675256487998 0 0.1491750305222842 0.33587567451897937 0 0.12702778418690511 0.32652750820722171 0 0.1491750305222842 0.33587567451897937 0 0.12702778418690511 0.32652750820722171 0 0.12700131613561219 0.35737421663998448 0 0.1244545087810657 0.3824564290118504 0 0.12700131613561219 0.35737421663998448 0 0.14086401008161559 0.37427022503613672 0 0.12700131613561219 0.35737421663998448 0 0.14086401008161559 0.37427022503613672 0 0.15285108947088599 0.3589918419995799 0 0.14086401008161559 0.37427022503613672 0 0.15285108947088599 0.3589918419995799 0 0.16504697496868409 0.3824590895227663 0 0.16361418012682749 0.34375213348202333 0 0.1491750305222842 0.33587567451897937 0 0.15285108947088599 0.3589918419995799 0 0.1491750305222842 0.33587567451897937 0 0.12700131613561219 0.35737421663998448 0 0.15285108947088599 0.3589918419995799 0 0.15172747283927959 0.39159039039955029 0 0.13779512571232669 0.39975614181700558 0 0.15768589645474851 0.40659995337440702 0 0.14086401008161559 0.37427022503613672 0 0.15172747283927959 0.39159039039955029 0 0.16504697496868409 0.3824590895227663 0 0.14086401008161559 0.37427022503613672 0 0.15172747283927959 0.39159039039955029 0 0.13779512571232669 0.39975614181700558 0 0.14086401008161559 0.37427022503613672 0 0.16504697496868409 0.3824590895227663 0 0.1244545087810657 0.3824564290118504 0 0.14086401008161559 0.37427022503613672 0 0.13779512571232669 0.39975614181700558 0 0.1187292051807374 0.41747659565427558 0 0.1200615964809767 0.39904280466233172 0 0.13779512571232669 0.39975614181700558 0 0.1200615964809767 0.39904280466233172 0 0.1244545087810657 0.3824564290118504 0 0.13779512571232669 0.39975614181700558 0 0.1187292051807374 0.41747659565427558 0 0.13779512571232669 0.39975614181700558 0 0.13437645580056179 0.41931617066670868 0 0.1187292051807374 0.41747659565427558 0 0.13779512571232669 0.39975614181700558 0 0.1187292051807374 0.41747659565427558 0 0.13437645580056179 0.41931617066670868 0 0.12620233195429839 0.42416344974828118 0 0.13779512571232669 0.39975614181700558 0 0.13437645580056179 0.41931617066670868 0 0.14630902668041729 0.4162566645279987 0 0.1239057842265244 0.43392498190170392 0 0.13468874474675621 0.42966029122609189 0 0.1491619002948322 0.44042938433399459 0 0.1239057842265244 0.43392498190170392 0 0.1491619002948322 0.44042938433399459 0 0.13437645580056179 0.41931617066670868 0 0.12620233195429839 0.42416344974828118 0 0.13468874474675621 0.42966029122609189 0 0.1239057842265244 0.43392498190170392 0 0.12620233195429839 0.42416344974828118 0 0.13468874474675621 0.42966029122609189 0 0.13437645580056179 0.41931617066670868 0 0.13468874474675621 0.42966029122609189 0 0.14330781502871451 0.42718424855455472 0 0.13468874474675621 0.42966029122609189 0 0.14330781502871451 0.42718424855455472 0 0.1491619002948322 0.44042938433399459 0 0.14330781502871451 0.42718424855455472 0 0.1503248179408127 0.43074081722604779 0 0.1491619002948322 0.44042938433399459 0 0.14330781502871451 0.42718424855455472 0 0.1503248179408127 0.43074081722604779 0 0.14630902668041729 0.4162566645279987 0 0.1503248179408127 0.43074081722604779 0 0.16239572878931879 0.43538541344363912 0 0.1491619002948322 0.44042938433399459 0 0.13779512571232669 0.39975614181700558 0 0.14630902668041729 0.4162566645279987 0 0.15768589645474851 0.40659995337440702 0 0.1503248179408127 0.43074081722604779 0 0.14630902668041729 0.4162566645279987 0 0.15768589645474851 0.40659995337440702 0 0.1503248179408127 0.43074081722604779 0 0.15768589645474851 0.40659995337440702 0 0.13437645580056179 0.41931617066670868 0 0.14330781502871451 0.42718424855455472 0 0.14630902668041729 0.4162566645279987 0 0.1503248179408127 0.43074081722604779 0 0.15768589645474851 0.40659995337440702 0 0.16284294758754031 0.42328403364422368 0 0.15768589645474851 0.40659995337440702 0 0.16284294758754031 0.42328403364422368 0 0.17191836609118319 0.41501045321696528 0 0.15768589645474851 0.40659995337440702 0 0.17191836609118319 0.41501045321696528 0 0.1719906612722035 0.39763798288811752 0 0.1503248179408127 0.43074081722604779 0 0.16239572878931879 0.43538541344363912 0 0.16284294758754031 0.42328403364422368 0 0.16239572878931879 0.43538541344363912 0 0.16284294758754031 0.42328403364422368 0 0.170718842599724 0.42759074655360058 0 0.16284294758754031 0.42328403364422368 0 0.170718842599724 0.42759074655360058 0 0.17191836609118319 0.41501045321696528 0 0.16239572878931879 0.43538541344363912 0 0.170718842599724 0.42759074655360058 0 0.17185548502663919 0.43600322700639932 0 0.170718842599724 0.42759074655360058 0 0.17185548502663919 0.43600322700639932 0 0.17988935235437389 0.43410296126207187 0 0.170718842599724 0.42759074655360058 0 0.18217040925280381 0.42249309232198862 0 0.17988935235437389 0.43410296126207187 0 0.18217040925280381 0.42249309232198862 0 0.17988935235437389 0.43410296126207187 0 0.19166389383944141 0.430764650732959 0 0.17988935235437389 0.43410296126207187 0 0.19166389383944141 0.430764650732959 0 0.1895468394264419 0.44102587629222129 0 0.17191836609118319 0.41501045321696528 0 0.18329083283148581 0.40983422794395441 0 0.1719906612722035 0.39763798288811752 0 0.170718842599724 0.42759074655360058 0 0.18217040925280381 0.42249309232198862 0 0.17191836609118319 0.41501045321696528 0 0.18217040925280381 0.42249309232198862 0 0.17191836609118319 0.41501045321696528 0 0.18329083283148581 0.40983422794395441 0 0.18217040925280381 0.42249309232198862 0 0.18329083283148581 0.40983422794395441 0 0.19458239635693489 0.41611074208273918 0 0.18329083283148581 0.40983422794395441 0 0.1836036757837067 0.39971056535486588 0 0.19240512133473331 0.4015692767477605 0 0.1836036757837067 0.39971056535486588 0 0.1719906612722035 0.39763798288811752 0 0.18672808769640431 0.38980077383963152 0 0.18329083283148581 0.40983422794395441 0 0.1836036757837067 0.39971056535486588 0 0.1719906612722035 0.39763798288811752 0 0.15172747283927959 0.39159039039955029 0 0.15768589645474851 0.40659995337440702 0 0.16504697496868409 0.3824590895227663 0 0.15768589645474851 0.40659995337440702 0 0.16504697496868409 0.3824590895227663 0 0.15768589645474851 0.40659995337440702 0 0.1719906612722035 0.39763798288811752 0 0.16504697496868409 0.3824590895227663 0 0.16504697496868409 0.3824590895227663 0 0.18672808769640431 0.38980077383963152 0 0.18056686246995571 0.37530787544336491 0 0.1719906612722035 0.39763798288811752 0 0.16504697496868409 0.3824590895227663 0 0.18672808769640431 0.38980077383963152 0 0.16504697496868409 0.3824590895227663 0 0.18672808769640431 0.38980077383963152 0 0.18672808769640431 0.38980077383963152 0 0.18056686246995571 0.37530787544336491 0 0.18922347414808019 0.38185657121465172 0 0.18922347414808019 0.38185657121465172 0 0.19945570983456221 0.38866116328700617 0 0.21880512762334151 0.37873107013694879 0 0.18672808769640431 0.38980077383963152 0 0.18922347414808019 0.38185657121465172 0 0.19945570983456221 0.38866116328700617 0 0.18672808769640431 0.38980077383963152 0 0.2084092004241245 0.39714245815649613 0 0.19240512133473331 0.4015692767477605 0 0.2032922660027435 0.40620464792536909 0 0.2084092004241245 0.39714245815649613 0 0.18672808769640431 0.38980077383963152 0 0.19240512133473331 0.4015692767477605 0 0.2084092004241245 0.39714245815649613 0 0.18672808769640431 0.38980077383963152 0 0.19945570983456221 0.38866116328700617 0 0.2084092004241245 0.39714245815649613 0 0.1836036757837067 0.39971056535486588 0 0.18672808769640431 0.38980077383963152 0 0.19240512133473331 0.4015692767477605 0 0.19240512133473331 0.4015692767477605 0 0.2032922660027435 0.40620464792536909 0 0.19449802948089481 0.40834995237494542 0 0.2084092004241245 0.39714245815649613 0 0.22710609432807541 0.4034736227269009 0 0.2084092004241245 0.39714245815649613 0 0.22710609432807541 0.4034736227269009 0 0.21445444258453289 0.40950244698045568 0 0.2032922660027435 0.40620464792536909 0 0.2084092004241245 0.39714245815649613 0 0.21445444258453289 0.40950244698045568 0 0.2032922660027435 0.40620464792536909 0 0.2084092004241245 0.39714245815649613 0 0.19945570983456221 0.38866116328700617 0 0.2084092004241245 0.39714245815649613 0 0.21880512762334151 0.37873107013694879 0 0.2084092004241245 0.39714245815649613 0 0.21880512762334151 0.37873107013694879 0 0.22454275865739831 0.39298313207149932 0 0.2084092004241245 0.39714245815649613 0 0.21880512762334151 0.37873107013694879 0 0.18922347414808019 0.38185657121465172 0 0.21880512762334151 0.37873107013694879 0 0.2032911725275045 0.36856511835250472 0 0.18922347414808019 0.38185657121465172 0 0.21880512762334151 0.37873107013694879 0 0.21880512762334151 0.37873107013694879 0 0.23377010159963499 0.38395323365699202 0 0.2456043612611116 0.37589955046931212 0 0.21880512762334151 0.37873107013694879 0 0.2456043612611116 0.37589955046931212 0 0.21880512762334151 0.37873107013694879 0 0.23377010159963499 0.38395323365699202 0 0.22454275865739831 0.39298313207149932 0 0.23377010159963499 0.38395323365699202 0 0.22454275865739831 0.39298313207149932 0 0.23462326931181501 0.40161527568015831 0 0.2084092004241245 0.39714245815649613 0 0.22454275865739831 0.39298313207149932 0 0.22710609432807541 0.4034736227269009 0 0.22454275865739831 0.39298313207149932 0 0.22710609432807541 0.4034736227269009 0 0.23462326931181501 0.40161527568015831 0 0.23462326931181501 0.40161527568015831 0 0.24370651671509169 0.40169923908266608 0 0.24003850449770289 0.41268601974146718 0 0.23462326931181501 0.40161527568015831 0 0.24370651671509169 0.40169923908266608 0 0.2459307893800913 0.3922170948863688 0 0.24370651671509169 0.40169923908266608 0 0.25586600153134698 0.3981544943947164 0 0.24370651671509169 0.40169923908266608 0 0.2459307893800913 0.3922170948863688 0 0.25586600153134698 0.3981544943947164 0 0.23377010159963499 0.38395323365699202 0 0.23462326931181501 0.40161527568015831 0 0.2456043612611116 0.37589955046931212 0 0.23462326931181501 0.40161527568015831 0 0.2456043612611116 0.37589955046931212 0 0.2459307893800913 0.3922170948863688 0 0.2456043612611116 0.37589955046931212 0 0.25586600153134698 0.3981544943947164 0 0.23462326931181501 0.40161527568015831 0 0.2459307893800913 0.3922170948863688 0 0.2456043612611116 0.37589955046931212 0 0.2472339691351505 0.37510559615395539 0 0.2456043612611116 0.37589955046931212 0 0.24220862712640939 0.43592070532609167 0 0.2457040788757604 0.42271492109293152 0 0.2230259763352179 0.42599461421711832 0 0.24220862712640939 0.43592070532609167 0 0.2457040788757604 0.42271492109293152 0 0.25473136155793918 0.42889463263846489 0 0.2457040788757604 0.42271492109293152 0 0.24003850449770289 0.41268601974146718 0 0.2230259763352179 0.42599461421711832 0 0.2457040788757604 0.42271492109293152 0 0.24003850449770289 0.41268601974146718 0 0.25144155790552458 0.41441386039409911 0 0.24370651671509169 0.40169923908266608 0 0.24003850449770289 0.41268601974146718 0 0.25144155790552458 0.41441386039409911 0 0.22710609432807541 0.4034736227269009 0 0.23462326931181501 0.40161527568015831 0 0.2230259763352179 0.42599461421711832 0 0.23462326931181501 0.40161527568015831 0 0.2230259763352179 0.42599461421711832 0 0.23462326931181501 0.40161527568015831 0 0.24003850449770289 0.41268601974146718 0 0.2230259763352179 0.42599461421711832 0 0.22710609432807541 0.4034736227269009 0 0.2230259763352179 0.42599461421711832 0 0.21445444258453289 0.40950244698045568 0 0.24220862712640939 0.43592070532609167 0 0.2230259763352179 0.42599461421711832 0 0.23012583835517439 0.44604945478757169 0 0.2230259763352179 0.42599461421711832 0 0.20370328675006191 0.4268964619115303 0 0.20230111676204021 0.43943780576803171 0 0.2230259763352179 0.42599461421711832 0 0.20370328675006191 0.4268964619115303 0 0.2080581256778557 0.4183902801666356 0 0.2230259763352179 0.42599461421711832 0 0.21445444258453289 0.40950244698045568 0 0.2080581256778557 0.4183902801666356 0 0.2032922660027435 0.40620464792536909 0 0.21445444258453289 0.40950244698045568 0 0.2080581256778557 0.4183902801666356 0 0.2032922660027435 0.40620464792536909 0 0.2080581256778557 0.4183902801666356 0 0.19458239635693489 0.41611074208273918 0 0.2032922660027435 0.40620464792536909 0 0.19458239635693489 0.41611074208273918 0 0.19449802948089481 0.40834995237494542 0 0.20370328675006191 0.4268964619115303 0 0.2080581256778557 0.4183902801666356 0 0.19458239635693489 0.41611074208273918 0 0.18329083283148581 0.40983422794395441 0 0.19240512133473331 0.4015692767477605 0 0.19449802948089481 0.40834995237494542 0 0.18329083283148581 0.40983422794395441 0 0.19458239635693489 0.41611074208273918 0 0.19449802948089481 0.40834995237494542 0 0.20370328675006191 0.4268964619115303 0 0.19166389383944141 0.430764650732959 0 0.20230111676204021 0.43943780576803171 0 0.20370328675006191 0.4268964619115303 0 0.19458239635693489 0.41611074208273918 0 0.19166389383944141 0.430764650732959 0 0.18217040925280381 0.42249309232198862 0 0.19458239635693489 0.41611074208273918 0 0.19166389383944141 0.430764650732959 0 0.19166389383944141 0.430764650732959 0 0.1895468394264419 0.44102587629222129 0 0.20230111676204021 0.43943780576803171 0 0.1895468394264419 0.44102587629222129 0 0.1996741324314478 0.4534381891985762 0 0.17441801636314011 0.44693378676628542 0 0.1895468394264419 0.44102587629222129 0 0.20230111676204021 0.43943780576803171 0 0.1996741324314478 0.4534381891985762 0 0.20107196182162579 0.46988647362871738 0 0.17827206139882601 0.46012355862826543 0 0.1996741324314478 0.4534381891985762 0 0.20107196182162579 0.46988647362871738 0 0.17827206139882601 0.46012355862826543 0 0.1996741324314478 0.4534381891985762 0 0.21272996443106129 0.46354858737987831 0 0.20107196182162579 0.46988647362871738 0 0.1996741324314478 0.4534381891985762 0 0.21272996443106129 0.46354858737987831 0 0.21142868335862069 0.45037395275407838 0 0.21272996443106129 0.46354858737987831 0 0.21142868335862069 0.45037395275407838 0 0.2225869794983123 0.45730267011297421 0 0.2230259763352179 0.42599461421711832 0 0.21142868335862069 0.45037395275407838 0 0.2230259763352179 0.42599461421711832 0 0.20230111676204021 0.43943780576803171 0 0.21142868335862069 0.45037395275407838 0 0.20230111676204021 0.43943780576803171 0 0.1996741324314478 0.4534381891985762 0 0.21142868335862069 0.45037395275407838 0 0.2230259763352179 0.42599461421711832 0 0.21142868335862069 0.45037395275407838 0 0.23012583835517439 0.44604945478757169 0 0.21142868335862069 0.45037395275407838 0 0.23012583835517439 0.44604945478757169 0 0.2225869794983123 0.45730267011297421 0 0.21272996443106129 0.46354858737987831 0 0.2225869794983123 0.45730267011297421 0 0.22375488857108419 0.46942116624946201 0 0.2225869794983123 0.45730267011297421 0 0.23528682559011829 0.45912369047648299 0 0.22375488857108419 0.46942116624946201 0 0.23012583835517439 0.44604945478757169 0 0.2225869794983123 0.45730267011297421 0 0.23528682559011829 0.45912369047648299 0 0.23528682559011829 0.45912369047648299 0 0.23769973714333609 0.47880803313209619 0 0.25111179165112713 0.46423301617356483 0 0.23528682559011829 0.45912369047648299 0 0.24612545309085471 0.44922386194281078 0 0.25111179165112713 0.46423301617356483 0 0.23012583835517439 0.44604945478757169 0 0.23528682559011829 0.45912369047648299 0 0.24612545309085471 0.44922386194281078 0 0.24220862712640939 0.43592070532609167 0 0.23012583835517439 0.44604945478757169 0 0.24612545309085471 0.44922386194281078 0 0.24220862712640939 0.43592070532609167 0 0.24612545309085471 0.44922386194281078 0 0.255153358612633 0.44092426237572158 0 0.23933510844593281 0.5 0 0.23769973714333609 0.47880803313209619 0 0.25620719767324801 0.48193597332687321 0 0.23769973714333609 0.47880803313209619 0 0.25620719767324801 0.48193597332687321 0 0.25111179165112713 0.46423301617356483 0 0.23769973714333609 0.47880803313209619 0 0.22375488857108419 0.46942116624946201 0 0.21786314090527709 0.48086907233546128 0 0.23528682559011829 0.45912369047648299 0 0.23769973714333609 0.47880803313209619 0 0.22375488857108419 0.46942116624946201 0 0.23933510844593281 0.5 0 0.2132289668129333 0.5 0 0.21786314090527709 0.48086907233546128 0 0.23933510844593281 0.5 0 0.23769973714333609 0.47880803313209619 0 0.21786314090527709 0.48086907233546128 0 0.2132289668129333 0.5 0 0.21786314090527709 0.48086907233546128 0 0.19982157977646839 0.48556064731593751 0 0.21786314090527709 0.48086907233546128 0 0.20107196182162579 0.46988647362871738 0 0.19982157977646839 0.48556064731593751 0 0.21272996443106129 0.46354858737987831 0 0.22375488857108419 0.46942116624946201 0 0.21786314090527709 0.48086907233546128 0 0.21272996443106129 0.46354858737987831 0 0.21786314090527709 0.48086907233546128 0 0.20107196182162579 0.46988647362871738 0 0.20107196182162579 0.46988647362871738 0 0.1841290255483248 0.47889851183949361 0 0.17827206139882601 0.46012355862826543 0 0.20107196182162579 0.46988647362871738 0 0.19982157977646839 0.48556064731593751 0 0.1841290255483248 0.47889851183949361 0 0.2132289668129333 0.5 0 0.19982157977646839 0.48556064731593751 0 0.18712282517993381 0.5 0 0.19982157977646839 0.48556064731593751 0 0.18712282517993381 0.5 0 0.1841290255483248 0.47889851183949361 0 0.18712282517993381 0.5 0 0.16101668354693419 0.5 0 0.17119505422004661 0.48567403870751369 0 0.18712282517993381 0.5 0 0.17119505422004661 0.48567403870751369 0 0.1841290255483248 0.47889851183949361 0 0.16101668354693419 0.5 0 0.17119505422004661 0.48567403870751369 0 0.1584061180962861 0.47501322475752511 0 0.17119505422004661 0.48567403870751369 0 0.1584061180962861 0.47501322475752511 0 0.17141899139406619 0.47255365061434079 0 0.1584061180962861 0.47501322475752511 0 0.17141899139406619 0.47255365061434079 0 0.16294447672183271 0.46419110993864487 0 0.17141899139406619 0.47255365061434079 0 0.1841290255483248 0.47889851183949361 0 0.17827206139882601 0.46012355862826543 0 0.17119505422004661 0.48567403870751369 0 0.17141899139406619 0.47255365061434079 0 0.1841290255483248 0.47889851183949361 0 0.1996741324314478 0.4534381891985762 0 0.17827206139882601 0.46012355862826543 0 0.17441801636314011 0.44693378676628542 0 0.1996741324314478 0.4534381891985762 0 0.17441801636314011 0.44693378676628542 0 0.17988935235437389 0.43410296126207187 0 0.1895468394264419 0.44102587629222129 0 0.17441801636314011 0.44693378676628542 0 0.17185548502663919 0.43600322700639932 0 0.17988935235437389 0.43410296126207187 0 0.17441801636314011 0.44693378676628542 0 0.17441801636314011 0.44693378676628542 0 0.1491619002948322 0.44042938433399459 0 0.17441801636314011 0.44693378676628542 0 0.1491619002948322 0.44042938433399459 0 0.15547216097602609 0.45036064362781331 0 0.16239572878931879 0.43538541344363912 0 0.17441801636314011 0.44693378676628542 0 0.1491619002948322 0.44042938433399459 0 0.17827206139882601 0.46012355862826543 0 0.17441801636314011 0.44693378676628542 0 0.15547216097602609 0.45036064362781331 0 0.16239572878931879 0.43538541344363912 0 0.17185548502663919 0.43600322700639932 0 0.17441801636314011 0.44693378676628542 0 0.17827206139882601 0.46012355862826543 0 0.15547216097602609 0.45036064362781331 0 0.17827206139882601 0.46012355862826543 0 0.16294447672183271 0.46419110993864487 0 0.15547216097602609 0.45036064362781331 0 0.17141899139406619 0.47255365061434079 0 0.17827206139882601 0.46012355862826543 0 0.16294447672183271 0.46419110993864487 0 0.1584061180962861 0.47501322475752511 0 0.16294447672183271 0.46419110993864487 0 0.1490065383749247 0.46457332632096071 0 0.1490065383749247 0.46457332632096071 0 0.1411347858600662 0.4535611886905867 0 0.15547216097602609 0.45036064362781331 0 0.16294447672183271 0.46419110993864487 0 0.1490065383749247 0.46457332632096071 0 0.15547216097602609 0.45036064362781331 0 0.1490065383749247 0.46457332632096071 0 0.1411347858600662 0.4535611886905867 0 0.13342412756957889 0.46395874791975511 0 0.15547216097602609 0.45036064362781331 0 0.13267226055322601 0.44059772862736118 0 0.1411347858600662 0.4535611886905867 0 0.15547216097602609 0.45036064362781331 0 0.13267226055322601 0.44059772862736118 0 0.1491619002948322 0.44042938433399459 0 0.15547216097602609 0.45036064362781331 0 0.13267226055322601 0.44059772862736118 0 0.1239057842265244 0.43392498190170392 0 0.1491619002948322 0.44042938433399459 0 0.13267226055322601 0.44059772862736118 0 0.1411347858600662 0.4535611886905867 0 0.13093450768456341 0.45171154941277442 0 0.13267226055322601 0.44059772862736118 0 0.1239128792744965 0.4450890007155488 0 0.13093450768456341 0.45171154941277442 0 0.13267226055322601 0.44059772862736118 0 0.1217963043948825 0.45489592595541439 0 0.1239128792744965 0.4450890007155488 0 0.13093450768456341 0.45171154941277442 0 0.1411347858600662 0.4535611886905867 0 0.13093450768456341 0.45171154941277442 0 0.13342412756957889 0.46395874791975511 0 0.1217963043948825 0.45489592595541439 0 0.13093450768456341 0.45171154941277442 0 0.13342412756957889 0.46395874791975511 0 0.1214684810538849 0.46526649887380112 0 0.1217963043948825 0.45489592595541439 0 0.13342412756957889 0.46395874791975511 0 0.1214684810538849 0.46526649887380112 0 0.13342412756957889 0.46395874791975511 0 0.12633670454979751 0.4773000659454385 0 0.13342412756957889 0.46395874791975511 0 0.12633670454979751 0.4773000659454385 0 0.1414639444210154 0.48141439702564148 0 0.1172784241851602 0.48239011809730559 0 0.12633670454979751 0.4773000659454385 0 0.1349105419139347 0.50000000000000089 0 0.12633670454979751 0.4773000659454385 0 0.1349105419139347 0.50000000000000089 0 0.1414639444210154 0.48141439702564148 0 0.16101668354693419 0.5 0 0.1584061180962861 0.47501322475752511 0 0.1414639444210154 0.48141439702564148 0 0.16101668354693419 0.5 0 0.1349105419139347 0.50000000000000089 0 0.1414639444210154 0.48141439702564148 0 0.1584061180962861 0.47501322475752511 0 0.1490065383749247 0.46457332632096071 0 0.1414639444210154 0.48141439702564148 0 0.1490065383749247 0.46457332632096071 0 0.13342412756957889 0.46395874791975511 0 0.1414639444210154 0.48141439702564148 0 0.34810578050253532 0.50000000000000067 0 0.36463877156363228 0.4836246364240171 0 0.38301867432905418 0.5 0 0.36463877156363228 0.4836246364240171 0 0.35578269285411568 0.45775213458291869 0 0.34137637975710039 0.47887606729145898 0 0.34810578050253532 0.50000000000000067 0 0.36463877156363228 0.4836246364240171 0 0.34810578050253532 0.50000000000000067 0 0.36463877156363228 0.4836246364240171 0 0.34137637975710039 0.47887606729145898 0 0.36463877156363228 0.4836246364240171 0 0.35578269285411568 0.45775213458291869 0 0.38117176262472902 0.4672492728480333 0 0.36463877156363228 0.4836246364240171 0 0.38117176262472902 0.4672492728480333 0 0.35578269285411568 0.45775213458291869 0 0.37018900595113091 0.4366282018743784 0 0.38117176262472902 0.4672492728480333 0 0.35578269285411568 0.45775213458291869 0 0.37018900595113091 0.4366282018743784 0 0.34393554113606889 0.44359681727725891 0 0.35578269285411568 0.45775213458291869 0 0.37018900595113091 0.4366282018743784 0 0.35578269285411568 0.45775213458291869 0 0.33773008743049898 0.45926967004700447 0 0.34137637975710039 0.47887606729145898 0 0.35578269285411568 0.45775213458291869 0 0.34137637975710039 0.47887606729145898 0 0.34393554113606889 0.44359681727725891 0 0.35578269285411568 0.45775213458291869 0 0.33773008743049898 0.45926967004700447 0 0.33773008743049898 0.45926967004700447 0 0.32375671664080491 0.46668030852027581 0 0.34137637975710039 0.47887606729145898 0 0.33773008743049898 0.45926967004700447 0 0.32432036003384962 0.44959017265390672 0 0.32375671664080491 0.46668030852027581 0 0.34393554113606889 0.44359681727725891 0 0.32432036003384962 0.44959017265390672 0 0.32784920004130852 0.43209170315001882 0 0.34393554113606889 0.44359681727725891 0 0.33773008743049898 0.45926967004700447 0 0.32432036003384962 0.44959017265390672 0 0.32432036003384962 0.44959017265390672 0 0.31081376471187488 0.45533989494023869 0 0.31035208231649192 0.43940921297461061 0 0.32432036003384962 0.44959017265390672 0 0.31035208231649192 0.43940921297461061 0 0.32784920004130852 0.43209170315001882 0 0.32375671664080491 0.46668030852027581 0 0.30574120000227578 0.47350822830263561 0 0.31081376471187488 0.45533989494023869 0 0.32432036003384962 0.44959017265390672 0 0.32375671664080491 0.46668030852027581 0 0.31081376471187488 0.45533989494023869 0 0.32375671664080491 0.46668030852027581 0 0.32281913454395189 0.48357139293180812 0 0.30574120000227578 0.47350822830263561 0 0.32375671664080491 0.46668030852027581 0 0.32281913454395189 0.48357139293180812 0 0.34137637975710039 0.47887606729145898 0 0.34810578050253532 0.50000000000000067 0 0.34137637975710039 0.47887606729145898 0 0.32697006666008532 0.49999999999999961 0 0.34137637975710039 0.47887606729145898 0 0.32697006666008532 0.49999999999999961 0 0.32281913454395189 0.48357139293180812 0 0.34137637975710039 0.47887606729145898 0 0.32697006666008532 0.49999999999999961 0 0.32281913454395189 0.48357139293180812 0 0.31765353334493168 0.49999999999999539 0 0.30574120000227578 0.47350822830263561 0 0.32281913454395189 0.48357139293180812 0 0.31765353334493168 0.49999999999999539 0 0.32697006666008532 0.49999999999999961 0 0.31765353334493168 0.49999999999999539 0 0.30126365738009492 0.48953632552243592 0 0.29154739171193211 0.5 0 0.31765353334493168 0.49999999999999539 0 0.30126365738009492 0.48953632552243592 0 0.30574120000227578 0.47350822830263561 0 0.31765353334493168 0.49999999999999539 0 0.30574120000227578 0.47350822830263561 0 0.30126365738009492 0.48953632552243592 0 0.30574120000227578 0.47350822830263561 0 0.29073342250680001 0.48420309605937012 0 0.30574120000227578 0.47350822830263561 0 0.29073342250680001 0.48420309605937012 0 0.28865968523636598 0.46927583296662723 0 0.29073342250680001 0.48420309605937012 0 0.28865968523636598 0.46927583296662723 0 0.27527718179464611 0.48252913794944807 0 0.29073342250680001 0.48420309605937012 0 0.29154739171193211 0.5 0 0.27527718179464611 0.48252913794944807 0 0.30126365738009492 0.48953632552243592 0 0.29073342250680001 0.48420309605937012 0 0.29154739171193211 0.5 0 0.29154739171193211 0.5 0 0.27527718179464611 0.48252913794944807 0 0.26544125007893238 0.5 0 0.27527718179464611 0.48252913794944807 0 0.25620719767324801 0.48193597332687321 0 0.26544125007893238 0.5 0 0.27527718179464611 0.48252913794944807 0 0.25620719767324801 0.48193597332687321 0 0.26843522825610439 0.46539194568290121 0 0.28865968523636598 0.46927583296662723 0 0.27527718179464611 0.48252913794944807 0 0.26843522825610439 0.46539194568290121 0 0.25620719767324801 0.48193597332687321 0 0.25111179165112713 0.46423301617356483 0 0.26843522825610439 0.46539194568290121 0 0.23933510844593281 0.5 0 0.25620719767324801 0.48193597332687321 0 0.26544125007893238 0.5 0 0.24612545309085471 0.44922386194281078 0 0.26281137005153771 0.45087955285416509 0 0.255153358612633 0.44092426237572158 0 0.26281137005153771 0.45087955285416509 0 0.26344435539796462 0.43762575504593898 0 0.255153358612633 0.44092426237572158 0 0.24612545309085471 0.44922386194281078 0 0.26281137005153771 0.45087955285416509 0 0.25111179165112713 0.46423301617356483 0 0.26281137005153771 0.45087955285416509 0 0.25111179165112713 0.46423301617356483 0 0.26843522825610439 0.46539194568290121 0 0.28865968523636598 0.46927583296662723 0 0.26843522825610439 0.46539194568290121 0 0.27772845733469309 0.44556872010932358 0 0.26281137005153771 0.45087955285416509 0 0.26843522825610439 0.46539194568290121 0 0.27772845733469309 0.44556872010932358 0 0.26281137005153771 0.45087955285416509 0 0.26344435539796462 0.43762575504593898 0 0.27772845733469309 0.44556872010932358 0 0.27772845733469309 0.44556872010932358 0 0.29382886665961822 0.44701645660527661 0 0.28191653331696059 0.42052468490791739 0 0.28865968523636598 0.46927583296662723 0 0.27772845733469309 0.44556872010932358 0 0.29382886665961822 0.44701645660527661 0 0.30574120000227578 0.47350822830263561 0 0.28865968523636598 0.46927583296662723 0 0.29382886665961822 0.44701645660527661 0 0.28865968523636598 0.46927583296662723 0 0.27772845733469309 0.44556872010932358 0 0.30574120000227578 0.47350822830263561 0 0.29382886665961822 0.44701645660527661 0 0.30574120000227578 0.47350822830263561 0 0.29382886665961822 0.44701645660527661 0 0.31081376471187488 0.45533989494023869 0 0.29382886665961822 0.44701645660527661 0 0.31035208231649192 0.43940921297461061 0 0.29892963847742932 0.42879868973117552 0 0.29382886665961822 0.44701645660527661 0 0.31081376471187488 0.45533989494023869 0 0.31035208231649192 0.43940921297461061 0 0.31035208231649192 0.43940921297461061 0 0.29892963847742932 0.42879868973117552 0 0.31259643551545241 0.41959502466936299 0 0.29892963847742932 0.42879868973117552 0 0.29645616171725142 0.41237967437092382 0 0.31259643551545241 0.41959502466936299 0 0.29645616171725142 0.41237967437092382 0 0.30682842024847612 0.40553206182203072 0 0.31259643551545241 0.41959502466936299 0 0.29645616171725142 0.41237967437092382 0 0.29449896911762791 0.4013870427550057 0 0.30682842024847612 0.40553206182203072 0 0.28191653331696059 0.42052468490791739 0 0.29645616171725142 0.41237967437092382 0 0.28432157324280483 0.40386539822084871 0 0.29892963847742932 0.42879868973117552 0 0.28191653331696059 0.42052468490791739 0 0.29645616171725142 0.41237967437092382 0 0.29382886665961822 0.44701645660527661 0 0.28191653331696059 0.42052468490791739 0 0.29382886665961822 0.44701645660527661 0 0.29892963847742932 0.42879868973117552 0 0.28191653331696059 0.42052468490791739 0 0.27772845733469309 0.44556872010932358 0 0.2667972294330202 0.42186160725201988 0 0.27772845733469309 0.44556872010932358 0 0.28191653331696059 0.42052468490791739 0 0.2667972294330202 0.42186160725201988 0 0.26344435539796462 0.43762575504593898 0 0.27772845733469309 0.44556872010932358 0 0.2667972294330202 0.42186160725201988 0 0.28191653331696059 0.42052468490791739 0 0.27000419997430358 0.39403291321055789 0 0.28191653331696059 0.42052468490791739 0 0.2667972294330202 0.42186160725201988 0 0.27000419997430358 0.39403291321055789 0 0.2667972294330202 0.42186160725201988 0 0.25586600153134698 0.3981544943947164 0 0.2667972294330202 0.42186160725201988 0 0.25144155790552458 0.41441386039409911 0 0.25586600153134698 0.3981544943947164 0 0.2667972294330202 0.42186160725201988 0 0.25144155790552458 0.41441386039409911 0 0.25473136155793918 0.42889463263846489 0 0.26344435539796462 0.43762575504593898 0 0.2667972294330202 0.42186160725201988 0 0.25473136155793918 0.42889463263846489 0 0.2457040788757604 0.42271492109293152 0 0.25144155790552458 0.41441386039409911 0 0.25473136155793918 0.42889463263846489 0 0.24220862712640939 0.43592070532609167 0 0.255153358612633 0.44092426237572158 0 0.25473136155793918 0.42889463263846489 0 0.26344435539796462 0.43762575504593898 0 0.255153358612633 0.44092426237572158 0 0.25473136155793918 0.42889463263846489 0 0.2456043612611116 0.37589955046931212 0 0.25586600153134698 0.3981544943947164 0 0.27000419997430358 0.39403291321055789 0 0.26111348725655908 0.37426090677234042 0 0.26033035741106819 0.38666020291147529 0 0.27000419997430358 0.39403291321055789 0 0.26111348725655908 0.37426090677234042 0 0.26033035741106819 0.38666020291147529 0 0.25433774088206251 0.38019249726829057 0 0.25586600153134698 0.3981544943947164 0 0.2456043612611116 0.37589955046931212 0 0.25433774088206251 0.38019249726829057 0 0.25586600153134698 0.3981544943947164 0 0.26033035741106819 0.38666020291147529 0 0.25433774088206251 0.38019249726829057 0 0.26111348725655908 0.37426090677234042 0 0.2456043612611116 0.37589955046931212 0 0.26111348725655908 0.37426090677234042 0 0.2472339691351505 0.37510559615395539 0 0.2456043612611116 0.37589955046931212 0 0.26111348725655908 0.37426090677234042 0 0.2456043612611116 0.37589955046931212 0 0.25433774088206251 0.38019249726829057 0 0.26111348725655908 0.37426090677234042 0 0.2667972294330202 0.42186160725201988 0 0.25586600153134698 0.3981544943947164 0 0.27000419997430358 0.39403291321055789 0 0.24370651671509169 0.40169923908266608 0 0.25144155790552458 0.41441386039409911 0 0.25586600153134698 0.3981544943947164 0 0.26033035741106819 0.38666020291147529 0 0.25586600153134698 0.3981544943947164 0 0.27000419997430358 0.39403291321055789 0 0.25586600153134698 0.3981544943947164 0 0.27000419997430358 0.39403291321055789 0 0.28191653331696059 0.42052468490791739 0 0.27000419997430358 0.39403291321055789 0 0.28432157324280483 0.40386539822084871 0 0.27000419997430358 0.39403291321055789 0 0.28967223353073429 0.3882992691849162 0 0.27000419997430358 0.39403291321055789 0 0.27676894534090268 0.38204859125696539 0 0.26111348725655908 0.37426090677234042 0 0.27676894534090268 0.38204859125696539 0 0.28628586060201322 0.37160127586005282 0 0.26111348725655908 0.37426090677234042 0 0.27000419997430358 0.39403291321055789 0 0.27676894534090268 0.38204859125696539 0 0.28967223353073429 0.3882992691849162 0 0.28967223353073429 0.3882992691849162 0 0.29918914879184511 0.37785195378800179 0 0.28628586060201322 0.37160127586005282 0 0.27676894534090268 0.38204859125696539 0 0.28967223353073429 0.3882992691849162 0 0.28628586060201322 0.37160127586005282 0 0.27000419997430358 0.39403291321055789 0 0.28967223353073429 0.3882992691849162 0 0.28432157324280483 0.40386539822084871 0 0.28967223353073429 0.3882992691849162 0 0.28432157324280483 0.40386539822084871 0 0.29449896911762791 0.4013870427550057 0 0.28967223353073429 0.3882992691849162 0 0.29449896911762791 0.4013870427550057 0 0.30237151167445703 0.39629918468048259 0 0.29645616171725142 0.41237967437092382 0 0.28432157324280483 0.40386539822084871 0 0.29449896911762791 0.4013870427550057 0 0.28967223353073429 0.3882992691849162 0 0.30237151167445703 0.39629918468048259 0 0.30728441860180628 0.38995240430765471 0 0.29449896911762791 0.4013870427550057 0 0.30237151167445703 0.39629918468048259 0 0.30682842024847612 0.40553206182203072 0 0.30237151167445703 0.39629918468048259 0 0.30728441860180628 0.38995240430765471 0 0.31535942264012062 0.39705976255101788 0 0.30728441860180628 0.38995240430765471 0 0.31391941064639373 0.38610950179134013 0 0.31535942264012062 0.39705976255101788 0 0.30237151167445703 0.39629918468048259 0 0.30682842024847612 0.40553206182203072 0 0.31535942264012062 0.39705976255101788 0 0.28967223353073429 0.3882992691849162 0 0.30934026708716639 0.38256562515927928 0 0.28967223353073429 0.3882992691849162 0 0.30728441860180628 0.38995240430765471 0 0.30934026708716639 0.38256562515927928 0 0.28967223353073429 0.3882992691849162 0 0.29918914879184511 0.37785195378800179 0 0.30934026708716639 0.38256562515927928 0 0.30728441860180628 0.38995240430765471 0 0.30934026708716639 0.38256562515927928 0 0.31391941064639373 0.38610950179134013 0 0.29918914879184511 0.37785195378800179 0 0.30934026708716639 0.38256562515927928 0 0.31145823394746658 0.36894164494775922 0 0.30934026708716639 0.38256562515927928 0 0.31391941064639373 0.38610950179134013 0 0.32900830064359848 0.37683198113364252 0 0.31391941064639373 0.38610950179134013 0 0.32900830064359848 0.37683198113364252 0 0.34006339732316848 0.3967552497145076 0 0.30934026708716639 0.38256562515927928 0 0.32900830064359848 0.37683198113364252 0 0.30934026708716639 0.38256562515927928 0 0.32900830064359848 0.37683198113364252 0 0.31145823394746658 0.36894164494775922 0 0.32900830064359848 0.37683198113364252 0 0.34056193590332212 0.37811848061452119 0 0.34006339732316848 0.3967552497145076 0 0.34006339732316848 0.3967552497145076 0 0.32117865724794392 0.40635509326042729 0 0.33257931552342851 0.41525886417556951 0 0.31391941064639373 0.38610950179134013 0 0.34006339732316848 0.3967552497145076 0 0.31535942264012062 0.39705976255101788 0 0.34006339732316848 0.3967552497145076 0 0.31535942264012062 0.39705976255101788 0 0.32117865724794392 0.40635509326042729 0 0.31391941064639373 0.38610950179134013 0 0.34006339732316848 0.3967552497145076 0 0.30682842024847612 0.40553206182203072 0 0.31535942264012062 0.39705976255101788 0 0.32117865724794392 0.40635509326042729 0 0.30682842024847612 0.40553206182203072 0 0.31259643551545241 0.41959502466936299 0 0.32117865724794392 0.40635509326042729 0 0.31259643551545241 0.41959502466936299 0 0.32117865724794392 0.40635509326042729 0 0.33257931552342851 0.41525886417556951 0 0.31035208231649192 0.43940921297461061 0 0.31259643551545241 0.41959502466936299 0 0.32784920004130852 0.43209170315001882 0 0.31259643551545241 0.41959502466936299 0 0.32784920004130852 0.43209170315001882 0 0.33257931552342851 0.41525886417556951 0 0.34393554113606889 0.44359681727725891 0 0.32784920004130852 0.43209170315001882 0 0.34800252714023228 0.42632259640072451 0 0.32784920004130852 0.43209170315001882 0 0.33257931552342851 0.41525886417556951 0 0.34800252714023228 0.42632259640072451 0 0.34006339732316848 0.3967552497145076 0 0.33257931552342851 0.41525886417556951 0 0.34914161578079128 0.41238289081021762 0 0.33257931552342851 0.41525886417556951 0 0.34914161578079128 0.41238289081021762 0 0.34800252714023228 0.42632259640072451 0 0.34914161578079128 0.41238289081021762 0 0.34800252714023228 0.42632259640072451 0 0.36525104801216218 0.41994903574253212 0 0.34393554113606889 0.44359681727725891 0 0.34800252714023228 0.42632259640072451 0 0.37018900595113091 0.4366282018743784 0 0.34800252714023228 0.42632259640072451 0 0.37018900595113091 0.4366282018743784 0 0.36525104801216218 0.41994903574253212 0 0.37018900595113091 0.4366282018743784 0 0.36525104801216218 0.41994903574253212 0 0.38481039433510339 0.41497608406533631 0 0.36525104801216218 0.41994903574253212 0 0.36620738399994329 0.40740099763767501 0 0.38481039433510339 0.41497608406533631 0 0.34914161578079128 0.41238289081021762 0 0.36525104801216218 0.41994903574253212 0 0.36620738399994329 0.40740099763767501 0 0.36620738399994329 0.40740099763767501 0 0.37354152881041319 0.39389272245229301 0 0.38470754091949289 0.39939330644127469 0 0.36620738399994329 0.40740099763767501 0 0.37354152881041319 0.39389272245229301 0 0.35690372564684769 0.39308549713775093 0 0.37354152881041319 0.39389272245229301 0 0.36656705542153389 0.38238157201374651 0 0.38425082867153071 0.38037876704496631 0 0.37354152881041319 0.39389272245229301 0 0.36656705542153389 0.38238157201374651 0 0.35690372564684769 0.39308549713775093 0 0.36656705542153389 0.38238157201374651 0 0.36946271990026192 0.36921549307873242 0 0.38425082867153071 0.38037876704496631 0 0.34056193590332212 0.37811848061452119 0 0.34006339732316848 0.3967552497145076 0 0.35114339574303849 0.38165965101722749 0 0.36656705542153389 0.38238157201374651 0 0.35114339574303849 0.38165965101722749 0 0.35690372564684769 0.39308549713775093 0 0.34006339732316848 0.3967552497145076 0 0.35114339574303849 0.38165965101722749 0 0.35690372564684769 0.39308549713775093 0 0.36656705542153389 0.38238157201374651 0 0.35114339574303849 0.38165965101722749 0 0.35842726527558949 0.37229744507208212 0 0.34056193590332212 0.37811848061452119 0 0.35114339574303849 0.38165965101722749 0 0.34596397851388461 0.36906350717176312 0 0.34006339732316848 0.3967552497145076 0 0.36620738399994329 0.40740099763767501 0 0.34006339732316848 0.3967552497145076 0 0.36620738399994329 0.40740099763767501 0 0.35690372564684769 0.39308549713775093 0 0.34006339732316848 0.3967552497145076 0 0.34914161578079128 0.41238289081021762 0 0.36620738399994329 0.40740099763767501 0 0.358585794436656 0.35165942171365933 0 0.35032132132435417 0.35314447179751079 0 0.35661819603384942 0.36098735102351048 0 0.358585794436656 0.35165942171365933 0 0.35192935493935418 0.34525783987728681 0 0.35032132132435417 0.35314447179751079 0 0.358585794436656 0.35165942171365933 0 0.35192935493935418 0.34525783987728681 0 0.36415500371687731 0.34292879528554399 0 0.35192935493935418 0.34525783987728681 0 0.34503032617071439 0.34768956292058301 0 0.35032132132435417 0.35314447179751079 0 0.35192935493935418 0.34525783987728681 0 0.34503032617071439 0.34768956292058301 0 0.34599995651418902 0.34097249865618889 0 0.35032132132435417 0.35314447179751079 0 0.34669993128915338 0.35935233340500372 0 0.35661819603384942 0.36098735102351048 0 0.34503032617071439 0.34768956292058301 0 0.35032132132435417 0.35314447179751079 0 0.3430643250763975 0.35392032184502181 0 0.35032132132435417 0.35314447179751079 0 0.34669993128915338 0.35935233340500372 0 0.3430643250763975 0.35392032184502181 0 0.34669993128915338 0.35935233340500372 0 0.34596397851388461 0.36906350717176312 0 0.33955095286634279 0.35979328502601893 0 0.34669993128915338 0.35935233340500372 0 0.34596397851388461 0.36906350717176312 0 0.35661819603384942 0.36098735102351048 0 0.34596397851388461 0.36906350717176312 0 0.35842726527558949 0.37229744507208212 0 0.35661819603384942 0.36098735102351048 0 0.35114339574303849 0.38165965101722749 0 0.34596397851388461 0.36906350717176312 0 0.35842726527558949 0.37229744507208212 0 0.35661819603384942 0.36098735102351048 0 0.36946271990026192 0.36921549307873242 0 0.36831937363042938 0.35601155238520749 0 0.36656705542153389 0.38238157201374651 0 0.35842726527558949 0.37229744507208212 0 0.36946271990026192 0.36921549307873242 0 0.35842726527558949 0.37229744507208212 0 0.35661819603384942 0.36098735102351048 0 0.36946271990026192 0.36921549307873242 0 0.36946271990026192 0.36921549307873242 0 0.36831937363042938 0.35601155238520749 0 0.38209756270918421 0.3636155102963331 0 0.358585794436656 0.35165942171365933 0 0.35661819603384942 0.36098735102351048 0 0.36831937363042938 0.35601155238520749 0 0.358585794436656 0.35165942171365933 0 0.36831937363042938 0.35601155238520749 0 0.36415500371687731 0.34292879528554399 0 0.36831937363042938 0.35601155238520749 0 0.36415500371687731 0.34292879528554399 0 0.37928183756442191 0.34765713674703952 0 0.36415500371687731 0.34292879528554399 0 0.37590371760048852 0.33667535164759199 0 0.37928183756442191 0.34765713674703952 0 0.36317525763150299 0.33152652559339679 0 0.36415500371687731 0.34292879528554399 0 0.37590371760048852 0.33667535164759199 0 0.36317525763150299 0.33152652559339679 0 0.37316531528199609 0.32471254124834659 0 0.37590371760048852 0.33667535164759199 0 0.36317525763150299 0.33152652559339679 0 0.36415500371687731 0.34292879528554399 0 0.35243082816056331 0.33414003055035119 0 0.36317525763150299 0.33152652559339679 0 0.37316531528199609 0.32471254124834659 0 0.35684318722945541 0.32022575812212861 0 0.37316531528199609 0.32471254124834659 0 0.35684318722945541 0.32022575812212861 0 0.37634715262627072 0.30579766203758357 0 0.35684318722945541 0.32022575812212861 0 0.35243082816056331 0.33414003055035119 0 0.3421593000997053 0.32456425978236758 0 0.35684318722945541 0.32022575812212861 0 0.3421593000997053 0.32456425978236758 0 0.34276743093903428 0.31161638272446268 0 0.35192935493935418 0.34525783987728681 0 0.36415500371687731 0.34292879528554399 0 0.35243082816056331 0.33414003055035119 0 0.36317525763150299 0.33152652559339679 0 0.35684318722945541 0.32022575812212861 0 0.35243082816056331 0.33414003055035119 0 0.35243082816056331 0.33414003055035119 0 0.34087405406434701 0.33543626742366872 0 0.3421593000997053 0.32456425978236758 0 0.35243082816056331 0.33414003055035119 0 0.34599995651418902 0.34097249865618889 0 0.34087405406434701 0.33543626742366872 0 0.35192935493935418 0.34525783987728681 0 0.35243082816056331 0.33414003055035119 0 0.34599995651418902 0.34097249865618889 0 0.34087405406434701 0.33543626742366872 0 0.3350871897982251 0.33923621218606942 0 0.33955663429170357 0.34393264367552379 0 0.34599995651418902 0.34097249865618889 0 0.34087405406434701 0.33543626742366872 0 0.33955663429170357 0.34393264367552379 0 0.33458795500648703 0.34280832610445622 0 0.3350871897982251 0.33923621218606942 0 0.33955663429170357 0.34393264367552379 0 0.34087405406434701 0.33543626742366872 0 0.33363321755750258 0.33064984576484391 0 0.3421593000997053 0.32456425978236758 0 0.34087405406434701 0.33543626742366872 0 0.33363321755750258 0.33064984576484391 0 0.3350871897982251 0.33923621218606942 0 0.33363321755750258 0.33064984576484391 0 0.32713635034118888 0.33841416877915093 0 0.32496058460092869 0.32914787643712751 0 0.33458795500648703 0.34280832610445622 0 0.3350871897982251 0.33923621218606942 0 0.32713635034118888 0.33841416877915093 0 0.33363321755750258 0.33064984576484391 0 0.3350871897982251 0.33923621218606942 0 0.32713635034118888 0.33841416877915093 0 0.33458795500648703 0.34280832610445622 0 0.32713635034118888 0.33841416877915093 0 0.33657164559483038 0.34965027977708107 0 0.3421593000997053 0.32456425978236758 0 0.329300993893065 0.31881937029881358 0 0.34276743093903428 0.31161638272446268 0 0.33363321755750258 0.33064984576484391 0 0.3421593000997053 0.32456425978236758 0 0.329300993893065 0.31881937029881358 0 0.33363321755750258 0.33064984576484391 0 0.329300993893065 0.31881937029881358 0 0.32496058460092869 0.32914787643712751 0 0.329300993893065 0.31881937029881358 0 0.31708527369170331 0.32440065303158899 0 0.30663521532868337 0.31014208114034081 0 0.329300993893065 0.31881937029881358 0 0.31708527369170331 0.32440065303158899 0 0.32496058460092869 0.32914787643712751 0 0.31708527369170331 0.32440065303158899 0 0.31721799908314668 0.33155127410213209 0 0.30777344770908382 0.32801768270064868 0 0.32713635034118888 0.33841416877915093 0 0.31721799908314668 0.33155127410213209 0 0.3091343390728285 0.33777598956214472 0 0.33657164559483038 0.34965027977708107 0 0.3091343390728285 0.33777598956214472 0 0.32713635034118888 0.33841416877915093 0 0.33657164559483038 0.34965027977708107 0 0.3091343390728285 0.33777598956214472 0 0.32713635034118888 0.33841416877915093 0 0.32496058460092869 0.32914787643712751 0 0.31721799908314668 0.33155127410213209 0 0.31708527369170331 0.32440065303158899 0 0.32496058460092869 0.32914787643712751 0 0.31721799908314668 0.33155127410213209 0 0.3127691664496644 0.34705482569572438 0 0.32953244035097251 0.35712274732660199 0 0.32089093564508392 0.35954047211389728 0 0.3127691664496644 0.34705482569572438 0 0.33782053950085161 0.3529431397619035 0 0.3127691664496644 0.34705482569572438 0 0.33657164559483038 0.34965027977708107 0 0.3091343390728285 0.33777598956214472 0 0.3127691664496644 0.34705482569572438 0 0.32953244035097251 0.35712274732660199 0 0.33782053950085161 0.3529431397619035 0 0.3127691664496644 0.34705482569572438 0 0.32089093564508392 0.35954047211389728 0 0.31165845941986869 0.35778472876969308 0 0.3127691664496644 0.34705482569572438 0 0.33782053950085161 0.3529431397619035 0 0.33657164559483038 0.34965027977708107 0 0.32953244035097251 0.35712274732660199 0 0.33782053950085161 0.3529431397619035 0 0.33955095286634279 0.35979328502601893 0 0.33782053950085161 0.3529431397619035 0 0.3430643250763975 0.35392032184502181 0 0.33955095286634279 0.35979328502601893 0 0.34669993128915338 0.35935233340500372 0 0.3430643250763975 0.35392032184502181 0 0.33955095286634279 0.35979328502601893 0 0.33782053950085161 0.3529431397619035 0 0.3430643250763975 0.35392032184502181 0 0.3404086941268995 0.34962718959602263 0 0.34503032617071439 0.34768956292058301 0 0.3430643250763975 0.35392032184502181 0 0.3404086941268995 0.34962718959602263 0 0.34503032617071439 0.34768956292058301 0 0.34599995651418902 0.34097249865618889 0 0.33955663429170357 0.34393264367552379 0 0.34503032617071439 0.34768956292058301 0 0.3404086941268995 0.34962718959602263 0 0.33955663429170357 0.34393264367552379 0 0.33458795500648703 0.34280832610445622 0 0.33955663429170357 0.34393264367552379 0 0.33657164559483038 0.34965027977708107 0 0.3404086941268995 0.34962718959602263 0 0.33955663429170357 0.34393264367552379 0 0.33657164559483038 0.34965027977708107 0 0.33782053950085161 0.3529431397619035 0 0.3404086941268995 0.34962718959602263 0 0.33657164559483038 0.34965027977708107 0 0.32953244035097251 0.35712274732660199 0 0.33663060729291999 0.36628201403546568 0 0.32089093564508392 0.35954047211389728 0 0.34056193590332212 0.37811848061452119 0 0.34596397851388461 0.36906350717176312 0 0.33663060729291999 0.36628201403546568 0 0.34596397851388461 0.36906350717176312 0 0.33663060729291999 0.36628201403546568 0 0.33955095286634279 0.35979328502601893 0 0.32953244035097251 0.35712274732660199 0 0.33663060729291999 0.36628201403546568 0 0.33955095286634279 0.35979328502601893 0 0.32900830064359848 0.37683198113364252 0 0.34056193590332212 0.37811848061452119 0 0.33663060729291999 0.36628201403546568 0 0.32900830064359848 0.37683198113364252 0 0.33663060729291999 0.36628201403546568 0 0.31145823394746658 0.36894164494775922 0 0.33663060729291999 0.36628201403546568 0 0.31145823394746658 0.36894164494775922 0 0.33663060729291999 0.36628201403546568 0 0.32089093564508392 0.35954047211389728 0 0.31145823394746658 0.36894164494775922 0 0.32089093564508392 0.35954047211389728 0 0.31145823394746658 0.36894164494775922 0 0.31165845941986869 0.35778472876969308 0 0.31145823394746658 0.36894164494775922 0 0.28628586060201322 0.37160127586005282 0 0.29918914879184511 0.37785195378800179 0 0.31145823394746658 0.36894164494775922 0 0.28628586060201322 0.37160127586005282 0 0.31145823394746658 0.36894164494775922 0 0.29787104506355239 0.35787305073377051 0 0.28628586060201322 0.37160127586005282 0 0.31145823394746658 0.36894164494775922 0 0.31165845941986869 0.35778472876969308 0 0.29787104506355239 0.35787305073377051 0 0.3127691664496644 0.34705482569572438 0 0.30250411608289068 0.35096977920718342 0 0.2877177933984772 0.34116651162954542 0 0.3127691664496644 0.34705482569572438 0 0.2877177933984772 0.34116651162954542 0 0.3127691664496644 0.34705482569572438 0 0.31165845941986869 0.35778472876969308 0 0.30250411608289068 0.35096977920718342 0 0.31165845941986869 0.35778472876969308 0 0.29787104506355239 0.35787305073377051 0 0.30250411608289068 0.35096977920718342 0 0.29787104506355239 0.35787305073377051 0 0.28099678836962477 0.35634505230004759 0 0.2877177933984772 0.34116651162954542 0 0.29787104506355239 0.35787305073377051 0 0.30250411608289068 0.35096977920718342 0 0.2877177933984772 0.34116651162954542 0 0.29787104506355239 0.35787305073377051 0 0.28628586060201322 0.37160127586005282 0 0.28099678836962477 0.35634505230004759 0 0.28628586060201322 0.37160127586005282 0 0.27277016658824271 0.36437232493354238 0 0.26111348725655908 0.37426090677234042 0 0.28628586060201322 0.37160127586005282 0 0.26111348725655908 0.37426090677234042 0 0.27277016658824271 0.36437232493354238 0 0.26111348725655908 0.37426090677234042 0 0.26351701638418379 0.36363510529411708 0 0.27277016658824271 0.36437232493354238 0 0.26872615008587047 0.35598467708468212 0 0.26351701638418379 0.36363510529411708 0 0.28628586060201322 0.37160127586005282 0 0.27277016658824271 0.36437232493354238 0 0.28099678836962477 0.35634505230004759 0 0.27277016658824271 0.36437232493354238 0 0.28099678836962477 0.35634505230004759 0 0.26872615008587047 0.35598467708468212 0 0.28099678836962477 0.35634505230004759 0 0.27296603175378309 0.34740997039464189 0 0.26872615008587047 0.35598467708468212 0 0.28099678836962477 0.35634505230004759 0 0.27296603175378309 0.34740997039464189 0 0.2877177933984772 0.34116651162954542 0 0.27296603175378309 0.34740997039464189 0 0.26872615008587047 0.35598467708468212 0 0.26318910363678499 0.34681265037704567 0 0.26872615008587047 0.35598467708468212 0 0.25936390131333081 0.35667632038514407 0 0.26351701638418379 0.36363510529411708 0 0.25936390131333081 0.35667632038514407 0 0.25204442643060948 0.35409227297074669 0 0.26351701638418379 0.36363510529411708 0 0.24560383473437741 0.33724127534574661 0 0.25936390131333081 0.35667632038514407 0 0.2564130774693798 0.34230694453239952 0 0.24560383473437741 0.33724127534574661 0 0.25936390131333081 0.35667632038514407 0 0.25204442643060948 0.35409227297074669 0 0.26872615008587047 0.35598467708468212 0 0.25936390131333081 0.35667632038514407 0 0.26318910363678499 0.34681265037704567 0 0.24560383473437741 0.33724127534574661 0 0.25936390131333081 0.35667632038514407 0 0.25936390131333081 0.35667632038514407 0 0.26318910363678499 0.34681265037704567 0 0.2564130774693798 0.34230694453239952 0 0.25204442643060948 0.35409227297074669 0 0.26111348725655908 0.37426090677234042 0 0.24927098514717019 0.36407586248533119 0 0.25204442643060948 0.35409227297074669 0 0.26111348725655908 0.37426090677234042 0 0.25204442643060948 0.35409227297074669 0 0.26111348725655908 0.37426090677234042 0 0.26351701638418379 0.36363510529411708 0 0.24831175303979541 0.3703449503069145 0 0.2472339691351505 0.37510559615395539 0 0.26111348725655908 0.37426090677234042 0 0.24831175303979541 0.3703449503069145 0 0.24927098514717019 0.36407586248533119 0 0.26111348725655908 0.37426090677234042 0 0.26049258889270799 0.31672486132045591 0 0.25521641233417602 0.32719746098940711 0 0.26657713071458689 0.32732360664864218 0 0.24618121520090841 0.32036120452743461 0 0.26049258889270799 0.31672486132045591 0 0.25521641233417602 0.32719746098940711 0 0.25521641233417602 0.32719746098940711 0 0.25262878158049362 0.33438613234917652 0 0.26266642034729021 0.33527819756336641 0 0.24601747154800041 0.3276264900319264 0 0.25521641233417602 0.32719746098940711 0 0.25262878158049362 0.33438613234917652 0 0.24560383473437741 0.33724127534574661 0 0.25262878158049362 0.33438613234917652 0 0.2564130774693798 0.34230694453239952 0 0.25262878158049362 0.33438613234917652 0 0.2564130774693798 0.34230694453239952 0 0.26266642034729021 0.33527819756336641 0 0.26318910363678499 0.34681265037704567 0 0.2564130774693798 0.34230694453239952 0 0.26266642034729021 0.33527819756336641 0 0.25521641233417602 0.32719746098940711 0 0.26266642034729021 0.33527819756336641 0 0.26657713071458689 0.32732360664864218 0 0.26266642034729021 0.33527819756336641 0 0.2877177933984772 0.34116651162954542 0 0.27296603175378309 0.34740997039464189 0 0.26266642034729021 0.33527819756336641 0 0.2877177933984772 0.34116651162954542 0 0.26266642034729021 0.33527819756336641 0 0.27281319944793392 0.33151581402277369 0 0.2877177933984772 0.34116651162954542 0 0.26266642034729021 0.33527819756336641 0 0.27281319944793392 0.33151581402277369 0 0.26657713071458689 0.32732360664864218 0 0.27296603175378309 0.34740997039464189 0 0.26318910363678499 0.34681265037704567 0 0.26266642034729021 0.33527819756336641 0 0.27281319944793392 0.33151581402277369 0 0.26657713071458689 0.32732360664864218 0 0.28169703255082662 0.32590169934720792 0 0.27281319944793392 0.33151581402277369 0 0.28169703255082662 0.32590169934720792 0 0.27281319944793392 0.33151581402277369 0 0.28169703255082662 0.32590169934720792 0 0.2877177933984772 0.34116651162954542 0 0.26049258889270799 0.31672486132045591 0 0.28169703255082662 0.32590169934720792 0 0.27503656515490871 0.30391416311737879 0 0.26049258889270799 0.31672486132045591 0 0.26657713071458689 0.32732360664864218 0 0.28169703255082662 0.32590169934720792 0 0.26049258889270799 0.31672486132045591 0 0.28169703255082662 0.32590169934720792 0 0.28169703255082662 0.32590169934720792 0 0.30663521532868337 0.31014208114034081 0 0.28169703255082662 0.32590169934720792 0 0.2984569025497702 0.3248116626755233 0 0.30663521532868337 0.31014208114034081 0 0.28169703255082662 0.32590169934720792 0 0.30663521532868337 0.31014208114034081 0 0.2903563682808476 0.30193385554438817 0 0.28169703255082662 0.32590169934720792 0 0.3091343390728285 0.33777598956214472 0 0.2984569025497702 0.3248116626755233 0 0.28169703255082662 0.32590169934720792 0 0.2877177933984772 0.34116651162954542 0 0.3091343390728285 0.33777598956214472 0 0.28169703255082662 0.32590169934720792 0 0.3091343390728285 0.33777598956214472 0 0.3127691664496644 0.34705482569572438 0 0.2877177933984772 0.34116651162954542 0 0.3091343390728285 0.33777598956214472 0 0.31721799908314668 0.33155127410213209 0 0.3091343390728285 0.33777598956214472 0 0.30777344770908382 0.32801768270064868 0 0.3091343390728285 0.33777598956214472 0 0.2984569025497702 0.3248116626755233 0 0.30777344770908382 0.32801768270064868 0 0.2984569025497702 0.3248116626755233 0 0.30777344770908382 0.32801768270064868 0 0.30663521532868337 0.31014208114034081 0 0.31708527369170331 0.32440065303158899 0 0.30777344770908382 0.32801768270064868 0 0.30663521532868337 0.31014208114034081 0 0.30663521532868337 0.31014208114034081 0 0.30666214215878651 0.28803126568349668 0 0.2903563682808476 0.30193385554438817 0 0.28175088621103261 0.28168006843351678 0 0.2903563682808476 0.30193385554438817 0 0.27503656515490871 0.30391416311737879 0 0.30666214215878651 0.28803126568349668 0 0.28175088621103261 0.28168006843351678 0 0.30666214215878651 0.28803126568349668 0 0.28175088621103261 0.28168006843351678 0 0.2903563682808476 0.30193385554438817 0 0.28169703255082662 0.32590169934720792 0 0.2903563682808476 0.30193385554438817 0 0.27503656515490871 0.30391416311737879 0 0.28175088621103261 0.28168006843351678 0 0.27503656515490871 0.30391416311737879 0 0.25747878611072272 0.29615876460580609 0 0.2431977174998369 0.29118369766733282 0 0.25747878611072272 0.29615876460580609 0 0.25683963026327877 0.27532887118353699 0 0.28175088621103261 0.28168006843351678 0 0.25747878611072272 0.29615876460580609 0 0.25683963026327877 0.27532887118353699 0 0.26049258889270799 0.31672486132045591 0 0.27503656515490871 0.30391416311737879 0 0.25747878611072272 0.29615876460580609 0 0.23928814523458961 0.30754802329370362 0 0.26049258889270799 0.31672486132045591 0 0.25747878611072272 0.29615876460580609 0 0.24146168562089759 0.25309978414275958 0 0.25683963026327877 0.27532887118353699 0 0.26007206654130183 0.24598283735499671 0 0.25683963026327877 0.27532887118353699 0 0.27389458339419342 0.25786475014875337 0 0.26007206654130183 0.24598283735499671 0 0.28175088621103261 0.28168006843351678 0 0.25683963026327877 0.27532887118353699 0 0.27389458339419342 0.25786475014875337 0 0.28175088621103261 0.28168006843351678 0 0.25683963026327877 0.27532887118353699 0 0.28175088621103261 0.28168006843351678 0 0.27389458339419342 0.25786475014875337 0 0.29124522116601248 0.25035399812975961 0 0.28175088621103261 0.28168006843351678 0 0.29124522116601248 0.25035399812975961 0 0.30848474276947119 0.26298195610867708 0 0.30666214215878651 0.28803126568349668 0 0.28175088621103261 0.28168006843351678 0 0.30848474276947119 0.26298195610867708 0 0.30848474276947119 0.26298195610867708 0 0.33145970424070098 0.26090085441963562 0 0.32147440974595892 0.24742096830902921 0 0.33145970424070098 0.26090085441963562 0 0.33578124644895652 0.24683856264327361 0 0.32147440974595892 0.24742096830902921 0 0.33145970424070098 0.26090085441963562 0 0.34541988725501049 0.25334391406492363 0 0.34923803646847112 0.26605358987936528 0 0.33145970424070098 0.26090085441963562 0 0.34541988725501049 0.25334391406492363 0 0.33578124644895652 0.24683856264327361 0 0.33145970424070098 0.26090085441963562 0 0.33711351034497 0.27625510517867541 0 0.34923803646847112 0.26605358987936528 0 0.33145970424070098 0.26090085441963562 0 0.33711351034497 0.27625510517867541 0 0.32257193145005841 0.27765863186100981 0 0.30848474276947119 0.26298195610867708 0 0.33145970424070098 0.26090085441963562 0 0.32257193145005841 0.27765863186100981 0 0.30666214215878651 0.28803126568349668 0 0.30848474276947119 0.26298195610867708 0 0.32257193145005841 0.27765863186100981 0 0.30666214215878651 0.28803126568349668 0 0.32257193145005841 0.27765863186100981 0 0.33157339810654102 0.29438246293347481 0 0.30666214215878651 0.28803126568349668 0 0.33157339810654102 0.29438246293347481 0 0.30663521532868337 0.31014208114034081 0 0.33157339810654102 0.29438246293347481 0 0.30663521532868337 0.31014208114034081 0 0.30666214215878651 0.28803126568349668 0 0.33157339810654102 0.29438246293347481 0 0.329300993893065 0.31881937029881358 0 0.30663521532868337 0.31014208114034081 0 0.33157339810654102 0.29438246293347481 0 0.329300993893065 0.31881937029881358 0 0.34276743093903428 0.31161638272446268 0 0.33157339810654102 0.29438246293347481 0 0.34276743093903428 0.31161638272446268 0 0.33157339810654102 0.29438246293347481 0 0.35396027536640562 0.30009006248553011 0 0.33157339810654102 0.29438246293347481 0 0.35396027536640562 0.30009006248553011 0 0.33157339810654102 0.29438246293347481 0 0.35072448145907897 0.28227998679989269 0 0.33711351034497 0.27625510517867541 0 0.32257193145005841 0.27765863186100981 0 0.33157339810654102 0.29438246293347481 0 0.33711351034497 0.27625510517867541 0 0.33157339810654102 0.29438246293347481 0 0.35072448145907897 0.28227998679989269 0 0.35072448145907897 0.28227998679989269 0 0.35396027536640562 0.30009006248553011 0 0.36643908743052978 0.28905124819054862 0 0.33157339810654102 0.29438246293347481 0 0.35072448145907897 0.28227998679989269 0 0.35396027536640562 0.30009006248553011 0 0.35684318722945541 0.32022575812212861 0 0.34276743093903428 0.31161638272446268 0 0.35396027536640562 0.30009006248553011 0 0.35684318722945541 0.32022575812212861 0 0.35396027536640562 0.30009006248553011 0 0.37634715262627072 0.30579766203758357 0 0.35396027536640562 0.30009006248553011 0 0.36643908743052978 0.28905124819054862 0 0.37634715262627072 0.30579766203758357 0 0.35396027536640562 0.30009006248553011 0 0.37634715262627072 0.30579766203758357 0 0.36643908743052978 0.28905124819054862 0 0.3698755648116176 0.27017751066631179 0 0.38280077355837161 0.2886874974704815 0 0.35072448145907897 0.28227998679989269 0 0.36643908743052978 0.28905124819054862 0 0.3698755648116176 0.27017751066631179 0 0.35072448145907897 0.28227998679989269 0 0.3698755648116176 0.27017751066631179 0 0.3698755648116176 0.27017751066631179 0 0.35919760034078768 0.25488576680956188 0 0.34923803646847112 0.26605358987936528 0 0.37198758451827663 0.25732873089728292 0 0.37390972291710922 0.2473738802106851 0 0.3637720744356403 0.24722639637122271 0 0.37198758451827663 0.25732873089728292 0 0.35919760034078768 0.25488576680956188 0 0.3637720744356403 0.24722639637122271 0 0.3698755648116176 0.27017751066631179 0 0.37198758451827663 0.25732873089728292 0 0.35919760034078768 0.25488576680956188 0 0.3698755648116176 0.27017751066631179 0 0.35919760034078768 0.25488576680956188 0 0.35919760034078768 0.25488576680956188 0 0.34541988725501049 0.25334391406492363 0 0.34923803646847112 0.26605358987936528 0 0.35072448145907897 0.28227998679989269 0 0.3698755648116176 0.27017751066631179 0 0.34923803646847112 0.26605358987936528 0 0.33711351034497 0.27625510517867541 0 0.35072448145907897 0.28227998679989269 0 0.34923803646847112 0.26605358987936528 0 0.40216079645999669 0.27446287008575809 0 0.39116114858523071 0.25672614267488458 0 0.38713741905510468 0.27367917621050902 0 0.40216079645999669 0.27446287008575809 0 0.38713741905510468 0.27367917621050902 0 0.39746685781141478 0.28849849449833082 0 0.39116114858523071 0.25672614267488458 0 0.41231046404048433 0.26100343730929643 0 0.41244673235884372 0.24327477468345751 0 0.40216079645999669 0.27446287008575809 0 0.39116114858523071 0.25672614267488458 0 0.41231046404048433 0.26100343730929643 0 0.39116114858523071 0.25672614267488458 0 0.41244673235884372 0.24327477468345751 0 0.37198758451827663 0.25732873089728292 0 0.39116114858523071 0.25672614267488458 0 0.37390972291710922 0.2473738802106851 0 0.3698755648116176 0.27017751066631179 0 0.37198758451827663 0.25732873089728292 0 0.39116114858523071 0.25672614267488458 0 0.3698755648116176 0.27017751066631179 0 0.39116114858523071 0.25672614267488458 0 0.3698755648116176 0.27017751066631179 0 0.38280077355837161 0.2886874974704815 0 0.3698755648116176 0.27017751066631179 0 0.38713741905510468 0.27367917621050902 0 0.38280077355837161 0.2886874974704815 0 0.3698755648116176 0.27017751066631179 0 0.39116114858523071 0.25672614267488458 0 0.38713741905510468 0.27367917621050902 0 0.36643908743052978 0.28905124819054862 0 0.38280077355837161 0.2886874974704815 0 0.37634715262627072 0.30579766203758357 0 0.38713741905510468 0.27367917621050902 0 0.38280077355837161 0.2886874974704815 0 0.39746685781141478 0.28849849449833082 0 0.37634715262627072 0.30579766203758357 0 0.39258927900634188 0.30491271860646979 0 0.39873402988613538 0.31150526158963832 0 0.38280077355837161 0.2886874974704815 0 0.39258927900634188 0.30491271860646979 0 0.39572598230512751 0.30719748427464988 0 0.38280077355837161 0.2886874974704815 0 0.37634715262627072 0.30579766203758357 0 0.39258927900634188 0.30491271860646979 0 0.37634715262627072 0.30579766203758357 0 0.39873402988613538 0.31150526158963832 0 0.38507297807623331 0.31840608276307192 0 0.38280077355837161 0.2886874974704815 0 0.39572598230512751 0.30719748427464988 0 0.37634715262627072 0.30579766203758357 0 0.39873402988613538 0.31150526158963832 0 0.39572598230512751 0.30719748427464988 0 0.39746685781141478 0.28849849449833082 0 0.40637306872626078 0.30043800576921331 0 0.39572598230512751 0.30719748427464988 0 0.39873402988613538 0.31150526158963832 0 0.39258927900634188 0.30491271860646979 0 0.39572598230512751 0.30719748427464988 0 0.39258927900634188 0.30491271860646979 0 0.39572598230512751 0.30719748427464988 0 0.39873402988613538 0.31150526158963832 0 0.39572598230512751 0.30719748427464988 0 0.40670151030260743 0.30703792501934929 0 0.40320493488356618 0.31264513183881981 0 0.39572598230512751 0.30719748427464988 0 0.40670151030260743 0.30703792501934929 0 0.40637306872626078 0.30043800576921331 0 0.39873402988613538 0.31150526158963832 0 0.40320493488356618 0.31264513183881981 0 0.39572598230512751 0.30719748427464988 0 0.39873402988613538 0.31150526158963832 0 0.40320493488356618 0.31264513183881981 0 0.39572598230512751 0.30719748427464988 0 0.40320493488356618 0.31264513183881981 0 0.38280077355837161 0.2886874974704815 0 0.39572598230512751 0.30719748427464988 0 0.39746685781141478 0.28849849449833082 0 0.39746685781141478 0.28849849449833082 0 0.41149508451031408 0.2876906848242386 0 0.40637306872626078 0.30043800576921331 0 0.40216079645999669 0.27446287008575809 0 0.39746685781141478 0.28849849449833082 0 0.41149508451031408 0.2876906848242386 0 0.41149508451031408 0.2876906848242386 0 0.40637306872626078 0.30043800576921331 0 0.41757274045054588 0.29986173067065292 0 0.41149508451031408 0.2876906848242386 0 0.42076514334985021 0.29091826307627983 0 0.41757274045054588 0.29986173067065292 0 0.41149508451031408 0.2876906848242386 0 0.4240310497968961 0.28194951842711252 0 0.41336233492461733 0.27487851527621848 0 0.41149508451031408 0.2876906848242386 0 0.42076514334985021 0.29091826307627983 0 0.4240310497968961 0.28194951842711252 0 0.40670151030260743 0.30703792501934929 0 0.41396401211904538 0.3079405109651302 0 0.40320493488356618 0.31264513183881981 0 0.40670151030260743 0.30703792501934929 0 0.41396401211904538 0.3079405109651302 0 0.40637306872626078 0.30043800576921331 0 0.41396401211904538 0.3079405109651302 0 0.40637306872626078 0.30043800576921331 0 0.41757274045054588 0.29986173067065292 0 0.42076514334985021 0.29091826307627983 0 0.41757274045054588 0.29986173067065292 0 0.42594828664500262 0.29994410844370251 0 0.41396401211904538 0.3079405109651302 0 0.42464901860716958 0.30847571837452997 0 0.42666413196968273 0.31862612245336541 0 0.41396401211904538 0.3079405109651302 0 0.41757274045054588 0.29986173067065292 0 0.42464901860716958 0.30847571837452997 0 0.41757274045054588 0.29986173067065292 0 0.42464901860716958 0.30847571837452997 0 0.42594828664500262 0.29994410844370251 0 0.42464901860716958 0.30847571837452997 0 0.42594828664500262 0.29994410844370251 0 0.43430094465162072 0.30422101474976571 0 0.42594828664500262 0.29994410844370251 0 0.43430094465162072 0.30422101474976571 0 0.43135071364090932 0.29230302483058612 0 0.42464901860716958 0.30847571837452997 0 0.43430094465162072 0.30422101474976571 0 0.43649357132488548 0.31333569439221992 0 0.42076514334985021 0.29091826307627983 0 0.4240310497968961 0.28194951842711252 0 0.43135071364090932 0.29230302483058612 0 0.42076514334985021 0.29091826307627983 0 0.42594828664500262 0.29994410844370251 0 0.43135071364090932 0.29230302483058612 0 0.43430094465162072 0.30422101474976571 0 0.43135071364090932 0.29230302483058612 0 0.44561158832178038 0.29355620395833593 0 0.4240310497968961 0.28194951842711252 0 0.43135071364090932 0.29230302483058612 0 0.43664601734775632 0.28107069004060281 0 0.4240310497968961 0.28194951842711252 0 0.43664601734775632 0.28107069004060281 0 0.43131726972202999 0.26427852587506689 0 0.4240310497968961 0.28194951842711252 0 0.41336233492461733 0.27487851527621848 0 0.43131726972202999 0.26427852587506689 0 0.41336233492461733 0.27487851527621848 0 0.41231046404048433 0.26100343730929643 0 0.43131726972202999 0.26427852587506689 0 0.40216079645999669 0.27446287008575809 0 0.41336233492461733 0.27487851527621848 0 0.41231046404048433 0.26100343730929643 0 0.40216079645999669 0.27446287008575809 0 0.41149508451031408 0.2876906848242386 0 0.41336233492461733 0.27487851527621848 0 0.41231046404048433 0.26100343730929643 0 0.42365365707085328 0.24969033119948791 0 0.41244673235884372 0.24327477468345751 0 0.43131726972202999 0.26427852587506689 0 0.42365365707085328 0.24969033119948791 0 0.44226130196693519 0.24367528627527099 0 0.41231046404048433 0.26100343730929643 0 0.43131726972202999 0.26427852587506689 0 0.42365365707085328 0.24969033119948791 0 0.485962251854198 0.2694244513607385 0 0.5 0.33138375687244159 0 0.49999999999999972 0.24593054840038461 0 0.44737008705812131 0.27059571205464511 0 0.4641117769105666 0.25654986881800468 0 0.44226130196693519 0.24367528627527099 0 0.43131726972202999 0.26427852587506689 0 0.44737008705812131 0.27059571205464511 0 0.44226130196693519 0.24367528627527099 0 0.43664601734775632 0.28107069004060281 0 0.43131726972202999 0.26427852587506689 0 0.44737008705812131 0.27059571205464511 0 0.44737008705812131 0.27059571205464511 0 0.4641117769105666 0.25654986881800468 0 0.46402275260956849 0.28425574233122047 0 0.4641117769105666 0.25654986881800468 0 0.44226130196693519 0.24367528627527099 0 0.4641117769105666 0.25654986881800468 0 0.485962251854198 0.2694244513607385 0 0.4641117769105666 0.25654986881800468 0 0.485962251854198 0.2694244513607385 0 0.49999999999999972 0.24593054840038461 0 0.4641117769105666 0.25654986881800468 0 0.485962251854198 0.2694244513607385 0 0.46402275260956849 0.28425574233122047 0 0.485962251854198 0.2694244513607385 0 0.47700683408915928 0.30495924093921922 0 0.46402275260956849 0.28425574233122047 0 0.485962251854198 0.2694244513607385 0 0.47700683408915928 0.30495924093921922 0 0.5 0.33138375687244159 0 0.47700683408915928 0.30495924093921922 0 0.45951291042639619 0.30811915121577871 0 0.46402275260956849 0.28425574233122047 0 0.45951291042639619 0.30811915121577871 0 0.46402275260956849 0.28425574233122047 0 0.44561158832178038 0.29355620395833593 0 0.44737008705812131 0.27059571205464511 0 0.46402275260956849 0.28425574233122047 0 0.44561158832178038 0.29355620395833593 0 0.43664601734775632 0.28107069004060281 0 0.44737008705812131 0.27059571205464511 0 0.44561158832178038 0.29355620395833593 0 0.43135071364090932 0.29230302483058612 0 0.43664601734775632 0.28107069004060281 0 0.44561158832178038 0.29355620395833593 0 0.43430094465162072 0.30422101474976571 0 0.44561158832178038 0.29355620395833593 0 0.44673043234015508 0.31074850331552689 0 0.45951291042639619 0.30811915121577871 0 0.44561158832178038 0.29355620395833593 0 0.44673043234015508 0.31074850331552689 0 0.43430094465162072 0.30422101474976571 0 0.44673043234015508 0.31074850331552689 0 0.43649357132488548 0.31333569439221992 0 0.45012332905579899 0.32460711306791168 0 0.42666413196968273 0.31862612245336541 0 0.45012332905579899 0.32460711306791168 0 0.43649357132488548 0.31333569439221992 0 0.42666413196968273 0.31862612245336541 0 0.45012332905579899 0.32460711306791168 0 0.43821624881474452 0.33814727228633229 0 0.42666413196968273 0.31862612245336541 0 0.5 0.33138375687244159 0 0.46788289185352178 0.36938795189681328 0 0.5 0.40150451236833901 0 0.44673043234015508 0.31074850331552689 0 0.45012332905579899 0.32460711306791168 0 0.43649357132488548 0.31333569439221992 0 0.45951291042639619 0.30811915121577871 0 0.44673043234015508 0.31074850331552689 0 0.45012332905579899 0.32460711306791168 0 0.45012332905579899 0.32460711306791168 0 0.43821624881474452 0.33814727228633229 0 0.45572190578033389 0.35089834251008839 0 0.45012332905579899 0.32460711306791168 0 0.47358252614191548 0.33058810368245811 0 0.45572190578033389 0.35089834251008839 0 0.45012332905579899 0.32460711306791168 0 0.47358252614191548 0.33058810368245811 0 0.45951291042639619 0.30811915121577871 0 0.45012332905579899 0.32460711306791168 0 0.47358252614191548 0.33058810368245811 0 0.47700683408915928 0.30495924093921922 0 0.45951291042639619 0.30811915121577871 0 0.47358252614191548 0.33058810368245811 0 0.47700683408915928 0.30495924093921922 0 0.47358252614191548 0.33058810368245811 0 0.5 0.33138375687244159 0 0.47358252614191548 0.33058810368245811 0 0.5 0.33138375687244159 0 0.46788289185352178 0.36938795189681328 0 0.47358252614191548 0.33058810368245811 0 0.46788289185352178 0.36938795189681328 0 0.45572190578033389 0.35089834251008839 0 0.46788289185352178 0.36938795189681328 0 0.45572190578033389 0.35089834251008839 0 0.43498458726088479 0.37183845300651291 0 0.45572190578033389 0.35089834251008839 0 0.43498458726088479 0.37183845300651291 0 0.43221615339540143 0.35275508708138048 0 0.43821624881474452 0.33814727228633229 0 0.45572190578033389 0.35089834251008839 0 0.43821624881474452 0.33814727228633229 0 0.45572190578033389 0.35089834251008839 0 0.43221615339540143 0.35275508708138048 0 0.43498458726088479 0.37183845300651291 0 0.41404806236123448 0.35688531603418833 0 0.43221615339540143 0.35275508708138048 0 0.41465543442846098 0.37497362971156017 0 0.41404806236123448 0.35688531603418833 0 0.39916594672918593 0.37005327392929488 0 0.43498458726088479 0.37183845300651291 0 0.41465543442846098 0.37497362971156017 0 0.41404806236123448 0.35688531603418833 0 0.41404806236123448 0.35688531603418833 0 0.42198773380699789 0.34435699376733458 0 0.41075370280405299 0.34075878841287111 0 0.41404806236123448 0.35688531603418833 0 0.41075370280405299 0.34075878841287111 0 0.40135048032493381 0.34768257781570089 0 0.41404806236123448 0.35688531603418833 0 0.42198773380699789 0.34435699376733458 0 0.43221615339540143 0.35275508708138048 0 0.43821624881474452 0.33814727228633229 0 0.42198773380699789 0.34435699376733458 0 0.43221615339540143 0.35275508708138048 0 0.43821624881474452 0.33814727228633229 0 0.42071059184915521 0.32539620206257641 0 0.42006603849490842 0.33508421638002678 0 0.43821624881474452 0.33814727228633229 0 0.42071059184915521 0.32539620206257641 0 0.43821624881474452 0.33814727228633229 0 0.42198773380699789 0.34435699376733458 0 0.42006603849490842 0.33508421638002678 0 0.43821624881474452 0.33814727228633229 0 0.42666413196968273 0.31862612245336541 0 0.42071059184915521 0.32539620206257641 0 0.42464901860716958 0.30847571837452997 0 0.43649357132488548 0.31333569439221992 0 0.42666413196968273 0.31862612245336541 0 0.42071059184915521 0.32539620206257641 0 0.4099682122424127 0.32759355627366338 0 0.40320493488356618 0.31264513183881981 0 0.42666413196968273 0.31862612245336541 0 0.40320493488356618 0.31264513183881981 0 0.42071059184915521 0.32539620206257641 0 0.40320493488356618 0.31264513183881981 0 0.42666413196968273 0.31862612245336541 0 0.42071059184915521 0.32539620206257641 0 0.40320493488356618 0.31264513183881981 0 0.41396401211904538 0.3079405109651302 0 0.42666413196968273 0.31862612245336541 0 0.40320493488356618 0.31264513183881981 0 0.42198773380699789 0.34435699376733458 0 0.42006603849490842 0.33508421638002678 0 0.41075370280405299 0.34075878841287111 0 0.42071059184915521 0.32539620206257641 0 0.4099682122424127 0.32759355627366338 0 0.42006603849490842 0.33508421638002678 0 0.4099682122424127 0.32759355627366338 0 0.41075370280405299 0.34075878841287111 0 0.40023680249660132 0.3349462243726572 0 0.4099682122424127 0.32759355627366338 0 0.42006603849490842 0.33508421638002678 0 0.41075370280405299 0.34075878841287111 0 0.41075370280405299 0.34075878841287111 0 0.40023680249660132 0.3349462243726572 0 0.40135048032493381 0.34768257781570089 0 0.4099682122424127 0.32759355627366338 0 0.40023680249660132 0.3349462243726572 0 0.39627839280366017 0.32443237798817609 0 0.40023680249660132 0.3349462243726572 0 0.39627839280366017 0.32443237798817609 0 0.38666309909498747 0.33096242694260258 0 0.40023680249660132 0.3349462243726572 0 0.38944785114140118 0.34233857545987939 0 0.38666309909498747 0.33096242694260258 0 0.40023680249660132 0.3349462243726572 0 0.38944785114140118 0.34233857545987939 0 0.40135048032493381 0.34768257781570089 0 0.39873402988613538 0.31150526158963832 0 0.4099682122424127 0.32759355627366338 0 0.40320493488356618 0.31264513183881981 0 0.39873402988613538 0.31150526158963832 0 0.4099682122424127 0.32759355627366338 0 0.39627839280366017 0.32443237798817609 0 0.39873402988613538 0.31150526158963832 0 0.4099682122424127 0.32759355627366338 0 0.39873402988613538 0.31150526158963832 0 0.39627839280366017 0.32443237798817609 0 0.38507297807623331 0.31840608276307192 0 0.37316531528199609 0.32471254124834659 0 0.37634715262627072 0.30579766203758357 0 0.38507297807623331 0.31840608276307192 0 0.39627839280366017 0.32443237798817609 0 0.38507297807623331 0.31840608276307192 0 0.38666309909498747 0.33096242694260258 0 0.37316531528199609 0.32471254124834659 0 0.38507297807623331 0.31840608276307192 0 0.38666309909498747 0.33096242694260258 0 0.38944785114140118 0.34233857545987939 0 0.38666309909498747 0.33096242694260258 0 0.37590371760048852 0.33667535164759199 0 0.37316531528199609 0.32471254124834659 0 0.38666309909498747 0.33096242694260258 0 0.37590371760048852 0.33667535164759199 0 0.38944785114140118 0.34233857545987939 0 0.37590371760048852 0.33667535164759199 0 0.37928183756442191 0.34765713674703952 0 0.36831937363042938 0.35601155238520749 0 0.37928183756442191 0.34765713674703952 0 0.38209756270918421 0.3636155102963331 0 0.37928183756442191 0.34765713674703952 0 0.38209756270918421 0.3636155102963331 0 0.39108576845351678 0.35380612204553052 0 0.38944785114140118 0.34233857545987939 0 0.37928183756442191 0.34765713674703952 0 0.39108576845351678 0.35380612204553052 0 0.38209756270918421 0.3636155102963331 0 0.39916594672918593 0.37005327392929488 0 0.38425082867153071 0.38037876704496631 0 0.36946271990026192 0.36921549307873242 0 0.38209756270918421 0.3636155102963331 0 0.38425082867153071 0.38037876704496631 0 0.38209756270918421 0.3636155102963331 0 0.39916594672918593 0.37005327392929488 0 0.39108576845351678 0.35380612204553052 0 0.39916594672918593 0.37005327392929488 0 0.40162681787781229 0.35748492932094211 0 0.39108576845351678 0.35380612204553052 0 0.41404806236123448 0.35688531603418833 0 0.39916594672918593 0.37005327392929488 0 0.40162681787781229 0.35748492932094211 0 0.41404806236123448 0.35688531603418833 0 0.40162681787781229 0.35748492932094211 0 0.40135048032493381 0.34768257781570089 0 0.38944785114140118 0.34233857545987939 0 0.40135048032493381 0.34768257781570089 0 0.39108576845351678 0.35380612204553052 0 0.40162681787781229 0.35748492932094211 0 0.40135048032493381 0.34768257781570089 0 0.39108576845351678 0.35380612204553052 0 0.39740448491362051 0.4031908960490273 0 0.40226908346032297 0.38725842693814749 0 0.39018870189375332 0.39102746054934689 0 0.39740448491362051 0.4031908960490273 0 0.40226908346032297 0.38725842693814749 0 0.41153800063530088 0.39809914524216622 0 0.39740448491362051 0.4031908960490273 0 0.39018870189375332 0.39102746054934689 0 0.38470754091949289 0.39939330644127469 0 0.40226908346032297 0.38725842693814749 0 0.38425082867153071 0.38037876704496631 0 0.39018870189375332 0.39102746054934689 0 0.39916594672918593 0.37005327392929488 0 0.40226908346032297 0.38725842693814749 0 0.38425082867153071 0.38037876704496631 0 0.41465543442846098 0.37497362971156017 0 0.39916594672918593 0.37005327392929488 0 0.40226908346032297 0.38725842693814749 0 0.37354152881041319 0.39389272245229301 0 0.38425082867153071 0.38037876704496631 0 0.39018870189375332 0.39102746054934689 0 0.37354152881041319 0.39389272245229301 0 0.39018870189375332 0.39102746054934689 0 0.38470754091949289 0.39939330644127469 0 0.36620738399994329 0.40740099763767501 0 0.38470754091949289 0.39939330644127469 0 0.38516769512744359 0.40700798642220493 0 0.39740448491362051 0.4031908960490273 0 0.38470754091949289 0.39939330644127469 0 0.38516769512744359 0.40700798642220493 0 0.36620738399994329 0.40740099763767501 0 0.38481039433510339 0.41497608406533631 0 0.38516769512744359 0.40700798642220493 0 0.36620738399994329 0.40740099763767501 0 0.38481039433510339 0.41497608406533631 0 0.38481039433510339 0.41497608406533631 0 0.38663274315496071 0.42936927403291453 0 0.39235137067671799 0.41804674556084243 0 0.38481039433510339 0.41497608406533631 0 0.39235137067671799 0.41804674556084243 0 0.38481039433510339 0.41497608406533631 0 0.38516769512744359 0.40700798642220493 0 0.39235137067671799 0.41804674556084243 0 0.37018900595113091 0.4366282018743784 0 0.38663274315496071 0.42936927403291453 0 0.38700666713982512 0.44264040870214483 0 0.37018900595113091 0.4366282018743784 0 0.38481039433510339 0.41497608406533631 0 0.38663274315496071 0.42936927403291453 0 0.37018900595113091 0.4366282018743784 0 0.38481039433510339 0.41497608406533631 0 0.399021352958983 0.43402674486136877 0 0.39235137067671799 0.41804674556084243 0 0.41849535735349269 0.42869249348400978 0 0.39235137067671799 0.41804674556084243 0 0.41849535735349269 0.42869249348400978 0 0.38663274315496071 0.42936927403291453 0 0.399021352958983 0.43402674486136877 0 0.39235137067671799 0.41804674556084243 0 0.38663274315496071 0.42936927403291453 0 0.399021352958983 0.43402674486136877 0 0.38700666713982512 0.44264040870214483 0 0.39235137067671799 0.41804674556084243 0 0.40351495834458467 0.41227554462260518 0 0.4130051495300664 0.41884942366280598 0 0.39740448491362051 0.4031908960490273 0 0.38516769512744359 0.40700798642220493 0 0.39235137067671799 0.41804674556084243 0 0.39740448491362051 0.4031908960490273 0 0.39235137067671799 0.41804674556084243 0 0.40351495834458467 0.41227554462260518 0 0.39740448491362051 0.4031908960490273 0 0.40351495834458467 0.41227554462260518 0 0.41129882825793412 0.40901511321774509 0 0.39235137067671799 0.41804674556084243 0 0.4130051495300664 0.41884942366280598 0 0.41849535735349269 0.42869249348400978 0 0.40351495834458467 0.41227554462260518 0 0.41129882825793412 0.40901511321774509 0 0.4130051495300664 0.41884942366280598 0 0.4130051495300664 0.41884942366280598 0 0.41976566386337322 0.42153126728691448 0 0.42374988820908899 0.41544663125523368 0 0.41129882825793412 0.40901511321774509 0 0.4130051495300664 0.41884942366280598 0 0.42374988820908899 0.41544663125523368 0 0.41129882825793412 0.40901511321774509 0 0.42374988820908899 0.41544663125523368 0 0.42390811421395008 0.4021986113562534 0 0.399021352958983 0.43402674486136877 0 0.41849535735349269 0.42869249348400978 0 0.4142377447469221 0.43449854569606572 0 0.4130051495300664 0.41884942366280598 0 0.41976566386337322 0.42153126728691448 0 0.41849535735349269 0.42869249348400978 0 0.41849535735349269 0.42869249348400978 0 0.4142377447469221 0.43449854569606572 0 0.4243685254016285 0.43978818133276082 0 0.42902597831165379 0.42466239009974588 0 0.43847963810204588 0.4183033170653947 0 0.44463934403026761 0.43933824140717742 0 0.41849535735349269 0.42869249348400978 0 0.42902597831165379 0.42466239009974588 0 0.44463934403026761 0.43933824140717742 0 0.41849535735349269 0.42869249348400978 0 0.44463934403026761 0.43933824140717742 0 0.41849535735349269 0.42869249348400978 0 0.44463934403026761 0.43933824140717742 0 0.4243685254016285 0.43978818133276082 0 0.41976566386337322 0.42153126728691448 0 0.41849535735349269 0.42869249348400978 0 0.42902597831165379 0.42466239009974588 0 0.42374988820908899 0.41544663125523368 0 0.43244073186800952 0.40837811317854072 0 0.42390811421395008 0.4021986113562534 0 0.41976566386337322 0.42153126728691448 0 0.42902597831165379 0.42466239009974588 0 0.42374988820908899 0.41544663125523368 0 0.42902597831165379 0.42466239009974588 0 0.42374988820908899 0.41544663125523368 0 0.43847963810204588 0.4183033170653947 0 0.42374988820908899 0.41544663125523368 0 0.43244073186800952 0.40837811317854072 0 0.43847963810204588 0.4183033170653947 0 0.42390811421395008 0.4021986113562534 0 0.42280949233067672 0.38883267864965743 0 0.4436252869469528 0.39756389303728101 0 0.43244073186800952 0.40837811317854072 0 0.42390811421395008 0.4021986113562534 0 0.4436252869469528 0.39756389303728101 0 0.40226908346032297 0.38725842693814749 0 0.41153800063530088 0.39809914524216622 0 0.42280949233067672 0.38883267864965743 0 0.41129882825793412 0.40901511321774509 0 0.42390811421395008 0.4021986113562534 0 0.41153800063530088 0.39809914524216622 0 0.42390811421395008 0.4021986113562534 0 0.41153800063530088 0.39809914524216622 0 0.42280949233067672 0.38883267864965743 0 0.39740448491362051 0.4031908960490273 0 0.41129882825793412 0.40901511321774509 0 0.41153800063530088 0.39809914524216622 0 0.41465543442846098 0.37497362971156017 0 0.40226908346032297 0.38725842693814749 0 0.42280949233067672 0.38883267864965743 0 0.43498458726088479 0.37183845300651291 0 0.42280949233067672 0.38883267864965743 0 0.4436252869469528 0.39756389303728101 0 0.43498458726088479 0.37183845300651291 0 0.41465543442846098 0.37497362971156017 0 0.42280949233067672 0.38883267864965743 0 0.46788289185352178 0.36938795189681328 0 0.43498458726088479 0.37183845300651291 0 0.4436252869469528 0.39756389303728101 0 0.46788289185352178 0.36938795189681328 0 0.4436252869469528 0.39756389303728101 0 0.46717812190686819 0.39805757462156138 0 0.46788289185352178 0.36938795189681328 0 0.46717812190686819 0.39805757462156138 0 0.5 0.40150451236833901 0 0.5 0.40150451236833901 0 0.45720430882699808 0.4237739411838124 0 0.47078333070704281 0.44998398933034428 0 0.5 0.40150451236833901 0 0.47078333070704281 0.44998398933034428 0 0.48776200479723669 0.45689765122393788 0 0.46717812190686819 0.39805757462156138 0 0.5 0.40150451236833901 0 0.45720430882699808 0.4237739411838124 0 0.45720430882699808 0.4237739411838124 0 0.47078333070704281 0.44998398933034428 0 0.4436252869469528 0.39756389303728101 0 0.46717812190686819 0.39805757462156138 0 0.45720430882699808 0.4237739411838124 0 0.4436252869469528 0.39756389303728101 0 0.45720430882699808 0.4237739411838124 0 0.4436252869469528 0.39756389303728101 0 0.45720430882699808 0.4237739411838124 0 0.43847963810204588 0.4183033170653947 0 0.43244073186800952 0.40837811317854072 0 0.4436252869469528 0.39756389303728101 0 0.43847963810204588 0.4183033170653947 0 0.45720430882699808 0.4237739411838124 0 0.43847963810204588 0.4183033170653947 0 0.44463934403026761 0.43933824140717742 0 0.44463934403026761 0.43933824140717742 0 0.45281186046574579 0.45696559401283249 0 0.42876577197716731 0.46300611282348503 0 0.5 0.5 0 0.49427026598358581 0.49531816066099549 0 0.43181017042130071 0.5 0 0.5 0.40150451236833901 0 0.48776200479723669 0.45689765122393788 0 0.5 0.5 0 0.45281186046574579 0.45696559401283249 0 0.44989084141085661 0.47394078535168788 0 0.42876577197716731 0.46300611282348503 0 0.45281186046574579 0.45696559401283249 0 0.46482104666423901 0.46775076015610922 0 0.47078333070704281 0.44998398933034428 0 0.45281186046574579 0.45696559401283249 0 0.46482104666423901 0.46775076015610922 0 0.44989084141085661 0.47394078535168788 0 0.44463934403026761 0.43933824140717742 0 0.47078333070704281 0.44998398933034428 0 0.45720430882699808 0.4237739411838124 0 0.44463934403026761 0.43933824140717742 0 0.47078333070704281 0.44998398933034428 0 0.44463934403026761 0.43933824140717742 0 0.45281186046574579 0.45696559401283249 0 0.47078333070704281 0.44998398933034428 0 0.47078333070704281 0.44998398933034428 0 0.48252679834531459 0.47265107499566972 0 0.46482104666423901 0.46775076015610922 0 0.47078333070704281 0.44998398933034428 0 0.48252679834531459 0.47265107499566972 0 0.47078333070704281 0.44998398933034428 0 0.48776200479723669 0.45689765122393788 0 0.48252679834531459 0.47265107499566972 0 0.47078333070704281 0.44998398933034428 0 0.48776200479723669 0.45689765122393788 0 0.48776200479723669 0.45689765122393788 0 0.49427026598358581 0.49531816066099549 0 0.48252679834531459 0.47265107499566972 0 0.48776200479723669 0.45689765122393788 0 0.5 0.5 0 0.49427026598358581 0.49531816066099549 0 0.49427026598358581 0.49531816066099549 0 0.48252679834531459 0.47265107499566972 0 0.49427026598358581 0.49531816066099549 0 0.48252679834531459 0.47265107499566972 0 0.46466382456505928 0.48193215623289237 0 0.46482104666423901 0.46775076015610922 0 0.48252679834531459 0.47265107499566972 0 0.46466382456505928 0.48193215623289237 0 0.49427026598358581 0.49531816066099549 0 0.46466382456505928 0.48193215623289237 0 0.43181017042130071 0.5 0 0.46466382456505928 0.48193215623289237 0 0.44989084141085661 0.47394078535168788 0 0.43181017042130071 0.5 0 0.46482104666423901 0.46775076015610922 0 0.46466382456505928 0.48193215623289237 0 0.44989084141085661 0.47394078535168788 0 0.43181017042130071 0.5 0 0.38301867432905418 0.5 0 0.40524824351025468 0.48231896792003992 0 0.44989084141085661 0.47394078535168788 0 0.43181017042130071 0.5 0 0.42876577197716731 0.46300611282348503 0 0.43181017042130071 0.5 0 0.42876577197716731 0.46300611282348503 0 0.40524824351025468 0.48231896792003992 0 0.42876577197716731 0.46300611282348503 0 0.40684828495903691 0.46379093326308291 0 0.40524824351025468 0.48231896792003992 0 0.42876577197716731 0.46300611282348503 0 0.4279982069753947 0.44701565137928889 0 0.41647197390206531 0.44939597469726228 0 0.44463934403026761 0.43933824140717742 0 0.4279982069753947 0.44701565137928889 0 0.4243685254016285 0.43978818133276082 0 0.44463934403026761 0.43933824140717742 0 0.42876577197716731 0.46300611282348503 0 0.4279982069753947 0.44701565137928889 0 0.4279982069753947 0.44701565137928889 0 0.4243685254016285 0.43978818133276082 0 0.41647197390206531 0.44939597469726228 0 0.4142377447469221 0.43449854569606572 0 0.41647197390206531 0.44939597469726228 0 0.39770475368582547 0.45087390927204951 0 0.4142377447469221 0.43449854569606572 0 0.4243685254016285 0.43978818133276082 0 0.41647197390206531 0.44939597469726228 0 0.41647197390206531 0.44939597469726228 0 0.40684828495903691 0.46379093326308291 0 0.39770475368582547 0.45087390927204951 0 0.42876577197716731 0.46300611282348503 0 0.41647197390206531 0.44939597469726228 0 0.40684828495903691 0.46379093326308291 0 0.40684828495903691 0.46379093326308291 0 0.39770475368582547 0.45087390927204951 0 0.38117176262472902 0.4672492728480333 0 0.399021352958983 0.43402674486136877 0 0.39770475368582547 0.45087390927204951 0 0.38700666713982512 0.44264040870214483 0 0.4142377447469221 0.43449854569606572 0 0.39770475368582547 0.45087390927204951 0 0.399021352958983 0.43402674486136877 0 0.4142377447469221 0.43449854569606572 0 0.39770475368582547 0.45087390927204951 0 0.37018900595113091 0.4366282018743784 0 0.38700666713982512 0.44264040870214483 0 0.38117176262472902 0.4672492728480333 0 0.39770475368582547 0.45087390927204951 0 0.38700666713982512 0.44264040870214483 0 0.38117176262472902 0.4672492728480333 0 0.39770475368582547 0.45087390927204951 0 0.38117176262472902 0.4672492728480333 0 0.38117176262472902 0.4672492728480333 0 0.38301867432905418 0.5 0 0.40524824351025468 0.48231896792003992 0 0.36463877156363228 0.4836246364240171 0 0.38117176262472902 0.4672492728480333 0 0.38301867432905418 0.5 0 0.40684828495903691 0.46379093326308291 0 0.38117176262472902 0.4672492728480333 0 0.40524824351025468 0.48231896792003992 0 0.33130764010268732 0.081102714688937483 0 0.34970737716794897 0.087374916851600593 0 0.34742318214483542 0.070751527892643648 0 0.33130764010268732 0.081102714688937483 0 0.33846854636869322 0.099679575940636395 0 0.34970737716794897 0.087374916851600593 0 0.33130764010268732 0.081102714688937483 0 0.32414047237551818 0.093074344299774792 0 0.33846854636869322 0.099679575940636395 0 0.33363934111646132 0.064426394771189638 0 0.34742318214483542 0.070751527892643648 0 0.3427998494356741 0.05371431744985522 0 0.33130764010268732 0.081102714688937483 0 0.33363934111646132 0.064426394771189638 0 0.34742318214483542 0.070751527892643648 0 0.33130764010268732 0.081102714688937483 0 0.31791616946304763 0.065873432435573281 0 0.31653443917005869 0.081134038689128773 0 0.33130764010268732 0.081102714688937483 0 0.33363934111646132 0.064426394771189638 0 0.31791616946304763 0.065873432435573281 0 0.33130764010268732 0.081102714688937483 0 0.31653443917005869 0.081134038689128773 0 0.32414047237551818 0.093074344299774792 0 0.31653443917005869 0.081134038689128773 0 0.32414047237551818 0.093074344299774792 0 0.30976515849892922 0.093499887985373134 0 0.32414047237551818 0.093074344299774792 0 0.32039246687030049 0.1063914000176491 0 0.33846854636869322 0.099679575940636395 0 0.32414047237551818 0.093074344299774792 0 0.32039246687030049 0.1063914000176491 0 0.30976515849892922 0.093499887985373134 0 0.32039246687030049 0.1063914000176491 0 0.31620906144234068 0.1208067496385241 0 0.332238289802742 0.1174346697997587 0 0.31620906144234068 0.1208067496385241 0 0.332238289802742 0.1174346697997587 0 0.33109727175376569 0.13483498039444691 0 0.32039246687030049 0.1063914000176491 0 0.31620906144234068 0.1208067496385241 0 0.30142126556343812 0.10961665829221071 0 0.32039246687030049 0.1063914000176491 0 0.332238289802742 0.1174346697997587 0 0.33846854636869322 0.099679575940636395 0 0.332238289802742 0.1174346697997587 0 0.33846854636869322 0.099679575940636395 0 0.35333642502566542 0.1102373084169587 0 0.35333642502566542 0.1102373084169587 0 0.36673073492479569 0.092792611858038471 0 0.34970737716794897 0.087374916851600593 0 0.33846854636869322 0.099679575940636395 0 0.35333642502566542 0.1102373084169587 0 0.34970737716794897 0.087374916851600593 0 0.35333642502566542 0.1102373084169587 0 0.34785110977579681 0.12869357301322859 0 0.36572929324651332 0.1320594642229149 0 0.332238289802742 0.1174346697997587 0 0.35333642502566542 0.1102373084169587 0 0.34785110977579681 0.12869357301322859 0 0.35333642502566542 0.1102373084169587 0 0.37457884466264257 0.11465160156173169 0 0.36572929324651332 0.1320594642229149 0 0.35333642502566542 0.1102373084169587 0 0.37457884466264257 0.11465160156173169 0 0.36673073492479569 0.092792611858038471 0 0.36673073492479569 0.092792611858038471 0 0.36565586428775732 0.072146372702464975 0 0.38277645965618912 0.079445547237405781 0 0.36673073492479569 0.092792611858038471 0 0.34970737716794897 0.087374916851600593 0 0.36565586428775732 0.072146372702464975 0 0.34970737716794897 0.087374916851600593 0 0.34742318214483542 0.070751527892643648 0 0.36565586428775732 0.072146372702464975 0 0.34742318214483542 0.070751527892643648 0 0.36565586428775732 0.072146372702464975 0 0.35764927811866332 0.056174424747782011 0 0.37409110470898571 0.053193543692808987 0 0.36494722897456872 0.04326856015503848 0 0.35764927811866332 0.056174424747782011 0 0.36565586428775732 0.072146372702464975 0 0.37409110470898571 0.053193543692808987 0 0.35764927811866332 0.056174424747782011 0 0.37409110470898571 0.053193543692808987 0 0.36494722897456872 0.04326856015503848 0 0.37808648580134668 0.037092345855213503 0 0.36494722897456872 0.04326856015503848 0 0.36301517619580592 0.03000435736854435 0 0.37808648580134668 0.037092345855213503 0 0.36494722897456872 0.04326856015503848 0 0.35177340743899249 0.041174274863552227 0 0.36301517619580592 0.03000435736854435 0 0.36494722897456872 0.04326856015503848 0 0.35177340743899249 0.041174274863552227 0 0.35764927811866332 0.056174424747782011 0 0.35177340743899249 0.041174274863552227 0 0.36301517619580592 0.03000435736854435 0 0.3464237312185382 0.026122192295984521 0 0.35177340743899249 0.041174274863552227 0 0.3464237312185382 0.026122192295984521 0 0.33689171266571338 0.039118364164351389 0 0.35177340743899249 0.041174274863552227 0 0.3427998494356741 0.05371431744985522 0 0.33689171266571338 0.039118364164351389 0 0.34742318214483542 0.070751527892643648 0 0.35764927811866332 0.056174424747782011 0 0.3427998494356741 0.05371431744985522 0 0.35177340743899249 0.041174274863552227 0 0.35764927811866332 0.056174424747782011 0 0.3427998494356741 0.05371431744985522 0 0.35988909281773518 0.012565476858028991 0 0.37756801179460708 0.0077458342357824856 0 0.36806179696710029 -0.00038801838553694109 0 0.35988909281773518 0.012565476858028991 0 0.37756801179460708 0.0077458342357824856 0 0.37786381651360662 0.021152962711322418 0 0.35988909281773518 0.012565476858028991 0 0.36806179696710029 -0.00038801838553694109 0 0.35260341344835128 -0.0038356075645182711 0 0.35988909281773518 0.012565476858028991 0 0.36301517619580592 0.03000435736854435 0 0.37786381651360662 0.021152962711322418 0 0.36301517619580592 0.03000435736854435 0 0.37786381651360662 0.021152962711322418 0 0.37808648580134668 0.037092345855213503 0 0.35988909281773518 0.012565476858028991 0 0.3464237312185382 0.026122192295984521 0 0.33550393927212518 0.010577043520956951 0 0.35988909281773518 0.012565476858028991 0 0.36301517619580592 0.03000435736854435 0 0.3464237312185382 0.026122192295984521 0 0.35988909281773518 0.012565476858028991 0 0.33550393927212518 0.010577043520956951 0 0.35260341344835128 -0.0038356075645182711 0 0.33550393927212518 0.010577043520956951 0 0.35260341344835128 -0.0038356075645182711 0 0.33498944517944268 -0.006235157252073421 0 0.33550393927212518 0.010577043520956951 0 0.32407528329665392 0.0092392975904939025 0 0.33498944517944268 -0.006235157252073421 0 0.3464237312185382 0.026122192295984521 0 0.33550393927212518 0.010577043520956951 0 0.33007227159598163 0.025917038067266761 0 0.3464237312185382 0.026122192295984521 0 0.33007227159598163 0.025917038067266761 0 0.33689171266571338 0.039118364164351389 0 0.33550393927212518 0.010577043520956951 0 0.33007227159598163 0.025917038067266761 0 0.32185473606834092 0.01829353813322138 0 0.33007227159598163 0.025917038067266761 0 0.3194882901944604 0.027403938412203819 0 0.32185473606834092 0.01829353813322138 0 0.33007227159598163 0.025917038067266761 0 0.3194882901944604 0.027403938412203819 0 0.32153115186903197 0.037092380920511113 0 0.3194882901944604 0.027403938412203819 0 0.31321913844641242 0.021209802561819209 0 0.30998363344643259 0.02930093885020376 0 0.3194882901944604 0.027403938412203819 0 0.31321913844641242 0.021209802561819209 0 0.32185473606834092 0.01829353813322138 0 0.31321913844641242 0.021209802561819209 0 0.32185473606834092 0.01829353813322138 0 0.31498790364983292 0.014977649378025549 0 0.32407528329665392 0.0092392975904939025 0 0.3130403923135277 0.0085834141723390503 0 0.33498944517944268 -0.006235157252073421 0 0.3130403923135277 0.0085834141723390503 0 0.33498944517944268 -0.006235157252073421 0 0.33550393927212518 0.010577043520956951 0 0.32185473606834092 0.01829353813322138 0 0.32407528329665392 0.0092392975904939025 0 0.32185473606834092 0.01829353813322138 0 0.32407528329665392 0.0092392975904939025 0 0.31498790364983292 0.014977649378025549 0 0.32407528329665392 0.0092392975904939025 0 0.31498790364983292 0.014977649378025549 0 0.3130403923135277 0.0085834141723390503 0 0.33363934111646132 0.064426394771189638 0 0.32874986443606219 0.050689981388938522 0 0.3427998494356741 0.05371431744985522 0 0.32874986443606219 0.050689981388938522 0 0.3427998494356741 0.05371431744985522 0 0.33689171266571338 0.039118364164351389 0 0.33007227159598163 0.025917038067266761 0 0.33689171266571338 0.039118364164351389 0 0.32153115186903197 0.037092380920511113 0 0.32874986443606219 0.050689981388938522 0 0.33689171266571338 0.039118364164351389 0 0.32153115186903197 0.037092380920511113 0 0.32874986443606219 0.050689981388938522 0 0.32153115186903197 0.037092380920511113 0 0.31622638493270572 0.051554668928202478 0 0.3194882901944604 0.027403938412203819 0 0.32153115186903197 0.037092380920511113 0 0.30998363344643259 0.02930093885020376 0 0.32153115186903197 0.037092380920511113 0 0.30753911336208128 0.041019106960371289 0 0.30998363344643259 0.02930093885020376 0 0.32153115186903197 0.037092380920511113 0 0.31622638493270572 0.051554668928202478 0 0.30753911336208128 0.041019106960371289 0 0.33363934111646132 0.064426394771189638 0 0.31791616946304763 0.065873432435573281 0 0.32874986443606219 0.050689981388938522 0 0.31791616946304763 0.065873432435573281 0 0.32874986443606219 0.050689981388938522 0 0.31622638493270572 0.051554668928202478 0 0.31622638493270572 0.051554668928202478 0 0.30753911336208128 0.041019106960371289 0 0.29606245815628429 0.059241440375754011 0 0.30753911336208128 0.041019106960371289 0 0.28850193234200699 0.042711084480433037 0 0.29606245815628429 0.059241440375754011 0 0.31791616946304763 0.065873432435573281 0 0.31622638493270572 0.051554668928202478 0 0.29606245815628429 0.059241440375754011 0 0.30753911336208128 0.041019106960371289 0 0.28850193234200699 0.042711084480433037 0 0.29562250261961631 0.027937772117173298 0 0.30753911336208128 0.041019106960371289 0 0.30998363344643259 0.02930093885020376 0 0.29562250261961631 0.027937772117173298 0 0.28850193234200699 0.042711084480433037 0 0.29562250261961631 0.027937772117173298 0 0.2697692789696311 0.02898070699747134 0 0.28850193234200699 0.042711084480433037 0 0.29606245815628429 0.059241440375754011 0 0.27351630860242221 0.056376395951395243 0 0.3083051088969424 0.01511656864027826 0 0.29536512458139053 0.0076741264440699708 0 0.29779921955959221 -0.007478193369837495 0 0.3130403923135277 0.0085834141723390503 0 0.3083051088969424 0.01511656864027826 0 0.29779921955959221 -0.007478193369837495 0 0.3083051088969424 0.01511656864027826 0 0.29779921955959221 -0.007478193369837495 0 0.31498790364983292 0.014977649378025549 0 0.3130403923135277 0.0085834141723390503 0 0.3083051088969424 0.01511656864027826 0 0.3083051088969424 0.01511656864027826 0 0.2977931049093942 0.01741840127409746 0 0.29536512458139053 0.0076741264440699708 0 0.3083051088969424 0.01511656864027826 0 0.2977931049093942 0.01741840127409746 0 0.30469515842246508 0.022166181956982469 0 0.2977931049093942 0.01741840127409746 0 0.30469515842246508 0.022166181956982469 0 0.29562250261961631 0.027937772117173298 0 0.31321913844641242 0.021209802561819209 0 0.3083051088969424 0.01511656864027826 0 0.30469515842246508 0.022166181956982469 0 0.31321913844641242 0.021209802561819209 0 0.31498790364983292 0.014977649378025549 0 0.3083051088969424 0.01511656864027826 0 0.31321913844641242 0.021209802561819209 0 0.30469515842246508 0.022166181956982469 0 0.30998363344643259 0.02930093885020376 0 0.30469515842246508 0.022166181956982469 0 0.30998363344643259 0.02930093885020376 0 0.29562250261961631 0.027937772117173298 0 0.29562250261961631 0.027937772117173298 0 0.28567388055396781 0.01369664312091733 0 0.2697692789696311 0.02898070699747134 0 0.2977931049093942 0.01741840127409746 0 0.29562250261961631 0.027937772117173298 0 0.28567388055396781 0.01369664312091733 0 0.2977931049093942 0.01741840127409746 0 0.28567388055396781 0.01369664312091733 0 0.29536512458139053 0.0076741264440699708 0 0.28567388055396781 0.01369664312091733 0 0.29536512458139053 0.0076741264440699708 0 0.28793788127773418 -0.00033153511801853059 0 0.26602224933683999 0.001585018043547347 0 0.2697692789696311 0.02898070699747134 0 0.28567388055396781 0.01369664312091733 0 0.26602224933683999 0.001585018043547347 0 0.2697692789696311 0.02898070699747134 0 0.28567388055396781 0.01369664312091733 0 0.26602224933683999 0.001585018043547347 0 0.28793788127773418 -0.00033153511801853059 0 0.26602224933683999 0.001585018043547347 0 0.2697692789696311 0.02898070699747134 0 0.25017114714460148 0.027935038219416852 0 0.2364155492444879 0.01524344595638903 0 0.26602224933683999 0.001585018043547347 0 0.25017114714460148 0.027935038219416852 0 0.2697692789696311 0.02898070699747134 0 0.27351630860242221 0.056376395951395243 0 0.28850193234200699 0.042711084480433037 0 0.2697692789696311 0.02898070699747134 0 0.27351630860242221 0.056376395951395243 0 0.2697692789696311 0.02898070699747134 0 0.27351630860242221 0.056376395951395243 0 0.25321812939551791 0.047923410168883913 0 0.2697692789696311 0.02898070699747134 0 0.25017114714460148 0.027935038219416852 0 0.25321812939551791 0.047923410168883913 0 0.27351630860242221 0.056376395951395243 0 0.25321812939551791 0.047923410168883913 0 0.2597230623993938 0.071244248960884382 0 0.24157985373237181 0.065308505426636604 0 0.25321812939551791 0.047923410168883913 0 0.2597230623993938 0.071244248960884382 0 0.24961943104058359 0.082745550991682973 0 0.24157985373237181 0.065308505426636604 0 0.2597230623993938 0.071244248960884382 0 0.24291795956137399 0.1022484570291577 0 0.24961943104058359 0.082745550991682973 0 0.26256401039768951 0.092290226504978173 0 0.24961943104058359 0.082745550991682973 0 0.2597230623993938 0.071244248960884382 0 0.26256401039768951 0.092290226504978173 0 0.2597230623993938 0.071244248960884382 0 0.26256401039768951 0.092290226504978173 0 0.27726333823521332 0.083772084905319066 0 0.27351630860242221 0.056376395951395243 0 0.27726333823521332 0.083772084905319066 0 0.27351630860242221 0.056376395951395243 0 0.2597230623993938 0.071244248960884382 0 0.27726333823521332 0.083772084905319066 0 0.29606245815628429 0.059241440375754011 0 0.27351630860242221 0.056376395951395243 0 0.27726333823521332 0.083772084905319066 0 0.29606245815628429 0.059241440375754011 0 0.27726333823521332 0.083772084905319066 0 0.30217005895881038 0.078455234603410418 0 0.27726333823521332 0.083772084905319066 0 0.30217005895881038 0.078455234603410418 0 0.29432603782487909 0.095302327929111239 0 0.30217005895881038 0.078455234603410418 0 0.30976515849892922 0.093499887985373134 0 0.29432603782487909 0.095302327929111239 0 0.31653443917005869 0.081134038689128773 0 0.30217005895881038 0.078455234603410418 0 0.30976515849892922 0.093499887985373134 0 0.31791616946304763 0.065873432435573281 0 0.29606245815628429 0.059241440375754011 0 0.30217005895881038 0.078455234603410418 0 0.31791616946304763 0.065873432435573281 0 0.31653443917005869 0.081134038689128773 0 0.30217005895881038 0.078455234603410418 0 0.30142126556343812 0.10961665829221071 0 0.30305135274880812 0.12356219707009899 0 0.29165241567210581 0.1213918845042056 0 0.31620906144234068 0.1208067496385241 0 0.30142126556343812 0.10961665829221071 0 0.30305135274880812 0.12356219707009899 0 0.30976515849892922 0.093499887985373134 0 0.30142126556343812 0.10961665829221071 0 0.29432603782487909 0.095302327929111239 0 0.32039246687030049 0.1063914000176491 0 0.30976515849892922 0.093499887985373134 0 0.30142126556343812 0.10961665829221071 0 0.27726333823521332 0.083772084905319066 0 0.29432603782487909 0.095302327929111239 0 0.28101036786800432 0.1111677738592429 0 0.30142126556343812 0.10961665829221071 0 0.29432603782487909 0.095302327929111239 0 0.28101036786800432 0.1111677738592429 0 0.29165241567210581 0.1213918845042056 0 0.28101036786800432 0.1111677738592429 0 0.27953702252087331 0.1279177717799545 0 0.30142126556343812 0.10961665829221071 0 0.29165241567210581 0.1213918845042056 0 0.28101036786800432 0.1111677738592429 0 0.28101036786800432 0.1111677738592429 0 0.26972383412301482 0.1186147972582859 0 0.27953702252087331 0.1279177717799545 0 0.28101036786800432 0.1111677738592429 0 0.26972383412301482 0.1186147972582859 0 0.2615246380443953 0.1080391611410584 0 0.26972383412301482 0.1186147972582859 0 0.2588486672835914 0.12665063870130761 0 0.27953702252087331 0.1279177717799545 0 0.26256401039768951 0.092290226504978173 0 0.27726333823521332 0.083772084905319066 0 0.28101036786800432 0.1111677738592429 0 0.27726333823521332 0.083772084905319066 0 0.28101036786800432 0.1111677738592429 0 0.26256401039768951 0.092290226504978173 0 0.28101036786800432 0.1111677738592429 0 0.2615246380443953 0.1080391611410584 0 0.24840820095022001 0.11440693261336581 0 0.24291795956137399 0.1022484570291577 0 0.2615246380443953 0.1080391611410584 0 0.24291795956137399 0.1022484570291577 0 0.26256401039768951 0.092290226504978173 0 0.2615246380443953 0.1080391611410584 0 0.26972383412301482 0.1186147972582859 0 0.26007931946365759 0.116939340448952 0 0.2588486672835914 0.12665063870130761 0 0.26972383412301482 0.1186147972582859 0 0.2615246380443953 0.1080391611410584 0 0.26007931946365759 0.116939340448952 0 0.24840820095022001 0.11440693261336581 0 0.2615246380443953 0.1080391611410584 0 0.26007931946365759 0.116939340448952 0 0.26007931946365759 0.116939340448952 0 0.25137412493594458 0.12084510434657129 0 0.2588486672835914 0.12665063870130761 0 0.24840820095022001 0.11440693261336581 0 0.26007931946365759 0.116939340448952 0 0.25137412493594458 0.12084510434657129 0 0.23816031204630961 0.1253835056226604 0 0.25334673813920622 0.128808389421004 0 0.2588486672835914 0.12665063870130761 0 0.2477059442553762 0.13254331619474599 0 0.25334673813920622 0.128808389421004 0 0.25214324428892337 0.13609380042926811 0 0.25214324428892337 0.13609380042926811 0 0.25952207357465201 0.1375155448908022 0 0.25389438544166032 0.14621631020051851 0 0.25334673813920622 0.128808389421004 0 0.25214324428892337 0.13609380042926811 0 0.25952207357465201 0.1375155448908022 0 0.245148776391031 0.13846087242486829 0 0.25214324428892337 0.13609380042926811 0 0.25389438544166032 0.14621631020051851 0 0.25952207357465201 0.1375155448908022 0 0.26853316423210277 0.13223327321934791 0 0.2683631416569216 0.1433585597360171 0 0.25334673813920622 0.128808389421004 0 0.25952207357465201 0.1375155448908022 0 0.26853316423210277 0.13223327321934791 0 0.25334673813920622 0.128808389421004 0 0.2588486672835914 0.12665063870130761 0 0.26853316423210277 0.13223327321934791 0 0.25334673813920622 0.128808389421004 0 0.26853316423210277 0.13223327321934791 0 0.2588486672835914 0.12665063870130761 0 0.26853316423210277 0.13223327321934791 0 0.27953702252087331 0.1279177717799545 0 0.2588486672835914 0.12665063870130761 0 0.27953702252087331 0.1279177717799545 0 0.26853316423210277 0.13223327321934791 0 0.27688776081229849 0.1373493813198815 0 0.2683631416569216 0.1433585597360171 0 0.27688776081229849 0.1373493813198815 0 0.27953702252087331 0.1279177717799545 0 0.28697265377983089 0.1371647178409881 0 0.26853316423210277 0.13223327321934791 0 0.27688776081229849 0.1373493813198815 0 0.27953702252087331 0.1279177717799545 0 0.28110271231692652 0.14809685289469929 0 0.2683631416569216 0.1433585597360171 0 0.26500009092015658 0.15700177639279919 0 0.27688776081229849 0.1373493813198815 0 0.28110271231692652 0.14809685289469929 0 0.2683631416569216 0.1433585597360171 0 0.2683631416569216 0.1433585597360171 0 0.25389438544166032 0.14621631020051851 0 0.26500009092015658 0.15700177639279919 0 0.24799445479753701 0.16393354422487799 0 0.25389438544166032 0.14621631020051851 0 0.26500009092015658 0.15700177639279919 0 0.25952207357465201 0.1375155448908022 0 0.2683631416569216 0.1433585597360171 0 0.25389438544166032 0.14621631020051851 0 0.24799445479753701 0.16393354422487799 0 0.26500009092015658 0.15700177639279919 0 0.26197069337401652 0.17449561494221569 0 0.24865668826696641 0.1784961764540462 0 0.26197069337401652 0.17449561494221569 0 0.25327692367436438 0.19184118522532931 0 0.26197069337401652 0.17449561494221569 0 0.25327692367436438 0.19184118522532931 0 0.2707388870247604 0.18993419681884591 0 0.24865668826696641 0.1784961764540462 0 0.24799445479753701 0.16393354422487799 0 0.26197069337401652 0.17449561494221569 0 0.26197069337401652 0.17449561494221569 0 0.27404023302701291 0.1780197720593536 0 0.2707388870247604 0.18993419681884591 0 0.26197069337401652 0.17449561494221569 0 0.27404023302701291 0.1780197720593536 0 0.27667515793387781 0.16590977635846649 0 0.27404023302701291 0.1780197720593536 0 0.27667515793387781 0.16590977635846649 0 0.28609485047613648 0.1810555946227714 0 0.27404023302701291 0.1780197720593536 0 0.28609485047613648 0.1810555946227714 0 0.2707388870247604 0.18993419681884591 0 0.26500009092015658 0.15700177639279919 0 0.26197069337401652 0.17449561494221569 0 0.27667515793387781 0.16590977635846649 0 0.28110271231692652 0.14809685289469929 0 0.26500009092015658 0.15700177639279919 0 0.27667515793387781 0.16590977635846649 0 0.28808068641212109 0.15760724093592929 0 0.29491923247115681 0.16738313191354259 0 0.29962564292652349 0.14903920257700889 0 0.27667515793387781 0.16590977635846649 0 0.29491923247115681 0.16738313191354259 0 0.28609485047613648 0.1810555946227714 0 0.27667515793387781 0.16590977635846649 0 0.28808068641212109 0.15760724093592929 0 0.29491923247115681 0.16738313191354259 0 0.28110271231692652 0.14809685289469929 0 0.27667515793387781 0.16590977635846649 0 0.28808068641212109 0.15760724093592929 0 0.29491923247115681 0.16738313191354259 0 0.28609485047613648 0.1810555946227714 0 0.29872926759360269 0.18052558796777041 0 0.28609485047613648 0.1810555946227714 0 0.29872926759360269 0.18052558796777041 0 0.29782411653472179 0.19338927701948189 0 0.29491923247115681 0.16738313191354259 0 0.29872926759360269 0.18052558796777041 0 0.31068923881431482 0.1750297450973764 0 0.29872926759360269 0.18052558796777041 0 0.30870614132288632 0.18719904488028721 0 0.29782411653472179 0.19338927701948189 0 0.29872926759360269 0.18052558796777041 0 0.31068923881431482 0.1750297450973764 0 0.30870614132288632 0.18719904488028721 0 0.29491923247115681 0.16738313191354259 0 0.31068923881431482 0.1750297450973764 0 0.31510810510818171 0.16007082843444051 0 0.29491923247115681 0.16738313191354259 0 0.29962564292652349 0.14903920257700889 0 0.31510810510818171 0.16007082843444051 0 0.29962564292652349 0.14903920257700889 0 0.31874595690188778 0.14580740351808091 0 0.31510810510818171 0.16007082843444051 0 0.29962564292652349 0.14903920257700889 0 0.31049869669876812 0.13448771667188339 0 0.31874595690188778 0.14580740351808091 0 0.29962564292652349 0.14903920257700889 0 0.31049869669876812 0.13448771667188339 0 0.29796870303508388 0.13324494980562551 0 0.31620906144234068 0.1208067496385241 0 0.30305135274880812 0.12356219707009899 0 0.31049869669876812 0.13448771667188339 0 0.30305135274880812 0.12356219707009899 0 0.31049869669876812 0.13448771667188339 0 0.29796870303508388 0.13324494980562551 0 0.30305135274880812 0.12356219707009899 0 0.29165241567210581 0.1213918845042056 0 0.29796870303508388 0.13324494980562551 0 0.29165241567210581 0.1213918845042056 0 0.27953702252087331 0.1279177717799545 0 0.28697265377983089 0.1371647178409881 0 0.29962564292652349 0.14903920257700889 0 0.29796870303508388 0.13324494980562551 0 0.28697265377983089 0.1371647178409881 0 0.29165241567210581 0.1213918845042056 0 0.29796870303508388 0.13324494980562551 0 0.28697265377983089 0.1371647178409881 0 0.28110271231692652 0.14809685289469929 0 0.28808068641212109 0.15760724093592929 0 0.29962564292652349 0.14903920257700889 0 0.27688776081229849 0.1373493813198815 0 0.28110271231692652 0.14809685289469929 0 0.28697265377983089 0.1371647178409881 0 0.28110271231692652 0.14809685289469929 0 0.29962564292652349 0.14903920257700889 0 0.28697265377983089 0.1371647178409881 0 0.27956511278934149 0.23597797564195669 0 0.26007206654130183 0.24598283735499671 0 0.26478464155997739 0.2226292845221382 0 0.27389458339419342 0.25786475014875337 0 0.27956511278934149 0.23597797564195669 0 0.26007206654130183 0.24598283735499671 0 0.24928818712813069 0.22177134864970191 0 0.24771278979313671 0.23449037935316691 0 0.26478464155997739 0.2226292845221382 0 0.24771278979313671 0.23449037935316691 0 0.26007206654130183 0.24598283735499671 0 0.26478464155997739 0.2226292845221382 0 0.27956511278934149 0.23597797564195669 0 0.26478464155997739 0.2226292845221382 0 0.29034935467025119 0.22224304400579281 0 0.26478464155997739 0.2226292845221382 0 0.27684276802354729 0.20628869571017849 0 0.26296345339643901 0.20439806405687749 0 0.26478464155997739 0.2226292845221382 0 0.27684276802354729 0.20628869571017849 0 0.29034935467025119 0.22224304400579281 0 0.26478464155997739 0.2226292845221382 0 0.26296345339643901 0.20439806405687749 0 0.25053223063961699 0.209180953877251 0 0.24928818712813069 0.22177134864970191 0 0.26478464155997739 0.2226292845221382 0 0.25053223063961699 0.209180953877251 0 0.26296345339643901 0.20439806405687749 0 0.25053223063961699 0.209180953877251 0 0.25327692367436438 0.19184118522532931 0 0.26296345339643901 0.20439806405687749 0 0.25327692367436438 0.19184118522532931 0 0.2707388870247604 0.18993419681884591 0 0.27684276802354729 0.20628869571017849 0 0.26296345339643901 0.20439806405687749 0 0.2707388870247604 0.18993419681884591 0 0.27684276802354729 0.20628869571017849 0 0.2707388870247604 0.18993419681884591 0 0.2842174495378626 0.1950855661952228 0 0.28609485047613648 0.1810555946227714 0 0.2707388870247604 0.18993419681884591 0 0.2842174495378626 0.1950855661952228 0 0.27684276802354729 0.20628869571017849 0 0.2842174495378626 0.1950855661952228 0 0.29071791397168478 0.20570152976386599 0 0.2842174495378626 0.1950855661952228 0 0.29782411653472179 0.19338927701948189 0 0.29071791397168478 0.20570152976386599 0 0.28609485047613648 0.1810555946227714 0 0.2842174495378626 0.1950855661952228 0 0.29782411653472179 0.19338927701948189 0 0.29782411653472179 0.19338927701948189 0 0.30372728722375658 0.21216022955194699 0 0.31372965661698848 0.19938817771568509 0 0.30870614132288632 0.18719904488028721 0 0.29782411653472179 0.19338927701948189 0 0.31372965661698848 0.19938817771568509 0 0.29782411653472179 0.19338927701948189 0 0.30372728722375658 0.21216022955194699 0 0.29071791397168478 0.20570152976386599 0 0.30372728722375658 0.21216022955194699 0 0.29071791397168478 0.20570152976386599 0 0.29034935467025119 0.22224304400579281 0 0.27684276802354729 0.20628869571017849 0 0.29071791397168478 0.20570152976386599 0 0.29034935467025119 0.22224304400579281 0 0.27956511278934149 0.23597797564195669 0 0.29034935467025119 0.22224304400579281 0 0.30579885396124701 0.23445551455596261 0 0.30372728722375658 0.21216022955194699 0 0.30579885396124701 0.23445551455596261 0 0.32054558946373918 0.21740736522436729 0 0.30372728722375658 0.21216022955194699 0 0.29034935467025119 0.22224304400579281 0 0.30579885396124701 0.23445551455596261 0 0.30848474276947119 0.26298195610867708 0 0.30579885396124701 0.23445551455596261 0 0.32147440974595892 0.24742096830902921 0 0.29124522116601248 0.25035399812975961 0 0.30848474276947119 0.26298195610867708 0 0.30579885396124701 0.23445551455596261 0 0.27389458339419342 0.25786475014875337 0 0.29124522116601248 0.25035399812975961 0 0.27956511278934149 0.23597797564195669 0 0.27956511278934149 0.23597797564195669 0 0.30579885396124701 0.23445551455596261 0 0.29124522116601248 0.25035399812975961 0 0.27956511278934149 0.23597797564195669 0 0.30579885396124701 0.23445551455596261 0 0.33578124644895652 0.24683856264327361 0 0.33203259513315242 0.2329330534699684 0 0.34851963586995932 0.2395940229528111 0 0.34541988725501049 0.25334391406492363 0 0.33578124644895652 0.24683856264327361 0 0.34851963586995932 0.2395940229528111 0 0.33578124644895652 0.24683856264327361 0 0.32147440974595892 0.24742096830902921 0 0.33203259513315242 0.2329330534699684 0 0.30579885396124701 0.23445551455596261 0 0.32147440974595892 0.24742096830902921 0 0.33203259513315242 0.2329330534699684 0 0.30579885396124701 0.23445551455596261 0 0.33203259513315242 0.2329330534699684 0 0.30579885396124701 0.23445551455596261 0 0.33203259513315242 0.2329330534699684 0 0.32054558946373918 0.21740736522436729 0 0.33717522202759292 0.22119576502167981 0 0.33203259513315242 0.2329330534699684 0 0.32054558946373918 0.21740736522436729 0 0.33717522202759292 0.22119576502167981 0 0.33203259513315242 0.2329330534699684 0 0.35826633630505789 0.23141059238397521 0 0.34235678705127592 0.2117703150399799 0 0.33026168003456657 0.20483893913916401 0 0.34740822163028501 0.20021953147729049 0 0.33717522202759292 0.22119576502167981 0 0.33026168003456657 0.20483893913916401 0 0.32054558946373918 0.21740736522436729 0 0.33717522202759292 0.22119576502167981 0 0.34235678705127592 0.2117703150399799 0 0.33026168003456657 0.20483893913916401 0 0.30372728722375658 0.21216022955194699 0 0.32054558946373918 0.21740736522436729 0 0.31372965661698848 0.19938817771568509 0 0.33026168003456657 0.20483893913916401 0 0.32054558946373918 0.21740736522436729 0 0.31372965661698848 0.19938817771568509 0 0.33026168003456657 0.20483893913916401 0 0.31372965661698848 0.19938817771568509 0 0.32329699037877468 0.18638276914985871 0 0.30870614132288632 0.18719904488028721 0 0.31372965661698848 0.19938817771568509 0 0.32329699037877468 0.18638276914985871 0 0.33530032769788409 0.1927633195497773 0 0.34740822163028501 0.20021953147729049 0 0.34023441874791022 0.17961203843279611 0 0.33026168003456657 0.20483893913916401 0 0.33530032769788409 0.1927633195497773 0 0.34740822163028501 0.20021953147729049 0 0.33026168003456657 0.20483893913916401 0 0.33530032769788409 0.1927633195497773 0 0.32329699037877468 0.18638276914985871 0 0.34740822163028501 0.20021953147729049 0 0.34023441874791022 0.17961203843279611 0 0.34740822163028501 0.20021953147729049 0 0.34023441874791022 0.17961203843279611 0 0.35798642278339837 0.1846651756309089 0 0.34740822163028501 0.20021953147729049 0 0.36315269958080559 0.1963278121729673 0 0.35798642278339837 0.1846651756309089 0 0.34740822163028501 0.20021953147729049 0 0.36315269958080559 0.1963278121729673 0 0.35800980925804893 0.20698734249259279 0 0.36315269958080559 0.1963278121729673 0 0.3789682501410313 0.17860641981075309 0 0.38237783048181478 0.19207444173587321 0 0.36689629130844598 0.21057500179832811 0 0.35458202451265902 0.22082702452178529 0 0.37947367421384398 0.22029972725613989 0 0.36315269958080559 0.1963278121729673 0 0.36689629130844598 0.21057500179832811 0 0.35800980925804893 0.20698734249259279 0 0.36315269958080559 0.1963278121729673 0 0.36689629130844598 0.21057500179832811 0 0.38012853541051023 0.20563792469409919 0 0.36689629130844598 0.21057500179832811 0 0.35800980925804893 0.20698734249259279 0 0.35458202451265902 0.22082702452178529 0 0.34740822163028501 0.20021953147729049 0 0.35458202451265902 0.22082702452178529 0 0.34235678705127592 0.2117703150399799 0 0.34740822163028501 0.20021953147729049 0 0.35458202451265902 0.22082702452178529 0 0.33717522202759292 0.22119576502167981 0 0.34235678705127592 0.2117703150399799 0 0.35458202451265902 0.22082702452178529 0 0.34740822163028501 0.20021953147729049 0 0.35800980925804893 0.20698734249259279 0 0.35458202451265902 0.22082702452178529 0 0.33203259513315242 0.2329330534699684 0 0.35826633630505789 0.23141059238397521 0 0.35119758361160491 0.23595881639501179 0 0.33203259513315242 0.2329330534699684 0 0.35826633630505789 0.23141059238397521 0 0.33717522202759292 0.22119576502167981 0 0.35458202451265902 0.22082702452178529 0 0.33717522202759292 0.22119576502167981 0 0.35826633630505789 0.23141059238397521 0 0.35458202451265902 0.22082702452178529 0 0.35826633630505789 0.23141059238397521 0 0.35458202451265902 0.22082702452178529 0 0.36229634954705747 0.23117671272888499 0 0.35826633630505789 0.23141059238397521 0 0.35458202451265902 0.22082702452178529 0 0.35458202451265902 0.22082702452178529 0 0.36715415338301999 0.22644246072333579 0 0.37947367421384398 0.22029972725613989 0 0.35458202451265902 0.22082702452178529 0 0.37947367421384398 0.22029972725613989 0 0.35458202451265902 0.22082702452178529 0 0.36715415338301999 0.22644246072333579 0 0.36229634954705747 0.23117671272888499 0 0.36715415338301999 0.22644246072333579 0 0.37602346114657498 0.2294008295160018 0 0.37947367421384398 0.22029972725613989 0 0.36715415338301999 0.22644246072333579 0 0.37038177664317667 0.23263509909546029 0 0.37602346114657498 0.2294008295160018 0 0.37038177664317667 0.23263509909546029 0 0.36229634954705747 0.23117671272888499 0 0.36761569919706172 0.23802400273378349 0 0.36715415338301999 0.22644246072333579 0 0.37038177664317667 0.23263509909546029 0 0.36229634954705747 0.23117671272888499 0 0.35826633630505789 0.23141059238397521 0 0.36229634954705747 0.23117671272888499 0 0.36761569919706172 0.23802400273378349 0 0.35826633630505789 0.23141059238397521 0 0.36229634954705747 0.23117671272888499 0 0.35826633630505789 0.23141059238397521 0 0.36761569919706172 0.23802400273378349 0 0.3637720744356403 0.24722639637122271 0 0.35826633630505789 0.23141059238397521 0 0.3637720744356403 0.24722639637122271 0 0.35711495642644231 0.24114265799793599 0 0.35826633630505789 0.23141059238397521 0 0.3637720744356403 0.24722639637122271 0 0.36761569919706172 0.23802400273378349 0 0.37390972291710922 0.2473738802106851 0 0.37931095130113679 0.23828120046656709 0 0.37038177664317667 0.23263509909546029 0 0.36761569919706172 0.23802400273378349 0 0.37931095130113679 0.23828120046656709 0 0.36761569919706172 0.23802400273378349 0 0.37390972291710922 0.2473738802106851 0 0.3637720744356403 0.24722639637122271 0 0.35919760034078768 0.25488576680956188 0 0.3637720744356403 0.24722639637122271 0 0.35711495642644231 0.24114265799793599 0 0.35919760034078768 0.25488576680956188 0 0.35711495642644231 0.24114265799793599 0 0.34851963586995932 0.2395940229528111 0 0.33203259513315242 0.2329330534699684 0 0.34851963586995932 0.2395940229528111 0 0.35119758361160491 0.23595881639501179 0 0.35919760034078768 0.25488576680956188 0 0.34851963586995932 0.2395940229528111 0 0.35711495642644231 0.24114265799793599 0 0.34851963586995932 0.2395940229528111 0 0.35119758361160491 0.23595881639501179 0 0.35826633630505789 0.23141059238397521 0 0.35711495642644231 0.24114265799793599 0 0.35119758361160491 0.23595881639501179 0 0.35919760034078768 0.25488576680956188 0 0.34541988725501049 0.25334391406492363 0 0.34851963586995932 0.2395940229528111 0 0.33109727175376569 0.13483498039444691 0 0.33306061586553543 0.1590045453883015 0 0.34903189455999112 0.14752159286534011 0 0.332238289802742 0.1174346697997587 0 0.33109727175376569 0.13483498039444691 0 0.34785110977579681 0.12869357301322859 0 0.33109727175376569 0.13483498039444691 0 0.34903189455999112 0.14752159286534011 0 0.34785110977579681 0.12869357301322859 0 0.31049869669876812 0.13448771667188339 0 0.33109727175376569 0.13483498039444691 0 0.31874595690188778 0.14580740351808091 0 0.31620906144234068 0.1208067496385241 0 0.31049869669876812 0.13448771667188339 0 0.33109727175376569 0.13483498039444691 0 0.33109727175376569 0.13483498039444691 0 0.31874595690188778 0.14580740351808091 0 0.33306061586553543 0.1590045453883015 0 0.31874595690188778 0.14580740351808091 0 0.31510810510818171 0.16007082843444051 0 0.33306061586553543 0.1590045453883015 0 0.31510810510818171 0.16007082843444051 0 0.32281288309490158 0.17146456593948531 0 0.33306061586553543 0.1590045453883015 0 0.31068923881431482 0.1750297450973764 0 0.31510810510818171 0.16007082843444051 0 0.32281288309490158 0.17146456593948531 0 0.31068923881431482 0.1750297450973764 0 0.30870614132288632 0.18719904488028721 0 0.32329699037877468 0.18638276914985871 0 0.31068923881431482 0.1750297450973764 0 0.32281288309490158 0.17146456593948531 0 0.32329699037877468 0.18638276914985871 0 0.33530032769788409 0.1927633195497773 0 0.32329699037877468 0.18638276914985871 0 0.34023441874791022 0.17961203843279611 0 0.32281288309490158 0.17146456593948531 0 0.32329699037877468 0.18638276914985871 0 0.34023441874791022 0.17961203843279611 0 0.34023441874791022 0.17961203843279611 0 0.33306061586553543 0.1590045453883015 0 0.34664607566629091 0.16353767996749211 0 0.32281288309490158 0.17146456593948531 0 0.34023441874791022 0.17961203843279611 0 0.33306061586553543 0.1590045453883015 0 0.34023441874791022 0.17961203843279611 0 0.33306061586553543 0.1590045453883015 0 0.33306061586553543 0.1590045453883015 0 0.34664607566629091 0.16353767996749211 0 0.34903189455999112 0.14752159286534011 0 0.34664607566629091 0.16353767996749211 0 0.35936370045079502 0.1618364107977712 0 0.34903189455999112 0.14752159286534011 0 0.35936370045079502 0.1618364107977712 0 0.35378485128080772 0.17270792758645651 0 0.36428996142675912 0.17296768678462529 0 0.34664607566629091 0.16353767996749211 0 0.35936370045079502 0.1618364107977712 0 0.35378485128080772 0.17270792758645651 0 0.34023441874791022 0.17961203843279611 0 0.35378485128080772 0.17270792758645651 0 0.35798642278339837 0.1846651756309089 0 0.34023441874791022 0.17961203843279611 0 0.34664607566629091 0.16353767996749211 0 0.35378485128080772 0.17270792758645651 0 0.35378485128080772 0.17270792758645651 0 0.35798642278339837 0.1846651756309089 0 0.36428996142675912 0.17296768678462529 0 0.36315269958080559 0.1963278121729673 0 0.37023101855946572 0.18096566877748521 0 0.3789682501410313 0.17860641981075309 0 0.36315269958080559 0.1963278121729673 0 0.3789682501410313 0.17860641981075309 0 0.36315269958080559 0.1963278121729673 0 0.35798642278339837 0.1846651756309089 0 0.37023101855946572 0.18096566877748521 0 0.35798642278339837 0.1846651756309089 0 0.36428996142675912 0.17296768678462529 0 0.37023101855946572 0.18096566877748521 0 0.37294344526524548 0.17307460322345999 0 0.37023101855946572 0.18096566877748521 0 0.3789682501410313 0.17860641981075309 0 0.36428996142675912 0.17296768678462529 0 0.37294344526524548 0.17307460322345999 0 0.37023101855946572 0.18096566877748521 0 0.37023101855946572 0.18096566877748521 0 0.3789682501410313 0.17860641981075309 0 0.35936370045079502 0.1618364107977712 0 0.37143033022084221 0.16455633469166969 0 0.36903666071003671 0.1502464038168172 0 0.35936370045079502 0.1618364107977712 0 0.36428996142675912 0.17296768678462529 0 0.37143033022084221 0.16455633469166969 0 0.36428996142675912 0.17296768678462529 0 0.37294344526524548 0.17307460322345999 0 0.37143033022084221 0.16455633469166969 0 0.37294344526524548 0.17307460322345999 0 0.37143033022084221 0.16455633469166969 0 0.37988578887213142 0.1666854360682414 0 0.37143033022084221 0.16455633469166969 0 0.36903666071003671 0.1502464038168172 0 0.38116885613204832 0.15580844791011589 0 0.36903666071003671 0.1502464038168172 0 0.34903189455999112 0.14752159286534011 0 0.36572929324651332 0.1320594642229149 0 0.35936370045079502 0.1618364107977712 0 0.36903666071003671 0.1502464038168172 0 0.34903189455999112 0.14752159286534011 0 0.34903189455999112 0.14752159286534011 0 0.34785110977579681 0.12869357301322859 0 0.36572929324651332 0.1320594642229149 0 0.36903666071003671 0.1502464038168172 0 0.36572929324651332 0.1320594642229149 0 0.38651546400664027 0.13534731401526309 0 0.37457884466264257 0.11465160156173169 0 0.36572929324651332 0.1320594642229149 0 0.38651546400664027 0.13534731401526309 0 0.38651546400664027 0.13534731401526309 0 0.41083932134662748 0.1428947475747695 0 0.40654670959268202 0.12302498878555169 0 0.39137073736026579 0.14901267715693059 0 0.39490378574382962 0.16075058369276149 0 0.41083932134662748 0.1428947475747695 0 0.38651546400664027 0.13534731401526309 0 0.39137073736026579 0.14901267715693059 0 0.41083932134662748 0.1428947475747695 0 0.39490378574382962 0.16075058369276149 0 0.41083932134662748 0.1428947475747695 0 0.39490378574382962 0.16075058369276149 0 0.41065062964564342 0.15876514333886321 0 0.41083932134662748 0.1428947475747695 0 0.38651546400664027 0.13534731401526309 0 0.39137073736026579 0.14901267715693059 0 0.38116885613204832 0.15580844791011589 0 0.39137073736026579 0.14901267715693059 0 0.38116885613204832 0.15580844791011589 0 0.39490378574382962 0.16075058369276149 0 0.36903666071003671 0.1502464038168172 0 0.38651546400664027 0.13534731401526309 0 0.38116885613204832 0.15580844791011589 0 0.3789682501410313 0.17860641981075309 0 0.39490378574382962 0.16075058369276149 0 0.37143033022084221 0.16455633469166969 0 0.38116885613204832 0.15580844791011589 0 0.37988578887213142 0.1666854360682414 0 0.37988578887213142 0.1666854360682414 0 0.3789682501410313 0.17860641981075309 0 0.39490378574382962 0.16075058369276149 0 0.38116885613204832 0.15580844791011589 0 0.37988578887213142 0.1666854360682414 0 0.39490378574382962 0.16075058369276149 0 0.3789682501410313 0.17860641981075309 0 0.39004960546617451 0.1825267540515364 0 0.40234972672922131 0.1722928954447786 0 0.37294344526524548 0.17307460322345999 0 0.37988578887213142 0.1666854360682414 0 0.3789682501410313 0.17860641981075309 0 0.39004960546617451 0.1825267540515364 0 0.39650261451263069 0.18713325921474069 0 0.38237783048181478 0.19207444173587321 0 0.3789682501410313 0.17860641981075309 0 0.39004960546617451 0.1825267540515364 0 0.38237783048181478 0.19207444173587321 0 0.3789682501410313 0.17860641981075309 0 0.40234972672922131 0.1722928954447786 0 0.39004960546617451 0.1825267540515364 0 0.39650261451263069 0.18713325921474069 0 0.40234972672922131 0.1722928954447786 0 0.39650261451263069 0.18713325921474069 0 0.40234972672922131 0.1722928954447786 0 0.40977248609995898 0.18789884113245611 0 0.40234972672922131 0.1722928954447786 0 0.39490378574382962 0.16075058369276149 0 0.41065062964564342 0.15876514333886321 0 0.3789682501410313 0.17860641981075309 0 0.40234972672922131 0.1722928954447786 0 0.39490378574382962 0.16075058369276149 0 0.40234972672922131 0.1722928954447786 0 0.42573120331741132 0.1659793710788047 0 0.40234972672922131 0.1722928954447786 0 0.41065062964564342 0.15876514333886321 0 0.42573120331741132 0.1659793710788047 0 0.40234972672922131 0.1722928954447786 0 0.41945049279918928 0.18037351489627881 0 0.42573120331741132 0.1659793710788047 0 0.40234972672922131 0.1722928954447786 0 0.41945049279918928 0.18037351489627881 0 0.40977248609995898 0.18789884113245611 0 0.41945049279918928 0.18037351489627881 0 0.43439814052230552 0.18030304231771041 0 0.42500090732704948 0.19539342450764449 0 0.41945049279918928 0.18037351489627881 0 0.43439814052230552 0.18030304231771041 0 0.42573120331741132 0.1659793710788047 0 0.41065062964564342 0.15876514333886321 0 0.42573120331741132 0.1659793710788047 0 0.42947696200355462 0.1476283110175087 0 0.42573120331741132 0.1659793710788047 0 0.44911267990560177 0.1596658467128326 0 0.42573120331741132 0.1659793710788047 0 0.42947696200355462 0.1476283110175087 0 0.44911267990560177 0.1596658467128326 0 0.43439814052230552 0.18030304231771041 0 0.42573120331741132 0.1659793710788047 0 0.44911267990560177 0.1596658467128326 0 0.42947696200355462 0.1476283110175087 0 0.42677485694942541 0.12503891145677751 0 0.44415540867828113 0.1320317175189295 0 0.42947696200355462 0.1476283110175087 0 0.42677485694942541 0.12503891145677751 0 0.41083932134662748 0.1428947475747695 0 0.42677485694942541 0.12503891145677751 0 0.41083932134662748 0.1428947475747695 0 0.42677485694942541 0.12503891145677751 0 0.41083932134662748 0.1428947475747695 0 0.40654670959268202 0.12302498878555169 0 0.41065062964564342 0.15876514333886321 0 0.42947696200355462 0.1476283110175087 0 0.41083932134662748 0.1428947475747695 0 0.39116114858523071 0.25672614267488458 0 0.39697154225890141 0.23652913913649901 0 0.41244673235884372 0.24327477468345751 0 0.39697154225890141 0.23652913913649901 0 0.40801359987569491 0.23166505141971849 0 0.41244673235884372 0.24327477468345751 0 0.39697154225890141 0.23652913913649901 0 0.37931095130113679 0.23828120046656709 0 0.3865314975174734 0.22945523558387251 0 0.39116114858523071 0.25672614267488458 0 0.37390972291710922 0.2473738802106851 0 0.37931095130113679 0.23828120046656709 0 0.39116114858523071 0.25672614267488458 0 0.39697154225890141 0.23652913913649901 0 0.37931095130113679 0.23828120046656709 0 0.3865314975174734 0.22945523558387251 0 0.37947367421384398 0.22029972725613989 0 0.40436532391502911 0.2197724299904944 0 0.37038177664317667 0.23263509909546029 0 0.37931095130113679 0.23828120046656709 0 0.37602346114657498 0.2294008295160018 0 0.37931095130113679 0.23828120046656709 0 0.3865314975174734 0.22945523558387251 0 0.37602346114657498 0.2294008295160018 0 0.3865314975174734 0.22945523558387251 0 0.37602346114657498 0.2294008295160018 0 0.37947367421384398 0.22029972725613989 0 0.37947367421384398 0.22029972725613989 0 0.40436532391502911 0.2197724299904944 0 0.39697154225890141 0.23652913913649901 0 0.40436532391502911 0.2197724299904944 0 0.40801359987569491 0.23166505141971849 0 0.39697154225890141 0.23652913913649901 0 0.3865314975174734 0.22945523558387251 0 0.40436532391502911 0.2197724299904944 0 0.39239058523958448 0.21133571008206969 0 0.38012853541051023 0.20563792469409919 0 0.40256472136877991 0.20051567460087191 0 0.40436532391502911 0.2197724299904944 0 0.39239058523958448 0.21133571008206969 0 0.40256472136877991 0.20051567460087191 0 0.37947367421384398 0.22029972725613989 0 0.40436532391502911 0.2197724299904944 0 0.39239058523958448 0.21133571008206969 0 0.37947367421384398 0.22029972725613989 0 0.39239058523958448 0.21133571008206969 0 0.38012853541051023 0.20563792469409919 0 0.36689629130844598 0.21057500179832811 0 0.37947367421384398 0.22029972725613989 0 0.38012853541051023 0.20563792469409919 0 0.38012853541051023 0.20563792469409919 0 0.38237783048181478 0.19207444173587321 0 0.40256472136877991 0.20051567460087191 0 0.36315269958080559 0.1963278121729673 0 0.38012853541051023 0.20563792469409919 0 0.38237783048181478 0.19207444173587321 0 0.38012853541051023 0.20563792469409919 0 0.40256472136877991 0.20051567460087191 0 0.39650261451263069 0.18713325921474069 0 0.38237783048181478 0.19207444173587321 0 0.40256472136877991 0.20051567460087191 0 0.39650261451263069 0.18713325921474069 0 0.40256472136877991 0.20051567460087191 0 0.40977248609995898 0.18789884113245611 0 0.40256472136877991 0.20051567460087191 0 0.40977248609995898 0.18789884113245611 0 0.42500090732704948 0.19539342450764449 0 0.40256472136877991 0.20051567460087191 0 0.42500090732704948 0.19539342450764449 0 0.40256472136877991 0.20051567460087191 0 0.42500090732704948 0.19539342450764449 0 0.41659275666082718 0.20919934088789829 0 0.41945049279918928 0.18037351489627881 0 0.40977248609995898 0.18789884113245611 0 0.42500090732704948 0.19539342450764449 0 0.43439814052230552 0.18030304231771041 0 0.42500090732704948 0.19539342450764449 0 0.44743709328531922 0.19027117441441721 0 0.42500090732704948 0.19539342450764449 0 0.44743709328531922 0.19027117441441721 0 0.42500090732704948 0.19539342450764449 0 0.43519982925487388 0.2045717941938206 0 0.41659275666082718 0.20919934088789829 0 0.42500090732704948 0.19539342450764449 0 0.43944528353447793 0.19880235840266169 0 0.44743709328531922 0.19027117441441721 0 0.42500090732704948 0.19539342450764449 0 0.43519982925487388 0.2045717941938206 0 0.43944528353447793 0.19880235840266169 0 0.43519982925487388 0.2045717941938206 0 0.41659275666082718 0.20919934088789829 0 0.42925697361621401 0.2192451327248488 0 0.40436532391502911 0.2197724299904944 0 0.41659275666082718 0.20919934088789829 0 0.42925697361621401 0.2192451327248488 0 0.40436532391502911 0.2197724299904944 0 0.40256472136877991 0.20051567460087191 0 0.41659275666082718 0.20919934088789829 0 0.40436532391502911 0.2197724299904944 0 0.40801359987569491 0.23166505141971849 0 0.42041082702330401 0.23080070373253719 0 0.40436532391502911 0.2197724299904944 0 0.42925697361621401 0.2192451327248488 0 0.40436532391502911 0.2197724299904944 0 0.42041082702330401 0.23080070373253719 0 0.42925697361621401 0.2192451327248488 0 0.42041082702330401 0.23080070373253719 0 0.42925697361621401 0.2192451327248488 0 0.44189792177200049 0.22819249518173401 0 0.42041082702330401 0.23080070373253719 0 0.44226130196693519 0.24367528627527099 0 0.44189792177200049 0.22819249518173401 0 0.42041082702330401 0.23080070373253719 0 0.44226130196693519 0.24367528627527099 0 0.42041082702330401 0.23080070373253719 0 0.42365365707085328 0.24969033119948791 0 0.44226130196693519 0.24367528627527099 0 0.42041082702330401 0.23080070373253719 0 0.42365365707085328 0.24969033119948791 0 0.41244673235884372 0.24327477468345751 0 0.40801359987569491 0.23166505141971849 0 0.42041082702330401 0.23080070373253719 0 0.41244673235884372 0.24327477468345751 0 0.4641117769105666 0.25654986881800468 0 0.45626990887029573 0.2329396380547363 0 0.47839994308495759 0.23214429699819669 0 0.4641117769105666 0.25654986881800468 0 0.44226130196693519 0.24367528627527099 0 0.45626990887029573 0.2329396380547363 0 0.44226130196693519 0.24367528627527099 0 0.44189792177200049 0.22819249518173401 0 0.45626990887029573 0.2329396380547363 0 0.42925697361621401 0.2192451327248488 0 0.44189792177200049 0.22819249518173401 0 0.45414862331739891 0.2187178354592032 0 0.42925697361621401 0.2192451327248488 0 0.45414862331739891 0.2187178354592032 0 0.44189792177200049 0.22819249518173401 0 0.45626990887029573 0.2329396380547363 0 0.45414862331739891 0.2187178354592032 0 0.46759487455005733 0.2167942336434053 0 0.45679988616991568 0.2183580455960086 0 0.47839994308495759 0.23214429699819669 0 0.45679988616991568 0.2183580455960086 0 0.47839994308495759 0.23214429699819669 0 0.45626990887029573 0.2329396380547363 0 0.45679988616991568 0.2183580455960086 0 0.47839994308495759 0.23214429699819669 0 0.45626990887029573 0.2329396380547363 0 0.45679988616991568 0.2183580455960086 0 0.45414862331739891 0.2187178354592032 0 0.46759487455005733 0.2167942336434053 0 0.46642222320488042 0.2076341919131395 0 0.45834071066671861 0.20905813009481369 0 0.46642222320488042 0.2076341919131395 0 0.45834071066671861 0.20905813009481369 0 0.46004047898781869 0.1955512389181952 0 0.45834071066671861 0.20905813009481369 0 0.45014330427066901 0.20497304049476481 0 0.46004047898781869 0.1955512389181952 0 0.45834071066671861 0.20905813009481369 0 0.45679988616991568 0.2183580455960086 0 0.45014330427066901 0.20497304049476481 0 0.46759487455005733 0.2167942336434053 0 0.45834071066671861 0.20905813009481369 0 0.45679988616991568 0.2183580455960086 0 0.43519982925487388 0.2045717941938206 0 0.45679988616991568 0.2183580455960086 0 0.45414862331739891 0.2187178354592032 0 0.43519982925487388 0.2045717941938206 0 0.45679988616991568 0.2183580455960086 0 0.43519982925487388 0.2045717941938206 0 0.45679988616991568 0.2183580455960086 0 0.45014330427066901 0.20497304049476481 0 0.43519982925487388 0.2045717941938206 0 0.42925697361621401 0.2192451327248488 0 0.45414862331739891 0.2187178354592032 0 0.45014330427066901 0.20497304049476481 0 0.43944528353447793 0.19880235840266169 0 0.44743709328531922 0.19027117441441721 0 0.45014330427066901 0.20497304049476481 0 0.44743709328531922 0.19027117441441721 0 0.46004047898781869 0.1955512389181952 0 0.43519982925487388 0.2045717941938206 0 0.45014330427066901 0.20497304049476481 0 0.43944528353447793 0.19880235840266169 0 0.46642222320488042 0.2076341919131395 0 0.46004047898781869 0.1955512389181952 0 0.4698732792435889 0.18514892432118979 0 0.44743709328531922 0.19027117441441721 0 0.46004047898781869 0.1955512389181952 0 0.4698732792435889 0.18514892432118979 0 0.44743709328531922 0.19027117441441721 0 0.4698732792435889 0.18514892432118979 0 0.46642222320488042 0.2076341919131395 0 0.4698732792435889 0.18514892432118979 0 0.48321111160244062 0.18473291212197371 0 0.46642222320488042 0.2076341919131395 0 0.48561074701156598 0.20362840258582829 0 0.48321111160244062 0.18473291212197371 0 0.46642222320488042 0.2076341919131395 0 0.48321111160244062 0.18473291212197371 0 0.5 0.1898646043540001 0 0.48561074701156598 0.20362840258582829 0 0.48321111160244062 0.18473291212197371 0 0.5 0.1898646043540001 0 0.5 0.2178975763771924 0 0.48561074701156598 0.20362840258582829 0 0.5 0.2178975763771924 0 0.48561074701156598 0.20362840258582829 0 0.47915014387129867 0.2159502441067854 0 0.46642222320488042 0.2076341919131395 0 0.48561074701156598 0.20362840258582829 0 0.47915014387129867 0.2159502441067854 0 0.46759487455005733 0.2167942336434053 0 0.46642222320488042 0.2076341919131395 0 0.47915014387129867 0.2159502441067854 0 0.4641117769105666 0.25654986881800468 0 0.47839994308495759 0.23214429699819669 0 0.49999999999999972 0.24593054840038461 0 0.46759487455005733 0.2167942336434053 0 0.47915014387129867 0.2159502441067854 0 0.47839994308495759 0.23214429699819669 0 0.5 0.2178975763771924 0 0.47915014387129867 0.2159502441067854 0 0.47839994308495759 0.23214429699819669 0 0.5 0.2178975763771924 0 0.47839994308495759 0.23214429699819669 0 0.49999999999999972 0.24593054840038461 0 0.47839994308495759 0.23214429699819669 0 0.49999999999999972 0.24593054840038461 0 0.46785936030903852 0.15460382152114521 0 0.45797325822306578 0.13921250109850769 0 0.47227439155793888 0.128920274469501 0 0.46785936030903852 0.15460382152114521 0 0.45797325822306578 0.13921250109850769 0 0.44911267990560177 0.1596658467128326 0 0.45797325822306578 0.13921250109850769 0 0.47227439155793888 0.128920274469501 0 0.45646445066446861 0.1208408452701302 0 0.45797325822306578 0.13921250109850769 0 0.44415540867828113 0.1320317175189295 0 0.45646445066446861 0.1208408452701302 0 0.44415540867828113 0.1320317175189295 0 0.44911267990560177 0.1596658467128326 0 0.45797325822306578 0.13921250109850769 0 0.44415540867828113 0.1320317175189295 0 0.44911267990560177 0.1596658467128326 0 0.42947696200355462 0.1476283110175087 0 0.44415540867828113 0.1320317175189295 0 0.44911267990560177 0.1596658467128326 0 0.44911267990560177 0.1596658467128326 0 0.45210987238658917 0.1763735878148586 0 0.43439814052230552 0.18030304231771041 0 0.44743709328531922 0.19027117441441721 0 0.45210987238658917 0.1763735878148586 0 0.43439814052230552 0.18030304231771041 0 0.44911267990560177 0.1596658467128326 0 0.45210987238658917 0.1763735878148586 0 0.44743709328531922 0.19027117441441721 0 0.45210987238658917 0.1763735878148586 0 0.4698732792435889 0.18514892432118979 0 0.45210987238658917 0.1763735878148586 0 0.4634051365453144 0.16858154737562461 0 0.4698732792435889 0.18514892432118979 0 0.46785936030903852 0.15460382152114521 0 0.44911267990560177 0.1596658467128326 0 0.46785936030903852 0.15460382152114521 0 0.44911267990560177 0.1596658467128326 0 0.4634051365453144 0.16858154737562461 0 0.44911267990560177 0.1596658467128326 0 0.45210987238658917 0.1763735878148586 0 0.4634051365453144 0.16858154737562461 0 0.46785936030903852 0.15460382152114521 0 0.4634051365453144 0.16858154737562461 0 0.47807049088175352 0.16711555650809659 0 0.4634051365453144 0.16858154737562461 0 0.47807049088175352 0.16711555650809659 0 0.4698732792435889 0.18514892432118979 0 0.47807049088175352 0.16711555650809659 0 0.4698732792435889 0.18514892432118979 0 0.48321111160244062 0.18473291212197371 0 0.48321111160244062 0.18473291212197371 0 0.50000000000000044 0.1618316323308078 0 0.5 0.1898646043540001 0 0.48321111160244062 0.18473291212197371 0 0.50000000000000044 0.1618316323308078 0 0.47807049088175352 0.16711555650809659 0 0.48321111160244062 0.18473291212197371 0 0.50000000000000044 0.1618316323308078 0 0.47807049088175352 0.16711555650809659 0 0.50000000000000044 0.1618316323308078 0 0.48329699359387579 0.1448700902122263 0 0.50000000000000044 0.1618316323308078 0 0.48329699359387579 0.1448700902122263 0 0.5 0.13278616309740321 0 0.46785936030903852 0.15460382152114521 0 0.48329699359387579 0.1448700902122263 0 0.47227439155793888 0.128920274469501 0 0.46785936030903852 0.15460382152114521 0 0.47807049088175352 0.16711555650809659 0 0.48329699359387579 0.1448700902122263 0 0.48329699359387579 0.1448700902122263 0 0.47227439155793888 0.128920274469501 0 0.5 0.13278616309740321 0 0.5 0.13278616309740321 0 0.5 0.1037406938639986 0 0.48141767566778121 0.11102138261823 0 0.47227439155793888 0.128920274469501 0 0.5 0.13278616309740321 0 0.48141767566778121 0.11102138261823 0 0.5 0.1037406938639986 0 0.48141767566778121 0.11102138261823 0 0.47242063211278762 0.084362302615663881 0 0.48141767566778121 0.11102138261823 0 0.47242063211278762 0.084362302615663881 0 0.46239335466817949 0.1052974790445835 0 0.47227439155793888 0.128920274469501 0 0.48141767566778121 0.11102138261823 0 0.46239335466817949 0.1052974790445835 0 0.5 0.074695224630593859 0 0.47242063211278762 0.084362302615663881 0 0.46740713043188908 0.055349091496802318 0 0.5 0.1037406938639986 0 0.5 0.074695224630593859 0 0.47242063211278762 0.084362302615663881 0 0.47242063211278762 0.084362302615663881 0 0.46740713043188908 0.055349091496802318 0 0.45300470637632928 0.080729467201739444 0 0.44236811737052018 0.05820688259723733 0 0.46740713043188908 0.055349091496802318 0 0.47242063211278762 0.084362302615663881 0 0.45300470637632928 0.080729467201739444 0 0.46740713043188908 0.055349091496802318 0 0.47242063211278762 0.084362302615663881 0 0.45300470637632928 0.080729467201739444 0 0.46239335466817949 0.1052974790445835 0 0.45300470637632928 0.080729467201739444 0 0.43919813745096031 0.10439758832502639 0 0.43424086622363961 0.076763459131123313 0 0.45300470637632928 0.080729467201739444 0 0.43424086622363961 0.076763459131123313 0 0.44236811737052018 0.05820688259723733 0 0.47227439155793888 0.128920274469501 0 0.45646445066446861 0.1208408452701302 0 0.46239335466817949 0.1052974790445835 0 0.45300470637632928 0.080729467201739444 0 0.46239335466817949 0.1052974790445835 0 0.43919813745096031 0.10439758832502639 0 0.44415540867828113 0.1320317175189295 0 0.45646445066446861 0.1208408452701302 0 0.43919813745096031 0.10439758832502639 0 0.45646445066446861 0.1208408452701302 0 0.46239335466817949 0.1052974790445835 0 0.43919813745096031 0.10439758832502639 0 0.44415540867828113 0.1320317175189295 0 0.43919813745096031 0.10439758832502639 0 0.42677485694942541 0.12503891145677751 0 0.44415540867828113 0.1320317175189295 0 0.43919813745096031 0.10439758832502639 0 0.42677485694942541 0.12503891145677751 0 0.43919813745096031 0.10439758832502639 0 0.41987553528408611 0.10995308193041289 0 0.41987553528408611 0.10995308193041289 0 0.40654670959268202 0.12302498878555169 0 0.40519155268262641 0.1032841683223209 0 0.42677485694942541 0.12503891145677751 0 0.41987553528408611 0.10995308193041289 0 0.40654670959268202 0.12302498878555169 0 0.41987553528408611 0.10995308193041289 0 0.42166641974473629 0.094019752762387859 0 0.40519155268262641 0.1032841683223209 0 0.43919813745096031 0.10439758832502639 0 0.41987553528408611 0.10995308193041289 0 0.42166641974473629 0.094019752762387859 0 0.43919813745096031 0.10439758832502639 0 0.43424086622363961 0.076763459131123313 0 0.43919813745096031 0.10439758832502639 0 0.42166641974473629 0.094019752762387859 0 0.43424086622363961 0.076763459131123313 0 0.43424086622363961 0.076763459131123313 0 0.42027530506261918 0.061508929105537569 0 0.44236811737052018 0.05820688259723733 0 0.40495620398164472 0.079615837181005553 0 0.40312055584581002 0.059494588374270643 0 0.42027530506261918 0.061508929105537569 0 0.43424086622363961 0.076763459131123313 0 0.40495620398164472 0.079615837181005553 0 0.42027530506261918 0.061508929105537569 0 0.42166641974473629 0.094019752762387859 0 0.43424086622363961 0.076763459131123313 0 0.40495620398164472 0.079615837181005553 0 0.42166641974473629 0.094019752762387859 0 0.40495620398164472 0.079615837181005553 0 0.40519155268262641 0.1032841683223209 0 0.40495620398164472 0.079615837181005553 0 0.38686508425042121 0.097491692603889513 0 0.40519155268262641 0.1032841683223209 0 0.40495620398164472 0.079615837181005553 0 0.38277645965618912 0.079445547237405781 0 0.38686508425042121 0.097491692603889513 0 0.40495620398164472 0.079615837181005553 0 0.38709236633763738 0.063329305237755984 0 0.40312055584581002 0.059494588374270643 0 0.40495620398164472 0.079615837181005553 0 0.38709236633763738 0.063329305237755984 0 0.38277645965618912 0.079445547237405781 0 0.36565586428775732 0.072146372702464975 0 0.37409110470898571 0.053193543692808987 0 0.38709236633763738 0.063329305237755984 0 0.36565586428775732 0.072146372702464975 0 0.38709236633763738 0.063329305237755984 0 0.38277645965618912 0.079445547237405781 0 0.36673073492479569 0.092792611858038471 0 0.38277645965618912 0.079445547237405781 0 0.38686508425042121 0.097491692603889513 0 0.37457884466264257 0.11465160156173169 0 0.36673073492479569 0.092792611858038471 0 0.38686508425042121 0.097491692603889513 0 0.37457884466264257 0.11465160156173169 0 0.38686508425042121 0.097491692603889513 0 0.39176700472521159 0.1146700374442019 0 0.37457884466264257 0.11465160156173169 0 0.38651546400664027 0.13534731401526309 0 0.39176700472521159 0.1146700374442019 0 0.38651546400664027 0.13534731401526309 0 0.40654670959268202 0.12302498878555169 0 0.39176700472521159 0.1146700374442019 0 0.40654670959268202 0.12302498878555169 0 0.39176700472521159 0.1146700374442019 0 0.40519155268262641 0.1032841683223209 0 0.38686508425042121 0.097491692603889513 0 0.39176700472521159 0.1146700374442019 0 0.40519155268262641 0.1032841683223209 0 0.39703184960912552 0.027997644346186901 0 0.39188008088395537 0.01155712270445489 0 0.40819308661035841 0.01045900650805669 0 0.39188008088395537 0.01155712270445489 0 0.40819308661035841 0.01045900650805669 0 0.40253634393715082 -0.0066768609635344429 0 0.39188008088395537 0.01155712270445489 0 0.40253634393715082 -0.0066768609635344429 0 0.38545552644044051 -0.0036620198405254061 0 0.37756801179460708 0.0077458342357824856 0 0.38545552644044051 -0.0036620198405254061 0 0.36806179696710029 -0.00038801838553694109 0 0.39188008088395537 0.01155712270445489 0 0.37756801179460708 0.0077458342357824856 0 0.38545552644044051 -0.0036620198405254061 0 0.39188008088395537 0.01155712270445489 0 0.37756801179460708 0.0077458342357824856 0 0.37786381651360662 0.021152962711322418 0 0.39703184960912552 0.027997644346186901 0 0.39188008088395537 0.01155712270445489 0 0.37786381651360662 0.021152962711322418 0 0.39703184960912552 0.027997644346186901 0 0.37786381651360662 0.021152962711322418 0 0.37808648580134668 0.037092345855213503 0 0.39703184960912552 0.027997644346186901 0 0.37808648580134668 0.037092345855213503 0 0.39154113183397671 0.047343041880176358 0 0.37409110470898571 0.053193543692808987 0 0.37808648580134668 0.037092345855213503 0 0.39154113183397671 0.047343041880176358 0 0.37409110470898571 0.053193543692808987 0 0.38709236633763738 0.063329305237755984 0 0.39154113183397671 0.047343041880176358 0 0.38709236633763738 0.063329305237755984 0 0.40312055584581002 0.059494588374270643 0 0.39154113183397671 0.047343041880176358 0 0.40312055584581002 0.059494588374270643 0 0.39154113183397671 0.047343041880176358 0 0.40980021243127912 0.043611431627299448 0 0.39703184960912552 0.027997644346186901 0 0.39154113183397671 0.047343041880176358 0 0.40980021243127912 0.043611431627299448 0 0.39703184960912552 0.027997644346186901 0 0.40980021243127912 0.043611431627299448 0 0.42235630301044341 0.025352174821847651 0 0.40980021243127912 0.043611431627299448 0 0.42725767081772248 0.04580300287945345 0 0.42235630301044341 0.025352174821847651 0 0.40980021243127912 0.043611431627299448 0 0.42027530506261918 0.061508929105537569 0 0.42725767081772248 0.04580300287945345 0 0.40312055584581002 0.059494588374270643 0 0.40980021243127912 0.043611431627299448 0 0.42027530506261918 0.061508929105537569 0 0.42027530506261918 0.061508929105537569 0 0.42725767081772248 0.04580300287945345 0 0.44236811737052018 0.05820688259723733 0 0.42725767081772248 0.04580300287945345 0 0.42235630301044341 0.025352174821847651 0 0.44444408634591498 0.038164000202257527 0 0.42235630301044341 0.025352174821847651 0 0.40819308661035841 0.01045900650805669 0 0.4262155581205827 -0.0062079925046123422 0 0.42235630301044341 0.025352174821847651 0 0.44202218369985141 0.017891801863501311 0 0.4262155581205827 -0.0062079925046123422 0 0.42235630301044341 0.025352174821847651 0 0.44202218369985141 0.017891801863501311 0 0.44444408634591498 0.038164000202257527 0 0.39703184960912552 0.027997644346186901 0 0.42235630301044341 0.025352174821847651 0 0.40819308661035841 0.01045900650805669 0 0.44202218369985141 0.017891801863501311 0 0.4262155581205827 -0.0062079925046123422 0 0.44511406106538509 0.0045039236747506329 0 0.44202218369985141 0.017891801863501311 0 0.4262155581205827 -0.0062079925046123422 0 0.44511406106538509 0.0045039236747506329 0 0.44202218369985141 0.017891801863501311 0 0.46239362875099049 0.026335880377940799 0 0.44202218369985141 0.017891801863501311 0 0.46239362875099049 0.026335880377940799 0 0.44444408634591498 0.038164000202257527 0 0.46239362875099049 0.026335880377940799 0 0.46590660556401498 0.006527872327476804 0 0.47386309266216969 0.015128594100645539 0 0.44511406106538509 0.0045039236747506329 0 0.46239362875099049 0.026335880377940799 0 0.45738012707009362 -0.0026773307409208992 0 0.46239362875099049 0.026335880377940799 0 0.45738012707009362 -0.0026773307409208992 0 0.46239362875099049 0.026335880377940799 0 0.46590660556401498 0.006527872327476804 0 0.45738012707009362 -0.0026773307409208992 0 0.46590660556401498 0.006527872327476804 0 0.47015717095862503 0.001517232122601611 0 0.46744358108159539 -0.0079018727910486856 0 0.44236811737052018 0.05820688259723733 0 0.44444408634591498 0.038164000202257527 0 0.46740713043188908 0.055349091496802318 0 0.42725767081772248 0.04580300287945345 0 0.44236811737052018 0.05820688259723733 0 0.44444408634591498 0.038164000202257527 0 0.46239362875099049 0.026335880377940799 0 0.44444408634591498 0.038164000202257527 0 0.46740713043188908 0.055349091496802318 0 0.46239362875099049 0.026335880377940799 0 0.46740713043188908 0.055349091496802318 0 0.46740713043188908 0.055349091496802318 0 0.48143499462671369 0.032935765212740539 0 0.5 0.045649755397188962 0 0.5 0.074695224630593859 0 0.46740713043188908 0.055349091496802318 0 0.5 0.045649755397188962 0 0.46239362875099049 0.026335880377940799 0 0.46740713043188908 0.055349091496802318 0 0.48143499462671369 0.032935765212740539 0 0.48143499462671369 0.032935765212740539 0 0.5 0.045649755397188962 0 0.5 0.016604286163784291 0 0.46590660556401498 0.006527872327476804 0 0.47015717095862503 0.001517232122601611 0 0.47386309266216969 0.015128594100645539 0 0.48039132123927131 0.0032030364821811039 0 0.47015717095862503 0.001517232122601611 0 0.47386309266216969 0.015128594100645539 0 0.46239362875099049 0.026335880377940799 0 0.48143499462671369 0.032935765212740539 0 0.47386309266216969 0.015128594100645539 0 0.48143499462671369 0.032935765212740539 0 0.47386309266216969 0.015128594100645539 0 0.5 0.016604286163784291 0 0.48039132123927131 0.0032030364821811039 0 0.47386309266216969 0.015128594100645539 0 0.5 0.016604286163784291 0 0.48039132123927131 0.0032030364821811039 0 0.5 0.016604286163784291 0 0.50000000000000067 -0.012441183069620431 0 0.48039132123927131 0.0032030364821811039 0 0.50000000000000067 -0.012441183069620431 0 0.48200737715481851 -0.0094754767586627004 0 0.50000000000000067 -0.012441183069620431 0 0.48200737715481851 -0.0094754767586627004 0 0.48458955379201929 -0.020173631783488341 0 0.48039132123927131 0.0032030364821811039 0 0.48200737715481851 -0.0094754767586627004 0 0.47366007163651491 -0.005026457459310827 0 0.48200737715481851 -0.0094754767586627004 0 0.47449097046430738 -0.01340308957452413 0 0.48458955379201929 -0.020173631783488341 0 0.48200737715481851 -0.0094754767586627004 0 0.47449097046430738 -0.01340308957452413 0 0.47366007163651491 -0.005026457459310827 0 0.47449097046430738 -0.01340308957452413 0 0.47366007163651491 -0.005026457459310827 0 0.46744358108159539 -0.0079018727910486856 0 0.48039132123927131 0.0032030364821811039 0 0.47015717095862503 0.001517232122601611 0 0.47366007163651491 -0.005026457459310827 0 0.47015717095862503 0.001517232122601611 0 0.47366007163651491 -0.005026457459310827 0 0.46744358108159539 -0.0079018727910486856 0 0.47449097046430738 -0.01340308957452413 0 0.46917910758403902 -0.02790608049735838 0 0.46744358108159539 -0.0079018727910486856 0 0.47449097046430738 -0.01340308957452413 0 0.46917910758403902 -0.02790608049735838 0 0.48458955379201929 -0.020173631783488341 0 0.46917910758403902 -0.02790608049735838 0 0.48458955379201929 -0.020173631783488341 0 0.48265869022203989 -0.034908184325981452 0 0.46917910758403902 -0.02790608049735838 0 0.48458955379201929 -0.020173631783488341 0 0.50000000000000067 -0.012441183069620431 0 0.48458955379201929 -0.020173631783488341 0 0.5 -0.039563373959975938 0 0.50000000000000067 -0.012441183069620431 0 0.48458955379201929 -0.020173631783488341 0 0.48458955379201929 -0.020173631783488341 0 0.5 -0.039563373959975938 0 0.48265869022203989 -0.034908184325981452 0 0.5 -0.039563373959975938 0 0.4794527383893587 -0.049873305578467877 0 0.48265869022203989 -0.034908184325981452 0 0.5 -0.039563373959975938 0 0.4794527383893587 -0.049873305578467877 0 0.5 -0.066685564850331391 0 0.4794527383893587 -0.049873305578467877 0 0.48972636919467838 -0.071840530659577531 0 0.4794527383893587 -0.049873305578467877 0 0.45781342521503909 -0.05865170834881013 0 0.47444408932942272 -0.066888169712159593 0 0.46917910758403902 -0.02790608049735838 0 0.4794527383893587 -0.049873305578467877 0 0.46917910758403902 -0.02790608049735838 0 0.4794527383893587 -0.049873305578467877 0 0.48265869022203989 -0.034908184325981452 0 0.46917910758403902 -0.02790608049735838 0 0.4794527383893587 -0.049873305578467877 0 0.46309700879531029 -0.04399909958186788 0 0.46917910758403902 -0.02790608049735838 0 0.46309700879531029 -0.04399909958186788 0 0.44594276399280558 -0.039565303902837509 0 0.46917910758403902 -0.02790608049735838 0 0.44594276399280558 -0.039565303902837509 0 0.46309700879531029 -0.04399909958186788 0 0.45781342521503909 -0.05865170834881013 0 0.44594276399280558 -0.039565303902837509 0 0.4794527383893587 -0.049873305578467877 0 0.46309700879531029 -0.04399909958186788 0 0.45781342521503909 -0.05865170834881013 0 0.45781342521503909 -0.05865170834881013 0 0.44594276399280558 -0.039565303902837509 0 0.43688423943272808 -0.056178499506719833 0 0.44173161236668218 -0.0097650283996426578 0 0.45440016198981309 -0.019922434363877941 0 0.43413968594880009 -0.02521421932672669 0 0.44594276399280558 -0.039565303902837509 0 0.45440016198981309 -0.019922434363877941 0 0.43413968594880009 -0.02521421932672669 0 0.44511406106538509 0.0045039236747506329 0 0.44173161236668218 -0.0097650283996426578 0 0.4262155581205827 -0.0062079925046123422 0 0.44511406106538509 0.0045039236747506329 0 0.45115209638310738 -0.0060026077539907649 0 0.45738012707009362 -0.0026773307409208992 0 0.44511406106538509 0.0045039236747506329 0 0.44173161236668218 -0.0097650283996426578 0 0.45115209638310738 -0.0060026077539907649 0 0.44173161236668218 -0.0097650283996426578 0 0.45115209638310738 -0.0060026077539907649 0 0.45440016198981309 -0.019922434363877941 0 0.46917910758403902 -0.02790608049735838 0 0.45738012707009362 -0.0026773307409208992 0 0.46744358108159539 -0.0079018727910486856 0 0.45115209638310738 -0.0060026077539907649 0 0.45738012707009362 -0.0026773307409208992 0 0.45440016198981309 -0.019922434363877941 0 0.45738012707009362 -0.0026773307409208992 0 0.45440016198981309 -0.019922434363877941 0 0.46917910758403902 -0.02790608049735838 0 0.45738012707009362 -0.0026773307409208992 0 0.46590660556401498 0.006527872327476804 0 0.45738012707009362 -0.0026773307409208992 0 0.46744358108159539 -0.0079018727910486856 0 0.46917910758403902 -0.02790608049735838 0 0.44594276399280558 -0.039565303902837509 0 0.45440016198981309 -0.019922434363877941 0 0.46917910758403902 -0.02790608049735838 0 0.45738012707009362 -0.0026773307409208992 0 0.45440016198981309 -0.019922434363877941 0 0.48076414131777562 -0.11247395638408229 0 0.5 -0.12142492329520869 0 0.47707070035431021 -0.13922479809624089 0 0.48076414131777562 -0.11247395638408229 0 0.5 -0.12142492329520869 0 0.49999999999999889 -0.093807755740686796 0 0.48076414131777562 -0.11247395638408229 0 0.49999999999999889 -0.093807755740686796 0 0.4831487074223082 -0.093826506603197482 0 0.48076414131777562 -0.11247395638408229 0 0.4831487074223082 -0.093826506603197482 0 0.46724295353051809 -0.10230829234848959 0 0.4831487074223082 -0.093826506603197482 0 0.47736342046151931 -0.080365122476308684 0 0.46724295353051809 -0.10230829234848959 0 0.4831487074223082 -0.093826506603197482 0 0.47736342046151931 -0.080365122476308684 0 0.48972636919467838 -0.071840530659577531 0 0.47736342046151931 -0.080365122476308684 0 0.46724295353051809 -0.10230829234848959 0 0.49999999999999889 -0.093807755740686796 0 0.48972636919467838 -0.071840530659577531 0 0.49999999999999889 -0.093807755740686796 0 0.4831487074223082 -0.093826506603197482 0 0.48972636919467838 -0.071840530659577531 0 0.4794527383893587 -0.049873305578467877 0 0.5 -0.066685564850331391 0 0.48972636919467838 -0.071840530659577531 0 0.49999999999999889 -0.093807755740686796 0 0.5 -0.066685564850331391 0 0.48972636919467838 -0.071840530659577531 0 0.4794527383893587 -0.049873305578467877 0 0.48972636919467838 -0.071840530659577531 0 0.47444408932942272 -0.066888169712159593 0 0.47736342046151931 -0.080365122476308684 0 0.47444408932942272 -0.066888169712159593 0 0.46111344225814149 -0.083042334749947017 0 0.47736342046151931 -0.080365122476308684 0 0.48972636919467838 -0.071840530659577531 0 0.47444408932942272 -0.066888169712159593 0 0.45781342521503909 -0.05865170834881013 0 0.47444408932942272 -0.066888169712159593 0 0.46111344225814149 -0.083042334749947017 0 0.45781342521503909 -0.05865170834881013 0 0.43894306382610948 -0.073497416913578265 0 0.46111344225814149 -0.083042334749947017 0 0.45781342521503909 -0.05865170834881013 0 0.43894306382610948 -0.073497416913578265 0 0.43688423943272808 -0.056178499506719833 0 0.43894306382610948 -0.073497416913578265 0 0.45435471372378139 -0.095800678932662683 0 0.43943038487960501 -0.099755374704827537 0 0.43894306382610948 -0.073497416913578265 0 0.46111344225814149 -0.083042334749947017 0 0.43894306382610948 -0.073497416913578265 0 0.46111344225814149 -0.083042334749947017 0 0.45435471372378139 -0.095800678932662683 0 0.47736342046151931 -0.080365122476308684 0 0.46111344225814149 -0.083042334749947017 0 0.46724295353051809 -0.10230829234848959 0 0.46111344225814149 -0.083042334749947017 0 0.45435471372378139 -0.095800678932662683 0 0.46724295353051809 -0.10230829234848959 0 0.45435471372378139 -0.095800678932662683 0 0.46724295353051809 -0.10230829234848959 0 0.4571224865995171 -0.1242514622206706 0 0.45435471372378139 -0.095800678932662683 0 0.43943038487960501 -0.099755374704827537 0 0.4571224865995171 -0.1242514622206706 0 0.43943038487960501 -0.099755374704827537 0 0.4571224865995171 -0.1242514622206706 0 0.4301403036084171 -0.11241465638247949 0 0.4571224865995171 -0.1242514622206706 0 0.4301403036084171 -0.11241465638247949 0 0.42766208497337771 -0.1303141828852305 0 0.48076414131777562 -0.11247395638408229 0 0.46724295353051809 -0.10230829234848959 0 0.4571224865995171 -0.1242514622206706 0 0.46724295353051809 -0.10230829234848959 0 0.4571224865995171 -0.1242514622206706 0 0.40832215027824031 -0.1144337336776084 0 0.42766208497337771 -0.1303141828852305 0 0.40832215027824031 -0.1144337336776084 0 0.4301403036084171 -0.11241465638247949 0 0.42766208497337771 -0.1303141828852305 0 0.43943038487960501 -0.099755374704827537 0 0.4301403036084171 -0.11241465638247949 0 0.41816441131134552 -0.093318528424060493 0 0.40832215027824031 -0.1144337336776084 0 0.4301403036084171 -0.11241465638247949 0 0.41816441131134552 -0.093318528424060493 0 0.41816441131134552 -0.093318528424060493 0 0.4167726853940773 -0.063952499077209513 0 0.40078788444156133 -0.079574605529837583 0 0.43894306382610948 -0.073497416913578265 0 0.43943038487960501 -0.099755374704827537 0 0.41816441131134552 -0.093318528424060493 0 0.43894306382610948 -0.073497416913578265 0 0.4167726853940773 -0.063952499077209513 0 0.43894306382610948 -0.073497416913578265 0 0.41816441131134552 -0.093318528424060493 0 0.4167726853940773 -0.063952499077209513 0 0.43894306382610948 -0.073497416913578265 0 0.4167726853940773 -0.063952499077209513 0 0.43688423943272808 -0.056178499506719833 0 0.37844323608669711 -0.079044736294757778 0 0.40078788444156133 -0.079574605529837583 0 0.39460230696204562 -0.054407581240839789 0 0.4167726853940773 -0.063952499077209513 0 0.40078788444156133 -0.079574605529837583 0 0.39460230696204562 -0.054407581240839789 0 0.37844323608669711 -0.079044736294757778 0 0.39460230696204562 -0.054407581240839789 0 0.37503272161128531 -0.061223623872779527 0 0.37844323608669711 -0.079044736294757778 0 0.39460230696204562 -0.054407581240839789 0 0.38764194430038401 -0.085425682777195172 0 0.37844323608669711 -0.079044736294757778 0 0.40078788444156133 -0.079574605529837583 0 0.38898221558310292 -0.098553284469986374 0 0.36964228088796558 -0.082672835262364311 0 0.38764194430038401 -0.085425682777195172 0 0.37844323608669711 -0.079044736294757778 0 0.36964228088796558 -0.082672835262364311 0 0.38764194430038401 -0.085425682777195172 0 0.38898221558310292 -0.098553284469986374 0 0.36964228088796558 -0.082672835262364311 0 0.38898221558310292 -0.098553284469986374 0 0.36964228088796558 -0.082672835262364311 0 0.36946343925720321 -0.09703537720912668 0 0.41816441131134552 -0.093318528424060493 0 0.40078788444156133 -0.079574605529837583 0 0.38898221558310292 -0.098553284469986374 0 0.38764194430038401 -0.085425682777195172 0 0.40078788444156133 -0.079574605529837583 0 0.38898221558310292 -0.098553284469986374 0 0.40832215027824031 -0.1144337336776084 0 0.38898221558310292 -0.098553284469986374 0 0.40832215027824031 -0.1144337336776084 0 0.41816441131134552 -0.093318528424060493 0 0.38898221558310292 -0.098553284469986374 0 0.38898221558310292 -0.098553284469986374 0 0.3731368881841004 -0.11227644779841341 0 0.36946343925720321 -0.09703537720912668 0 0.38898221558310292 -0.098553284469986374 0 0.38916326183786282 -0.1175632209054157 0 0.3731368881841004 -0.11227644779841341 0 0.38916326183786282 -0.1175632209054157 0 0.3731368881841004 -0.11227644779841341 0 0.37590145401963498 -0.1304655197827134 0 0.40832215027824031 -0.1144337336776084 0 0.38916326183786282 -0.1175632209054157 0 0.3994736011242353 -0.13208711879835691 0 0.40832215027824031 -0.1144337336776084 0 0.38898221558310292 -0.098553284469986374 0 0.38916326183786282 -0.1175632209054157 0 0.41040893254131411 -0.030307786872726009 0 0.4262155581205827 -0.0062079925046123422 0 0.41040893254131411 -0.030307786872726009 0 0.4262155581205827 -0.0062079925046123422 0 0.40253634393715082 -0.0066768609635344429 0 0.40819308661035841 0.01045900650805669 0 0.4262155581205827 -0.0062079925046123422 0 0.40253634393715082 -0.0066768609635344429 0 0.44173161236668218 -0.0097650283996426578 0 0.4262155581205827 -0.0062079925046123422 0 0.43413968594880009 -0.02521421932672669 0 0.41040893254131411 -0.030307786872726009 0 0.4262155581205827 -0.0062079925046123422 0 0.43413968594880009 -0.02521421932672669 0 0.44594276399280558 -0.039565303902837509 0 0.43413968594880009 -0.02521421932672669 0 0.42494925873560929 -0.045225569291163732 0 0.41040893254131411 -0.030307786872726009 0 0.43413968594880009 -0.02521421932672669 0 0.42494925873560929 -0.045225569291163732 0 0.44594276399280558 -0.039565303902837509 0 0.42494925873560929 -0.045225569291163732 0 0.43688423943272808 -0.056178499506719833 0 0.4167726853940773 -0.063952499077209513 0 0.42494925873560929 -0.045225569291163732 0 0.43688423943272808 -0.056178499506719833 0 0.4167726853940773 -0.063952499077209513 0 0.42494925873560929 -0.045225569291163732 0 0.39460230696204562 -0.054407581240839789 0 0.41040893254131411 -0.030307786872726009 0 0.42494925873560929 -0.045225569291163732 0 0.39460230696204562 -0.054407581240839789 0 0.41040893254131411 -0.030307786872726009 0 0.39460230696204562 -0.054407581240839789 0 0.41040893254131411 -0.030307786872726009 0 0.39460230696204562 -0.054407581240839789 0 0.39260796055430142 -0.02403945571152127 0 0.4167726853940773 -0.063952499077209513 0 0.39460230696204562 -0.054407581240839789 0 0.39460230696204562 -0.054407581240839789 0 0.37503272161128531 -0.061223623872779527 0 0.37217268481573113 -0.044751052321242067 0 0.39460230696204562 -0.054407581240839789 0 0.37217268481573113 -0.044751052321242067 0 0.39460230696204562 -0.054407581240839789 0 0.37888755091127302 -0.035872300100898431 0 0.37217268481573113 -0.044751052321242067 0 0.39460230696204562 -0.054407581240839789 0 0.37888755091127302 -0.035872300100898431 0 0.39260796055430142 -0.02403945571152127 0 0.37888755091127302 -0.035872300100898431 0 0.37563030892103588 -0.017032284707454302 0 0.39260796055430142 -0.02403945571152127 0 0.41040893254131411 -0.030307786872726009 0 0.39260796055430142 -0.02403945571152127 0 0.40253634393715082 -0.0066768609635344429 0 0.39260796055430142 -0.02403945571152127 0 0.40253634393715082 -0.0066768609635344429 0 0.38545552644044051 -0.0036620198405254061 0 0.37563030892103588 -0.017032284707454302 0 0.38545552644044051 -0.0036620198405254061 0 0.36806179696710029 -0.00038801838553694109 0 0.37563030892103588 -0.017032284707454302 0 0.39260796055430142 -0.02403945571152127 0 0.38545552644044051 -0.0036620198405254061 0 0.37563030892103588 -0.017032284707454302 0 0.36806179696710029 -0.00038801838553694109 0 0.36401702293024513 -0.011242146103624191 0 0.36806179696710029 -0.00038801838553694109 0 0.36401702293024513 -0.011242146103624191 0 0.35260341344835128 -0.0038356075645182711 0 0.37888755091127302 -0.035872300100898431 0 0.37563030892103588 -0.017032284707454302 0 0.35693849804535782 -0.021053728676485889 0 0.37888755091127302 -0.035872300100898431 0 0.35693849804535782 -0.021053728676485889 0 0.3642425187250472 -0.03397027928722831 0 0.37563030892103588 -0.017032284707454302 0 0.36401702293024513 -0.011242146103624191 0 0.35693849804535782 -0.021053728676485889 0 0.37888755091127302 -0.035872300100898431 0 0.35693849804535782 -0.021053728676485889 0 0.35693849804535782 -0.021053728676485889 0 0.33498944517944268 -0.006235157252073421 0 0.34197881177233058 -0.02225149902274836 0 0.35693849804535782 -0.021053728676485889 0 0.34974306266941702 -0.035094523401643388 0 0.3642425187250472 -0.03397027928722831 0 0.35693849804535782 -0.021053728676485889 0 0.34197881177233058 -0.02225149902274836 0 0.34974306266941702 -0.035094523401643388 0 0.35693849804535782 -0.021053728676485889 0 0.33498944517944268 -0.006235157252073421 0 0.36401702293024513 -0.011242146103624191 0 0.35693849804535782 -0.021053728676485889 0 0.35260341344835128 -0.0038356075645182711 0 0.35693849804535782 -0.021053728676485889 0 0.35260341344835128 -0.0038356075645182711 0 0.33498944517944268 -0.006235157252073421 0 0.32731344052310302 -0.025437994482044729 0 0.34974306266941702 -0.035094523401643388 0 0.33498944517944268 -0.006235157252073421 0 0.34197881177233058 -0.02225149902274836 0 0.32731344052310302 -0.025437994482044729 0 0.34197881177233058 -0.02225149902274836 0 0.32731344052310302 -0.025437994482044729 0 0.34974306266941702 -0.035094523401643388 0 0.32731344052310302 -0.025437994482044729 0 0.30488381837678902 -0.015781465562446109 0 0.30645511317094892 -0.03331069464057184 0 0.32731344052310302 -0.025437994482044729 0 0.31610396223944709 -0.01460518202224659 0 0.32199139912153463 -0.01217500557514371 0 0.32731344052310302 -0.025437994482044729 0 0.31610396223944709 -0.01460518202224659 0 0.30488381837678902 -0.015781465562446109 0 0.32731344052310302 -0.025437994482044729 0 0.30488381837678902 -0.015781465562446109 0 0.31610396223944709 -0.01460518202224659 0 0.32199139912153463 -0.01217500557514371 0 0.31022719093636242 -0.0050262624693518249 0 0.3130403923135277 0.0085834141723390503 0 0.32199139912153463 -0.01217500557514371 0 0.31022719093636242 -0.0050262624693518249 0 0.3130403923135277 0.0085834141723390503 0 0.33498944517944268 -0.006235157252073421 0 0.32199139912153463 -0.01217500557514371 0 0.33498944517944268 -0.006235157252073421 0 0.32731344052310302 -0.025437994482044729 0 0.32199139912153463 -0.01217500557514371 0 0.31326794938038183 -0.050388917671271467 0 0.33301016933934541 -0.043624952674911968 0 0.32875086973574441 -0.062942059039553397 0 0.31326794938038183 -0.050388917671271467 0 0.32875086973574441 -0.062942059039553397 0 0.31387498350922233 -0.063887715945327314 0 0.32731344052310302 -0.025437994482044729 0 0.32001166810344472 -0.038190639867199998 0 0.30645511317094892 -0.03331069464057184 0 0.31326794938038183 -0.050388917671271467 0 0.32001166810344472 -0.038190639867199998 0 0.33301016933934541 -0.043624952674911968 0 0.31326794938038183 -0.050388917671271467 0 0.32001166810344472 -0.038190639867199998 0 0.30645511317094892 -0.03331069464057184 0 0.32731344052310302 -0.025437994482044729 0 0.32001166810344472 -0.038190639867199998 0 0.33301016933934541 -0.043624952674911968 0 0.33301016933934541 -0.043624952674911968 0 0.34974306266941702 -0.035094523401643388 0 0.34780654702659453 -0.046393181176363277 0 0.32731344052310302 -0.025437994482044729 0 0.33301016933934541 -0.043624952674911968 0 0.34974306266941702 -0.035094523401643388 0 0.33301016933934541 -0.043624952674911968 0 0.34459383327888099 -0.056301086199122032 0 0.34780654702659453 -0.046393181176363277 0 0.33301016933934541 -0.043624952674911968 0 0.34459383327888099 -0.056301086199122032 0 0.32875086973574441 -0.062942059039553397 0 0.34459383327888099 -0.056301086199122032 0 0.34438243945962521 -0.06818457863044107 0 0.32875086973574441 -0.062942059039553397 0 0.34459383327888099 -0.056301086199122032 0 0.35862813296295742 -0.051002997965673848 0 0.34780654702659453 -0.046393181176363277 0 0.34459383327888099 -0.056301086199122032 0 0.35862813296295742 -0.051002997965673848 0 0.35499130934678469 -0.065170048723386179 0 0.35862813296295742 -0.051002997965673848 0 0.34974306266941702 -0.035094523401643388 0 0.34780654702659453 -0.046393181176363277 0 0.35862813296295742 -0.051002997965673848 0 0.34974306266941702 -0.035094523401643388 0 0.37217268481573113 -0.044751052321242067 0 0.34974306266941702 -0.035094523401643388 0 0.3642425187250472 -0.03397027928722831 0 0.37217268481573113 -0.044751052321242067 0 0.34974306266941702 -0.035094523401643388 0 0.37217268481573113 -0.044751052321242067 0 0.37888755091127302 -0.035872300100898431 0 0.3642425187250472 -0.03397027928722831 0 0.37217268481573113 -0.044751052321242067 0 0.37503272161128531 -0.061223623872779527 0 0.37217268481573113 -0.044751052321242067 0 0.36806450963387249 -0.054012083110705447 0 0.35862813296295742 -0.051002997965673848 0 0.36621298639512828 -0.062743050355770172 0 0.35499130934678469 -0.065170048723386179 0 0.35862813296295742 -0.051002997965673848 0 0.36806450963387249 -0.054012083110705447 0 0.36621298639512828 -0.062743050355770172 0 0.35862813296295742 -0.051002997965673848 0 0.37217268481573113 -0.044751052321242067 0 0.36806450963387249 -0.054012083110705447 0 0.37503272161128531 -0.061223623872779527 0 0.36806450963387249 -0.054012083110705447 0 0.36621298639512828 -0.062743050355770172 0 0.37503272161128531 -0.061223623872779527 0 0.36621298639512828 -0.062743050355770172 0 0.37068199717781419 -0.072706331839798091 0 0.37844323608669711 -0.079044736294757778 0 0.37503272161128531 -0.061223623872779527 0 0.37068199717781419 -0.072706331839798091 0 0.36621298639512828 -0.062743050355770172 0 0.36210568966989809 -0.07507369568962674 0 0.35499130934678469 -0.065170048723386179 0 0.36621298639512828 -0.062743050355770172 0 0.36210568966989809 -0.07507369568962674 0 0.37068199717781419 -0.072706331839798091 0 0.36210568966989809 -0.07507369568962674 0 0.37068199717781419 -0.072706331839798091 0 0.36964228088796558 -0.082672835262364311 0 0.37844323608669711 -0.079044736294757778 0 0.37068199717781419 -0.072706331839798091 0 0.36964228088796558 -0.082672835262364311 0 0.36964228088796558 -0.082672835262364311 0 0.3564042543093906 -0.087311239728398965 0 0.36946343925720321 -0.09703537720912668 0 0.36210568966989809 -0.07507369568962674 0 0.36964228088796558 -0.082672835262364311 0 0.3564042543093906 -0.087311239728398965 0 0.3564042543093906 -0.087311239728398965 0 0.35242632144855651 -0.075340305914461392 0 0.33802726664048072 -0.07876814549378032 0 0.3564042543093906 -0.087311239728398965 0 0.33910572387415822 -0.096743274900313203 0 0.33802726664048072 -0.07876814549378032 0 0.36210568966989809 -0.07507369568962674 0 0.3564042543093906 -0.087311239728398965 0 0.35242632144855651 -0.075340305914461392 0 0.34438243945962521 -0.06818457863044107 0 0.35242632144855651 -0.075340305914461392 0 0.33802726664048072 -0.07876814549378032 0 0.34459383327888099 -0.056301086199122032 0 0.34438243945962521 -0.06818457863044107 0 0.35499130934678469 -0.065170048723386179 0 0.34438243945962521 -0.06818457863044107 0 0.35499130934678469 -0.065170048723386179 0 0.35242632144855651 -0.075340305914461392 0 0.36210568966989809 -0.07507369568962674 0 0.35499130934678469 -0.065170048723386179 0 0.35242632144855651 -0.075340305914461392 0 0.3731368881841004 -0.11227644779841341 0 0.35844131219951092 -0.1037858520186862 0 0.34845088464983248 -0.1228298600577169 0 0.3731368881841004 -0.11227644779841341 0 0.34845088464983248 -0.1228298600577169 0 0.37590145401963498 -0.1304655197827134 0 0.3564042543093906 -0.087311239728398965 0 0.36946343925720321 -0.09703537720912668 0 0.35844131219951092 -0.1037858520186862 0 0.3731368881841004 -0.11227644779841341 0 0.36946343925720321 -0.09703537720912668 0 0.35844131219951092 -0.1037858520186862 0 0.3564042543093906 -0.087311239728398965 0 0.35844131219951092 -0.1037858520186862 0 0.33910572387415822 -0.096743274900313203 0 0.35844131219951092 -0.1037858520186862 0 0.34845088464983248 -0.1228298600577169 0 0.33910572387415822 -0.096743274900313203 0 0.34845088464983248 -0.1228298600577169 0 0.33910572387415822 -0.096743274900313203 0 0.34845088464983248 -0.1228298600577169 0 0.33910572387415822 -0.096743274900313203 0 0.32467402799536449 -0.1113691906945662 0 0.34845088464983248 -0.1228298600577169 0 0.32467402799536449 -0.1113691906945662 0 0.3364827105324984 -0.1380019253012616 0 0.33910572387415822 -0.096743274900313203 0 0.32467402799536449 -0.1113691906945662 0 0.32454795470934189 -0.092640217619360782 0 0.32467402799536449 -0.1113691906945662 0 0.32454795470934189 -0.092640217619360782 0 0.30928183995034991 -0.098527739073216949 0 0.32467402799536449 -0.1113691906945662 0 0.31078505083423758 -0.11893329318577189 0 0.30928183995034991 -0.098527739073216949 0 0.32467402799536449 -0.1113691906945662 0 0.31078505083423758 -0.11893329318577189 0 0.31641198041894908 -0.1390844711010194 0 0.34438243945962521 -0.06818457863044107 0 0.32875086973574441 -0.062942059039553397 0 0.33802726664048072 -0.07876814549378032 0 0.33910572387415822 -0.096743274900313203 0 0.33802726664048072 -0.07876814549378032 0 0.32454795470934189 -0.092640217619360782 0 0.33802726664048072 -0.07876814549378032 0 0.31487447324138318 -0.079278199197454255 0 0.32454795470934189 -0.092640217619360782 0 0.33802726664048072 -0.07876814549378032 0 0.31487447324138318 -0.079278199197454255 0 0.31487447324138318 -0.079278199197454255 0 0.32454795470934189 -0.092640217619360782 0 0.30928183995034991 -0.098527739073216949 0 0.32875086973574441 -0.062942059039553397 0 0.33802726664048072 -0.07876814549378032 0 0.31487447324138318 -0.079278199197454255 0 0.32875086973574441 -0.062942059039553397 0 0.31487447324138318 -0.079278199197454255 0 0.31387498350922233 -0.063887715945327314 0 0.31487447324138318 -0.079278199197454255 0 0.31387498350922233 -0.063887715945327314 0 0.29860664167938011 -0.06294168787303013 0 0.31487447324138318 -0.079278199197454255 0 0.29860664167938011 -0.06294168787303013 0 0.29172167984228559 -0.079788252901128204 0 0.31487447324138318 -0.079278199197454255 0 0.29172167984228559 -0.079788252901128204 0 0.31487447324138318 -0.079278199197454255 0 0.29172167984228559 -0.079788252901128204 0 0.30928183995034991 -0.098527739073216949 0 0.29172167984228559 -0.079788252901128204 0 0.30928183995034991 -0.098527739073216949 0 0.29179339680802818 -0.099300965835933883 0 0.29172167984228559 -0.079788252901128204 0 0.29179339680802818 -0.099300965835933883 0 0.28040140537259589 -0.088204460929725559 0 0.29172167984228559 -0.079788252901128204 0 0.28583328434915423 -0.067551568195361955 0 0.26856888644318799 -0.080298306604802028 0 0.29860664167938011 -0.06294168787303013 0 0.29172167984228559 -0.079788252901128204 0 0.28583328434915423 -0.067551568195361955 0 0.29860664167938011 -0.06294168787303013 0 0.28583328434915423 -0.067551568195361955 0 0.29084669003916602 -0.058155190308955523 0 0.31078505083423758 -0.11893329318577189 0 0.29909928803216301 -0.1157944112769157 0 0.30928183995034991 -0.098527739073216949 0 0.31078505083423758 -0.11893329318577189 0 0.29909928803216301 -0.1157944112769157 0 0.3044581177743616 -0.1298906537831411 0 0.29909928803216301 -0.1157944112769157 0 0.30928183995034991 -0.098527739073216949 0 0.29179339680802818 -0.099300965835933883 0 0.29179339680802818 -0.099300965835933883 0 0.27958843081028922 -0.098740859994093058 0 0.28040140537259589 -0.088204460929725559 0 0.29179339680802818 -0.099300965835933883 0 0.28396350532651882 -0.1137813903703679 0 0.27958843081028922 -0.098740859994093058 0 0.28396350532651882 -0.1137813903703679 0 0.27871314576242379 -0.1280379014909295 0 0.29144579711841462 -0.1301070142792432 0 0.29909928803216301 -0.1157944112769157 0 0.28396350532651882 -0.1137813903703679 0 0.29144579711841462 -0.1301070142792432 0 0.29909928803216301 -0.1157944112769157 0 0.29179339680802818 -0.099300965835933883 0 0.28396350532651882 -0.1137813903703679 0 0.27317913370039248 -0.11734314503396021 0 0.26444962565753188 -0.1177575699908858 0 0.26815198893977371 -0.12615322346994831 0 0.27317913370039248 -0.11734314503396021 0 0.27871314576242379 -0.1280379014909295 0 0.26815198893977371 -0.12615322346994831 0 0.28396350532651882 -0.1137813903703679 0 0.27317913370039248 -0.11734314503396021 0 0.27871314576242379 -0.1280379014909295 0 0.28396350532651882 -0.1137813903703679 0 0.27317913370039248 -0.11734314503396021 0 0.27025466411543181 -0.1069314262811067 0 0.27317913370039248 -0.11734314503396021 0 0.27025466411543181 -0.1069314262811067 0 0.26444962565753188 -0.1177575699908858 0 0.28396350532651882 -0.1137813903703679 0 0.27025466411543181 -0.1069314262811067 0 0.27958843081028922 -0.098740859994093058 0 0.27025466411543181 -0.1069314262811067 0 0.27958843081028922 -0.098740859994093058 0 0.27108270782639271 -0.093578955138367559 0 0.27025466411543181 -0.1069314262811067 0 0.25862271384477842 -0.098740393505283547 0 0.27108270782639271 -0.093578955138367559 0 0.25082829793759442 -0.1095026453344221 0 0.25478116043846633 -0.080602048818224442 0 0.2445952619361231 -0.093698055038988842 0 0.25082829793759442 -0.1095026453344221 0 0.25478116043846633 -0.080602048818224442 0 0.25862271384477842 -0.098740393505283547 0 0.25082829793759442 -0.1095026453344221 0 0.24867654124636951 -0.1171824804057654 0 0.25862271384477842 -0.098740393505283547 0 0.24867654124636951 -0.1171824804057654 0 0.25862271384477842 -0.098740393505283547 0 0.259285257396771 -0.1109877991424762 0 0.24867654124636951 -0.1171824804057654 0 0.25862271384477842 -0.098740393505283547 0 0.25082829793759442 -0.1095026453344221 0 0.25478116043846633 -0.080602048818224442 0 0.27025466411543181 -0.1069314262811067 0 0.25862271384477842 -0.098740393505283547 0 0.259285257396771 -0.1109877991424762 0 0.27025466411543181 -0.1069314262811067 0 0.259285257396771 -0.1109877991424762 0 0.26444962565753188 -0.1177575699908858 0 0.259285257396771 -0.1109877991424762 0 0.25686622184789049 -0.118465262361168 0 0.26444962565753188 -0.1177575699908858 0 0.259285257396771 -0.1109877991424762 0 0.25686622184789049 -0.118465262361168 0 0.24867654124636951 -0.1171824804057654 0 0.25451107968786962 -0.1243576649647278 0 0.25138186385401579 -0.13274940000198271 0 0.24867654124636951 -0.1171824804057654 0 0.25686622184789049 -0.118465262361168 0 0.25451107968786962 -0.1243576649647278 0 0.24867654124636951 -0.1171824804057654 0 0.25138186385401579 -0.13274940000198271 0 0.24867654124636951 -0.1171824804057654 0 0.25686622184789049 -0.118465262361168 0 0.25451107968786962 -0.1243576649647278 0 0.25962001421926267 -0.12406175743667119 0 0.25962001421926267 -0.12406175743667119 0 0.26444962565753188 -0.1177575699908858 0 0.26815198893977371 -0.12615322346994831 0 0.25686622184789049 -0.118465262361168 0 0.25962001421926267 -0.12406175743667119 0 0.26444962565753188 -0.1177575699908858 0 0.26628155154754157 -0.075262479400184754 0 0.27678744088489182 -0.052667717390068987 0 0.28583328434915423 -0.067551568195361955 0 0.26856888644318799 -0.080298306604802028 0 0.28254998089729522 -0.054374710735600379 0 0.26628155154754157 -0.075262479400184754 0 0.2657014562371664 -0.06278269582339438 0 0.27678744088489182 -0.052667717390068987 0 0.26856888644318799 -0.080298306604802028 0 0.28254998089729522 -0.054374710735600379 0 0.26628155154754157 -0.075262479400184754 0 0.26856888644318799 -0.080298306604802028 0 0.28254998089729522 -0.054374710735600379 0 0.29172167984228559 -0.079788252901128204 0 0.26856888644318799 -0.080298306604802028 0 0.25862271384477842 -0.098740393505283547 0 0.27108270782639271 -0.093578955138367559 0 0.26856888644318799 -0.080298306604802028 0 0.29172167984228559 -0.079788252901128204 0 0.28040140537259589 -0.088204460929725559 0 0.26856888644318799 -0.080298306604802028 0 0.27958843081028922 -0.098740859994093058 0 0.28040140537259589 -0.088204460929725559 0 0.27108270782639271 -0.093578955138367559 0 0.28040140537259589 -0.088204460929725559 0 0.27108270782639271 -0.093578955138367559 0 0.26856888644318799 -0.080298306604802028 0 0.25862271384477842 -0.098740393505283547 0 0.26856888644318799 -0.080298306604802028 0 0.25478116043846633 -0.080602048818224442 0 0.26628155154754157 -0.075262479400184754 0 0.26856888644318799 -0.080298306604802028 0 0.25478116043846633 -0.080602048818224442 0 0.26856888644318799 -0.080298306604802028 0 0.25478116043846633 -0.080602048818224442 0 0.25862271384477842 -0.098740393505283547 0 0.26856888644318799 -0.080298306604802028 0 0.25478116043846633 -0.080602048818224442 0 0.2460700497688284 -0.080793953707780183 0 0.2657014562371664 -0.06278269582339438 0 0.25478116043846633 -0.080602048818224442 0 0.25852819007125788 -0.053206359864300563 0 0.26628155154754157 -0.075262479400184754 0 0.2657014562371664 -0.06278269582339438 0 0.25478116043846633 -0.080602048818224442 0 0.25478116043846633 -0.080602048818224442 0 0.25852819007125788 -0.053206359864300563 0 0.24944737075499149 -0.068843888556443175 0 0.25478116043846633 -0.080602048818224442 0 0.25852819007125788 -0.053206359864300563 0 0.25478116043846633 -0.080602048818224442 0 0.24944737075499149 -0.068843888556443175 0 0.2460700497688284 -0.080793953707780183 0 0.25852819007125788 -0.053206359864300563 0 0.24721937315541639 -0.056573217580361643 0 0.24944737075499149 -0.068843888556443175 0 0.25852819007125788 -0.053206359864300563 0 0.24721937315541639 -0.056573217580361643 0 0.24910752483994139 -0.039692287742642877 0 0.2657014562371664 -0.06278269582339438 0 0.25852819007125788 -0.053206359864300563 0 0.26824164900144359 -0.05168564424388461 0 0.2657014562371664 -0.06278269582339438 0 0.26824164900144359 -0.05168564424388461 0 0.27678744088489182 -0.052667717390068987 0 0.26628155154754157 -0.075262479400184754 0 0.27678744088489182 -0.052667717390068987 0 0.28254998089729522 -0.054374710735600379 0 0.26824164900144359 -0.05168564424388461 0 0.27678744088489182 -0.052667717390068987 0 0.27194950881245838 -0.038085803897774488 0 0.25852819007125788 -0.053206359864300563 0 0.26824164900144359 -0.05168564424388461 0 0.27194950881245838 -0.038085803897774488 0 0.27678744088489182 -0.052667717390068987 0 0.27194950881245838 -0.038085803897774488 0 0.28729333022224202 -0.030072955379953241 0 0.25852819007125788 -0.053206359864300563 0 0.26227521970404888 -0.025810670910376629 0 0.25852819007125788 -0.053206359864300563 0 0.27194950881245838 -0.038085803897774488 0 0.26227521970404888 -0.025810670910376629 0 0.25852819007125788 -0.053206359864300563 0 0.26227521970404888 -0.025810670910376629 0 0.24910752483994139 -0.039692287742642877 0 0.26602224933683999 0.001585018043547347 0 0.26227521970404888 -0.025810670910376629 0 0.2453786940251601 -0.0068958978480940566 0 0.26602224933683999 0.001585018043547347 0 0.26227521970404888 -0.025810670910376629 0 0.26602224933683999 0.001585018043547347 0 0.27914852208400598 -0.01359857287446728 0 0.28793788127773418 -0.00033153511801853059 0 0.26602224933683999 0.001585018043547347 0 0.26227521970404888 -0.025810670910376629 0 0.27914852208400598 -0.01359857287446728 0 0.27194950881245838 -0.038085803897774488 0 0.26227521970404888 -0.025810670910376629 0 0.27914852208400598 -0.01359857287446728 0 0.27194950881245838 -0.038085803897774488 0 0.27914852208400598 -0.01359857287446728 0 0.28729333022224202 -0.030072955379953241 0 0.28729333022224202 -0.030072955379953241 0 0.29779921955959221 -0.007478193369837495 0 0.27914852208400598 -0.01359857287446728 0 0.28729333022224202 -0.030072955379953241 0 0.29779921955959221 -0.007478193369837495 0 0.28729333022224202 -0.030072955379953241 0 0.29779921955959221 -0.007478193369837495 0 0.29878131722884071 -0.022682506075126101 0 0.27914852208400598 -0.01359857287446728 0 0.28793788127773418 -0.00033153511801853059 0 0.29779921955959221 -0.007478193369837495 0 0.29536512458139053 0.0076741264440699708 0 0.28793788127773418 -0.00033153511801853059 0 0.29779921955959221 -0.007478193369837495 0 0.3130403923135277 0.0085834141723390503 0 0.29779921955959221 -0.007478193369837495 0 0.31022719093636242 -0.0050262624693518249 0 0.29779921955959221 -0.007478193369837495 0 0.29878131722884071 -0.022682506075126101 0 0.30488381837678902 -0.015781465562446109 0 0.29779921955959221 -0.007478193369837495 0 0.31022719093636242 -0.0050262624693518249 0 0.30488381837678902 -0.015781465562446109 0 0.31610396223944709 -0.01460518202224659 0 0.31022719093636242 -0.0050262624693518249 0 0.30488381837678902 -0.015781465562446109 0 0.28729333022224202 -0.030072955379953241 0 0.29878131722884071 -0.022682506075126101 0 0.30645511317094892 -0.03331069464057184 0 0.29878131722884071 -0.022682506075126101 0 0.30488381837678902 -0.015781465562446109 0 0.30645511317094892 -0.03331069464057184 0 0.31326794938038183 -0.050388917671271467 0 0.30645511317094892 -0.03331069464057184 0 0.29639685323083442 -0.047752794431829587 0 0.31326794938038183 -0.050388917671271467 0 0.29860664167938011 -0.06294168787303013 0 0.29639685323083442 -0.047752794431829587 0 0.31326794938038183 -0.050388917671271467 0 0.31387498350922233 -0.063887715945327314 0 0.29860664167938011 -0.06294168787303013 0 0.29639685323083442 -0.047752794431829587 0 0.29084669003916602 -0.058155190308955523 0 0.28254998089729522 -0.054374710735600379 0 0.29860664167938011 -0.06294168787303013 0 0.29639685323083442 -0.047752794431829587 0 0.29084669003916602 -0.058155190308955523 0 0.28583328434915423 -0.067551568195361955 0 0.29084669003916602 -0.058155190308955523 0 0.28254998089729522 -0.054374710735600379 0 0.28729333022224202 -0.030072955379953241 0 0.30645511317094892 -0.03331069464057184 0 0.29639685323083442 -0.047752794431829587 0 0.27678744088489182 -0.052667717390068987 0 0.28729333022224202 -0.030072955379953241 0 0.28729333022224202 -0.030072955379953241 0 0.29639685323083442 -0.047752794431829587 0 0.28254998089729522 -0.054374710735600379 0 0.27678744088489182 -0.052667717390068987 0 0.28729333022224202 -0.030072955379953241 0 0.28254998089729522 -0.054374710735600379 0 0.29026279455403509 -0.2091023781683117 0 0.28939693711245712 -0.21486324543635979 0 0.26919792219548683 -0.20311433681796981 0 0.29026279455403509 -0.2091023781683117 0 0.29260578867106862 -0.19351357859237581 0 0.30101574788654861 -0.20969377695503971 0 0.29026279455403509 -0.2091023781683117 0 0.30101574788654861 -0.20969377695503971 0 0.29763485830136061 -0.2111980102616367 0 0.29026279455403509 -0.2091023781683117 0 0.29763485830136061 -0.2111980102616367 0 0.28939693711245712 -0.21486324543635979 0 0.29763485830136061 -0.2111980102616367 0 0.29951948470241979 -0.22273060229536251 0 0.29026279455403509 -0.2091023781683117 0 0.28939693711245712 -0.21486324543635979 0 0.29763485830136061 -0.2111980102616367 0 0.28939693711245712 -0.21486324543635979 0 0.29763485830136061 -0.2111980102616367 0 0.29026279455403509 -0.2091023781683117 0 0.28939693711245712 -0.21486324543635979 0 0.29026279455403509 -0.2091023781683117 0 0.28284532621798603 -0.19860927218409041 0 0.29260578867106862 -0.19351357859237581 0 0.28284532621798603 -0.19860927218409041 0 0.29260578867106862 -0.19351357859237581 0 0.27793292016808713 -0.19024412054007911 0 0.29026279455403509 -0.2091023781683117 0 0.29260578867106862 -0.19351357859237581 0 0.29260578867106862 -0.19351357859237581 0 0.3046265551504147 -0.20202220900714679 0 0.30531358463828179 -0.21338081631148079 0 0.29260578867106862 -0.19351357859237581 0 0.3046265551504147 -0.20202220900714679 0 0.29988788526611798 -0.19451503191392591 0 0.3046265551504147 -0.20202220900714679 0 0.29988788526611798 -0.19451503191392591 0 0.30721150605161063 -0.19564117547049681 0 0.30721150605161063 -0.19564117547049681 0 0.30985078521201442 -0.18601312544400261 0 0.3142921897577165 -0.19881115963709331 0 0.29988788526611798 -0.19451503191392591 0 0.30721150605161063 -0.19564117547049681 0 0.30985078521201442 -0.18601312544400261 0 0.3046265551504147 -0.20202220900714679 0 0.31416882571063731 -0.20827576283562549 0 0.3142921897577165 -0.19881115963709331 0 0.3046265551504147 -0.20202220900714679 0 0.30721150605161063 -0.19564117547049681 0 0.3142921897577165 -0.19881115963709331 0 0.29260578867106862 -0.19351357859237581 0 0.30101574788654861 -0.20969377695503971 0 0.30531358463828179 -0.21338081631148079 0 0.30531358463828179 -0.21338081631148079 0 0.29951948470241979 -0.22273060229536251 0 0.32490143139420963 -0.21894898849606251 0 0.29260578867106862 -0.19351357859237581 0 0.30531358463828179 -0.21338081631148079 0 0.3046265551504147 -0.20202220900714679 0 0.30531358463828179 -0.21338081631148079 0 0.31416882571063731 -0.20827576283562549 0 0.30101574788654861 -0.20969377695503971 0 0.29763485830136061 -0.2111980102616367 0 0.29763485830136061 -0.2111980102616367 0 0.30531358463828179 -0.21338081631148079 0 0.29951948470241979 -0.22273060229536251 0 0.29763485830136061 -0.2111980102616367 0 0.30531358463828179 -0.21338081631148079 0 0.30101574788654861 -0.20969377695503971 0 0.29763485830136061 -0.2111980102616367 0 0.30531358463828179 -0.21338081631148079 0 0.3051419807997815 -0.23160227416105911 0 0.29951948470241979 -0.22273060229536251 0 0.32490143139420963 -0.21894898849606251 0 0.3051419807997815 -0.23160227416105911 0 0.30966021080157702 -0.24778673336912191 0 0.32026323415058783 -0.2350606530923052 0 0.3051419807997815 -0.23160227416105911 0 0.30966021080157702 -0.24778673336912191 0 0.28551681785921013 -0.24067910256114569 0 0.28939693711245712 -0.21486324543635979 0 0.28551681785921013 -0.24067910256114569 0 0.3051419807997815 -0.23160227416105911 0 0.29951948470241979 -0.22273060229536251 0 0.28551681785921013 -0.24067910256114569 0 0.28939693711245712 -0.21486324543635979 0 0.29951948470241979 -0.22273060229536251 0 0.28551681785921013 -0.24067910256114569 0 0.28939693711245712 -0.21486324543635979 0 0.26703503534861922 -0.22481255510308401 0 0.28939693711245712 -0.21486324543635979 0 0.28551681785921013 -0.24067910256114569 0 0.26703503534861922 -0.22481255510308401 0 0.28551681785921013 -0.24067910256114569 0 0.26703503534861922 -0.22481255510308401 0 0.26145137686751269 -0.25057166113606721 0 0.26703503534861922 -0.22481255510308401 0 0.26145137686751269 -0.25057166113606721 0 0.24467313358478149 -0.2347618647698089 0 0.26703503534861922 -0.22481255510308401 0 0.24467313358478149 -0.2347618647698089 0 0.26703503534861922 -0.22481255510308401 0 0.24154439157591809 -0.21549740969834391 0 0.24467313358478149 -0.2347618647698089 0 0.26703503534861922 -0.22481255510308401 0 0.26919792219548683 -0.20311433681796981 0 0.24154439157591809 -0.21549740969834391 0 0.26919792219548683 -0.20311433681796981 0 0.24813304983693851 -0.197126295467628 0 0.24154439157591809 -0.21549740969834391 0 0.28939693711245712 -0.21486324543635979 0 0.26703503534861922 -0.22481255510308401 0 0.26919792219548683 -0.20311433681796981 0 0.29026279455403509 -0.2091023781683117 0 0.28284532621798603 -0.19860927218409041 0 0.26919792219548683 -0.20311433681796981 0 0.29026279455403509 -0.2091023781683117 0 0.26919792219548683 -0.20311433681796981 0 0.27793292016808713 -0.19024412054007911 0 0.26919792219548683 -0.20311433681796981 0 0.2656045561558677 -0.1843124743945011 0 0.28284532621798603 -0.19860927218409041 0 0.27793292016808713 -0.19024412054007911 0 0.26919792219548683 -0.20311433681796981 0 0.26919792219548683 -0.20311433681796981 0 0.2656045561558677 -0.1843124743945011 0 0.24813304983693851 -0.197126295467628 0 0.26919792219548683 -0.20311433681796981 0 0.24813304983693851 -0.197126295467628 0 0.2656045561558677 -0.1843124743945011 0 0.2515057650938059 -0.1733624733555551 0 0.24813304983693851 -0.197126295467628 0 0.2656045561558677 -0.1843124743945011 0 0.2515057650938059 -0.1733624733555551 0 0.26408789642032432 -0.16932050796563411 0 0.2515057650938059 -0.1733624733555551 0 0.25539367275013369 -0.16061178211912899 0 0.26408789642032432 -0.16932050796563411 0 0.25539367275013369 -0.16061178211912899 0 0.26408789642032432 -0.16932050796563411 0 0.26715991582834708 -0.15413013427778949 0 0.2798828522497071 -0.17382185643508311 0 0.26715991582834708 -0.15413013427778949 0 0.28482362075133277 -0.15867346198633539 0 0.2798828522497071 -0.17382185643508311 0 0.26715991582834708 -0.15413013427778949 0 0.26408789642032432 -0.16932050796563411 0 0.2798828522497071 -0.17382185643508311 0 0.26715991582834708 -0.15413013427778949 0 0.2656045561558677 -0.1843124743945011 0 0.26408789642032432 -0.16932050796563411 0 0.2798828522497071 -0.17382185643508311 0 0.27793292016808713 -0.19024412054007911 0 0.2656045561558677 -0.1843124743945011 0 0.2798828522497071 -0.17382185643508311 0 0.25962001421926267 -0.12406175743667119 0 0.25601075727180939 -0.1293294246180518 0 0.26266141042988461 -0.1341301779451925 0 0.25962001421926267 -0.12406175743667119 0 0.26266141042988461 -0.1341301779451925 0 0.26815198893977371 -0.12615322346994831 0 0.25601075727180939 -0.1293294246180518 0 0.25443697940698701 -0.13443841212049579 0 0.26266141042988461 -0.1341301779451925 0 0.25451107968786962 -0.1243576649647278 0 0.25962001421926267 -0.12406175743667119 0 0.25601075727180939 -0.1293294246180518 0 0.25451107968786962 -0.1243576649647278 0 0.25138186385401579 -0.13274940000198271 0 0.25601075727180939 -0.1293294246180518 0 0.25138186385401579 -0.13274940000198271 0 0.25601075727180939 -0.1293294246180518 0 0.25443697940698701 -0.13443841212049579 0 0.25138186385401579 -0.13274940000198271 0 0.25408718646166178 -0.14831631959819991 0 0.25138186385401579 -0.13274940000198271 0 0.25443697940698701 -0.13443841212049579 0 0.25408718646166178 -0.14831631959819991 0 0.25443697940698701 -0.13443841212049579 0 0.26266141042988461 -0.1341301779451925 0 0.26715991582834708 -0.15413013427778949 0 0.25443697940698701 -0.13443841212049579 0 0.25408718646166178 -0.14831631959819991 0 0.26715991582834708 -0.15413013427778949 0 0.25443697940698701 -0.13443841212049579 0 0.26715991582834708 -0.15413013427778949 0 0.25539367275013369 -0.16061178211912899 0 0.25408718646166178 -0.14831631959819991 0 0.26715991582834708 -0.15413013427778949 0 0.26715991582834708 -0.15413013427778949 0 0.28200320113435018 -0.14399406723594529 0 0.28482362075133277 -0.15867346198633539 0 0.26266141042988461 -0.1341301779451925 0 0.26715991582834708 -0.15413013427778949 0 0.27142984561668759 -0.13730362886532441 0 0.26715991582834708 -0.15413013427778949 0 0.27142984561668759 -0.13730362886532441 0 0.28200320113435018 -0.14399406723594529 0 0.27142984561668759 -0.13730362886532441 0 0.27871314576242379 -0.1280379014909295 0 0.28200320113435018 -0.14399406723594529 0 0.26266141042988461 -0.1341301779451925 0 0.27142984561668759 -0.13730362886532441 0 0.26815198893977371 -0.12615322346994831 0 0.27142984561668759 -0.13730362886532441 0 0.27871314576242379 -0.1280379014909295 0 0.26815198893977371 -0.12615322346994831 0 0.27871314576242379 -0.1280379014909295 0 0.29144579711841462 -0.1301070142792432 0 0.28200320113435018 -0.14399406723594529 0 0.29144579711841462 -0.1301070142792432 0 0.28200320113435018 -0.14399406723594529 0 0.29917949347248268 -0.1497763084577807 0 0.28200320113435018 -0.14399406723594529 0 0.29917949347248268 -0.1497763084577807 0 0.28482362075133277 -0.15867346198633539 0 0.29917949347248268 -0.1497763084577807 0 0.30814993284253361 -0.16679975150747259 0 0.31641198041894908 -0.1390844711010194 0 0.30814993284253361 -0.16679975150747259 0 0.31641198041894908 -0.1390844711010194 0 0.31078505083423758 -0.11893329318577189 0 0.3044581177743616 -0.1298906537831411 0 0.31641198041894908 -0.1390844711010194 0 0.29144579711841462 -0.1301070142792432 0 0.29917949347248268 -0.1497763084577807 0 0.3044581177743616 -0.1298906537831411 0 0.29917949347248268 -0.1497763084577807 0 0.3044581177743616 -0.1298906537831411 0 0.31641198041894908 -0.1390844711010194 0 0.29909928803216301 -0.1157944112769157 0 0.29144579711841462 -0.1301070142792432 0 0.3044581177743616 -0.1298906537831411 0 0.29260578867106862 -0.19351357859237581 0 0.29589264107177671 -0.17164494352507839 0 0.29260578867106862 -0.19351357859237581 0 0.27793292016808713 -0.19024412054007911 0 0.2798828522497071 -0.17382185643508311 0 0.29260578867106862 -0.19351357859237581 0 0.2798828522497071 -0.17382185643508311 0 0.29260578867106862 -0.19351357859237581 0 0.2798828522497071 -0.17382185643508311 0 0.29589264107177671 -0.17164494352507839 0 0.29260578867106862 -0.19351357859237581 0 0.29988788526611798 -0.19451503191392591 0 0.29589264107177671 -0.17164494352507839 0 0.29917949347248268 -0.1497763084577807 0 0.28482362075133277 -0.15867346198633539 0 0.29589264107177671 -0.17164494352507839 0 0.2798828522497071 -0.17382185643508311 0 0.28482362075133277 -0.15867346198633539 0 0.29589264107177671 -0.17164494352507839 0 0.29917949347248268 -0.1497763084577807 0 0.29589264107177671 -0.17164494352507839 0 0.30814993284253361 -0.16679975150747259 0 0.29917949347248268 -0.1497763084577807 0 0.29589264107177671 -0.17164494352507839 0 0.29988788526611798 -0.19451503191392591 0 0.30814993284253361 -0.16679975150747259 0 0.29988788526611798 -0.19451503191392591 0 0.30814993284253361 -0.16679975150747259 0 0.30985078521201442 -0.18601312544400261 0 0.29988788526611798 -0.19451503191392591 0 0.29589264107177671 -0.17164494352507839 0 0.30814993284253361 -0.16679975150747259 0 0.30814993284253361 -0.16679975150747259 0 0.30985078521201442 -0.18601312544400261 0 0.32509287403104248 -0.17310394753369371 0 0.30985078521201442 -0.18601312544400261 0 0.32509287403104248 -0.17310394753369371 0 0.33206264580029499 -0.1910386221393108 0 0.32509287403104248 -0.17310394753369371 0 0.32081909390605162 -0.15893004528340179 0 0.33362158833168121 -0.15673201099142151 0 0.30814993284253361 -0.16679975150747259 0 0.32509287403104248 -0.17310394753369371 0 0.32081909390605162 -0.15893004528340179 0 0.32509287403104248 -0.17310394753369371 0 0.33362158833168121 -0.15673201099142151 0 0.34536409527394102 -0.17412646460221029 0 0.32509287403104248 -0.17310394753369371 0 0.34536409527394102 -0.17412646460221029 0 0.33206264580029499 -0.1910386221393108 0 0.32467402799536449 -0.1113691906945662 0 0.31641198041894908 -0.1390844711010194 0 0.3364827105324984 -0.1380019253012616 0 0.32467402799536449 -0.1113691906945662 0 0.31641198041894908 -0.1390844711010194 0 0.30814993284253361 -0.16679975150747259 0 0.32081909390605162 -0.15893004528340179 0 0.31641198041894908 -0.1390844711010194 0 0.32081909390605162 -0.15893004528340179 0 0.33362158833168121 -0.15673201099142151 0 0.31641198041894908 -0.1390844711010194 0 0.33362158833168121 -0.15673201099142151 0 0.31641198041894908 -0.1390844711010194 0 0.3364827105324984 -0.1380019253012616 0 0.33362158833168121 -0.15673201099142151 0 0.3364827105324984 -0.1380019253012616 0 0.35779604542550669 -0.14891644521512051 0 0.34845088464983248 -0.1228298600577169 0 0.3364827105324984 -0.1380019253012616 0 0.35779604542550669 -0.14891644521512051 0 0.34845088464983248 -0.1228298600577169 0 0.35779604542550669 -0.14891644521512051 0 0.35779604542550669 -0.14891644521512051 0 0.38654437889993448 -0.14949546048180129 0 0.3780414987929907 -0.16366466293502771 0 0.35779604542550669 -0.14891644521512051 0 0.37590145401963498 -0.1304655197827134 0 0.38654437889993448 -0.14949546048180129 0 0.34845088464983248 -0.1228298600577169 0 0.35779604542550669 -0.14891644521512051 0 0.37590145401963498 -0.1304655197827134 0 0.34536409527394102 -0.17412646460221029 0 0.35427450638857549 -0.19606411883461899 0 0.33206264580029499 -0.1910386221393108 0 0.34536409527394102 -0.17412646460221029 0 0.36714120620118101 -0.17500303037252421 0 0.35427450638857549 -0.19606411883461899 0 0.35779604542550669 -0.14891644521512051 0 0.34536409527394102 -0.17412646460221029 0 0.36714120620118101 -0.17500303037252421 0 0.33362158833168121 -0.15673201099142151 0 0.35779604542550669 -0.14891644521512051 0 0.34536409527394102 -0.17412646460221029 0 0.35779604542550669 -0.14891644521512051 0 0.36714120620118101 -0.17500303037252421 0 0.3780414987929907 -0.16366466293502771 0 0.35779604542550669 -0.14891644521512051 0 0.36714120620118101 -0.17500303037252421 0 0.36714120620118101 -0.17500303037252421 0 0.37648636697685589 -0.2010896155299276 0 0.38048642758128731 -0.17602708936564049 0 0.36714120620118101 -0.17500303037252421 0 0.37648636697685589 -0.2010896155299276 0 0.36552496811632101 -0.20831587128819051 0 0.35427450638857549 -0.19606411883461899 0 0.37648636697685589 -0.2010896155299276 0 0.36714120620118101 -0.17500303037252421 0 0.35427450638857549 -0.19606411883461899 0 0.37648636697685589 -0.2010896155299276 0 0.35427450638857549 -0.19606411883461899 0 0.37648636697685589 -0.2010896155299276 0 0.36552496811632101 -0.20831587128819051 0 0.36288169911049512 -0.2206175379215535 0 0.37930649203300593 -0.2089618645150178 0 0.36552496811632101 -0.20831587128819051 0 0.37930649203300593 -0.2089618645150178 0 0.37648636697685589 -0.2010896155299276 0 0.36552496811632101 -0.20831587128819051 0 0.35535007855318318 -0.21200973431666739 0 0.36288169911049512 -0.2206175379215535 0 0.36552496811632101 -0.20831587128819051 0 0.35535007855318318 -0.21200973431666739 0 0.35427450638857549 -0.19606411883461899 0 0.35535007855318318 -0.21200973431666739 0 0.33859598377201938 -0.21158521146706799 0 0.34924192892385297 -0.22463963279975629 0 0.35535007855318318 -0.21200973431666739 0 0.35427450638857549 -0.19606411883461899 0 0.33859598377201938 -0.21158521146706799 0 0.35427450638857549 -0.19606411883461899 0 0.33206264580029499 -0.1910386221393108 0 0.33859598377201938 -0.21158521146706799 0 0.33206264580029499 -0.1910386221393108 0 0.33859598377201938 -0.21158521146706799 0 0.32480421528697562 -0.20573194891503199 0 0.35427450638857549 -0.19606411883461899 0 0.33206264580029499 -0.1910386221393108 0 0.33859598377201938 -0.21158521146706799 0 0.32480421528697562 -0.20573194891503199 0 0.32490143139420963 -0.21894898849606251 0 0.30531358463828179 -0.21338081631148079 0 0.31416882571063731 -0.20827576283562549 0 0.32490143139420963 -0.21894898849606251 0 0.30531358463828179 -0.21338081631148079 0 0.32490143139420963 -0.21894898849606251 0 0.32480421528697562 -0.20573194891503199 0 0.31416882571063731 -0.20827576283562549 0 0.32490143139420963 -0.21894898849606251 0 0.32480421528697562 -0.20573194891503199 0 0.31416882571063731 -0.20827576283562549 0 0.3142921897577165 -0.19881115963709331 0 0.33206264580029499 -0.1910386221393108 0 0.32480421528697562 -0.20573194891503199 0 0.3142921897577165 -0.19881115963709331 0 0.30985078521201442 -0.18601312544400261 0 0.33206264580029499 -0.1910386221393108 0 0.3142921897577165 -0.19881115963709331 0 0.30985078521201442 -0.18601312544400261 0 0.33206264580029499 -0.1910386221393108 0 0.30966021080157702 -0.24778673336912191 0 0.32026323415058783 -0.2350606530923052 0 0.3289423451865191 -0.24692368843009069 0 0.32026323415058783 -0.2350606530923052 0 0.33321753055782433 -0.22977454708551251 0 0.3289423451865191 -0.24692368843009069 0 0.32026323415058783 -0.2350606530923052 0 0.32490143139420963 -0.21894898849606251 0 0.33321753055782433 -0.22977454708551251 0 0.3051419807997815 -0.23160227416105911 0 0.32026323415058783 -0.2350606530923052 0 0.32490143139420963 -0.21894898849606251 0 0.33859598377201938 -0.21158521146706799 0 0.33321753055782433 -0.22977454708551251 0 0.34924192892385297 -0.22463963279975629 0 0.33859598377201938 -0.21158521146706799 0 0.32490143139420963 -0.21894898849606251 0 0.33321753055782433 -0.22977454708551251 0 0.33321753055782433 -0.22977454708551251 0 0.34308749997543991 -0.2386948652922693 0 0.34924192892385297 -0.22463963279975629 0 0.33321753055782433 -0.22977454708551251 0 0.34308749997543991 -0.2386948652922693 0 0.3289423451865191 -0.24692368843009069 0 0.34308749997543991 -0.2386948652922693 0 0.3289423451865191 -0.24692368843009069 0 0.34136557605767021 -0.25086681161139812 0 0.3570554487155676 -0.2365930092284983 0 0.35346002950626321 -0.2486655631124409 0 0.3623160646090739 -0.25740836624736418 0 0.34308749997543991 -0.2386948652922693 0 0.35346002950626321 -0.2486655631124409 0 0.34136557605767021 -0.25086681161139812 0 0.34308749997543991 -0.2386948652922693 0 0.3570554487155676 -0.2365930092284983 0 0.35346002950626321 -0.2486655631124409 0 0.3570554487155676 -0.2365930092284983 0 0.34924192892385297 -0.22463963279975629 0 0.36288169911049512 -0.2206175379215535 0 0.34308749997543991 -0.2386948652922693 0 0.3570554487155676 -0.2365930092284983 0 0.34924192892385297 -0.22463963279975629 0 0.35535007855318318 -0.21200973431666739 0 0.34924192892385297 -0.22463963279975629 0 0.36288169911049512 -0.2206175379215535 0 0.3570554487155676 -0.2365930092284983 0 0.37081127832103972 -0.23318511538119099 0 0.36288169911049512 -0.2206175379215535 0 0.37081127832103972 -0.23318511538119099 0 0.36288169911049512 -0.2206175379215535 0 0.37930649203300593 -0.2089618645150178 0 0.37081127832103972 -0.23318511538119099 0 0.3623160646090739 -0.25740836624736418 0 0.3570554487155676 -0.2365930092284983 0 0.37081127832103972 -0.23318511538119099 0 0.3623160646090739 -0.25740836624736418 0 0.37081127832103972 -0.23318511538119099 0 0.37495946192752022 -0.24961603069556479 0 0.3623160646090739 -0.25740836624736418 0 0.37081127832103972 -0.23318511538119099 0 0.37495946192752022 -0.24961603069556479 0 0.38373913713319457 -0.24321437109047639 0 0.38373913713319457 -0.24321437109047639 0 0.40122953332635891 -0.2454384170017645 0 0.38236589047673691 -0.25419861701114987 0 0.37081127832103972 -0.23318511538119099 0 0.38373913713319457 -0.24321437109047639 0 0.39180726858473441 -0.2321449692089699 0 0.37495946192752022 -0.24961603069556479 0 0.38373913713319457 -0.24321437109047639 0 0.38236589047673691 -0.25419861701114987 0 0.38373913713319457 -0.24321437109047639 0 0.40122953332635891 -0.2454384170017645 0 0.39180726858473441 -0.2321449692089699 0 0.40122953332635891 -0.2454384170017645 0 0.39180726858473441 -0.2321449692089699 0 0.41186460310795853 -0.222379486577785 0 0.39180726858473441 -0.2321449692089699 0 0.39734165693203422 -0.2176523410501594 0 0.41186460310795853 -0.222379486577785 0 0.39180726858473441 -0.2321449692089699 0 0.38382782036013552 -0.22158294394441189 0 0.39734165693203422 -0.2176523410501594 0 0.37081127832103972 -0.23318511538119099 0 0.38382782036013552 -0.22158294394441189 0 0.37930649203300593 -0.2089618645150178 0 0.37081127832103972 -0.23318511538119099 0 0.39180726858473441 -0.2321449692089699 0 0.38382782036013552 -0.22158294394441189 0 0.37081127832103972 -0.23318511538119099 0 0.37930649203300593 -0.2089618645150178 0 0.38382782036013552 -0.22158294394441189 0 0.37930649203300593 -0.2089618645150178 0 0.38417379150212572 -0.20786855239109139 0 0.38952594682020769 -0.20878251829113689 0 0.38165704566600561 -0.20225949630427609 0 0.39943642014919739 -0.20628213039901491 0 0.38165704566600561 -0.20225949630427609 0 0.39943642014919739 -0.20628213039901491 0 0.38382782036013552 -0.22158294394441189 0 0.37930649203300593 -0.2089618645150178 0 0.37930649203300593 -0.2089618645150178 0 0.37648636697685589 -0.2010896155299276 0 0.37930649203300593 -0.2089618645150178 0 0.37648636697685589 -0.2010896155299276 0 0.38165704566600561 -0.20225949630427609 0 0.37930649203300593 -0.2089618645150178 0 0.38165704566600561 -0.20225949630427609 0 0.37930649203300593 -0.2089618645150178 0 0.38417379150212572 -0.20786855239109139 0 0.38165704566600561 -0.20225949630427609 0 0.38417379150212572 -0.20786855239109139 0 0.38952594682020769 -0.20878251829113689 0 0.38165704566600561 -0.20225949630427609 0 0.38382782036013552 -0.22158294394441189 0 0.38417379150212572 -0.20786855239109139 0 0.38952594682020769 -0.20878251829113689 0 0.38382782036013552 -0.22158294394441189 0 0.38952594682020769 -0.20878251829113689 0 0.39734165693203422 -0.2176523410501594 0 0.37648636697685589 -0.2010896155299276 0 0.38048642758128731 -0.17602708936564049 0 0.38703306494582251 -0.18693031588672329 0 0.37648636697685589 -0.2010896155299276 0 0.38165704566600561 -0.20225949630427609 0 0.38703306494582251 -0.18693031588672329 0 0.37648636697685589 -0.2010896155299276 0 0.38165704566600561 -0.20225949630427609 0 0.38165704566600561 -0.20225949630427609 0 0.39250850373247331 -0.1972765719012107 0 0.38703306494582251 -0.18693031588672329 0 0.38165704566600561 -0.20225949630427609 0 0.38703306494582251 -0.18693031588672329 0 0.38165704566600561 -0.20225949630427609 0 0.39250850373247331 -0.1972765719012107 0 0.39943642014919739 -0.20628213039901491 0 0.39250850373247331 -0.1972765719012107 0 0.4019074841688679 -0.19363434501482879 0 0.38703306494582251 -0.18693031588672329 0 0.4019074841688679 -0.19363434501482879 0 0.38703306494582251 -0.18693031588672329 0 0.39865631125712803 -0.18194332722869189 0 0.39250850373247331 -0.1972765719012107 0 0.4019074841688679 -0.19363434501482879 0 0.39943642014919739 -0.20628213039901491 0 0.4019074841688679 -0.19363434501482879 0 0.39943642014919739 -0.20628213039901491 0 0.40974176763513698 -0.20305100091979059 0 0.38952594682020769 -0.20878251829113689 0 0.39734165693203422 -0.2176523410501594 0 0.39943642014919739 -0.20628213039901491 0 0.39943642014919739 -0.20628213039901491 0 0.40748055254024801 -0.21222984564389699 0 0.40974176763513698 -0.20305100091979059 0 0.39734165693203422 -0.2176523410501594 0 0.39943642014919739 -0.20628213039901491 0 0.40748055254024801 -0.21222984564389699 0 0.39734165693203422 -0.2176523410501594 0 0.40748055254024801 -0.21222984564389699 0 0.41186460310795853 -0.222379486577785 0 0.40748055254024801 -0.21222984564389699 0 0.40974176763513698 -0.20305100091979059 0 0.4233987953867332 -0.19905765039093479 0 0.4233987953867332 -0.19905765039093479 0 0.41186460310795853 -0.222379486577785 0 0.42092322105685082 -0.21138905140971789 0 0.4233987953867332 -0.19905765039093479 0 0.41186460310795853 -0.222379486577785 0 0.40748055254024801 -0.21222984564389699 0 0.4233987953867332 -0.19905765039093479 0 0.41186460310795853 -0.222379486577785 0 0.4019074841688679 -0.19363434501482879 0 0.41314710305253177 -0.19340508154877131 0 0.41067650338752232 -0.18498421441702401 0 0.41314710305253177 -0.19340508154877131 0 0.40974176763513698 -0.20305100091979059 0 0.41838252480765858 -0.196503766038753 0 0.4019074841688679 -0.19363434501482879 0 0.41314710305253177 -0.19340508154877131 0 0.40974176763513698 -0.20305100091979059 0 0.40974176763513698 -0.20305100091979059 0 0.41838252480765858 -0.196503766038753 0 0.4233987953867332 -0.19905765039093479 0 0.40974176763513698 -0.20305100091979059 0 0.4233987953867332 -0.19905765039093479 0 0.41838252480765858 -0.196503766038753 0 0.42241883303378541 -0.18909127273861009 0 0.4233987953867332 -0.19905765039093479 0 0.41314710305253177 -0.19340508154877131 0 0.41838252480765858 -0.196503766038753 0 0.42241883303378541 -0.18909127273861009 0 0.41314710305253177 -0.19340508154877131 0 0.42241883303378541 -0.18909127273861009 0 0.41067650338752232 -0.18498421441702401 0 0.4233987953867332 -0.19905765039093479 0 0.44064363782274829 -0.1940152134921887 0 0.4233987953867332 -0.19905765039093479 0 0.43513206095981122 -0.1719310454517084 0 0.44064363782274829 -0.1940152134921887 0 0.4233987953867332 -0.19905765039093479 0 0.43634917411068752 -0.20906547832120501 0 0.44064363782274829 -0.1940152134921887 0 0.42241883303378541 -0.18909127273861009 0 0.4233987953867332 -0.19905765039093479 0 0.4233987953867332 -0.19905765039093479 0 0.42592981284315368 -0.22479851251634611 0 0.4233987953867332 -0.19905765039093479 0 0.43634917411068752 -0.20906547832120501 0 0.42592981284315368 -0.22479851251634611 0 0.42092322105685082 -0.21138905140971789 0 0.4233987953867332 -0.19905765039093479 0 0.42592981284315368 -0.22479851251634611 0 0.42592981284315368 -0.22479851251634611 0 0.4383337432724953 -0.22508748932148401 0 0.42846083029957449 -0.2505393746417573 0 0.43634917411068752 -0.20906547832120501 0 0.42592981284315368 -0.22479851251634611 0 0.4383337432724953 -0.22508748932148401 0 0.42592981284315368 -0.22479851251634611 0 0.41625662325592577 -0.2385802670480672 0 0.42846083029957449 -0.2505393746417573 0 0.42592981284315368 -0.22479851251634611 0 0.42846083029957449 -0.2505393746417573 0 0.40122953332635891 -0.2454384170017645 0 0.41625662325592577 -0.2385802670480672 0 0.41186460310795853 -0.222379486577785 0 0.41625662325592577 -0.2385802670480672 0 0.41302671508189398 -0.25107389522278412 0 0.42846083029957449 -0.2505393746417573 0 0.40122953332635891 -0.2454384170017645 0 0.41625662325592577 -0.2385802670480672 0 0.41302671508189398 -0.25107389522278412 0 0.40122953332635891 -0.2454384170017645 0 0.41186460310795853 -0.222379486577785 0 0.42592981284315368 -0.22479851251634611 0 0.41625662325592577 -0.2385802670480672 0 0.41186460310795853 -0.222379486577785 0 0.42092322105685082 -0.21138905140971789 0 0.42592981284315368 -0.22479851251634611 0 0.41186460310795853 -0.222379486577785 0 0.3994736011242353 -0.13208711879835691 0 0.37590145401963498 -0.1304655197827134 0 0.38654437889993448 -0.14949546048180129 0 0.38916326183786282 -0.1175632209054157 0 0.3994736011242353 -0.13208711879835691 0 0.37590145401963498 -0.1304655197827134 0 0.38654437889993448 -0.14949546048180129 0 0.40371769197783608 -0.1624079248653123 0 0.41030953067980241 -0.14887664227359881 0 0.3994736011242353 -0.13208711879835691 0 0.38654437889993448 -0.14949546048180129 0 0.41030953067980241 -0.14887664227359881 0 0.38654437889993448 -0.14949546048180129 0 0.40371769197783608 -0.1624079248653123 0 0.39240908422563969 -0.17160113546917069 0 0.40371769197783608 -0.1624079248653123 0 0.39240908422563969 -0.17160113546917069 0 0.40859132348554489 -0.17493291360407581 0 0.38654437889993448 -0.14949546048180129 0 0.39240908422563969 -0.17160113546917069 0 0.3780414987929907 -0.16366466293502771 0 0.36714120620118101 -0.17500303037252421 0 0.3780414987929907 -0.16366466293502771 0 0.38048642758128731 -0.17602708936564049 0 0.39240908422563969 -0.17160113546917069 0 0.3780414987929907 -0.16366466293502771 0 0.38048642758128731 -0.17602708936564049 0 0.39240908422563969 -0.17160113546917069 0 0.38048642758128731 -0.17602708936564049 0 0.38703306494582251 -0.18693031588672329 0 0.39240908422563969 -0.17160113546917069 0 0.38703306494582251 -0.18693031588672329 0 0.39240908422563969 -0.17160113546917069 0 0.38703306494582251 -0.18693031588672329 0 0.39865631125712803 -0.18194332722869189 0 0.39240908422563969 -0.17160113546917069 0 0.39865631125712803 -0.18194332722869189 0 0.40859132348554489 -0.17493291360407581 0 0.39865631125712803 -0.18194332722869189 0 0.41067650338752232 -0.18498421441702401 0 0.40859132348554489 -0.17493291360407581 0 0.4019074841688679 -0.19363434501482879 0 0.39865631125712803 -0.18194332722869189 0 0.41067650338752232 -0.18498421441702401 0 0.41067650338752232 -0.18498421441702401 0 0.40859132348554489 -0.17493291360407581 0 0.41985428739426339 -0.17706489255581789 0 0.40859132348554489 -0.17493291360407581 0 0.41985428739426339 -0.17706489255581789 0 0.41907764024642291 -0.16409481193441741 0 0.42241883303378541 -0.18909127273861009 0 0.41067650338752232 -0.18498421441702401 0 0.41985428739426339 -0.17706489255581789 0 0.4233987953867332 -0.19905765039093479 0 0.43513206095981122 -0.1719310454517084 0 0.42241883303378541 -0.18909127273861009 0 0.41985428739426339 -0.17706489255581789 0 0.43513206095981122 -0.1719310454517084 0 0.42241883303378541 -0.18909127273861009 0 0.4233987953867332 -0.19905765039093479 0 0.43513206095981122 -0.1719310454517084 0 0.43513206095981122 -0.1719310454517084 0 0.41907764024642291 -0.16409481193441741 0 0.427836667305586 -0.15228226292756131 0 0.43513206095981122 -0.1719310454517084 0 0.427836667305586 -0.15228226292756131 0 0.44700201966851572 -0.1461946320928515 0 0.41985428739426339 -0.17706489255581789 0 0.43513206095981122 -0.1719310454517084 0 0.41907764024642291 -0.16409481193441741 0 0.40371769197783608 -0.1624079248653123 0 0.40859132348554489 -0.17493291360407581 0 0.41907764024642291 -0.16409481193441741 0 0.40371769197783608 -0.1624079248653123 0 0.41907764024642291 -0.16409481193441741 0 0.41030953067980241 -0.14887664227359881 0 0.41907764024642291 -0.16409481193441741 0 0.41030953067980241 -0.14887664227359881 0 0.427836667305586 -0.15228226292756131 0 0.41030953067980241 -0.14887664227359881 0 0.427836667305586 -0.15228226292756131 0 0.42766208497337771 -0.1303141828852305 0 0.427836667305586 -0.15228226292756131 0 0.42766208497337771 -0.1303141828852305 0 0.44700201966851572 -0.1461946320928515 0 0.42766208497337771 -0.1303141828852305 0 0.44700201966851572 -0.1461946320928515 0 0.3994736011242353 -0.13208711879835691 0 0.41030953067980241 -0.14887664227359881 0 0.42766208497337771 -0.1303141828852305 0 0.40832215027824031 -0.1144337336776084 0 0.3994736011242353 -0.13208711879835691 0 0.42766208497337771 -0.1303141828852305 0 0.4571224865995171 -0.1242514622206706 0 0.44700201966851572 -0.1461946320928515 0 0.47707070035431021 -0.13922479809624089 0 0.4571224865995171 -0.1242514622206706 0 0.42766208497337771 -0.1303141828852305 0 0.44700201966851572 -0.1461946320928515 0 0.4571224865995171 -0.1242514622206706 0 0.44700201966851572 -0.1461946320928515 0 0.44700201966851572 -0.1461946320928515 0 0.46528528865298657 -0.1612074296557211 0 0.47707070035431021 -0.13922479809624089 0 0.44700201966851572 -0.1461946320928515 0 0.46528528865298657 -0.1612074296557211 0 0.44700201966851572 -0.1461946320928515 0 0.46528528865298657 -0.1612074296557211 0 0.45229044673054569 -0.17110279427178871 0 0.46528528865298657 -0.1612074296557211 0 0.45229044673054569 -0.17110279427178871 0 0.46594668618593887 -0.1759106123672266 0 0.43513206095981122 -0.1719310454517084 0 0.44700201966851572 -0.1461946320928515 0 0.45229044673054569 -0.17110279427178871 0 0.43513206095981122 -0.1719310454517084 0 0.44700201966851572 -0.1461946320928515 0 0.43513206095981122 -0.1719310454517084 0 0.44689960834291859 -0.18476180513423979 0 0.44064363782274829 -0.1940152134921887 0 0.43513206095981122 -0.1719310454517084 0 0.45229044673054569 -0.17110279427178871 0 0.44689960834291859 -0.18476180513423979 0 0.45229044673054569 -0.17110279427178871 0 0.44689960834291859 -0.18476180513423979 0 0.45776297058038151 -0.17920234105381189 0 0.47894424012938203 -0.18281601749884699 0 0.45788848025876289 -0.18897277659344119 0 0.44689960834291859 -0.18476180513423979 0 0.45776297058038151 -0.17920234105381189 0 0.45788848025876289 -0.18897277659344119 0 0.45945493280855287 -0.18486891380219 0 0.45776297058038151 -0.17920234105381189 0 0.45788848025876289 -0.18897277659344119 0 0.46458515310363041 -0.18327910725482249 0 0.47894424012938203 -0.18281601749884699 0 0.45788848025876289 -0.18897277659344119 0 0.45945493280855287 -0.18486891380219 0 0.46458515310363041 -0.18327910725482249 0 0.45788848025876289 -0.18897277659344119 0 0.45945493280855287 -0.18486891380219 0 0.45776297058038151 -0.17920234105381189 0 0.46458515310363041 -0.18327910725482249 0 0.45229044673054569 -0.17110279427178871 0 0.45776297058038151 -0.17920234105381189 0 0.46594668618593887 -0.1759106123672266 0 0.45776297058038151 -0.17920234105381189 0 0.46594668618593887 -0.1759106123672266 0 0.46458515310363041 -0.18327910725482249 0 0.46594668618593887 -0.1759106123672266 0 0.46458515310363041 -0.18327910725482249 0 0.47276005740280119 -0.18000582154060499 0 0.46594668618593887 -0.1759106123672266 0 0.47276005740280119 -0.18000582154060499 0 0.48356855763745837 -0.17622022721858971 0 0.46458515310363041 -0.18327910725482249 0 0.47276005740280119 -0.18000582154060499 0 0.47894424012938203 -0.18281601749884699 0 0.47276005740280119 -0.18000582154060499 0 0.48356855763745837 -0.17622022721858971 0 0.47894424012938203 -0.18281601749884699 0 0.48356855763745837 -0.17622022721858971 0 0.47894424012938203 -0.18281601749884699 0 0.50000000000000111 -0.17665925840425251 0 0.47894424012938203 -0.18281601749884699 0 0.50000000000000111 -0.17665925840425251 0 0.48695031280521112 -0.19542122600488829 0 0.47894424012938203 -0.18281601749884699 0 0.50000000000000111 -0.17665925840425251 0 0.50000000000000111 -0.17665925840425251 0 0.48471002826861298 -0.15966095029447669 0 0.5 -0.1490420908497305 0 0.48356855763745837 -0.17622022721858971 0 0.50000000000000111 -0.17665925840425251 0 0.48471002826861298 -0.15966095029447669 0 0.46528528865298657 -0.1612074296557211 0 0.46594668618593887 -0.1759106123672266 0 0.48356855763745837 -0.17622022721858971 0 0.46528528865298657 -0.1612074296557211 0 0.48356855763745837 -0.17622022721858971 0 0.48471002826861298 -0.15966095029447669 0 0.46528528865298657 -0.1612074296557211 0 0.48356855763745837 -0.17622022721858971 0 0.46528528865298657 -0.1612074296557211 0 0.48471002826861298 -0.15966095029447669 0 0.47707070035431021 -0.13922479809624089 0 0.48471002826861298 -0.15966095029447669 0 0.5 -0.1490420908497305 0 0.47707070035431021 -0.13922479809624089 0 0.5 -0.12142492329520869 0 0.5 -0.1490420908497305 0 0.47707070035431021 -0.13922479809624089 0 0.48076414131777562 -0.11247395638408229 0 0.4571224865995171 -0.1242514622206706 0 0.47707070035431021 -0.13922479809624089 0 0.45230803525700092 -0.23106084307724251 0 0.46566689554878721 -0.21320691640823181 0 0.47344531083881219 -0.2374410562230222 0 0.45230803525700092 -0.23106084307724251 0 0.47344531083881219 -0.2374410562230222 0 0.45450155035402928 -0.25772169598388828 0 0.45230803525700092 -0.23106084307724251 0 0.45450155035402928 -0.25772169598388828 0 0.42846083029957449 -0.2505393746417573 0 0.45230803525700092 -0.23106084307724251 0 0.4383337432724953 -0.22508748932148401 0 0.42846083029957449 -0.2505393746417573 0 0.45230803525700092 -0.23106084307724251 0 0.4383337432724953 -0.22508748932148401 0 0.44862086385206013 -0.20997323805086951 0 0.43634917411068752 -0.20906547832120501 0 0.4383337432724953 -0.22508748932148401 0 0.44862086385206013 -0.20997323805086951 0 0.43634917411068752 -0.20906547832120501 0 0.44862086385206013 -0.20997323805086951 0 0.44064363782274829 -0.1940152134921887 0 0.44862086385206013 -0.20997323805086951 0 0.44064363782274829 -0.1940152134921887 0 0.45788848025876289 -0.18897277659344119 0 0.44064363782274829 -0.1940152134921887 0 0.45788848025876289 -0.18897277659344119 0 0.44689960834291859 -0.18476180513423979 0 0.44064363782274829 -0.1940152134921887 0 0.45788848025876289 -0.18897277659344119 0 0.45788848025876289 -0.18897277659344119 0 0.46566689554878721 -0.21320691640823181 0 0.4744743706385684 -0.1984163234079496 0 0.45788848025876289 -0.18897277659344119 0 0.46566689554878721 -0.21320691640823181 0 0.45230803525700092 -0.23106084307724251 0 0.44862086385206013 -0.20997323805086951 0 0.46566689554878721 -0.21320691640823181 0 0.44862086385206013 -0.20997323805086951 0 0.45788848025876289 -0.18897277659344119 0 0.46566689554878721 -0.21320691640823181 0 0.50000000000000111 -0.17665925840425251 0 0.48695031280521112 -0.19542122600488829 0 0.5 -0.20859699197631781 0 0.46566689554878721 -0.21320691640823181 0 0.48010737796627578 -0.21061650280408201 0 0.4744743706385684 -0.1984163234079496 0 0.47894424012938203 -0.18281601749884699 0 0.45788848025876289 -0.18897277659344119 0 0.4744743706385684 -0.1984163234079496 0 0.48010737796627578 -0.21061650280408201 0 0.4744743706385684 -0.1984163234079496 0 0.48695031280521112 -0.19542122600488829 0 0.47894424012938203 -0.18281601749884699 0 0.4744743706385684 -0.1984163234079496 0 0.48695031280521112 -0.19542122600488829 0 0.48010737796627578 -0.21061650280408201 0 0.48695031280521112 -0.19542122600488829 0 0.5 -0.20859699197631781 0 0.48010737796627578 -0.21061650280408201 0 0.5 -0.20859699197631781 0 0.47344531083881219 -0.2374410562230222 0 0.5 -0.20859699197631781 0 0.47344531083881219 -0.2374410562230222 0 0.5 -0.2521374454371399 0 0.46566689554878721 -0.21320691640823181 0 0.48010737796627578 -0.21061650280408201 0 0.47344531083881219 -0.2374410562230222 0 0.46566689554878721 -0.21320691640823181 0 0.47344531083881219 -0.2374410562230222 0 0.47344531083881219 -0.2374410562230222 0 0.48122372612883751 -0.26167519603781259 0 0.5 -0.2521374454371399 0 0.48122372612883751 -0.26167519603781259 0 0.48083826242836702 -0.28185930718039143 0 0.47344531083881219 -0.2374410562230222 0 0.5 -0.2521374454371399 0 0.48122372612883751 -0.26167519603781259 0 0.48122372612883751 -0.26167519603781259 0 0.46714863757369329 -0.27072357042295259 0 0.48083826242836702 -0.28185930718039143 0 0.47344531083881219 -0.2374410562230222 0 0.48122372612883751 -0.26167519603781259 0 0.45450155035402928 -0.25772169598388828 0 0.48122372612883751 -0.26167519603781259 0 0.45450155035402928 -0.25772169598388828 0 0.46714863757369329 -0.27072357042295259 0 0.46714863757369329 -0.27072357042295259 0 0.45772142258727888 -0.28642090412011501 0 0.48083826242836702 -0.28185930718039143 0 0.45450155035402928 -0.25772169598388828 0 0.46714863757369329 -0.27072357042295259 0 0.45772142258727888 -0.28642090412011501 0 0.45450155035402928 -0.25772169598388828 0 0.45772142258727888 -0.28642090412011501 0 0.43099184775599519 -0.27628023676716829 0 0.45450155035402928 -0.25772169598388828 0 0.42846083029957449 -0.2505393746417573 0 0.43099184775599519 -0.27628023676716829 0 0.45772142258727888 -0.28642090412011501 0 0.4592419275884233 -0.31510111072011893 0 0.43352286521241601 -0.30202109889257939 0 0.45772142258727888 -0.28642090412011501 0 0.43099184775599519 -0.27628023676716829 0 0.43352286521241601 -0.30202109889257939 0 0.45772142258727888 -0.28642090412011501 0 0.47566169074601627 -0.30398442435154172 0 0.4592419275884233 -0.31510111072011893 0 0.5 -0.2521374454371399 0 0.48083826242836702 -0.28185930718039143 0 0.5 -0.31151994777747999 0 0.45772142258727888 -0.28642090412011501 0 0.47566169074601627 -0.30398442435154172 0 0.48083826242836702 -0.28185930718039143 0 0.47566169074601627 -0.30398442435154172 0 0.48083826242836702 -0.28185930718039143 0 0.5 -0.31151994777747999 0 0.5 -0.31151994777747999 0 0.48784771713232228 -0.35208609772150162 0 0.5 -0.39249621205173618 0 0.5 -0.31151994777747999 0 0.47458906299155768 -0.32913986111756838 0 0.48784771713232228 -0.35208609772150162 0 0.47566169074601627 -0.30398442435154172 0 0.5 -0.31151994777747999 0 0.47458906299155768 -0.32913986111756838 0 0.47566169074601627 -0.30398442435154172 0 0.47458906299155768 -0.32913986111756838 0 0.4592419275884233 -0.31510111072011893 0 0.48784771713232228 -0.35208609772150162 0 0.47418659988435702 -0.37139315160212988 0 0.5 -0.39249621205173618 0 0.48784771713232228 -0.35208609772150162 0 0.47418659988435702 -0.37139315160212988 0 0.46873439846944448 -0.35158765713876627 0 0.47458906299155768 -0.32913986111756838 0 0.48784771713232228 -0.35208609772150162 0 0.46873439846944448 -0.35158765713876627 0 0.48784771713232228 -0.35208609772150162 0 0.47418659988435702 -0.37139315160212988 0 0.47418659988435702 -0.37139315160212988 0 0.45591553111852151 -0.36472667815038889 0 0.46873439846944448 -0.35158765713876627 0 0.45591553111852151 -0.36472667815038889 0 0.46873439846944448 -0.35158765713876627 0 0.45113308122046442 -0.3405924971022426 0 0.45591553111852151 -0.36472667815038889 0 0.43872192811408928 -0.35503214332672772 0 0.45113308122046442 -0.3405924971022426 0 0.43872192811408928 -0.35503214332672772 0 0.45113308122046442 -0.3405924971022426 0 0.43377557512936121 -0.33730128275127691 0 0.45591553111852151 -0.36472667815038889 0 0.43872192811408928 -0.35503214332672772 0 0.4393570695047726 -0.37478133956090132 0 0.47458906299155768 -0.32913986111756838 0 0.4592419275884233 -0.31510111072011893 0 0.45113308122046442 -0.3405924971022426 0 0.47458906299155768 -0.32913986111756838 0 0.46873439846944448 -0.35158765713876627 0 0.45113308122046442 -0.3405924971022426 0 0.45113308122046442 -0.3405924971022426 0 0.44194882319816808 -0.3232946126927746 0 0.43377557512936121 -0.33730128275127691 0 0.4592419275884233 -0.31510111072011893 0 0.45113308122046442 -0.3405924971022426 0 0.44194882319816808 -0.3232946126927746 0 0.4592419275884233 -0.31510111072011893 0 0.44194882319816808 -0.3232946126927746 0 0.43352286521241601 -0.30202109889257939 0 0.42443602054191831 -0.32701761714265659 0 0.41572405002488361 -0.31563579128493408 0 0.43352286521241601 -0.30202109889257939 0 0.44194882319816808 -0.3232946126927746 0 0.42443602054191831 -0.32701761714265659 0 0.43352286521241601 -0.30202109889257939 0 0.44194882319816808 -0.3232946126927746 0 0.42443602054191831 -0.32701761714265659 0 0.43377557512936121 -0.33730128275127691 0 0.43377557512936121 -0.33730128275127691 0 0.41969838088899242 -0.33969153605125563 0 0.42647462439252731 -0.34873165099889358 0 0.42443602054191831 -0.32701761714265659 0 0.43377557512936121 -0.33730128275127691 0 0.41969838088899242 -0.33969153605125563 0 0.42443602054191831 -0.32701761714265659 0 0.41969838088899242 -0.33969153605125563 0 0.41235538304673769 -0.32921272515526678 0 0.41969838088899242 -0.33969153605125563 0 0.41235538304673769 -0.32921272515526678 0 0.40564856200714811 -0.345200365186631 0 0.41235538304673769 -0.32921272515526678 0 0.41572405002488361 -0.31563579128493408 0 0.40016972142192508 -0.31728480400125808 0 0.42443602054191831 -0.32701761714265659 0 0.41235538304673769 -0.32921272515526678 0 0.41572405002488361 -0.31563579128493408 0 0.43872192811408928 -0.35503214332672772 0 0.4393570695047726 -0.37478133956090132 0 0.42566157599545662 -0.36467833270900402 0 0.4393570695047726 -0.37478133956090132 0 0.42566157599545662 -0.36467833270900402 0 0.42474535414551112 -0.38281676524344449 0 0.43872192811408928 -0.35503214332672772 0 0.43377557512936121 -0.33730128275127691 0 0.42647462439252731 -0.34873165099889358 0 0.42566157599545662 -0.36467833270900402 0 0.42647462439252731 -0.34873165099889358 0 0.41766955609938211 -0.35425504317663731 0 0.43872192811408928 -0.35503214332672772 0 0.42566157599545662 -0.36467833270900402 0 0.42647462439252731 -0.34873165099889358 0 0.41766955609938211 -0.35425504317663731 0 0.41112740259237113 -0.37311592637200369 0 0.40564856200714811 -0.345200365186631 0 0.41112740259237113 -0.37311592637200369 0 0.40564856200714811 -0.345200365186631 0 0.41969838088899242 -0.33969153605125563 0 0.42647462439252731 -0.34873165099889358 0 0.41766955609938211 -0.35425504317663731 0 0.41969838088899242 -0.33969153605125563 0 0.41766955609938211 -0.35425504317663731 0 0.40564856200714811 -0.345200365186631 0 0.42566157599545662 -0.36467833270900402 0 0.41766955609938211 -0.35425504317663731 0 0.41112740259237113 -0.37311592637200369 0 0.42566157599545662 -0.36467833270900402 0 0.41112740259237113 -0.37311592637200369 0 0.42474535414551112 -0.38281676524344449 0 0.41112740259237113 -0.37311592637200369 0 0.39522774680648082 -0.35284392967435402 0 0.38619262602800708 -0.36637674047714952 0 0.41112740259237113 -0.37311592637200369 0 0.39522774680648082 -0.35284392967435402 0 0.40564856200714811 -0.345200365186631 0 0.39522774680648082 -0.35284392967435402 0 0.40564856200714811 -0.345200365186631 0 0.39944743381850362 -0.34062870519647309 0 0.39522774680648082 -0.35284392967435402 0 0.38619262602800708 -0.36637674047714952 0 0.37491198448982438 -0.33912433814699661 0 0.39522774680648082 -0.35284392967435402 0 0.39944743381850362 -0.34062870519647309 0 0.37491198448982438 -0.33912433814699661 0 0.38619262602800708 -0.36637674047714952 0 0.37701300469812571 -0.38252732933684203 0 0.36337543330570998 -0.36213445546499973 0 0.41235538304673769 -0.32921272515526678 0 0.40564856200714811 -0.345200365186631 0 0.40016972142192508 -0.31728480400125808 0 0.40016972142192508 -0.31728480400125808 0 0.39944743381850362 -0.34062870519647309 0 0.38721780629441072 -0.32713711586709582 0 0.40564856200714811 -0.345200365186631 0 0.40016972142192508 -0.31728480400125808 0 0.39944743381850362 -0.34062870519647309 0 0.40564856200714811 -0.345200365186631 0 0.40016972142192508 -0.31728480400125808 0 0.39944743381850362 -0.34062870519647309 0 0.37491198448982438 -0.33912433814699661 0 0.39944743381850362 -0.34062870519647309 0 0.38721780629441072 -0.32713711586709582 0 0.37491198448982438 -0.33912433814699661 0 0.38721780629441072 -0.32713711586709582 0 0.36894938420794671 -0.32027131444029999 0 0.37491198448982438 -0.33912433814699661 0 0.38721780629441072 -0.32713711586709582 0 0.38346181650652827 -0.30729124765511528 0 0.36894938420794671 -0.32027131444029999 0 0.40016972142192508 -0.31728480400125808 0 0.38721780629441072 -0.32713711586709582 0 0.38346181650652827 -0.30729124765511528 0 0.38346181650652827 -0.30729124765511528 0 0.37826539445723678 -0.29034598971074688 0 0.36715833027398848 -0.30020053250048101 0 0.40016972142192508 -0.31728480400125808 0 0.38346181650652827 -0.30729124765511528 0 0.39469088083670278 -0.28936924281588511 0 0.40016972142192508 -0.31728480400125808 0 0.39469088083670278 -0.28936924281588511 0 0.40016972142192508 -0.31728480400125808 0 0.39469088083670278 -0.28936924281588511 0 0.40813625990142133 -0.30264271123290959 0 0.39469088083670278 -0.28936924281588511 0 0.40813625990142133 -0.30264271123290959 0 0.40674172804155267 -0.28671694392354452 0 0.39469088083670278 -0.28936924281588511 0 0.40051697537399078 -0.27761483236512552 0 0.40674172804155267 -0.28671694392354452 0 0.39469088083670278 -0.28936924281588511 0 0.40813625990142133 -0.30264271123290959 0 0.39469088083670278 -0.28936924281588511 0 0.37850347272288898 -0.2733888045316239 0 0.39469088083670278 -0.28936924281588511 0 0.37826539445723678 -0.29034598971074688 0 0.37850347272288898 -0.2733888045316239 0 0.38346181650652827 -0.30729124765511528 0 0.39469088083670278 -0.28936924281588511 0 0.37826539445723678 -0.29034598971074688 0 0.39469088083670278 -0.28936924281588511 0 0.37850347272288898 -0.2733888045316239 0 0.38808641525504511 -0.27393529115344378 0 0.37850347272288898 -0.2733888045316239 0 0.37556493909755589 -0.26007368374764239 0 0.38358964814061741 -0.26532208665444862 0 0.39059446354475952 -0.26849734742574421 0 0.38808641525504511 -0.27393529115344378 0 0.38358964814061741 -0.26532208665444862 0 0.37850347272288898 -0.2733888045316239 0 0.38808641525504511 -0.27393529115344378 0 0.38358964814061741 -0.26532208665444862 0 0.39059446354475952 -0.26849734742574421 0 0.38808641525504511 -0.27393529115344378 0 0.37495946192752022 -0.24961603069556479 0 0.38236589047673691 -0.25419861701114987 0 0.37556493909755589 -0.26007368374764239 0 0.38236589047673691 -0.25419861701114987 0 0.37556493909755589 -0.26007368374764239 0 0.38358964814061741 -0.26532208665444862 0 0.38236589047673691 -0.25419861701114987 0 0.38901407744825411 -0.26044502977070838 0 0.38358964814061741 -0.26532208665444862 0 0.39059446354475952 -0.26849734742574421 0 0.38901407744825411 -0.26044502977070838 0 0.38358964814061741 -0.26532208665444862 0 0.39059446354475952 -0.26849734742574421 0 0.38901407744825411 -0.26044502977070838 0 0.40122953332635891 -0.2454384170017645 0 0.38236589047673691 -0.25419861701114987 0 0.38901407744825411 -0.26044502977070838 0 0.40122953332635891 -0.2454384170017645 0 0.39059446354475952 -0.26849734742574421 0 0.40436362081148702 -0.26086587713732801 0 0.40122953332635891 -0.2454384170017645 0 0.39059446354475952 -0.26849734742574421 0 0.38901407744825411 -0.26044502977070838 0 0.40122953332635891 -0.2454384170017645 0 0.39059446354475952 -0.26849734742574421 0 0.40122953332635891 -0.2454384170017645 0 0.40436362081148702 -0.26086587713732801 0 0.41302671508189398 -0.25107389522278412 0 0.39469088083670278 -0.28936924281588511 0 0.39059446354475952 -0.26849734742574421 0 0.39469088083670278 -0.28936924281588511 0 0.39059446354475952 -0.26849734742574421 0 0.40051697537399078 -0.27761483236512552 0 0.39469088083670278 -0.28936924281588511 0 0.39059446354475952 -0.26849734742574421 0 0.38808641525504511 -0.27393529115344378 0 0.39059446354475952 -0.26849734742574421 0 0.40074495813364958 -0.26962520575325122 0 0.40051697537399078 -0.27761483236512552 0 0.40436362081148702 -0.26086587713732801 0 0.40074495813364958 -0.26962520575325122 0 0.41133462747158162 -0.27478878157295988 0 0.39059446354475952 -0.26849734742574421 0 0.40436362081148702 -0.26086587713732801 0 0.40074495813364958 -0.26962520575325122 0 0.40051697537399078 -0.27761483236512552 0 0.41133462747158162 -0.27478878157295988 0 0.40674172804155267 -0.28671694392354452 0 0.40074495813364958 -0.26962520575325122 0 0.40051697537399078 -0.27761483236512552 0 0.41133462747158162 -0.27478878157295988 0 0.41133462747158162 -0.27478878157295988 0 0.41763552828410638 -0.26270963306839951 0 0.43099184775599519 -0.27628023676716829 0 0.41133462747158162 -0.27478878157295988 0 0.43099184775599519 -0.27628023676716829 0 0.4190298966240672 -0.2891691516308425 0 0.40436362081148702 -0.26086587713732801 0 0.41133462747158162 -0.27478878157295988 0 0.41763552828410638 -0.26270963306839951 0 0.40436362081148702 -0.26086587713732801 0 0.41302671508189398 -0.25107389522278412 0 0.41763552828410638 -0.26270963306839951 0 0.41302671508189398 -0.25107389522278412 0 0.41763552828410638 -0.26270963306839951 0 0.42846083029957449 -0.2505393746417573 0 0.42846083029957449 -0.2505393746417573 0 0.43099184775599519 -0.27628023676716829 0 0.41763552828410638 -0.26270963306839951 0 0.42846083029957449 -0.2505393746417573 0 0.43099184775599519 -0.27628023676716829 0 0.43099184775599519 -0.27628023676716829 0 0.43352286521241601 -0.30202109889257939 0 0.4190298966240672 -0.2891691516308425 0 0.43099184775599519 -0.27628023676716829 0 0.43352286521241601 -0.30202109889257939 0 0.43352286521241601 -0.30202109889257939 0 0.40813625990142133 -0.30264271123290959 0 0.4190298966240672 -0.2891691516308425 0 0.41572405002488361 -0.31563579128493408 0 0.43352286521241601 -0.30202109889257939 0 0.40813625990142133 -0.30264271123290959 0 0.41572405002488361 -0.31563579128493408 0 0.40016972142192508 -0.31728480400125808 0 0.40813625990142133 -0.30264271123290959 0 0.40813625990142133 -0.30264271123290959 0 0.40674172804155267 -0.28671694392354452 0 0.4190298966240672 -0.2891691516308425 0 0.41133462747158162 -0.27478878157295988 0 0.40674172804155267 -0.28671694392354452 0 0.4190298966240672 -0.2891691516308425 0 0.5 -0.5 0 0.44686436538842628 -0.41000725936338678 0 0.43320324814046091 -0.42931431324401531 0 0.5 -0.5 0 0.42631534838482088 -0.4505009174945373 0 0.41470146412657483 -0.4712179818296835 0 0.5 -0.5 0 0.43320324814046091 -0.42931431324401531 0 0.42631534838482088 -0.4505009174945373 0 0.5 -0.5 0 0.44686436538842628 -0.41000725936338678 0 0.5 -0.39249621205173618 0 0.44686436538842628 -0.41000725936338678 0 0.43320324814046091 -0.42931431324401531 0 0.44686436538842628 -0.41000725936338678 0 0.5 -0.39249621205173618 0 0.4605254826363917 -0.3907002054827583 0 0.47418659988435702 -0.37139315160212988 0 0.5 -0.39249621205173618 0 0.4605254826363917 -0.3907002054827583 0 0.47418659988435702 -0.37139315160212988 0 0.45591553111852151 -0.36472667815038889 0 0.4605254826363917 -0.3907002054827583 0 0.47418659988435702 -0.37139315160212988 0 0.4605254826363917 -0.3907002054827583 0 0.44686436538842628 -0.41000725936338678 0 0.4605254826363917 -0.3907002054827583 0 0.44686436538842628 -0.41000725936338678 0 0.4605254826363917 -0.3907002054827583 0 0.44008323267764099 -0.39308928957284822 0 0.44686436538842628 -0.41000725936338678 0 0.44008323267764099 -0.39308928957284822 0 0.43247826153376939 -0.40618245748001602 0 0.45591553111852151 -0.36472667815038889 0 0.4393570695047726 -0.37478133956090132 0 0.4605254826363917 -0.3907002054827583 0 0.4393570695047726 -0.37478133956090132 0 0.4605254826363917 -0.3907002054827583 0 0.44008323267764099 -0.39308928957284822 0 0.4393570695047726 -0.37478133956090132 0 0.44008323267764099 -0.39308928957284822 0 0.42474535414551112 -0.38281676524344449 0 0.44008323267764099 -0.39308928957284822 0 0.42474535414551112 -0.38281676524344449 0 0.42457719661824039 -0.39835077915890638 0 0.42474535414551112 -0.38281676524344449 0 0.42457719661824039 -0.39835077915890638 0 0.41660624317759137 -0.40103148755737711 0 0.44008323267764099 -0.39308928957284822 0 0.43247826153376939 -0.40618245748001602 0 0.42457719661824039 -0.39835077915890638 0 0.42462038182776202 -0.40445698031242061 0 0.41660624317759137 -0.40103148755737711 0 0.42481982598144691 -0.41226319705338332 0 0.42462038182776202 -0.40445698031242061 0 0.42457719661824039 -0.39835077915890638 0 0.41660624317759137 -0.40103148755737711 0 0.43247826153376939 -0.40618245748001602 0 0.42462038182776202 -0.40445698031242061 0 0.42457719661824039 -0.39835077915890638 0 0.42457719661824039 -0.39835077915890638 0 0.41660624317759137 -0.40103148755737711 0 0.41112740259237113 -0.37311592637200369 0 0.41660624317759137 -0.40103148755737711 0 0.39716211257309703 -0.38933518796152522 0 0.41112740259237113 -0.37311592637200369 0 0.41660624317759137 -0.40103148755737711 0 0.41112740259237113 -0.37311592637200369 0 0.42474535414551112 -0.38281676524344449 0 0.41660624317759137 -0.40103148755737711 0 0.41112740259237113 -0.37311592637200369 0 0.38619262602800708 -0.36637674047714952 0 0.39716211257309703 -0.38933518796152522 0 0.38619262602800708 -0.36637674047714952 0 0.39716211257309703 -0.38933518796152522 0 0.37701300469812571 -0.38252732933684203 0 0.37701300469812571 -0.38252732933684203 0 0.38892435676961418 -0.41034117251939578 0 0.36725513355974448 -0.40061296610293928 0 0.39716211257309703 -0.38933518796152522 0 0.37701300469812571 -0.38252732933684203 0 0.38892435676961418 -0.41034117251939578 0 0.41660624317759137 -0.40103148755737711 0 0.39716211257309703 -0.38933518796152522 0 0.38892435676961418 -0.41034117251939578 0 0.41660624317759137 -0.40103148755737711 0 0.38892435676961418 -0.41034117251939578 0 0.41660624317759137 -0.40103148755737711 0 0.40620579620814162 -0.41591647491870631 0 0.38892435676961418 -0.41034117251939578 0 0.40620579620814162 -0.41591647491870631 0 0.38892435676961418 -0.41034117251939578 0 0.3873935002002914 -0.43155392182526692 0 0.38892435676961418 -0.41034117251939578 0 0.36124247036163709 -0.41965085748141501 0 0.38892435676961418 -0.41034117251939578 0 0.3873935002002914 -0.43155392182526692 0 0.36124247036163709 -0.41965085748141501 0 0.3873935002002914 -0.43155392182526692 0 0.40485394198757613 -0.43141867799052142 0 0.39699189312573008 -0.44310276003329863 0 0.40620579620814162 -0.41591647491870631 0 0.3873935002002914 -0.43155392182526692 0 0.40485394198757613 -0.43141867799052142 0 0.40620579620814162 -0.41591647491870631 0 0.40485394198757613 -0.43141867799052142 0 0.42146079578120738 -0.42576620252595693 0 0.40485394198757613 -0.43141867799052142 0 0.42146079578120738 -0.42576620252595693 0 0.41221772462251022 -0.44075403064937829 0 0.41660624317759137 -0.40103148755737711 0 0.42146079578120738 -0.42576620252595693 0 0.42481982598144691 -0.41226319705338332 0 0.41660624317759137 -0.40103148755737711 0 0.40620579620814162 -0.41591647491870631 0 0.42146079578120738 -0.42576620252595693 0 0.41660624317759137 -0.40103148755737711 0 0.42146079578120738 -0.42576620252595693 0 0.42146079578120738 -0.42576620252595693 0 0.42481982598144691 -0.41226319705338332 0 0.43176529936506219 -0.41670668593335169 0 0.44686436538842628 -0.41000725936338678 0 0.43176529936506219 -0.41670668593335169 0 0.43320324814046091 -0.42931431324401531 0 0.43247826153376939 -0.40618245748001602 0 0.42462038182776202 -0.40445698031242061 0 0.42481982598144691 -0.41226319705338332 0 0.44686436538842628 -0.41000725936338678 0 0.43247826153376939 -0.40618245748001602 0 0.43176529936506219 -0.41670668593335169 0 0.43247826153376939 -0.40618245748001602 0 0.42481982598144691 -0.41226319705338332 0 0.43176529936506219 -0.41670668593335169 0 0.42146079578120738 -0.42576620252595693 0 0.43320324814046091 -0.42931431324401531 0 0.42631534838482088 -0.4505009174945373 0 0.42146079578120738 -0.42576620252595693 0 0.43176529936506219 -0.41670668593335169 0 0.43320324814046091 -0.42931431324401531 0 0.5 -0.5 0 0.37732017875406948 -0.5 0 0.41470146412657483 -0.4712179818296835 0 0.42146079578120738 -0.42576620252595693 0 0.42631534838482088 -0.4505009174945373 0 0.42631534838482088 -0.4505009174945373 0 0.40378936347353911 -0.45595697129973928 0 0.41470146412657483 -0.4712179818296835 0 0.42631534838482088 -0.4505009174945373 0 0.41221772462251022 -0.44075403064937829 0 0.40378936347353911 -0.45595697129973928 0 0.42146079578120738 -0.42576620252595693 0 0.42631534838482088 -0.4505009174945373 0 0.41221772462251022 -0.44075403064937829 0 0.40485394198757613 -0.43141867799052142 0 0.41221772462251022 -0.44075403064937829 0 0.39699189312573008 -0.44310276003329863 0 0.39699189312573008 -0.44310276003329863 0 0.38439928841141402 -0.45460356758458792 0 0.40378936347353911 -0.45595697129973928 0 0.41221772462251022 -0.44075403064937829 0 0.39699189312573008 -0.44310276003329863 0 0.40378936347353911 -0.45595697129973928 0 0.3873935002002914 -0.43155392182526692 0 0.38439928841141402 -0.45460356758458792 0 0.36584437015320842 -0.44715809198159168 0 0.3873935002002914 -0.43155392182526692 0 0.39699189312573008 -0.44310276003329863 0 0.38439928841141402 -0.45460356758458792 0 0.38439928841141402 -0.45460356758458792 0 0.38902602254743007 -0.47368921406577158 0 0.36335058096828532 -0.47616044630185972 0 0.40378936347353911 -0.45595697129973928 0 0.38902602254743007 -0.47368921406577158 0 0.41470146412657483 -0.4712179818296835 0 0.38439928841141402 -0.45460356758458792 0 0.40378936347353911 -0.45595697129973928 0 0.38902602254743007 -0.47368921406577158 0 0.38902602254743007 -0.47368921406577158 0 0.37732017875406948 -0.5 0 0.41470146412657483 -0.4712179818296835 0 0.38902602254743007 -0.47368921406577158 0 0.41470146412657483 -0.4712179818296835 0 0.38902602254743007 -0.47368921406577158 0 0.36335058096828532 -0.47616044630185972 0 0.38902602254743007 -0.47368921406577158 0 0.37732017875406948 -0.5 0 0.36335058096828532 -0.47616044630185972 0 0.37732017875406948 -0.5 0 0.33767513938914062 -0.47863167853794791 0 0.31111490704888539 -0.5 0 0.33767513938914062 -0.47863167853794791 0 0.31199969780999592 -0.48110291077403589 0 0.31111490704888539 -0.5 0 0.33767513938914062 -0.47863167853794791 0 0.32037327023278012 -0.46781666819623008 0 0.31199969780999592 -0.48110291077403589 0 0.33767513938914062 -0.47863167853794791 0 0.31199969780999592 -0.48110291077403589 0 0.32037327023278012 -0.46781666819623008 0 0.31199969780999592 -0.48110291077403589 0 0.3093695038811522 -0.4790219385202647 0 0.37732017875406948 -0.5 0 0.33767513938914062 -0.47863167853794791 0 0.36335058096828532 -0.47616044630185972 0 0.33767513938914062 -0.47863167853794791 0 0.36335058096828532 -0.47616044630185972 0 0.33767513938914062 -0.47863167853794791 0 0.36335058096828532 -0.47616044630185972 0 0.34147133764981641 -0.4533112322838061 0 0.36335058096828532 -0.47616044630185972 0 0.36584437015320842 -0.44715809198159168 0 0.34147133764981641 -0.4533112322838061 0 0.36584437015320842 -0.44715809198159168 0 0.34147133764981641 -0.4533112322838061 0 0.36124247036163709 -0.41965085748141501 0 0.38439928841141402 -0.45460356758458792 0 0.36335058096828532 -0.47616044630185972 0 0.36584437015320842 -0.44715809198159168 0 0.34147133764981641 -0.4533112322838061 0 0.32314108728328778 -0.44705420856011657 0 0.33356058395365978 -0.42896054244343418 0 0.34147133764981641 -0.4533112322838061 0 0.32037327023278012 -0.46781666819623008 0 0.32314108728328778 -0.44705420856011657 0 0.33767513938914062 -0.47863167853794791 0 0.34147133764981641 -0.4533112322838061 0 0.32037327023278012 -0.46781666819623008 0 0.32037327023278012 -0.46781666819623008 0 0.32314108728328778 -0.44705420856011657 0 0.307624100713419 -0.45864608296285919 0 0.32314108728328778 -0.44705420856011657 0 0.33356058395365978 -0.42896054244343418 0 0.30587869754568281 -0.43827022740545402 0 0.33356058395365978 -0.42896054244343418 0 0.30587869754568281 -0.43827022740545402 0 0.31644934037006128 -0.42344122964048048 0 0.33356058395365978 -0.42896054244343418 0 0.30587869754568281 -0.43827022740545402 0 0.31644934037006128 -0.42344122964048048 0 0.3224384062569936 -0.41113358670292671 0 0.33356058395365978 -0.42896054244343418 0 0.31644934037006128 -0.42344122964048048 0 0.3224384062569936 -0.41113358670292671 0 0.30391967372390921 -0.41540056201010711 0 0.3224384062569936 -0.41113358670292671 0 0.33356058395365978 -0.42896054244343418 0 0.34490053432764423 -0.40638072928364111 0 0.33356058395365978 -0.42896054244343418 0 0.36124247036163709 -0.41965085748141501 0 0.34147133764981641 -0.4533112322838061 0 0.33356058395365978 -0.42896054244343418 0 0.36124247036163709 -0.41965085748141501 0 0.3873935002002914 -0.43155392182526692 0 0.36584437015320842 -0.44715809198159168 0 0.36124247036163709 -0.41965085748141501 0 0.38892435676961418 -0.41034117251939578 0 0.36124247036163709 -0.41965085748141501 0 0.36725513355974448 -0.40061296610293928 0 0.36124247036163709 -0.41965085748141501 0 0.34490053432764423 -0.40638072928364111 0 0.36725513355974448 -0.40061296610293928 0 0.33356058395365978 -0.42896054244343418 0 0.36124247036163709 -0.41965085748141501 0 0.34490053432764423 -0.40638072928364111 0 0.34490053432764423 -0.40638072928364111 0 0.36725513355974448 -0.40061296610293928 0 0.35516083837636159 -0.38486451328480381 0 0.37701300469812571 -0.38252732933684203 0 0.35516083837636159 -0.38486451328480381 0 0.36337543330570998 -0.36213445546499973 0 0.37701300469812571 -0.38252732933684203 0 0.36725513355974448 -0.40061296610293928 0 0.35516083837636159 -0.38486451328480381 0 0.35516083837636159 -0.38486451328480381 0 0.32910990188755468 -0.39311116161421339 0 0.33659761108079628 -0.36229384044668628 0 0.32910990188755468 -0.39311116161421339 0 0.33659761108079628 -0.36229384044668628 0 0.31977661373550859 -0.37261180596378612 0 0.35516083837636159 -0.38486451328480381 0 0.32910990188755468 -0.39311116161421339 0 0.34490053432764423 -0.40638072928364111 0 0.35516083837636159 -0.38486451328480381 0 0.32910990188755468 -0.39311116161421339 0 0.3224384062569936 -0.41113358670292671 0 0.34490053432764423 -0.40638072928364111 0 0.32910990188755468 -0.39311116161421339 0 0.32910990188755468 -0.39311116161421339 0 0.31063569109852551 -0.38400731049811399 0 0.30305896539874772 -0.40135780994362302 0 0.32910990188755468 -0.39311116161421339 0 0.30305896539874772 -0.40135780994362302 0 0.3224384062569936 -0.41113358670292671 0 0.32910990188755468 -0.39311116161421339 0 0.30305896539874772 -0.40135780994362302 0 0.32910990188755468 -0.39311116161421339 0 0.31063569109852551 -0.38400731049811399 0 0.31977661373550859 -0.37261180596378612 0 0.31063569109852551 -0.38400731049811399 0 0.29414976423939632 -0.38354918927340348 0 0.30513903983252377 -0.36799847725245483 0 0.31063569109852551 -0.38400731049811399 0 0.30305896539874772 -0.40135780994362302 0 0.29414976423939632 -0.38354918927340348 0 0.28855687915842299 -0.3958895695255451 0 0.28001075808560721 -0.38904682061212131 0 0.27700802890994081 -0.40960445827303249 0 0.30305896539874772 -0.40135780994362302 0 0.27700802890994081 -0.40960445827303249 0 0.30305896539874772 -0.40135780994362302 0 0.28855687915842299 -0.3958895695255451 0 0.29414976423939632 -0.38354918927340348 0 0.30305896539874772 -0.40135780994362302 0 0.28855687915842299 -0.3958895695255451 0 0.27700802890994081 -0.40960445827303249 0 0.29414976423939632 -0.38354918927340348 0 0.27528213027753451 -0.37689910492476508 0 0.28001075808560721 -0.38904682061212131 0 0.28855687915842299 -0.3958895695255451 0 0.29414976423939632 -0.38354918927340348 0 0.28001075808560721 -0.38904682061212131 0 0.27528213027753451 -0.37689910492476508 0 0.28001075808560721 -0.38904682061212131 0 0.26236858605676727 -0.38179803266389001 0 0.26236858605676727 -0.38179803266389001 0 0.25111996676834131 -0.37092614410471192 0 0.24785660344515331 -0.38941470180170989 0 0.26236858605676727 -0.38179803266389001 0 0.25933491820166388 -0.40159479961589822 0 0.24785660344515331 -0.38941470180170989 0 0.28001075808560721 -0.38904682061212131 0 0.25933491820166388 -0.40159479961589822 0 0.27700802890994081 -0.40960445827303249 0 0.28001075808560721 -0.38904682061212131 0 0.26236858605676727 -0.38179803266389001 0 0.25933491820166388 -0.40159479961589822 0 0.28001075808560721 -0.38904682061212131 0 0.25933491820166388 -0.40159479961589822 0 0.27700802890994081 -0.40960445827303249 0 0.2721373095815206 -0.4217547153518556 0 0.25986908168494899 -0.41713180592291388 0 0.27700802890994081 -0.40960445827303249 0 0.2721373095815206 -0.4217547153518556 0 0.28882887895621701 -0.41885619527501322 0 0.25933491820166388 -0.40159479961589822 0 0.25986908168494899 -0.41713180592291388 0 0.23865907831772071 -0.41414277861967502 0 0.25933491820166388 -0.40159479961589822 0 0.27700802890994081 -0.40960445827303249 0 0.25986908168494899 -0.41713180592291388 0 0.25702072591614289 -0.43385611603563801 0 0.25068429260795089 -0.4274193644325488 0 0.25136918124408458 -0.43904996123601692 0 0.25702072591614289 -0.43385611603563801 0 0.25068429260795089 -0.4274193644325488 0 0.26224593276543873 -0.42863322331120107 0 0.25986908168494899 -0.41713180592291388 0 0.25068429260795089 -0.4274193644325488 0 0.26224593276543873 -0.42863322331120107 0 0.2721373095815206 -0.4217547153518556 0 0.25986908168494899 -0.41713180592291388 0 0.26224593276543873 -0.42863322331120107 0 0.25702072591614289 -0.43385611603563801 0 0.26224593276543873 -0.42863322331120107 0 0.26470088033460881 -0.43673810719805389 0 0.25702072591614289 -0.43385611603563801 0 0.26470088033460881 -0.43673810719805389 0 0.26021698330114262 -0.44008132514901549 0 0.26224593276543873 -0.42863322331120107 0 0.26470088033460881 -0.43673810719805389 0 0.27248861664697083 -0.43443574238757671 0 0.2721373095815206 -0.4217547153518556 0 0.28020422813316981 -0.4294196891401092 0 0.28882887895621701 -0.41885619527501322 0 0.26470088033460881 -0.43673810719805389 0 0.27248861664697083 -0.43443574238757671 0 0.27022120164648361 -0.44068347118852741 0 0.2721373095815206 -0.4217547153518556 0 0.26224593276543873 -0.42863322331120107 0 0.27248861664697083 -0.43443574238757671 0 0.2721373095815206 -0.4217547153518556 0 0.27248861664697083 -0.43443574238757671 0 0.28020422813316981 -0.4294196891401092 0 0.27248861664697083 -0.43443574238757671 0 0.28001418424825553 -0.4370222460514307 0 0.27520303221642278 -0.44017278674659061 0 0.27248861664697083 -0.43443574238757671 0 0.28020422813316981 -0.4294196891401092 0 0.28001418424825553 -0.4370222460514307 0 0.28001418424825553 -0.4370222460514307 0 0.28938028136994831 -0.43140200256447248 0 0.28623053075891169 -0.44013832150401139 0 0.28938028136994831 -0.43140200256447248 0 0.30587869754568281 -0.43827022740545402 0 0.28623053075891169 -0.44013832150401139 0 0.28020422813316981 -0.4294196891401092 0 0.28001418424825553 -0.4370222460514307 0 0.28938028136994831 -0.43140200256447248 0 0.28938028136994831 -0.43140200256447248 0 0.28882887895621701 -0.41885619527501322 0 0.29700188289893942 -0.42598224681376168 0 0.28020422813316981 -0.4294196891401092 0 0.28938028136994831 -0.43140200256447248 0 0.28882887895621701 -0.41885619527501322 0 0.30305896539874772 -0.40135780994362302 0 0.27700802890994081 -0.40960445827303249 0 0.28882887895621701 -0.41885619527501322 0 0.28882887895621701 -0.41885619527501322 0 0.30391967372390921 -0.41540056201010711 0 0.29700188289893942 -0.42598224681376168 0 0.3224384062569936 -0.41113358670292671 0 0.30305896539874772 -0.40135780994362302 0 0.30391967372390921 -0.41540056201010711 0 0.30305896539874772 -0.40135780994362302 0 0.28882887895621701 -0.41885619527501322 0 0.30391967372390921 -0.41540056201010711 0 0.28938028136994831 -0.43140200256447248 0 0.29700188289893942 -0.42598224681376168 0 0.30587869754568281 -0.43827022740545402 0 0.31644934037006128 -0.42344122964048048 0 0.30391967372390921 -0.41540056201010711 0 0.30587869754568281 -0.43827022740545402 0 0.30391967372390921 -0.41540056201010711 0 0.29700188289893942 -0.42598224681376168 0 0.30587869754568281 -0.43827022740545402 0 0.30391967372390921 -0.41540056201010711 0 0.30587869754568281 -0.43827022740545402 0 0.30587869754568281 -0.43827022740545402 0 0.307624100713419 -0.45864608296285919 0 0.30587869754568281 -0.43827022740545402 0 0.307624100713419 -0.45864608296285919 0 0.29531145556615002 -0.44975736432696067 0 0.32314108728328778 -0.44705420856011657 0 0.30587869754568281 -0.43827022740545402 0 0.307624100713419 -0.45864608296285919 0 0.32037327023278012 -0.46781666819623008 0 0.307624100713419 -0.45864608296285919 0 0.3093695038811522 -0.4790219385202647 0 0.307624100713419 -0.45864608296285919 0 0.29579816874749271 -0.45951325557518641 0 0.2985245960415297 -0.47028936037699531 0 0.307624100713419 -0.45864608296285919 0 0.29579816874749271 -0.45951325557518641 0 0.29531145556615002 -0.44975736432696067 0 0.29579816874749271 -0.45951325557518641 0 0.2903283735539694 -0.45497203154914678 0 0.28508519963423817 -0.4583653873568268 0 0.29579816874749271 -0.45951325557518641 0 0.2903283735539694 -0.45497203154914678 0 0.29531145556615002 -0.44975736432696067 0 0.29579816874749271 -0.45951325557518641 0 0.28572561570590999 -0.46919487629503281 0 0.2985245960415297 -0.47028936037699531 0 0.29579816874749271 -0.45951325557518641 0 0.28508519963423817 -0.4583653873568268 0 0.28572561570590999 -0.46919487629503281 0 0.2903283735539694 -0.45497203154914678 0 0.28508519963423817 -0.4583653873568268 0 0.28511867026799681 -0.45225211893761319 0 0.28508519963423817 -0.4583653873568268 0 0.28511867026799681 -0.45225211893761319 0 0.27758265721925379 -0.45445388800487391 0 0.28511867026799681 -0.45225211893761319 0 0.27820865225114061 -0.4512852622606342 0 0.28054645923504212 -0.44659371171347512 0 0.30587869754568281 -0.43827022740545402 0 0.28054645923504212 -0.44659371171347512 0 0.28511867026799681 -0.45225211893761319 0 0.29531145556615002 -0.44975736432696067 0 0.28054645923504212 -0.44659371171347512 0 0.30587869754568281 -0.43827022740545402 0 0.28623053075891169 -0.44013832150401139 0 0.28054645923504212 -0.44659371171347512 0 0.30587869754568281 -0.43827022740545402 0 0.29531145556615002 -0.44975736432696067 0 0.28054645923504212 -0.44659371171347512 0 0.2903283735539694 -0.45497203154914678 0 0.28511867026799681 -0.45225211893761319 0 0.29531145556615002 -0.44975736432696067 0 0.28623053075891169 -0.44013832150401139 0 0.2807189821335786 -0.44415447011775971 0 0.28054645923504212 -0.44659371171347512 0 0.28623053075891169 -0.44013832150401139 0 0.2807189821335786 -0.44415447011775971 0 0.27904689629933771 -0.44199580121010618 0 0.28001418424825553 -0.4370222460514307 0 0.28623053075891169 -0.44013832150401139 0 0.27904689629933771 -0.44199580121010618 0 0.28001418424825553 -0.4370222460514307 0 0.27904689629933771 -0.44199580121010618 0 0.27520303221642278 -0.44017278674659061 0 0.2807189821335786 -0.44415447011775971 0 0.27875436758955863 -0.44450114049872652 0 0.27904689629933771 -0.44199580121010618 0 0.2807189821335786 -0.44415447011775971 0 0.27875436758955863 -0.44450114049872652 0 0.28054645923504212 -0.44659371171347512 0 0.27875436758955863 -0.44450114049872652 0 0.27630082486999608 -0.44353775494466058 0 0.27697927177060622 -0.44571109645224261 0 0.27875436758955863 -0.44450114049872652 0 0.27904689629933771 -0.44199580121010618 0 0.27630082486999608 -0.44353775494466058 0 0.27904689629933771 -0.44199580121010618 0 0.27630082486999608 -0.44353775494466058 0 0.27520303221642278 -0.44017278674659061 0 0.27630082486999608 -0.44353775494466058 0 0.27480146882088657 -0.4451722511746834 0 0.27697927177060622 -0.44571109645224261 0 0.27630082486999608 -0.44353775494466058 0 0.27480146882088657 -0.4451722511746834 0 0.27302375873547691 -0.44369992207664971 0 0.27480146882088657 -0.4451722511746834 0 0.27297541587207069 -0.44601479543194328 0 0.27302375873547691 -0.44369992207664971 0 0.27630082486999608 -0.44353775494466058 0 0.27520303221642278 -0.44017278674659061 0 0.27302375873547691 -0.44369992207664971 0 0.27820865225114061 -0.4512852622606342 0 0.26852945322755378 -0.45200094240872007 0 0.27758265721925379 -0.45445388800487391 0 0.28054645923504212 -0.44659371171347512 0 0.27178958648720197 -0.44961265380296139 0 0.26852945322755378 -0.45200094240872007 0 0.28054645923504212 -0.44659371171347512 0 0.27697927177060622 -0.44571109645224261 0 0.27178958648720197 -0.44961265380296139 0 0.28054645923504212 -0.44659371171347512 0 0.27178958648720197 -0.44961265380296139 0 0.27820865225114061 -0.4512852622606342 0 0.28054645923504212 -0.44659371171347512 0 0.26852945322755378 -0.45200094240872007 0 0.28511867026799681 -0.45225211893761319 0 0.27820865225114061 -0.4512852622606342 0 0.27758265721925379 -0.45445388800487391 0 0.27875436758955863 -0.44450114049872652 0 0.28054645923504212 -0.44659371171347512 0 0.27697927177060622 -0.44571109645224261 0 0.27480146882088657 -0.4451722511746834 0 0.27697927177060622 -0.44571109645224261 0 0.27178958648720197 -0.44961265380296139 0 0.27178958648720197 -0.44961265380296139 0 0.26852945322755378 -0.45200094240872007 0 0.25732895903383329 -0.45459797197720608 0 0.27480146882088657 -0.4451722511746834 0 0.27178958648720197 -0.44961265380296139 0 0.27297541587207069 -0.44601479543194328 0 0.27178958648720197 -0.44961265380296139 0 0.27114537397374222 -0.44592330732041341 0 0.26932455575149639 -0.44674840665148841 0 0.27178958648720197 -0.44961265380296139 0 0.26932455575149639 -0.44674840665148841 0 0.26876595185813301 -0.44855402011261708 0 0.27178958648720197 -0.44961265380296139 0 0.27297541587207069 -0.44601479543194328 0 0.27114537397374222 -0.44592330732041341 0 0.27114537397374222 -0.44592330732041341 0 0.26932455575149639 -0.44674840665148841 0 0.26944098665325011 -0.44440026423820173 0 0.26604777940900609 -0.44775223929084379 0 0.26876595185813301 -0.44855402011261708 0 0.26483328323471061 -0.450780484924094 0 0.26932455575149639 -0.44674840665148841 0 0.26713141770794491 -0.44631680139867341 0 0.26876595185813301 -0.44855402011261708 0 0.26932455575149639 -0.44674840665148841 0 0.26713141770794491 -0.44631680139867341 0 0.26944098665325011 -0.44440026423820173 0 0.26713141770794491 -0.44631680139867341 0 0.26604777940900609 -0.44775223929084379 0 0.26876595185813301 -0.44855402011261708 0 0.27178958648720197 -0.44961265380296139 0 0.26876595185813301 -0.44855402011261708 0 0.26483328323471061 -0.450780484924094 0 0.27178958648720197 -0.44961265380296139 0 0.26483328323471061 -0.450780484924094 0 0.27248861664697083 -0.43443574238757671 0 0.27520303221642278 -0.44017278674659061 0 0.27022120164648361 -0.44068347118852741 0 0.27520303221642278 -0.44017278674659061 0 0.27022120164648361 -0.44068347118852741 0 0.27302375873547691 -0.44369992207664971 0 0.27297541587207069 -0.44601479543194328 0 0.27114537397374222 -0.44592330732041341 0 0.27302375873547691 -0.44369992207664971 0 0.27114537397374222 -0.44592330732041341 0 0.27302375873547691 -0.44369992207664971 0 0.26944098665325011 -0.44440026423820173 0 0.27022120164648361 -0.44068347118852741 0 0.27302375873547691 -0.44369992207664971 0 0.26944098665325011 -0.44440026423820173 0 0.27022120164648361 -0.44068347118852741 0 0.26944098665325011 -0.44440026423820173 0 0.2660118217314742 -0.44273876511636479 0 0.26713141770794491 -0.44631680139867341 0 0.26944098665325011 -0.44440026423820173 0 0.2660118217314742 -0.44273876511636479 0 0.26470088033460881 -0.43673810719805389 0 0.27022120164648361 -0.44068347118852741 0 0.2660118217314742 -0.44273876511636479 0 0.26470088033460881 -0.43673810719805389 0 0.2660118217314742 -0.44273876511636479 0 0.26021698330114262 -0.44008132514901549 0 0.26021698330114262 -0.44008132514901549 0 0.25943550903841273 -0.44648715096589081 0 0.2559999114587358 -0.44394772304122643 0 0.26021698330114262 -0.44008132514901549 0 0.26369319273036668 -0.44616193792835152 0 0.25943550903841273 -0.44648715096589081 0 0.2660118217314742 -0.44273876511636479 0 0.26021698330114262 -0.44008132514901549 0 0.26369319273036668 -0.44616193792835152 0 0.26713141770794491 -0.44631680139867341 0 0.2660118217314742 -0.44273876511636479 0 0.26369319273036668 -0.44616193792835152 0 0.27178958648720197 -0.44961265380296139 0 0.25732895903383329 -0.45459797197720608 0 0.26483328323471061 -0.450780484924094 0 0.25548466123924007 -0.45327142374677459 0 0.26483328323471061 -0.450780484924094 0 0.25732895903383329 -0.45459797197720608 0 0.25548466123924007 -0.45327142374677459 0 0.27178958648720197 -0.44961265380296139 0 0.26483328323471061 -0.450780484924094 0 0.25732895903383329 -0.45459797197720608 0 0.26369319273036668 -0.44616193792835152 0 0.26483328323471061 -0.450780484924094 0 0.26166107432110108 -0.44843660697179571 0 0.26713141770794491 -0.44631680139867341 0 0.26604777940900609 -0.44775223929084379 0 0.26369319273036668 -0.44616193792835152 0 0.26604777940900609 -0.44775223929084379 0 0.26369319273036668 -0.44616193792835152 0 0.26483328323471061 -0.450780484924094 0 0.26483328323471061 -0.450780484924094 0 0.25932820981467192 -0.44951817065431432 0 0.25548466123924007 -0.45327142374677459 0 0.26483328323471061 -0.450780484924094 0 0.25932820981467192 -0.44951817065431432 0 0.26166107432110108 -0.44843660697179571 0 0.26369319273036668 -0.44616193792835152 0 0.26166107432110108 -0.44843660697179571 0 0.25943550903841273 -0.44648715096589081 0 0.25932820981467192 -0.44951817065431432 0 0.26166107432110108 -0.44843660697179571 0 0.25943550903841273 -0.44648715096589081 0 0.25932820981467192 -0.44951817065431432 0 0.25943550903841273 -0.44648715096589081 0 0.25621550435749008 -0.44833619338356179 0 0.25621550435749008 -0.44833619338356179 0 0.2519211020100891 -0.44679589062830061 0 0.2559999114587358 -0.44394772304122643 0 0.25943550903841273 -0.44648715096589081 0 0.25621550435749008 -0.44833619338356179 0 0.2559999114587358 -0.44394772304122643 0 0.25932820981467192 -0.44951817065431432 0 0.25621550435749008 -0.44833619338356179 0 0.25548466123924007 -0.45327142374677459 0 0.25621550435749008 -0.44833619338356179 0 0.2519211020100891 -0.44679589062830061 0 0.25548466123924007 -0.45327142374677459 0 0.25702072591614289 -0.43385611603563801 0 0.26021698330114262 -0.44008132514901549 0 0.25136918124408458 -0.43904996123601692 0 0.26021698330114262 -0.44008132514901549 0 0.25136918124408458 -0.43904996123601692 0 0.2559999114587358 -0.44394772304122643 0 0.2519211020100891 -0.44679589062830061 0 0.25136918124408458 -0.43904996123601692 0 0.2559999114587358 -0.44394772304122643 0 0.25732895903383329 -0.45459797197720608 0 0.26062849152823331 -0.46654098366269992 0 0.24892331014441851 -0.46660937312845951 0 0.25732895903383329 -0.45459797197720608 0 0.25548466123924007 -0.45327142374677459 0 0.24892331014441851 -0.46660937312845951 0 0.25732895903383329 -0.45459797197720608 0 0.26407604260511192 -0.46002858021773851 0 0.26062849152823331 -0.46654098366269992 0 0.26852945322755378 -0.45200094240872007 0 0.25732895903383329 -0.45459797197720608 0 0.26448716302775771 -0.45586459018273151 0 0.25732895903383329 -0.45459797197720608 0 0.26448716302775771 -0.45586459018273151 0 0.26407604260511192 -0.46002858021773851 0 0.26448716302775771 -0.45586459018273151 0 0.26407604260511192 -0.46002858021773851 0 0.26801419724453163 -0.4568308661272612 0 0.26407604260511192 -0.46002858021773851 0 0.26062849152823331 -0.46654098366269992 0 0.27280369184844711 -0.46127048132133658 0 0.26407604260511192 -0.46002858021773851 0 0.27280369184844711 -0.46127048132133658 0 0.26801419724453163 -0.4568308661272612 0 0.26852945322755378 -0.45200094240872007 0 0.27171469460507408 -0.45621952323633819 0 0.27758265721925379 -0.45445388800487391 0 0.26852945322755378 -0.45200094240872007 0 0.26448716302775771 -0.45586459018273151 0 0.26801419724453163 -0.4568308661272612 0 0.26852945322755378 -0.45200094240872007 0 0.26801419724453163 -0.4568308661272612 0 0.27171469460507408 -0.45621952323633819 0 0.27280369184844711 -0.46127048132133658 0 0.26801419724453163 -0.4568308661272612 0 0.27171469460507408 -0.45621952323633819 0 0.28508519963423817 -0.4583653873568268 0 0.27280369184844711 -0.46127048132133658 0 0.27758265721925379 -0.45445388800487391 0 0.27280369184844711 -0.46127048132133658 0 0.27171469460507408 -0.45621952323633819 0 0.27758265721925379 -0.45445388800487391 0 0.28508519963423817 -0.4583653873568268 0 0.27280369184844711 -0.46127048132133658 0 0.28572561570590999 -0.46919487629503281 0 0.25942875430018991 -0.47899593092680942 0 0.27995863936328769 -0.5 0 0.29410559115967477 -0.48507064853163367 0 0.25942875430018991 -0.47899593092680942 0 0.29410559115967477 -0.48507064853163367 0 0.28572561570590999 -0.46919487629503281 0 0.27280369184844711 -0.46127048132133658 0 0.25942875430018991 -0.47899593092680942 0 0.28572561570590999 -0.46919487629503281 0 0.26062849152823331 -0.46654098366269992 0 0.27280369184844711 -0.46127048132133658 0 0.25942875430018991 -0.47899593092680942 0 0.26062849152823331 -0.46654098366269992 0 0.25942875430018991 -0.47899593092680942 0 0.24892331014441851 -0.46660937312845951 0 0.27995863936328769 -0.5 0 0.29410559115967477 -0.48507064853163367 0 0.31111490704888539 -0.5 0 0.29410559115967477 -0.48507064853163367 0 0.28572561570590999 -0.46919487629503281 0 0.2985245960415297 -0.47028936037699531 0 0.307624100713419 -0.45864608296285919 0 0.3093695038811522 -0.4790219385202647 0 0.307624100713419 -0.45864608296285919 0 0.2985245960415297 -0.47028936037699531 0 0.3093695038811522 -0.4790219385202647 0 0.29410559115967477 -0.48507064853163367 0 0.2985245960415297 -0.47028936037699531 0 0.3093695038811522 -0.4790219385202647 0 0.29410559115967477 -0.48507064853163367 0 0.3093695038811522 -0.4790219385202647 0 0.31111490704888539 -0.5 0 0.31199969780999592 -0.48110291077403589 0 0.3093695038811522 -0.4790219385202647 0 0.31111490704888539 -0.5 0 0.3093695038811522 -0.4790219385202647 0 0.31111490704888539 -0.5 0 0.33152762264786778 -0.29913735182688561 0 0.3311825097947011 -0.27941517375259461 0 0.34989735690301721 -0.28838716691152849 0 0.33152762264786778 -0.29913735182688561 0 0.35056983252178298 -0.31025468137459178 0 0.33445341247296401 -0.31931717973720891 0 0.33152762264786778 -0.29913735182688561 0 0.33445341247296401 -0.31931717973720891 0 0.3139519862015574 -0.31345829033900341 0 0.33152762264786778 -0.29913735182688561 0 0.3139519862015574 -0.31345829033900341 0 0.30618869701939178 -0.2860230157593347 0 0.33152762264786778 -0.29913735182688561 0 0.3311825097947011 -0.27941517375259461 0 0.30618869701939178 -0.2860230157593347 0 0.31943013572718898 -0.26478372790726867 0 0.3311825097947011 -0.27941517375259461 0 0.30618869701939178 -0.2860230157593347 0 0.30966021080157702 -0.24778673336912191 0 0.3289423451865191 -0.24692368843009069 0 0.31943013572718898 -0.26478372790726867 0 0.3289423451865191 -0.24692368843009069 0 0.33604116212116258 -0.26290444481701242 0 0.34136557605767021 -0.25086681161139812 0 0.3289423451865191 -0.24692368843009069 0 0.31943013572718898 -0.26478372790726867 0 0.33604116212116258 -0.26290444481701242 0 0.33604116212116258 -0.26290444481701242 0 0.34136557605767021 -0.25086681161139812 0 0.34901066256235092 -0.26133912935374848 0 0.31943013572718898 -0.26478372790726867 0 0.33604116212116258 -0.26290444481701242 0 0.3311825097947011 -0.27941517375259461 0 0.33604116212116258 -0.26290444481701242 0 0.3311825097947011 -0.27941517375259461 0 0.34443184554439221 -0.27364154863752832 0 0.3311825097947011 -0.27941517375259461 0 0.34443184554439221 -0.27364154863752832 0 0.34989735690301721 -0.28838716691152849 0 0.33604116212116258 -0.26290444481701242 0 0.34443184554439221 -0.27364154863752832 0 0.34901066256235092 -0.26133912935374848 0 0.34443184554439221 -0.27364154863752832 0 0.35687105873035718 -0.27293425504073782 0 0.34989735690301721 -0.28838716691152849 0 0.34443184554439221 -0.27364154863752832 0 0.35687105873035718 -0.27293425504073782 0 0.34901066256235092 -0.26133912935374848 0 0.35346002950626321 -0.2486655631124409 0 0.34136557605767021 -0.25086681161139812 0 0.34901066256235092 -0.26133912935374848 0 0.35687105873035718 -0.27293425504073782 0 0.34901066256235092 -0.26133912935374848 0 0.3623160646090739 -0.25740836624736418 0 0.35346002950626321 -0.2486655631124409 0 0.3623160646090739 -0.25740836624736418 0 0.35346002950626321 -0.2486655631124409 0 0.34901066256235092 -0.26133912935374848 0 0.3623160646090739 -0.25740836624736418 0 0.37850347272288898 -0.2733888045316239 0 0.3623160646090739 -0.25740836624736418 0 0.37850347272288898 -0.2733888045316239 0 0.37556493909755589 -0.26007368374764239 0 0.3623160646090739 -0.25740836624736418 0 0.35687105873035718 -0.27293425504073782 0 0.3623160646090739 -0.25740836624736418 0 0.37495946192752022 -0.24961603069556479 0 0.37556493909755589 -0.26007368374764239 0 0.3623160646090739 -0.25740836624736418 0 0.37850347272288898 -0.2733888045316239 0 0.3623160646090739 -0.25740836624736418 0 0.36602445061364658 -0.27158059455439398 0 0.35687105873035718 -0.27293425504073782 0 0.36602445061364658 -0.27158059455439398 0 0.36640720639226632 -0.28259095239785031 0 0.35687105873035718 -0.27293425504073782 0 0.3623160646090739 -0.25740836624736418 0 0.36602445061364658 -0.27158059455439398 0 0.37850347272288898 -0.2733888045316239 0 0.36602445061364658 -0.27158059455439398 0 0.36640720639226632 -0.28259095239785031 0 0.37826539445723678 -0.29034598971074688 0 0.37850347272288898 -0.2733888045316239 0 0.36640720639226632 -0.28259095239785031 0 0.36640720639226632 -0.28259095239785031 0 0.34989735690301721 -0.28838716691152849 0 0.36715833027398848 -0.30020053250048101 0 0.37826539445723678 -0.29034598971074688 0 0.36640720639226632 -0.28259095239785031 0 0.36715833027398848 -0.30020053250048101 0 0.35687105873035718 -0.27293425504073782 0 0.36640720639226632 -0.28259095239785031 0 0.34989735690301721 -0.28838716691152849 0 0.33152762264786778 -0.29913735182688561 0 0.34989735690301721 -0.28838716691152849 0 0.35056983252178298 -0.31025468137459178 0 0.34989735690301721 -0.28838716691152849 0 0.35056983252178298 -0.31025468137459178 0 0.36715833027398848 -0.30020053250048101 0 0.35056983252178298 -0.31025468137459178 0 0.36715833027398848 -0.30020053250048101 0 0.36894938420794671 -0.32027131444029999 0 0.38346181650652827 -0.30729124765511528 0 0.36715833027398848 -0.30020053250048101 0 0.36894938420794671 -0.32027131444029999 0 0.36894938420794671 -0.32027131444029999 0 0.37491198448982438 -0.33912433814699661 0 0.35037653516114542 -0.33761997109752012 0 0.37491198448982438 -0.33912433814699661 0 0.35037653516114542 -0.33761997109752012 0 0.35056983252178298 -0.31025468137459178 0 0.35037653516114542 -0.33761997109752012 0 0.33445341247296401 -0.31931717973720891 0 0.35056983252178298 -0.31025468137459178 0 0.36894938420794671 -0.32027131444029999 0 0.35037653516114542 -0.33761997109752012 0 0.38619262602800708 -0.36637674047714952 0 0.37491198448982438 -0.33912433814699661 0 0.36337543330570998 -0.36213445546499973 0 0.37491198448982438 -0.33912433814699661 0 0.35037653516114542 -0.33761997109752012 0 0.36337543330570998 -0.36213445546499973 0 0.35037653516114542 -0.33761997109752012 0 0.36337543330570998 -0.36213445546499973 0 0.33659761108079628 -0.36229384044668628 0 0.35516083837636159 -0.38486451328480381 0 0.36337543330570998 -0.36213445546499973 0 0.33659761108079628 -0.36229384044668628 0 0.35037653516114542 -0.33761997109752012 0 0.33659761108079628 -0.36229384044668628 0 0.32584108583246618 -0.33611560404804353 0 0.33659761108079628 -0.36229384044668628 0 0.31351248398035098 -0.35283202312128398 0 0.32584108583246618 -0.33611560404804353 0 0.31351248398035098 -0.35283202312128398 0 0.31977661373550859 -0.37261180596378612 0 0.30513903983252377 -0.36799847725245483 0 0.33659761108079628 -0.36229384044668628 0 0.31351248398035098 -0.35283202312128398 0 0.31977661373550859 -0.37261180596378612 0 0.35037653516114542 -0.33761997109752012 0 0.33445341247296401 -0.31931717973720891 0 0.32584108583246618 -0.33611560404804353 0 0.35037653516114542 -0.33761997109752012 0 0.32584108583246618 -0.33611560404804353 0 0.32584108583246618 -0.33611560404804353 0 0.30130563650378711 -0.33461123699856699 0 0.31351248398035098 -0.35283202312128398 0 0.32584108583246618 -0.33611560404804353 0 0.30130563650378711 -0.33461123699856699 0 0.32584108583246618 -0.33611560404804353 0 0.3139519862015574 -0.31345829033900341 0 0.30130563650378711 -0.33461123699856699 0 0.33445341247296401 -0.31931717973720891 0 0.32584108583246618 -0.33611560404804353 0 0.3139519862015574 -0.31345829033900341 0 0.3139519862015574 -0.31345829033900341 0 0.30130563650378711 -0.33461123699856699 0 0.29268653746939649 -0.31140784048857689 0 0.28423110729017492 -0.33198182098462631 0 0.29247065393489458 -0.34887735364005479 0 0.26999634084621682 -0.34394253106028833 0 0.30130563650378711 -0.33461123699856699 0 0.28423110729017492 -0.33198182098462631 0 0.29247065393489458 -0.34887735364005479 0 0.28423110729017492 -0.33198182098462631 0 0.27387646009946509 -0.31812667393550259 0 0.29268653746939649 -0.31140784048857689 0 0.30130563650378711 -0.33461123699856699 0 0.28423110729017492 -0.33198182098462631 0 0.29268653746939649 -0.31140784048857689 0 0.31063569109852551 -0.38400731049811399 0 0.31977661373550859 -0.37261180596378612 0 0.30513903983252377 -0.36799847725245483 0 0.31351248398035098 -0.35283202312128398 0 0.30513903983252377 -0.36799847725245483 0 0.29247065393489458 -0.34887735364005479 0 0.31351248398035098 -0.35283202312128398 0 0.30130563650378711 -0.33461123699856699 0 0.29247065393489458 -0.34887735364005479 0 0.29247065393489458 -0.34887735364005479 0 0.28338512917223441 -0.36416992978348639 0 0.26999634084621682 -0.34394253106028833 0 0.29414976423939632 -0.38354918927340348 0 0.27528213027753451 -0.37689910492476508 0 0.28338512917223441 -0.36416992978348639 0 0.30513903983252377 -0.36799847725245483 0 0.29247065393489458 -0.34887735364005479 0 0.28338512917223441 -0.36416992978348639 0 0.29414976423939632 -0.38354918927340348 0 0.30513903983252377 -0.36799847725245483 0 0.28338512917223441 -0.36416992978348639 0 0.27528213027753451 -0.37689910492476508 0 0.26236858605676727 -0.38179803266389001 0 0.26611902939032628 -0.36514034536323098 0 0.27528213027753451 -0.37689910492476508 0 0.28338512917223441 -0.36416992978348639 0 0.26611902939032628 -0.36514034536323098 0 0.28338512917223441 -0.36416992978348639 0 0.26611902939032628 -0.36514034536323098 0 0.26999634084621682 -0.34394253106028833 0 0.26999634084621682 -0.34394253106028833 0 0.25656673479516778 -0.35294149486564191 0 0.25512775720606329 -0.33544301720451491 0 0.26611902939032628 -0.36514034536323098 0 0.26999634084621682 -0.34394253106028833 0 0.25656673479516778 -0.35294149486564191 0 0.26611902939032628 -0.36514034536323098 0 0.25656673479516778 -0.35294149486564191 0 0.25111996676834131 -0.37092614410471192 0 0.26236858605676727 -0.38179803266389001 0 0.26611902939032628 -0.36514034536323098 0 0.25111996676834131 -0.37092614410471192 0 0.26999634084621682 -0.34394253106028833 0 0.27387646009946509 -0.31812667393550259 0 0.25512775720606329 -0.33544301720451491 0 0.26999634084621682 -0.34394253106028833 0 0.27387646009946509 -0.31812667393550259 0 0.28423110729017492 -0.33198182098462631 0 0.26999634084621682 -0.34394253106028833 0 0.27387646009946509 -0.31812667393550259 0 0.27387646009946509 -0.31812667393550259 0 0.25768527794469709 -0.30269365091155781 0 0.24726429393935159 -0.31986269405237783 0 0.27387646009946509 -0.31812667393550259 0 0.25512775720606329 -0.33544301720451491 0 0.24726429393935159 -0.31986269405237783 0 0.25768527794469709 -0.30269365091155781 0 0.25205521600315212 -0.28507613616413929 0 0.27775657935271347 -0.29231081681071691 0 0.25205521600315212 -0.28507613616413929 0 0.27775657935271347 -0.29231081681071691 0 0.2637927041190965 -0.27058177027947011 0 0.27387646009946509 -0.31812667393550259 0 0.25768527794469709 -0.30269365091155781 0 0.27775657935271347 -0.29231081681071691 0 0.27387646009946509 -0.31812667393550259 0 0.27775657935271347 -0.29231081681071691 0 0.27387646009946509 -0.31812667393550259 0 0.27775657935271347 -0.29231081681071691 0 0.29268653746939649 -0.31140784048857689 0 0.27775657935271347 -0.29231081681071691 0 0.30618869701939178 -0.2860230157593347 0 0.28163669860596191 -0.26649495968593129 0 0.27775657935271347 -0.29231081681071691 0 0.29268653746939649 -0.31140784048857689 0 0.30618869701939178 -0.2860230157593347 0 0.3139519862015574 -0.31345829033900341 0 0.29268653746939649 -0.31140784048857689 0 0.30618869701939178 -0.2860230157593347 0 0.30966021080157702 -0.24778673336912191 0 0.31943013572718898 -0.26478372790726867 0 0.30051533313495837 -0.26218367574241042 0 0.30966021080157702 -0.24778673336912191 0 0.28551681785921013 -0.24067910256114569 0 0.30051533313495837 -0.26218367574241042 0 0.31943013572718898 -0.26478372790726867 0 0.30618869701939178 -0.2860230157593347 0 0.30051533313495837 -0.26218367574241042 0 0.30618869701939178 -0.2860230157593347 0 0.30051533313495837 -0.26218367574241042 0 0.28163669860596191 -0.26649495968593129 0 0.28551681785921013 -0.24067910256114569 0 0.28163669860596191 -0.26649495968593129 0 0.28551681785921013 -0.24067910256114569 0 0.30051533313495837 -0.26218367574241042 0 0.28163669860596191 -0.26649495968593129 0 0.28551681785921013 -0.24067910256114569 0 0.28163669860596191 -0.26649495968593129 0 0.26145137686751269 -0.25057166113606721 0 0.28163669860596191 -0.26649495968593129 0 0.2637927041190965 -0.27058177027947011 0 0.26145137686751269 -0.25057166113606721 0 0.27775657935271347 -0.29231081681071691 0 0.28163669860596191 -0.26649495968593129 0 0.2637927041190965 -0.27058177027947011 0 0.27775657935271347 -0.29231081681071691 0 0.28163669860596191 -0.26649495968593129 0 0.25205521600315212 -0.28507613616413929 0 0.2637927041190965 -0.27058177027947011 0 0.2472851894690144 -0.26661922728829851 0 0.2637927041190965 -0.27058177027947011 0 0.26145137686751269 -0.25057166113606721 0 0.2472851894690144 -0.26661922728829851 0 0.24061150457431191 -0.25186374409499401 0 0.2472851894690144 -0.26661922728829851 0 0.22783931244949859 -0.26440551898006043 0 0.26145137686751269 -0.25057166113606721 0 0.24061150457431191 -0.25186374409499401 0 0.2472851894690144 -0.26661922728829851 0 0.25205521600315212 -0.28507613616413929 0 0.2472851894690144 -0.26661922728829851 0 0.23373074807295061 -0.28188856701681098 0 0.2472851894690144 -0.26661922728829851 0 0.22783931244949859 -0.26440551898006043 0 0.23373074807295061 -0.28188856701681098 0 0.22783931244949859 -0.26440551898006043 0 0.21557190254776901 -0.2821090553337412 0 0.23373074807295061 -0.28188856701681098 0 0.24061150457431191 -0.25186374409499401 0 0.22783931244949859 -0.26440551898006043 0 0.22231123182094389 -0.24471117443653381 0 0.22783931244949859 -0.26440551898006043 0 0.207484625684625 -0.26514768111990988 0 0.22231123182094389 -0.24471117443653381 0 0.207484625684625 -0.26514768111990988 0 0.22231123182094389 -0.24471117443653381 0 0.19096637578835671 -0.24771322335898729 0 0.207484625684625 -0.26514768111990988 0 0.20013658594838599 -0.28294164438748659 0 0.21557190254776901 -0.2821090553337412 0 0.22783931244949859 -0.26440551898006043 0 0.207484625684625 -0.26514768111990988 0 0.21557190254776901 -0.2821090553337412 0 0.207484625684625 -0.26514768111990988 0 0.1895227772289246 -0.27091676433038492 0 0.20013658594838599 -0.28294164438748659 0 0.1895227772289246 -0.27091676433038492 0 0.19096637578835671 -0.24771322335898729 0 0.207484625684625 -0.26514768111990988 0 0.1895227772289246 -0.27091676433038492 0 0.19096637578835671 -0.24771322335898729 0 0.1880791786694925 -0.29412030530178251 0 0.2075225840314823 -0.3015266828846877 0 0.19207872750094679 -0.31515929504290391 0 0.1895227772289246 -0.27091676433038492 0 0.1880791786694925 -0.29412030530178251 0 0.1880791786694925 -0.29412030530178251 0 0.20013658594838599 -0.28294164438748659 0 0.2075225840314823 -0.3015266828846877 0 0.1895227772289246 -0.27091676433038492 0 0.1880791786694925 -0.29412030530178251 0 0.20013658594838599 -0.28294164438748659 0 0.20013658594838599 -0.28294164438748659 0 0.21557190254776901 -0.2821090553337412 0 0.2075225840314823 -0.3015266828846877 0 0.21557190254776901 -0.2821090553337412 0 0.2075225840314823 -0.3015266828846877 0 0.22267212160244931 -0.29642362826298968 0 0.2075225840314823 -0.3015266828846877 0 0.22459676630293601 -0.31237923337947471 0 0.22267212160244931 -0.29642362826298968 0 0.22459676630293601 -0.31237923337947471 0 0.22267212160244931 -0.29642362826298968 0 0.23747384032880289 -0.29809193359505232 0 0.22459676630293601 -0.31237923337947471 0 0.23747384032880289 -0.29809193359505232 0 0.22267212160244931 -0.29642362826298968 0 0.23373074807295061 -0.28188856701681098 0 0.23747384032880289 -0.29809193359505232 0 0.21557190254776901 -0.2821090553337412 0 0.22267212160244931 -0.29642362826298968 0 0.23373074807295061 -0.28188856701681098 0 0.25205521600315212 -0.28507613616413929 0 0.23373074807295061 -0.28188856701681098 0 0.23747384032880289 -0.29809193359505232 0 0.25768527794469709 -0.30269365091155781 0 0.25205521600315212 -0.28507613616413929 0 0.23747384032880289 -0.29809193359505232 0 0.25768527794469709 -0.30269365091155781 0 0.23747384032880289 -0.29809193359505232 0 0.24726429393935159 -0.31986269405237783 0 0.22459676630293601 -0.31237923337947471 0 0.23747384032880289 -0.29809193359505232 0 0.24726429393935159 -0.31986269405237783 0 0.22459676630293601 -0.31237923337947471 0 0.24726429393935159 -0.31986269405237783 0 0.2341432135361188 -0.33980401401476867 0 0.25512775720606329 -0.33544301720451491 0 0.24726429393935159 -0.31986269405237783 0 0.2341432135361188 -0.33980401401476867 0 0.25656673479516778 -0.35294149486564191 0 0.25512775720606329 -0.33544301720451491 0 0.2341432135361188 -0.33980401401476867 0 0.2341432135361188 -0.33980401401476867 0 0.21319007714091329 -0.34392436014379979 0 0.21171969227706891 -0.32666653316389682 0 0.2341432135361188 -0.33980401401476867 0 0.21171969227706891 -0.32666653316389682 0 0.22459676630293601 -0.31237923337947471 0 0.2341432135361188 -0.33980401401476867 0 0.21171969227706891 -0.32666653316389682 0 0.25111996676834131 -0.37092614410471192 0 0.23821037602007389 -0.35927928059789838 0 0.2356735092688749 -0.3783148161018231 0 0.25656673479516778 -0.35294149486564191 0 0.25111996676834131 -0.37092614410471192 0 0.23821037602007389 -0.35927928059789838 0 0.25656673479516778 -0.35294149486564191 0 0.2341432135361188 -0.33980401401476867 0 0.23821037602007389 -0.35927928059789838 0 0.25656673479516778 -0.35294149486564191 0 0.2341432135361188 -0.33980401401476867 0 0.2341432135361188 -0.33980401401476867 0 0.22202264209231601 -0.3549963777845922 0 0.21319007714091329 -0.34392436014379979 0 0.2341432135361188 -0.33980401401476867 0 0.23821037602007389 -0.35927928059789838 0 0.22202264209231601 -0.3549963777845922 0 0.23821037602007389 -0.35927928059789838 0 0.22202264209231601 -0.3549963777845922 0 0.2238812748764023 -0.37007476123018729 0 0.23821037602007389 -0.35927928059789838 0 0.2238812748764023 -0.37007476123018729 0 0.2356735092688749 -0.3783148161018231 0 0.22202264209231601 -0.3549963777845922 0 0.2238812748764023 -0.37007476123018729 0 0.2123426736130303 -0.36577492384627253 0 0.2238812748764023 -0.37007476123018729 0 0.2123426736130303 -0.36577492384627253 0 0.21438316733136509 -0.38155884753985753 0 0.2033628137456118 -0.37176699150318548 0 0.2123426736130303 -0.36577492384627253 0 0.21438316733136509 -0.38155884753985753 0 0.2033628137456118 -0.37176699150318548 0 0.2123426736130303 -0.36577492384627253 0 0.20126000855414919 -0.36154435954079239 0 0.2123426736130303 -0.36577492384627253 0 0.20914613507833771 -0.35470820547902088 0 0.20126000855414919 -0.36154435954079239 0 0.22202264209231601 -0.3549963777845922 0 0.2123426736130303 -0.36577492384627253 0 0.20914613507833771 -0.35470820547902088 0 0.22202264209231601 -0.3549963777845922 0 0.20914613507833771 -0.35470820547902088 0 0.21319007714091329 -0.34392436014379979 0 0.20914613507833771 -0.35470820547902088 0 0.21319007714091329 -0.34392436014379979 0 0.20247217376963009 -0.34866449490135271 0 0.21319007714091329 -0.34392436014379979 0 0.20247217376963009 -0.34866449490135271 0 0.20086121162924159 -0.33871417441432589 0 0.20247217376963009 -0.34866449490135271 0 0.19154699975625861 -0.35087161556466318 0 0.1976164452433993 -0.35510411890495391 0 0.19000985083547861 -0.35076823275470359 0 0.20086121162924159 -0.33871417441432589 0 0.20247217376963009 -0.34866449490135271 0 0.19154699975625861 -0.35087161556466318 0 0.20086121162924159 -0.33871417441432589 0 0.19000985083547861 -0.35076823275470359 0 0.19154699975625861 -0.35087161556466318 0 0.20086121162924159 -0.33871417441432589 0 0.19000985083547861 -0.35076823275470359 0 0.19154699975625861 -0.35087161556466318 0 0.19000985083547861 -0.35076823275470359 0 0.19154699975625861 -0.35087161556466318 0 0.1976164452433993 -0.35510411890495391 0 0.20914613507833771 -0.35470820547902088 0 0.20247217376963009 -0.34866449490135271 0 0.1976164452433993 -0.35510411890495391 0 0.19000985083547861 -0.35076823275470359 0 0.1976164452433993 -0.35510411890495391 0 0.20126000855414919 -0.36154435954079239 0 0.20914613507833771 -0.35470820547902088 0 0.1976164452433993 -0.35510411890495391 0 0.20126000855414919 -0.36154435954079239 0 0.19474682670583829 -0.36444446641351852 0 0.19515935903523879 -0.3780861504505299 0 0.1794433545966525 -0.38121661870292728 0 0.2033628137456118 -0.37176699150318548 0 0.19000985083547861 -0.35076823275470359 0 0.19474682670583829 -0.36444446641351852 0 0.2033628137456118 -0.37176699150318548 0 0.19000985083547861 -0.35076823275470359 0 0.20126000855414919 -0.36154435954079239 0 0.2033628137456118 -0.37176699150318548 0 0.19000985083547861 -0.35076823275470359 0 0.2033628137456118 -0.37176699150318548 0 0.19474682670583829 -0.36444446641351852 0 0.19515935903523879 -0.3780861504505299 0 0.2075225840314823 -0.3015266828846877 0 0.22459676630293601 -0.31237923337947471 0 0.21171969227706891 -0.32666653316389682 0 0.2075225840314823 -0.3015266828846877 0 0.21171969227706891 -0.32666653316389682 0 0.19207872750094679 -0.31515929504290391 0 0.22459676630293601 -0.31237923337947471 0 0.21171969227706891 -0.32666653316389682 0 0.21319007714091329 -0.34392436014379979 0 0.21171969227706891 -0.32666653316389682 0 0.20086121162924159 -0.33871417441432589 0 0.21171969227706891 -0.32666653316389682 0 0.20086121162924159 -0.33871417441432589 0 0.21171969227706891 -0.32666653316389682 0 0.20086121162924159 -0.33871417441432589 0 0.19219192149204919 -0.32819855561412098 0 0.19000985083547861 -0.35076823275470359 0 0.20086121162924159 -0.33871417441432589 0 0.19100323375418099 -0.33735135772220032 0 0.20086121162924159 -0.33871417441432589 0 0.19100323375418099 -0.33735135772220032 0 0.19219192149204919 -0.32819855561412098 0 0.19219192149204919 -0.32819855561412098 0 0.19207872750094679 -0.31515929504290391 0 0.1791575815060644 -0.31893231268706751 0 0.21171969227706891 -0.32666653316389682 0 0.19207872750094679 -0.31515929504290391 0 0.21171969227706891 -0.32666653316389682 0 0.19219192149204919 -0.32819855561412098 0 0.19207872750094679 -0.31515929504290391 0 0.1791575815060644 -0.31893231268706751 0 0.1783310822847925 -0.33236766065433232 0 0.16664395044725699 -0.31397240203381033 0 0.19207872750094679 -0.31515929504290391 0 0.1791575815060644 -0.31893231268706751 0 0.17243776272482381 -0.30365205692191238 0 0.1783310822847925 -0.33236766065433232 0 0.16664395044725699 -0.31397240203381033 0 0.19219192149204919 -0.32819855561412098 0 0.1791575815060644 -0.31893231268706751 0 0.1783310822847925 -0.33236766065433232 0 0.19000985083547861 -0.35076823275470359 0 0.19100323375418099 -0.33735135772220032 0 0.1783310822847925 -0.33236766065433232 0 0.19100323375418099 -0.33735135772220032 0 0.19219192149204919 -0.32819855561412098 0 0.1783310822847925 -0.33236766065433232 0 0.19000985083547861 -0.35076823275470359 0 0.1783310822847925 -0.33236766065433232 0 0.1783310822847925 -0.33236766065433232 0 0.15994952199121629 -0.33993588861841578 0 0.16994408506048739 -0.34953205087245642 0 0.1783310822847925 -0.33236766065433232 0 0.15994952199121629 -0.33993588861841578 0 0.16220686035018719 -0.32815226376919909 0 0.15994952199121629 -0.33993588861841578 0 0.16220686035018719 -0.32815226376919909 0 0.15302594891977231 -0.33010695232150739 0 0.16220686035018719 -0.32815226376919909 0 0.15402734094865991 -0.31874959311920242 0 0.15302594891977231 -0.33010695232150739 0 0.1783310822847925 -0.33236766065433232 0 0.16220686035018719 -0.32815226376919909 0 0.16664395044725699 -0.31397240203381033 0 0.16664395044725699 -0.31397240203381033 0 0.15402734094865991 -0.31874959311920242 0 0.15235265550825361 -0.30752944507263541 0 0.16220686035018719 -0.32815226376919909 0 0.16664395044725699 -0.31397240203381033 0 0.15402734094865991 -0.31874959311920242 0 0.17746432227538081 -0.36467336138103029 0 0.1794433545966525 -0.38121661870292728 0 0.16492591356934741 -0.37858490709730569 0 0.19000985083547861 -0.35076823275470359 0 0.19474682670583829 -0.36444446641351852 0 0.17746432227538081 -0.36467336138103029 0 0.19474682670583829 -0.36444446641351852 0 0.17746432227538081 -0.36467336138103029 0 0.1794433545966525 -0.38121661870292728 0 0.19474682670583829 -0.36444446641351852 0 0.1794433545966525 -0.38121661870292728 0 0.19000985083547861 -0.35076823275470359 0 0.16994408506048739 -0.34953205087245642 0 0.19000985083547861 -0.35076823275470359 0 0.17746432227538081 -0.36467336138103029 0 0.16994408506048739 -0.34953205087245642 0 0.19000985083547861 -0.35076823275470359 0 0.1783310822847925 -0.33236766065433232 0 0.16994408506048739 -0.34953205087245642 0 0.19000985083547861 -0.35076823275470359 0 0.17746432227538081 -0.36467336138103029 0 0.16994408506048739 -0.34953205087245642 0 0.14987881756041591 -0.34828783340174441 0 0.17746432227538081 -0.36467336138103029 0 0.16994408506048739 -0.34953205087245642 0 0.15911816004155049 -0.36223725731204998 0 0.16994408506048739 -0.34953205087245642 0 0.15911816004155049 -0.36223725731204998 0 0.14987881756041591 -0.34828783340174441 0 0.15994952199121629 -0.33993588861841578 0 0.16994408506048739 -0.34953205087245642 0 0.14987881756041591 -0.34828783340174441 0 0.17746432227538081 -0.36467336138103029 0 0.15911816004155049 -0.36223725731204998 0 0.16492591356934741 -0.37858490709730569 0 0.15911816004155049 -0.36223725731204998 0 0.1569832794833429 -0.37225963541855422 0 0.16492591356934741 -0.37858490709730569 0 0.17746432227538081 -0.36467336138103029 0 0.16492591356934741 -0.37858490709730569 0 0.14892873236813201 -0.36558825856946059 0 0.13877444591408761 -0.36312270726577339 0 0.14773534176783479 -0.37920179860051068 0 0.13877444591408761 -0.36312270726577339 0 0.14773534176783479 -0.37920179860051068 0 0.14892873236813201 -0.36558825856946059 0 0.14773534176783479 -0.37920179860051068 0 0.1569832794833429 -0.37225963541855422 0 0.15290712884602931 -0.37439950124734311 0 0.14892873236813201 -0.36558825856946059 0 0.15290712884602931 -0.37439950124734311 0 0.14892873236813201 -0.36558825856946059 0 0.14773534176783479 -0.37920179860051068 0 0.15911816004155049 -0.36223725731204998 0 0.14892873236813201 -0.36558825856946059 0 0.14555647843408201 -0.35692468886515921 0 0.15911816004155049 -0.36223725731204998 0 0.1569832794833429 -0.37225963541855422 0 0.14892873236813201 -0.36558825856946059 0 0.14892873236813201 -0.36558825856946059 0 0.14555647843408201 -0.35692468886515921 0 0.13877444591408761 -0.36312270726577339 0 0.14987881756041591 -0.34828783340174441 0 0.12981355006034451 -0.34704361593103378 0 0.14489705337498801 -0.33710124067632902 0 0.14555647843408201 -0.35692468886515921 0 0.14987881756041591 -0.34828783340174441 0 0.12981355006034451 -0.34704361593103378 0 0.15911816004155049 -0.36223725731204998 0 0.14555647843408201 -0.35692468886515921 0 0.14987881756041591 -0.34828783340174441 0 0.14987881756041591 -0.34828783340174441 0 0.12981355006034451 -0.34704361593103378 0 0.14555647843408201 -0.35692468886515921 0 0.12981355006034451 -0.34704361593103378 0 0.13877444591408761 -0.36312270726577339 0 0.12981355006034451 -0.34704361593103378 0 0.13877444591408761 -0.36312270726577339 0 0.12981355006034451 -0.34704361593103378 0 0.13877444591408761 -0.36312270726577339 0 0.12719922570869319 -0.36045835834078788 0 0.12981355006034451 -0.34704361593103378 0 0.12719922570869319 -0.36045835834078788 0 0.1197528644682677 -0.35463299991206948 0 0.13877444591408761 -0.36312270726577339 0 0.12708238592477769 -0.3711726568853902 0 0.13425710954045181 -0.37941537297245642 0 0.13877444591408761 -0.36312270726577339 0 0.14773534176783479 -0.37920179860051068 0 0.13425710954045181 -0.37941537297245642 0 0.13877444591408761 -0.36312270726577339 0 0.12719922570869319 -0.36045835834078788 0 0.12708238592477769 -0.3711726568853902 0 0.14559778285110889 -0.32420839281448799 0 0.13791842980147551 -0.3266890672549565 0 0.13874667529484891 -0.31970726217878209 0 0.14559778285110889 -0.32420839281448799 0 0.14334058215766729 -0.31276830747450701 0 0.13874667529484891 -0.31970726217878209 0 0.14559778285110889 -0.32420839281448799 0 0.14334058215766729 -0.31276830747450701 0 0.15402734094865991 -0.31874959311920242 0 0.14334058215766729 -0.31276830747450701 0 0.15402734094865991 -0.31874959311920242 0 0.15235265550825361 -0.30752944507263541 0 0.14559778285110889 -0.32420839281448799 0 0.15402734094865991 -0.31874959311920242 0 0.15302594891977231 -0.33010695232150739 0 0.15994952199121629 -0.33993588861841578 0 0.15302594891977231 -0.33010695232150739 0 0.14489705337498801 -0.33710124067632902 0 0.15994952199121629 -0.33993588861841578 0 0.14987881756041591 -0.34828783340174441 0 0.14489705337498801 -0.33710124067632902 0 0.14559778285110889 -0.32420839281448799 0 0.14489705337498801 -0.33710124067632902 0 0.13791842980147551 -0.3266890672549565 0 0.14559778285110889 -0.32420839281448799 0 0.15302594891977231 -0.33010695232150739 0 0.14489705337498801 -0.33710124067632902 0 0.12981355006034451 -0.34704361593103378 0 0.13197924088338889 -0.33271422920625132 0 0.11820372969174429 -0.32621139500878021 0 0.13197924088338889 -0.33271422920625132 0 0.12906344148839469 -0.32652582716015532 0 0.13791842980147551 -0.3266890672549565 0 0.14489705337498801 -0.33710124067632902 0 0.13197924088338889 -0.33271422920625132 0 0.13791842980147551 -0.3266890672549565 0 0.12981355006034451 -0.34704361593103378 0 0.14489705337498801 -0.33710124067632902 0 0.13197924088338889 -0.33271422920625132 0 0.13197924088338889 -0.33271422920625132 0 0.12906344148839469 -0.32652582716015532 0 0.11820372969174429 -0.32621139500878021 0 0.12707662910914591 -0.32216327093416952 0 0.12906344148839469 -0.32652582716015532 0 0.1216108526422847 -0.32442835510370271 0 0.12707662910914591 -0.32216327093416952 0 0.13193154091747769 -0.32084659794728421 0 0.12906344148839469 -0.32652582716015532 0 0.13193154091747769 -0.32084659794728421 0 0.12906344148839469 -0.32652582716015532 0 0.13791842980147551 -0.3266890672549565 0 0.13193154091747769 -0.32084659794728421 0 0.13791842980147551 -0.3266890672549565 0 0.13874667529484891 -0.31970726217878209 0 0.13193154091747769 -0.32084659794728421 0 0.13874667529484891 -0.31970726217878209 0 0.13168877399167311 -0.31267328226611968 0 0.14334058215766729 -0.31276830747450701 0 0.13874667529484891 -0.31970726217878209 0 0.13168877399167311 -0.31267328226611968 0 0.13193154091747769 -0.32084659794728421 0 0.13168877399167311 -0.31267328226611968 0 0.12570068138842669 -0.31685230352553612 0 0.13168877399167311 -0.31267328226611968 0 0.12570068138842669 -0.31685230352553612 0 0.1206449350642575 -0.31273267530916599 0 0.12707662910914591 -0.32216327093416952 0 0.13193154091747769 -0.32084659794728421 0 0.12570068138842669 -0.31685230352553612 0 0.13168877399167311 -0.31267328226611968 0 0.1251592047645993 -0.30168328576800202 0 0.13466966497701369 -0.30344721209128278 0 0.14334058215766729 -0.31276830747450701 0 0.13466966497701369 -0.30344721209128278 0 0.14279458537796219 -0.29657977932236879 0 0.13168877399167311 -0.31267328226611968 0 0.1251592047645993 -0.30168328576800202 0 0.1206449350642575 -0.31273267530916599 0 0.1251592047645993 -0.30168328576800202 0 0.13466966497701369 -0.30344721209128278 0 0.13179753259293531 -0.29148603145091512 0 0.13466966497701369 -0.30344721209128278 0 0.14279458537796219 -0.29657977932236879 0 0.13179753259293531 -0.29148603145091512 0 0.14334058215766729 -0.31276830747450701 0 0.13168877399167311 -0.31267328226611968 0 0.13466966497701369 -0.30344721209128278 0 0.14334058215766729 -0.31276830747450701 0 0.15235265550825361 -0.30752944507263541 0 0.14279458537796219 -0.29657977932236879 0 0.15235265550825361 -0.30752944507263541 0 0.15495681860972149 -0.29557714341328822 0 0.14279458537796219 -0.29657977932236879 0 0.15495681860972149 -0.29557714341328822 0 0.14343913827942131 -0.28117673669499232 0 0.1572329688250633 -0.27800915498555101 0 0.15495681860972149 -0.29557714341328822 0 0.14279458537796219 -0.29657977932236879 0 0.14343913827942131 -0.28117673669499232 0 0.13179753259293531 -0.29148603145091512 0 0.12610381228901629 -0.27973635839720201 0 0.14343913827942131 -0.28117673669499232 0 0.14279458537796219 -0.29657977932236879 0 0.13179753259293531 -0.29148603145091512 0 0.14343913827942131 -0.28117673669499232 0 0.1251592047645993 -0.30168328576800202 0 0.13179753259293531 -0.29148603145091512 0 0.1187848314304174 -0.29077887112321132 0 0.13179753259293531 -0.29148603145091512 0 0.12610381228901629 -0.27973635839720201 0 0.1187848314304174 -0.29077887112321132 0 0.12610381228901629 -0.27973635839720201 0 0.13499638341263531 -0.26930181819777921 0 0.14343913827942131 -0.28117673669499232 0 0.12610381228901629 -0.27973635839720201 0 0.13499638341263531 -0.26930181819777921 0 0.1188275658860955 -0.26719772217839471 0 0.13499638341263531 -0.26930181819777921 0 0.12906799302994659 -0.25991100407216922 0 0.1188275658860955 -0.26719772217839471 0 0.12906799302994659 -0.25991100407216922 0 0.1196722046577542 -0.25417102299646022 0 0.1308809502751575 -0.24859267584269421 0 0.13499638341263531 -0.26930181819777921 0 0.12906799302994659 -0.25991100407216922 0 0.13928167392511689 -0.25653279202325607 0 0.12906799302994659 -0.25991100407216922 0 0.13928167392511689 -0.25653279202325607 0 0.1308809502751575 -0.24859267584269421 0 0.13928167392511689 -0.25653279202325607 0 0.14141424986332879 -0.24505502678180921 0 0.1308809502751575 -0.24859267584269421 0 0.13928167392511689 -0.25653279202325607 0 0.14809292821024431 -0.25134993503629383 0 0.14141424986332879 -0.24505502678180921 0 0.13928167392511689 -0.25653279202325607 0 0.14809292821024431 -0.25134993503629383 0 0.14996057220814801 -0.26390968489150002 0 0.13499638341263531 -0.26930181819777921 0 0.13928167392511689 -0.25653279202325607 0 0.14996057220814801 -0.26390968489150002 0 0.14809292821024431 -0.25134993503629383 0 0.14996057220814801 -0.26390968489150002 0 0.15993424921527771 -0.24882487645807311 0 0.14996057220814801 -0.26390968489150002 0 0.14343913827942131 -0.28117673669499232 0 0.1572329688250633 -0.27800915498555101 0 0.13499638341263531 -0.26930181819777921 0 0.14996057220814801 -0.26390968489150002 0 0.14343913827942131 -0.28117673669499232 0 0.14996057220814801 -0.26390968489150002 0 0.1667788482578485 -0.2656406417823356 0 0.1572329688250633 -0.27800915498555101 0 0.1667788482578485 -0.2656406417823356 0 0.1572329688250633 -0.27800915498555101 0 0.171029466770177 -0.28374156814563889 0 0.14996057220814801 -0.26390968489150002 0 0.1667788482578485 -0.2656406417823356 0 0.15993424921527771 -0.24882487645807311 0 0.1667788482578485 -0.2656406417823356 0 0.1757536332365727 -0.25234785155315981 0 0.15993424921527771 -0.24882487645807311 0 0.1895227772289246 -0.27091676433038492 0 0.1757536332365727 -0.25234785155315981 0 0.19096637578835671 -0.24771322335898729 0 0.1895227772289246 -0.27091676433038492 0 0.1667788482578485 -0.2656406417823356 0 0.1757536332365727 -0.25234785155315981 0 0.1895227772289246 -0.27091676433038492 0 0.1667788482578485 -0.2656406417823356 0 0.171029466770177 -0.28374156814563889 0 0.1880791786694925 -0.29412030530178251 0 0.17243776272482381 -0.30365205692191238 0 0.171029466770177 -0.28374156814563889 0 0.1895227772289246 -0.27091676433038492 0 0.1880791786694925 -0.29412030530178251 0 0.171029466770177 -0.28374156814563889 0 0.1880791786694925 -0.29412030530178251 0 0.19207872750094679 -0.31515929504290391 0 0.17243776272482381 -0.30365205692191238 0 0.19207872750094679 -0.31515929504290391 0 0.17243776272482381 -0.30365205692191238 0 0.1791575815060644 -0.31893231268706751 0 0.16664395044725699 -0.31397240203381033 0 0.17243776272482381 -0.30365205692191238 0 0.16664395044725699 -0.31397240203381033 0 0.15495681860972149 -0.29557714341328822 0 0.16664395044725699 -0.31397240203381033 0 0.15495681860972149 -0.29557714341328822 0 0.17243776272482381 -0.30365205692191238 0 0.16664395044725699 -0.31397240203381033 0 0.15235265550825361 -0.30752944507263541 0 0.15495681860972149 -0.29557714341328822 0 0.15495681860972149 -0.29557714341328822 0 0.17243776272482381 -0.30365205692191238 0 0.171029466770177 -0.28374156814563889 0 0.15495681860972149 -0.29557714341328822 0 0.1572329688250633 -0.27800915498555101 0 0.171029466770177 -0.28374156814563889 0 0.25942875430018991 -0.47899593092680942 0 0.27995863936328769 -0.5 0 0.21051977474250541 -0.5 0 0.21051977474250541 -0.5 0 0.2285573973498484 -0.47632413796771889 0 0.2053610652476362 -0.46662684781337371 0 0.21051977474250541 -0.5 0 0.2053610652476362 -0.46662684781337371 0 0.18029926725183429 -0.47330455984667319 0 0.2053610652476362 -0.46662684781337371 0 0.18029926725183429 -0.47330455984667319 0 0.25942875430018991 -0.47899593092680942 0 0.21051977474250541 -0.5 0 0.2285573973498484 -0.47632413796771889 0 0.25942875430018991 -0.47899593092680942 0 0.2285573973498484 -0.47632413796771889 0 0.24892331014441851 -0.46660937312845951 0 0.2285573973498484 -0.47632413796771889 0 0.23042286324343819 -0.45994913578007413 0 0.2053610652476362 -0.46662684781337371 0 0.25548466123924007 -0.45327142374677459 0 0.23042286324343819 -0.45994913578007413 0 0.25548466123924007 -0.45327142374677459 0 0.23042286324343819 -0.45994913578007413 0 0.24892331014441851 -0.46660937312845951 0 0.2285573973498484 -0.47632413796771889 0 0.23042286324343819 -0.45994913578007413 0 0.24892331014441851 -0.46660937312845951 0 0.25548466123924007 -0.45327142374677459 0 0.23042286324343819 -0.45994913578007413 0 0.24087186830212939 -0.44879682433243479 0 0.25136918124408458 -0.43904996123601692 0 0.24087186830212939 -0.44879682433243479 0 0.23699392437826941 -0.4325627112299944 0 0.2519211020100891 -0.44679589062830061 0 0.25136918124408458 -0.43904996123601692 0 0.24087186830212939 -0.44879682433243479 0 0.2519211020100891 -0.44679589062830061 0 0.25548466123924007 -0.45327142374677459 0 0.24087186830212939 -0.44879682433243479 0 0.23042286324343819 -0.45994913578007413 0 0.21971423614916419 -0.44513670955194939 0 0.20843004771174051 -0.45217146722829671 0 0.23042286324343819 -0.45994913578007413 0 0.24087186830212939 -0.44879682433243479 0 0.21971423614916419 -0.44513670955194939 0 0.24087186830212939 -0.44879682433243479 0 0.21971423614916419 -0.44513670955194939 0 0.23699392437826941 -0.4325627112299944 0 0.21971423614916419 -0.44513670955194939 0 0.208478070230496 -0.44090520823980062 0 0.21798323843377759 -0.42669075762345182 0 0.208478070230496 -0.44090520823980062 0 0.20843004771174051 -0.45217146722829671 0 0.19895543030796331 -0.44128837016807609 0 0.21971423614916419 -0.44513670955194939 0 0.208478070230496 -0.44090520823980062 0 0.20843004771174051 -0.45217146722829671 0 0.23042286324343819 -0.45994913578007413 0 0.2053610652476362 -0.46662684781337371 0 0.23042286324343819 -0.45994913578007413 0 0.20843004771174051 -0.45217146722829671 0 0.2053610652476362 -0.46662684781337371 0 0.20843004771174051 -0.45217146722829671 0 0.2053610652476362 -0.46662684781337371 0 0.19387624907406051 -0.45433336482159581 0 0.2053610652476362 -0.46662684781337371 0 0.19387624907406051 -0.45433336482159581 0 0.18029926725183429 -0.47330455984667319 0 0.19387624907406051 -0.45433336482159581 0 0.19730739854983459 -0.43923873662722879 0 0.17538719929630861 -0.45254190600442301 0 0.19730739854983459 -0.43923873662722879 0 0.19468972804315191 -0.43598317723468599 0 0.17538719929630861 -0.45254190600442301 0 0.19387624907406051 -0.45433336482159581 0 0.19895543030796331 -0.44128837016807609 0 0.19730739854983459 -0.43923873662722879 0 0.208478070230496 -0.44090520823980062 0 0.19895543030796331 -0.44128837016807609 0 0.19730739854983459 -0.43923873662722879 0 0.19730739854983459 -0.43923873662722879 0 0.19468972804315191 -0.43598317723468599 0 0.19895543030796331 -0.44128837016807609 0 0.19730739854983459 -0.43923873662722879 0 0.20843004771174051 -0.45217146722829671 0 0.19387624907406051 -0.45433336482159581 0 0.19895543030796331 -0.44128837016807609 0 0.19730739854983459 -0.43923873662722879 0 0.2031062597904513 -0.42323969604031508 0 0.19468972804315191 -0.43598317723468599 0 0.2031062597904513 -0.42323969604031508 0 0.19468972804315191 -0.43598317723468599 0 0.1794148052653094 -0.41698597411351129 0 0.2031062597904513 -0.42323969604031508 0 0.19484986476292851 -0.40595525984623693 0 0.1794148052653094 -0.41698597411351129 0 0.2031062597904513 -0.42323969604031508 0 0.2123754347916795 -0.39723851264193072 0 0.19484986476292851 -0.40595525984623693 0 0.2031062597904513 -0.42323969604031508 0 0.21798323843377759 -0.42669075762345182 0 0.2210251719961418 -0.41159968231358629 0 0.2031062597904513 -0.42323969604031508 0 0.2210251719961418 -0.41159968231358629 0 0.2123754347916795 -0.39723851264193072 0 0.19730739854983459 -0.43923873662722879 0 0.2031062597904513 -0.42323969604031508 0 0.21798323843377759 -0.42669075762345182 0 0.19730739854983459 -0.43923873662722879 0 0.21798323843377759 -0.42669075762345182 0 0.208478070230496 -0.44090520823980062 0 0.19730739854983459 -0.43923873662722879 0 0.21798323843377759 -0.42669075762345182 0 0.21798323843377759 -0.42669075762345182 0 0.23699392437826941 -0.4325627112299944 0 0.23865907831772071 -0.41414277861967502 0 0.21971423614916419 -0.44513670955194939 0 0.21798323843377759 -0.42669075762345182 0 0.23699392437826941 -0.4325627112299944 0 0.25068429260795089 -0.4274193644325488 0 0.23699392437826941 -0.4325627112299944 0 0.23865907831772071 -0.41414277861967502 0 0.25068429260795089 -0.4274193644325488 0 0.25136918124408458 -0.43904996123601692 0 0.23699392437826941 -0.4325627112299944 0 0.25933491820166388 -0.40159479961589822 0 0.23865907831772071 -0.41414277861967502 0 0.25986908168494899 -0.41713180592291388 0 0.25068429260795089 -0.4274193644325488 0 0.23865907831772071 -0.41414277861967502 0 0.21798323843377759 -0.42669075762345182 0 0.23865907831772071 -0.41414277861967502 0 0.2210251719961418 -0.41159968231358629 0 0.21798323843377759 -0.42669075762345182 0 0.23865907831772071 -0.41414277861967502 0 0.23865907831772071 -0.41414277861967502 0 0.2210251719961418 -0.41159968231358629 0 0.23300184864707979 -0.39668666664255858 0 0.2210251719961418 -0.41159968231358629 0 0.23300184864707979 -0.39668666664255858 0 0.2123754347916795 -0.39723851264193072 0 0.23300184864707979 -0.39668666664255858 0 0.22506095349179711 -0.38558078901540782 0 0.2123754347916795 -0.39723851264193072 0 0.23865907831772071 -0.41414277861967502 0 0.23300184864707979 -0.39668666664255858 0 0.24785660344515331 -0.38941470180170989 0 0.25933491820166388 -0.40159479961589822 0 0.23865907831772071 -0.41414277861967502 0 0.24785660344515331 -0.38941470180170989 0 0.23300184864707979 -0.39668666664255858 0 0.24785660344515331 -0.38941470180170989 0 0.2356735092688749 -0.3783148161018231 0 0.25111996676834131 -0.37092614410471192 0 0.24785660344515331 -0.38941470180170989 0 0.2356735092688749 -0.3783148161018231 0 0.23300184864707979 -0.39668666664255858 0 0.2356735092688749 -0.3783148161018231 0 0.22506095349179711 -0.38558078901540782 0 0.2238812748764023 -0.37007476123018729 0 0.2356735092688749 -0.3783148161018231 0 0.22506095349179711 -0.38558078901540782 0 0.2238812748764023 -0.37007476123018729 0 0.22506095349179711 -0.38558078901540782 0 0.21438316733136509 -0.38155884753985753 0 0.22506095349179711 -0.38558078901540782 0 0.21438316733136509 -0.38155884753985753 0 0.2123754347916795 -0.39723851264193072 0 0.21438316733136509 -0.38155884753985753 0 0.20393825094957241 -0.38343476230284601 0 0.2123754347916795 -0.39723851264193072 0 0.20393825094957241 -0.38343476230284601 0 0.2123754347916795 -0.39723851264193072 0 0.1942006185130711 -0.39061251728161728 0 0.2033628137456118 -0.37176699150318548 0 0.21438316733136509 -0.38155884753985753 0 0.20393825094957241 -0.38343476230284601 0 0.2123754347916795 -0.39723851264193072 0 0.19484986476292851 -0.40595525984623693 0 0.1942006185130711 -0.39061251728161728 0 0.19484986476292851 -0.40595525984623693 0 0.1942006185130711 -0.39061251728161728 0 0.18235646991544599 -0.39874339303555362 0 0.1942006185130711 -0.39061251728161728 0 0.19515935903523879 -0.3780861504505299 0 0.1794433545966525 -0.38121661870292728 0 0.2033628137456118 -0.37176699150318548 0 0.20393825094957241 -0.38343476230284601 0 0.19515935903523879 -0.3780861504505299 0 0.20393825094957241 -0.38343476230284601 0 0.1942006185130711 -0.39061251728161728 0 0.19515935903523879 -0.3780861504505299 0 0.1942006185130711 -0.39061251728161728 0 0.1794433545966525 -0.38121661870292728 0 0.18235646991544599 -0.39874339303555362 0 0.18235646991544599 -0.39874339303555362 0 0.16413988248746711 -0.39798877099233648 0 0.1794148052653094 -0.41698597411351129 0 0.1794433545966525 -0.38121661870292728 0 0.18235646991544599 -0.39874339303555362 0 0.16413988248746711 -0.39798877099233648 0 0.16413988248746711 -0.39798877099233648 0 0.16045563059723289 -0.40202660197178219 0 0.1794148052653094 -0.41698597411351129 0 0.16413988248746711 -0.39798877099233648 0 0.16045563059723289 -0.40202660197178219 0 0.14773534176783479 -0.37920179860051068 0 0.16413988248746711 -0.39798877099233648 0 0.16045563059723289 -0.40202660197178219 0 0.16045563059723289 -0.40202660197178219 0 0.1533669792510321 -0.40979555394926348 0 0.1794433545966525 -0.38121661870292728 0 0.16413988248746711 -0.39798877099233648 0 0.16413988248746711 -0.39798877099233648 0 0.1655271383790741 -0.38576880587195361 0 0.15732099304646641 -0.38134239041915741 0 0.16413988248746711 -0.39798877099233648 0 0.15732099304646641 -0.38134239041915741 0 0.14773534176783479 -0.37920179860051068 0 0.1794433545966525 -0.38121661870292728 0 0.16413988248746711 -0.39798877099233648 0 0.1655271383790741 -0.38576880587195361 0 0.1794433545966525 -0.38121661870292728 0 0.1655271383790741 -0.38576880587195361 0 0.16492591356934741 -0.37858490709730569 0 0.1655271383790741 -0.38576880587195361 0 0.16492591356934741 -0.37858490709730569 0 0.15732099304646641 -0.38134239041915741 0 0.1569832794833429 -0.37225963541855422 0 0.16492591356934741 -0.37858490709730569 0 0.15732099304646641 -0.38134239041915741 0 0.16413988248746711 -0.39798877099233648 0 0.14773534176783479 -0.37920179860051068 0 0.1569832794833429 -0.37225963541855422 0 0.15290712884602931 -0.37439950124734311 0 0.15732099304646641 -0.38134239041915741 0 0.16045563059723289 -0.40202660197178219 0 0.14773534176783479 -0.37920179860051068 0 0.15290712884602931 -0.37439950124734311 0 0.15732099304646641 -0.38134239041915741 0 0.14773534176783479 -0.37920179860051068 0 0.13425710954045181 -0.37941537297245642 0 0.130571671730984 -0.3859151575792536 0 0.1382076234784437 -0.39198512780037231 0 0.14773534176783479 -0.37920179860051068 0 0.13425710954045181 -0.37941537297245642 0 0.1382076234784437 -0.39198512780037231 0 0.130571671730984 -0.3859151575792536 0 0.12631595218810829 -0.38138848684127602 0 0.12350600171693241 -0.39087164270290969 0 0.130571671730984 -0.3859151575792536 0 0.1382076234784437 -0.39198512780037231 0 0.12350600171693241 -0.39087164270290969 0 0.13425710954045181 -0.37941537297245642 0 0.130571671730984 -0.3859151575792536 0 0.12631595218810829 -0.38138848684127602 0 0.12708238592477769 -0.3711726568853902 0 0.13425710954045181 -0.37941537297245642 0 0.12631595218810829 -0.38138848684127602 0 0.1303204984370423 -0.40443061333472718 0 0.14549097747888459 -0.40480426529027602 0 0.12350600171693241 -0.39087164270290969 0 0.1382076234784437 -0.39198512780037231 0 0.14549097747888459 -0.40480426529027602 0 0.12350600171693241 -0.39087164270290969 0 0.14549097747888459 -0.40480426529027602 0 0.12350600171693241 -0.39087164270290969 0 0.16045563059723289 -0.40202660197178219 0 0.14773534176783479 -0.37920179860051068 0 0.14549097747888459 -0.40480426529027602 0 0.14773534176783479 -0.37920179860051068 0 0.1382076234784437 -0.39198512780037231 0 0.14549097747888459 -0.40480426529027602 0 0.14773534176783479 -0.37920179860051068 0 0.14549097747888459 -0.40480426529027602 0 0.16045563059723289 -0.40202660197178219 0 0.14549097747888459 -0.40480426529027602 0 0.1533669792510321 -0.40979555394926348 0 0.14549097747888459 -0.40480426529027602 0 0.1533669792510321 -0.40979555394926348 0 0.14733282966039321 -0.40891339989173781 0 0.14549097747888459 -0.40480426529027602 0 0.1533669792510321 -0.40979555394926348 0 0.1533669792510321 -0.40979555394926348 0 0.14996083621882039 -0.41361883733673449 0 0.1533669792510321 -0.40979555394926348 0 0.14996083621882039 -0.41361883733673449 0 0.14733282966039321 -0.40891339989173781 0 0.1533669792510321 -0.40979555394926348 0 0.14996083621882039 -0.41361883733673449 0 0.15635712989514969 -0.42508793813361601 0 0.14996083621882039 -0.41361883733673449 0 0.14416981331438211 -0.41987537548387133 0 0.14498142021295249 -0.41061701279821061 0 0.14416981331438211 -0.41987537548387133 0 0.14498142021295249 -0.41061701279821061 0 0.14416981331438211 -0.41987537548387133 0 0.14498142021295249 -0.41061701279821061 0 0.13287330046128229 -0.41938943186989031 0 0.14996083621882039 -0.41361883733673449 0 0.14416981331438211 -0.41987537548387133 0 0.14549097747888459 -0.40480426529027602 0 0.14498142021295249 -0.41061701279821061 0 0.1361262959720165 -0.41113705697103547 0 0.14549097747888459 -0.40480426529027602 0 0.14733282966039321 -0.40891339989173781 0 0.14498142021295249 -0.41061701279821061 0 0.14549097747888459 -0.40480426529027602 0 0.14498142021295249 -0.41061701279821061 0 0.14733282966039321 -0.40891339989173781 0 0.14498142021295249 -0.41061701279821061 0 0.14996083621882039 -0.41361883733673449 0 0.14733282966039321 -0.40891339989173781 0 0.14498142021295249 -0.41061701279821061 0 0.1303204984370423 -0.40443061333472718 0 0.14549097747888459 -0.40480426529027602 0 0.1361262959720165 -0.41113705697103547 0 0.1303204984370423 -0.40443061333472718 0 0.1361262959720165 -0.41113705697103547 0 0.13287330046128229 -0.41938943186989031 0 0.1303204984370423 -0.40443061333472718 0 0.13287330046128229 -0.41938943186989031 0 0.11450357334271841 -0.39729018077158451 0 0.14498142021295249 -0.41061701279821061 0 0.1361262959720165 -0.41113705697103547 0 0.13287330046128229 -0.41938943186989031 0 0.14498142021295249 -0.41061701279821061 0 0.13287330046128229 -0.41938943186989031 0 0.14416981331438211 -0.41987537548387133 0 0.13287330046128229 -0.41938943186989031 0 0.13846991199782041 -0.426122298550346 0 0.13846991199782041 -0.426122298550346 0 0.1181796960080411 -0.44835977447329489 0 0.12501564170929311 -0.43161350294415202 0 0.13846991199782041 -0.426122298550346 0 0.1181796960080411 -0.44835977447329489 0 0.13287330046128229 -0.41938943186989031 0 0.12501564170929311 -0.43161350294415202 0 0.13846991199782041 -0.426122298550346 0 0.13287330046128229 -0.41938943186989031 0 0.13846991199782041 -0.426122298550346 0 0.14313067303386459 -0.43172931316629132 0 0.1444318483179895 -0.43329466028011859 0 0.14234127707672861 -0.44073430571457001 0 0.14996083621882039 -0.41361883733673449 0 0.14416981331438211 -0.41987537548387133 0 0.1444318483179895 -0.43329466028011859 0 0.1444318483179895 -0.43329466028011859 0 0.14234127707672861 -0.44073430571457001 0 0.13846991199782041 -0.426122298550346 0 0.14313067303386459 -0.43172931316629132 0 0.14234127707672861 -0.44073430571457001 0 0.14996083621882039 -0.41361883733673449 0 0.1444318483179895 -0.43329466028011859 0 0.14996083621882039 -0.41361883733673449 0 0.1444318483179895 -0.43329466028011859 0 0.15635712989514969 -0.42508793813361601 0 0.14313067303386459 -0.43172931316629132 0 0.14234127707672861 -0.44073430571457001 0 0.14313067303386459 -0.43172931316629132 0 0.1444318483179895 -0.43329466028011859 0 0.14416981331438211 -0.41987537548387133 0 0.14313067303386459 -0.43172931316629132 0 0.1444318483179895 -0.43329466028011859 0 0.14416981331438211 -0.41987537548387133 0 0.14313067303386459 -0.43172931316629132 0 0.14416981331438211 -0.41987537548387133 0 0.13846991199782041 -0.426122298550346 0 0.14313067303386459 -0.43172931316629132 0 0.14416981331438211 -0.41987537548387133 0 0.13846991199782041 -0.426122298550346 0 0.13846991199782041 -0.426122298550346 0 0.14313067303386459 -0.43172931316629132 0 0.1444318483179895 -0.43329466028011859 0 0.1545040365798073 -0.4349268054978131 0 0.15635712989514969 -0.42508793813361601 0 0.1545040365798073 -0.4349268054978131 0 0.16350985228968001 -0.43487381479745341 0 0.15635712989514969 -0.42508793813361601 0 0.16350985228968001 -0.43487381479745341 0 0.1710199696588228 -0.4209828509266737 0 0.17868209120921169 -0.4347314709572328 0 0.16350985228968001 -0.43487381479745341 0 0.15635712989514969 -0.42508793813361601 0 0.1710199696588228 -0.4209828509266737 0 0.16045563059723289 -0.40202660197178219 0 0.1533669792510321 -0.40979555394926348 0 0.1710199696588228 -0.4209828509266737 0 0.1533669792510321 -0.40979555394926348 0 0.1710199696588228 -0.4209828509266737 0 0.1533669792510321 -0.40979555394926348 0 0.15635712989514969 -0.42508793813361601 0 0.1710199696588228 -0.4209828509266737 0 0.16413988248746711 -0.39798877099233648 0 0.1794148052653094 -0.41698597411351129 0 0.16045563059723289 -0.40202660197178219 0 0.1710199696588228 -0.4209828509266737 0 0.16045563059723289 -0.40202660197178219 0 0.1710199696588228 -0.4209828509266737 0 0.1794148052653094 -0.41698597411351129 0 0.19484986476292851 -0.40595525984623693 0 0.18235646991544599 -0.39874339303555362 0 0.1794148052653094 -0.41698597411351129 0 0.19468972804315191 -0.43598317723468599 0 0.1794148052653094 -0.41698597411351129 0 0.19468972804315191 -0.43598317723468599 0 0.1710199696588228 -0.4209828509266737 0 0.1794148052653094 -0.41698597411351129 0 0.19468972804315191 -0.43598317723468599 0 0.1710199696588228 -0.4209828509266737 0 0.19468972804315191 -0.43598317723468599 0 0.1710199696588228 -0.4209828509266737 0 0.17868209120921169 -0.4347314709572328 0 0.1710199696588228 -0.4209828509266737 0 0.17868209120921169 -0.4347314709572328 0 0.21051977474250541 -0.5 0 0.12568737103267669 -0.5 0 0.18029926725183429 -0.47330455984667319 0 0.19730739854983459 -0.43923873662722879 0 0.17538719929630861 -0.45254190600442301 0 0.19468972804315191 -0.43598317723468599 0 0.17868209120921169 -0.4347314709572328 0 0.17538719929630861 -0.45254190600442301 0 0.17868209120921169 -0.4347314709572328 0 0.17538719929630861 -0.45254190600442301 0 0.16733200440991169 -0.44501771102091348 0 0.19387624907406051 -0.45433336482159581 0 0.17538719929630861 -0.45254190600442301 0 0.18029926725183429 -0.47330455984667319 0 0.17538719929630861 -0.45254190600442301 0 0.15346700004278269 -0.46584507538161751 0 0.17538719929630861 -0.45254190600442301 0 0.16457663673024189 -0.45752935547026602 0 0.15346700004278269 -0.46584507538161751 0 0.17538719929630861 -0.45254190600442301 0 0.15346700004278269 -0.46584507538161751 0 0.18029926725183429 -0.47330455984667319 0 0.16457663673024189 -0.45752935547026602 0 0.16733200440991169 -0.44501771102091348 0 0.15450424252411621 -0.44541200787519192 0 0.16457663673024189 -0.45752935547026602 0 0.15450424252411621 -0.44541200787519192 0 0.15027644701373261 -0.45544025305538383 0 0.16457663673024189 -0.45752935547026602 0 0.15450424252411621 -0.44541200787519192 0 0.17538719929630861 -0.45254190600442301 0 0.16457663673024189 -0.45752935547026602 0 0.16733200440991169 -0.44501771102091348 0 0.16350985228968001 -0.43487381479745341 0 0.17868209120921169 -0.4347314709572328 0 0.16733200440991169 -0.44501771102091348 0 0.1545040365798073 -0.4349268054978131 0 0.16350985228968001 -0.43487381479745341 0 0.15450424252411621 -0.44541200787519192 0 0.16350985228968001 -0.43487381479745341 0 0.16733200440991169 -0.44501771102091348 0 0.15450424252411621 -0.44541200787519192 0 0.1444318483179895 -0.43329466028011859 0 0.1545040365798073 -0.4349268054978131 0 0.15450424252411621 -0.44541200787519192 0 0.1444318483179895 -0.43329466028011859 0 0.15450424252411621 -0.44541200787519192 0 0.15450424252411621 -0.44541200787519192 0 0.14163167438234811 -0.44882906084646029 0 0.15027644701373261 -0.45544025305538383 0 0.1444318483179895 -0.43329466028011859 0 0.15450424252411621 -0.44541200787519192 0 0.14234127707672861 -0.44073430571457001 0 0.15450424252411621 -0.44541200787519192 0 0.14163167438234811 -0.44882906084646029 0 0.14234127707672861 -0.44073430571457001 0 0.14163167438234811 -0.44882906084646029 0 0.14234127707672861 -0.44073430571457001 0 0.14234127707672861 -0.44073430571457001 0 0.1369440389329922 -0.45994127523669037 0 0.13846991199782041 -0.426122298550346 0 0.14234127707672861 -0.44073430571457001 0 0.1319318160319892 -0.44710520743846038 0 0.14234127707672861 -0.44073430571457001 0 0.1319318160319892 -0.44710520743846038 0 0.1369440389329922 -0.45994127523669037 0 0.14163167438234811 -0.44882906084646029 0 0.14234127707672861 -0.44073430571457001 0 0.1369440389329922 -0.45994127523669037 0 0.13846991199782041 -0.426122298550346 0 0.1319318160319892 -0.44710520743846038 0 0.1181796960080411 -0.44835977447329489 0 0.1369440389329922 -0.45994127523669037 0 0.1315468007892561 -0.47914824475881101 0 0.1232149026707276 -0.4607179753093662 0 0.1319318160319892 -0.44710520743846038 0 0.1369440389329922 -0.45994127523669037 0 0.1232149026707276 -0.4607179753093662 0 0.1369440389329922 -0.45994127523669037 0 0.15027644701373261 -0.45544025305538383 0 0.15346700004278269 -0.46584507538161751 0 0.1369440389329922 -0.45994127523669037 0 0.15346700004278269 -0.46584507538161751 0 0.1315468007892561 -0.47914824475881101 0 0.14163167438234811 -0.44882906084646029 0 0.1369440389329922 -0.45994127523669037 0 0.15027644701373261 -0.45544025305538383 0 0.16457663673024189 -0.45752935547026602 0 0.15027644701373261 -0.45544025305538383 0 0.15346700004278269 -0.46584507538161751 0 0.15346700004278269 -0.46584507538161751 0 0.12568737103267669 -0.5 0 0.18029926725183429 -0.47330455984667319 0 0.15346700004278269 -0.46584507538161751 0 0.1315468007892561 -0.47914824475881101 0 0.15346700004278269 -0.46584507538161751 0 0.1315468007892561 -0.47914824475881101 0 0.12568737103267669 -0.5 0 0.1369440389329922 -0.45994127523669037 0 0.1315468007892561 -0.47914824475881101 0 0.1315468007892561 -0.47914824475881101 0 0.12568737103267669 -0.5 0 0.075951619622103284 -0.4755769245981481 0 0.06178660149062945 -0.49999999999999573 0 0.075951619622103284 -0.4755769245981481 0 0.080030604185024057 -0.5 0 0.06178660149062945 -0.49999999999999573 0 0.062849177476782134 -0.47012240813253708 0 0.075951619622103284 -0.4755769245981481 0 0.06178660149062945 -0.49999999999999573 0 0.062849177476782134 -0.47012240813253708 0 0.075951619622103284 -0.4755769245981481 0 0.075939841593487906 -0.46063812866441511 0 0.075951619622103284 -0.4755769245981481 0 0.087591553631304706 -0.4884294969823223 0 0.097195515882054495 -0.47814106333114109 0 0.087591553631304706 -0.4884294969823223 0 0.080030604185024057 -0.5 0 0.097188474836036973 -0.49999999999999861 0 0.075951619622103284 -0.4755769245981481 0 0.087591553631304706 -0.4884294969823223 0 0.080030604185024057 -0.5 0 0.097188474836036973 -0.49999999999999861 0 0.1143676378126465 -0.48957412237940479 0 0.097195515882054495 -0.47814106333114109 0 0.087591553631304706 -0.4884294969823223 0 0.097188474836036973 -0.49999999999999861 0 0.097195515882054495 -0.47814106333114109 0 0.097188474836036973 -0.49999999999999861 0 0.1143676378126465 -0.48957412237940479 0 0.12568737103267669 -0.5 0 0.097188474836036973 -0.49999999999999861 0 0.1143676378126465 -0.48957412237940479 0 0.1315468007892561 -0.47914824475881101 0 0.12568737103267669 -0.5 0 0.1143676378126465 -0.48957412237940479 0 0.1315468007892561 -0.47914824475881101 0 0.1143676378126465 -0.48957412237940479 0 0.1141126827310194 -0.47296282055630451 0 0.1315468007892561 -0.47914824475881101 0 0.1143676378126465 -0.48957412237940479 0 0.1315468007892561 -0.47914824475881101 0 0.1141126827310194 -0.47296282055630451 0 0.1232149026707276 -0.4607179753093662 0 0.1143676378126465 -0.48957412237940479 0 0.1141126827310194 -0.47296282055630451 0 0.097195515882054495 -0.47814106333114109 0 0.1141126827310194 -0.47296282055630451 0 0.097195515882054495 -0.47814106333114109 0 0.1065743815310682 -0.4567905293926362 0 0.097195515882054495 -0.47814106333114109 0 0.1065743815310682 -0.4567905293926362 0 0.089030505710194094 -0.45115384919629381 0 0.1141126827310194 -0.47296282055630451 0 0.1065743815310682 -0.4567905293926362 0 0.1232149026707276 -0.4607179753093662 0 0.1065743815310682 -0.4567905293926362 0 0.1232149026707276 -0.4607179753093662 0 0.1181796960080411 -0.44835977447329489 0 0.1065743815310682 -0.4567905293926362 0 0.1181796960080411 -0.44835977447329489 0 0.1109519030857376 -0.43527164053309109 0 0.12501564170929311 -0.43161350294415202 0 0.1181796960080411 -0.44835977447329489 0 0.1109519030857376 -0.43527164053309109 0 0.1319318160319892 -0.44710520743846038 0 0.1232149026707276 -0.4607179753093662 0 0.1181796960080411 -0.44835977447329489 0 0.1065743815310682 -0.4567905293926362 0 0.089030505710194094 -0.45115384919629381 0 0.1109519030857376 -0.43527164053309109 0 0.089030505710194094 -0.45115384919629381 0 0.101124229695609 -0.42857043262736222 0 0.1109519030857376 -0.43527164053309109 0 0.089030505710194094 -0.45115384919629381 0 0.101124229695609 -0.42857043262736222 0 0.089030505710194094 -0.45115384919629381 0 0.1109519030857376 -0.43527164053309109 0 0.089030505710194094 -0.45115384919629381 0 0.077401988785442313 -0.44617074766442072 0 0.081644576974008676 -0.43266870040944738 0 0.089030505710194094 -0.45115384919629381 0 0.075939841593487906 -0.46063812866441511 0 0.077401988785442313 -0.44617074766442072 0 0.075951619622103284 -0.4755769245981481 0 0.089030505710194094 -0.45115384919629381 0 0.075939841593487906 -0.46063812866441511 0 0.075951619622103284 -0.4755769245981481 0 0.097195515882054495 -0.47814106333114109 0 0.089030505710194094 -0.45115384919629381 0 0.075951619622103284 -0.4755769245981481 0 0.089030505710194094 -0.45115384919629381 0 0.089030505710194094 -0.45115384919629381 0 0.075939841593487906 -0.46063812866441511 0 0.062849177476782134 -0.47012240813253708 0 0.063862963010318546 -0.44161670989838642 0 0.062849177476782134 -0.47012240813253708 0 0.075939841593487906 -0.46063812866441511 0 0.063862963010318546 -0.44161670989838642 0 0.062849177476782134 -0.47012240813253708 0 0.075939841593487906 -0.46063812866441511 0 0.063862963010318546 -0.44161670989838642 0 0.077401988785442313 -0.44617074766442072 0 0.081644576974008676 -0.43266870040944738 0 0.075939841593487906 -0.46063812866441511 0 0.063862963010318546 -0.44161670989838642 0 0.077401988785442313 -0.44617074766442072 0 0.063862963010318546 -0.44161670989838642 0 0.06487674854385482 -0.41311101166423592 0 0.063862963010318546 -0.44161670989838642 0 0.06487674854385482 -0.41311101166423592 0 0.081644576974008676 -0.43266870040944738 0 0.06487674854385482 -0.41311101166423592 0 0.087463609318532531 -0.41525678274911398 0 0.078849520756269831 -0.39913077852404111 0 0.06487674854385482 -0.41311101166423592 0 0.087463609318532531 -0.41525678274911398 0 0.081644576974008676 -0.43266870040944738 0 0.087463609318532531 -0.41525678274911398 0 0.081644576974008676 -0.43266870040944738 0 0.101124229695609 -0.42857043262736222 0 0.089030505710194094 -0.45115384919629381 0 0.081644576974008676 -0.43266870040944738 0 0.101124229695609 -0.42857043262736222 0 0.101124229695609 -0.42857043262736222 0 0.1116564703424316 -0.42322351471985348 0 0.1014599755437761 -0.41537716744409292 0 0.101124229695609 -0.42857043262736222 0 0.1109519030857376 -0.43527164053309109 0 0.1116564703424316 -0.42322351471985348 0 0.13287330046128229 -0.41938943186989031 0 0.1109519030857376 -0.43527164053309109 0 0.13287330046128229 -0.41938943186989031 0 0.1109519030857376 -0.43527164053309109 0 0.1116564703424316 -0.42322351471985348 0 0.13287330046128229 -0.41938943186989031 0 0.12501564170929311 -0.43161350294415202 0 0.1109519030857376 -0.43527164053309109 0 0.13287330046128229 -0.41938943186989031 0 0.11388094764625881 -0.41364838203611243 0 0.11450357334271841 -0.39729018077158451 0 0.13287330046128229 -0.41938943186989031 0 0.11450357334271841 -0.39729018077158451 0 0.13287330046128229 -0.41938943186989031 0 0.1116564703424316 -0.42322351471985348 0 0.11388094764625881 -0.41364838203611243 0 0.11388094764625881 -0.41364838203611243 0 0.1014599755437761 -0.41537716744409292 0 0.1071389450076748 -0.40491976416979009 0 0.1014599755437761 -0.41537716744409292 0 0.09437611127522412 -0.39876639253413287 0 0.1071389450076748 -0.40491976416979009 0 0.087463609318532531 -0.41525678274911398 0 0.1014599755437761 -0.41537716744409292 0 0.09437611127522412 -0.39876639253413287 0 0.1116564703424316 -0.42322351471985348 0 0.11388094764625881 -0.41364838203611243 0 0.1014599755437761 -0.41537716744409292 0 0.087463609318532531 -0.41525678274911398 0 0.101124229695609 -0.42857043262736222 0 0.1014599755437761 -0.41537716744409292 0 0.09437611127522412 -0.39876639253413287 0 0.1055193966371359 -0.39135313688699908 0 0.1071389450076748 -0.40491976416979009 0 0.1055193966371359 -0.39135313688699908 0 0.1071389450076748 -0.40491976416979009 0 0.11450357334271841 -0.39729018077158451 0 0.11388094764625881 -0.41364838203611243 0 0.1071389450076748 -0.40491976416979009 0 0.11450357334271841 -0.39729018077158451 0 0.1055193966371359 -0.39135313688699908 0 0.11450357334271841 -0.39729018077158451 0 0.12350600171693241 -0.39087164270290969 0 0.1303204984370423 -0.40443061333472718 0 0.11450357334271841 -0.39729018077158451 0 0.12350600171693241 -0.39087164270290969 0 0.1055193966371359 -0.39135313688699908 0 0.12350600171693241 -0.39087164270290969 0 0.10152102595498 -0.3769390201155437 0 0.12350600171693241 -0.39087164270290969 0 0.10152102595498 -0.3769390201155437 0 0.12350600171693241 -0.39087164270290969 0 0.1172385494377032 -0.37644946353314013 0 0.10152102595498 -0.3769390201155437 0 0.12708238592477769 -0.3711726568853902 0 0.12631595218810829 -0.38138848684127602 0 0.1172385494377032 -0.37644946353314013 0 0.12631595218810829 -0.38138848684127602 0 0.12350600171693241 -0.39087164270290969 0 0.1172385494377032 -0.37644946353314013 0 0.09437611127522412 -0.39876639253413287 0 0.094426251803852862 -0.36869747355664989 0 0.09437611127522412 -0.39876639253413287 0 0.10152102595498 -0.3769390201155437 0 0.094426251803852862 -0.36869747355664989 0 0.09437611127522412 -0.39876639253413287 0 0.1055193966371359 -0.39135313688699908 0 0.10152102595498 -0.3769390201155437 0 0.09437611127522412 -0.39876639253413287 0 0.081640600566346533 -0.38391439224263718 0 0.094426251803852862 -0.36869747355664989 0 0.087463609318532531 -0.41525678274911398 0 0.09437611127522412 -0.39876639253413287 0 0.078849520756269831 -0.39913077852404111 0 0.09437611127522412 -0.39876639253413287 0 0.081640600566346533 -0.38391439224263718 0 0.078849520756269831 -0.39913077852404111 0 0.06487674854385482 -0.41311101166423592 0 0.078849520756269831 -0.39913077852404111 0 0.065890534077391094 -0.3846053134300853 0 0.06487674854385482 -0.41311101166423592 0 0.065890534077391094 -0.3846053134300853 0 0.081640600566346533 -0.38391439224263718 0 0.078849520756269831 -0.39913077852404111 0 0.065890534077391094 -0.3846053134300853 0 0.081640600566346533 -0.38391439224263718 0 0.065890534077391094 -0.3846053134300853 0 0.073891795549607481 -0.36784549658753318 0 0.065890534077391094 -0.3846053134300853 0 0.034515754640013392 -0.39747604312024393 0 0.045118820712252511 -0.36445871131086099 0 0.034515754640013392 -0.39747604312024393 0 0.02044003490213514 -0.37737378967670732 0 0.045118820712252511 -0.36445871131086099 0 0.06487674854385482 -0.41311101166423592 0 0.065890534077391094 -0.3846053134300853 0 0.034515754640013392 -0.39747604312024393 0 -0.0038527496268592589 -0.3672291952552324 0 -0.0040446306882286412 -0.39018727966337591 0 0.02044003490213514 -0.37737378967670732 0 -0.0040446306882286412 -0.39018727966337591 0 0.02044003490213514 -0.37737378967670732 0 -0.0040446306882286412 -0.39018727966337591 0 0.02044003490213514 -0.37737378967670732 0 0.010306551863908201 -0.40149362704505198 0 0.02044003490213514 -0.37737378967670732 0 0.010306551863908201 -0.40149362704505198 0 0.034515754640013392 -0.39747604312024393 0 0.02044003490213514 -0.37737378967670732 0 0.010306551863908201 -0.40149362704505198 0 0.034515754640013392 -0.39747604312024393 0 0.010306551863908201 -0.40149362704505198 0 0.02331766953821544 -0.41105881360340119 0 0.02331766953821544 -0.41105881360340119 0 0.01273534387527378 -0.42484218371901528 0 0.035713027773666382 -0.42042340052929339 0 0.034515754640013392 -0.39747604312024393 0 0.02331766953821544 -0.41105881360340119 0 0.035713027773666382 -0.42042340052929339 0 -0.0069820897190364401 -0.4086769801487235 0 0.010306551863908201 -0.40149362704505198 0 0.01273534387527378 -0.42484218371901528 0 0.010306551863908201 -0.40149362704505198 0 0.02331766953821544 -0.41105881360340119 0 0.01273534387527378 -0.42484218371901528 0 -0.009633871137189191 -0.42927842521070569 0 0.01273534387527378 -0.42484218371901528 0 0.0024577522408671922 -0.43896216099892871 0 0.01273534387527378 -0.42484218371901528 0 0.016127916594840839 -0.44787153081649128 0 0.0024577522408671922 -0.43896216099892871 0 0.01273534387527378 -0.42484218371901528 0 0.031727668068430817 -0.4395056664637022 0 0.016127916594840839 -0.44787153081649128 0 0.01273534387527378 -0.42484218371901528 0 0.035713027773666382 -0.42042340052929339 0 0.031727668068430817 -0.4395056664637022 0 0.035713027773666382 -0.42042340052929339 0 0.048283266718296053 -0.43313336609351499 0 0.031727668068430817 -0.4395056664637022 0 0.06487674854385482 -0.41311101166423592 0 0.034515754640013392 -0.39747604312024393 0 0.035713027773666382 -0.42042340052929339 0 0.063862963010318546 -0.44161670989838642 0 0.06487674854385482 -0.41311101166423592 0 0.048283266718296053 -0.43313336609351499 0 0.06487674854385482 -0.41311101166423592 0 0.035713027773666382 -0.42042340052929339 0 0.048283266718296053 -0.43313336609351499 0 0.048283266718296053 -0.43313336609351499 0 0.053238278940815252 -0.45272339653991361 0 0.041530218571387348 -0.45349995376750812 0 0.063862963010318546 -0.44161670989838642 0 0.048283266718296053 -0.43313336609351499 0 0.053238278940815252 -0.45272339653991361 0 0.062849177476782134 -0.47012240813253708 0 0.053238278940815252 -0.45272339653991361 0 0.049665768927292013 -0.46524454480762129 0 0.062849177476782134 -0.47012240813253708 0 0.063862963010318546 -0.44161670989838642 0 0.053238278940815252 -0.45272339653991361 0 0.053238278940815252 -0.45272339653991361 0 0.049665768927292013 -0.46524454480762129 0 0.041530218571387348 -0.45349995376750812 0 0.049665768927292013 -0.46524454480762129 0 0.041530218571387348 -0.45349995376750812 0 0.038003589529994032 -0.47208222323450222 0 0.041530218571387348 -0.45349995376750812 0 0.026557377892838741 -0.45935340391835949 0 0.038003589529994032 -0.47208222323450222 0 0.041530218571387348 -0.45349995376750812 0 0.031727668068430817 -0.4395056664637022 0 0.026557377892838741 -0.45935340391835949 0 0.048283266718296053 -0.43313336609351499 0 0.041530218571387348 -0.45349995376750812 0 0.031727668068430817 -0.4395056664637022 0 0.031727668068430817 -0.4395056664637022 0 0.016127916594840839 -0.44787153081649128 0 0.026557377892838741 -0.45935340391835949 0 -0.009398380369456661 -0.45385650424950202 0 0.016127916594840839 -0.44787153081649128 0 0.0024577522408671922 -0.43896216099892871 0 -0.009398380369456661 -0.45385650424950202 0 0.016127916594840839 -0.44787153081649128 0 0.0069670417537066919 -0.46493374492892559 0 0.016127916594840839 -0.44787153081649128 0 0.0069670417537066919 -0.46493374492892559 0 0.026557377892838741 -0.45935340391835949 0 0.0069670417537066919 -0.46493374492892559 0 0.026557377892838741 -0.45935340391835949 0 0.024831221726946729 -0.47770931884794832 0 0.026557377892838741 -0.45935340391835949 0 0.024831221726946729 -0.47770931884794832 0 0.038003589529994032 -0.47208222323450222 0 0.0069670417537066919 -0.46493374492892559 0 0.024831221726946729 -0.47770931884794832 0 0.01065173656885314 -0.48430315308847149 0 -0.01269979997855125 -0.47887270166548351 0 0.0069670417537066919 -0.46493374492892559 0 0.01065173656885314 -0.48430315308847149 0 0.01065173656885314 -0.48430315308847149 0 0.002177945731232533 -0.5 0 0.031982273610930978 -0.5 0 -0.01269979997855125 -0.47887270166548351 0 0.01065173656885314 -0.48430315308847149 0 0.002177945731232533 -0.5 0 0.024831221726946729 -0.47770931884794832 0 0.01065173656885314 -0.48430315308847149 0 0.031982273610930978 -0.5 0 0.031982273610930978 -0.5 0 0.040841658097982181 -0.48650110239258398 0 0.06178660149062945 -0.49999999999999573 0 0.024831221726946729 -0.47770931884794832 0 0.031982273610930978 -0.5 0 0.040841658097982181 -0.48650110239258398 0 0.024831221726946729 -0.47770931884794832 0 0.040841658097982181 -0.48650110239258398 0 0.038003589529994032 -0.47208222323450222 0 0.049665768927292013 -0.46524454480762129 0 0.038003589529994032 -0.47208222323450222 0 0.051685466315939461 -0.47821059644803321 0 0.040841658097982181 -0.48650110239258398 0 0.038003589529994032 -0.47208222323450222 0 0.051685466315939461 -0.47821059644803321 0 0.062849177476782134 -0.47012240813253708 0 0.051685466315939461 -0.47821059644803321 0 0.06178660149062945 -0.49999999999999573 0 0.062849177476782134 -0.47012240813253708 0 0.049665768927292013 -0.46524454480762129 0 0.051685466315939461 -0.47821059644803321 0 0.062849177476782134 -0.47012240813253708 0 0.051685466315939461 -0.47821059644803321 0 0.062849177476782134 -0.47012240813253708 0 0.06178660149062945 -0.49999999999999573 0 0.040841658097982181 -0.48650110239258398 0 0.051685466315939461 -0.47821059644803321 0 0.06178660149062945 -0.49999999999999573 0 0.087755608200669327 -0.28440773572457823 0 0.084781975672079332 -0.30147227297985479 0 0.066420075856435529 -0.30156260943484148 0 0.087755608200669327 -0.28440773572457823 0 0.084781975672079332 -0.30147227297985479 0 0.095717625389146965 -0.29835989490034021 0 0.084781975672079332 -0.30147227297985479 0 0.094525114727023671 -0.30941008054348501 0 0.095717625389146965 -0.29835989490034021 0 0.084781975672079332 -0.30147227297985479 0 0.094525114727023671 -0.30941008054348501 0 0.080458711684886275 -0.31381224542774261 0 0.084781975672079332 -0.30147227297985479 0 0.066420075856435529 -0.30156260943484148 0 0.080458711684886275 -0.31381224542774261 0 0.066420075856435529 -0.30156260943484148 0 0.080458711684886275 -0.31381224542774261 0 0.06461004345746818 -0.32179361845951399 0 0.066420075856435529 -0.30156260943484148 0 0.080458711684886275 -0.31381224542774261 0 0.066420075856435529 -0.30156260943484148 0 0.074615354478404172 -0.27986014395819647 0 0.062309436811790957 -0.28015833660389949 0 0.087755608200669327 -0.28440773572457823 0 0.066420075856435529 -0.30156260943484148 0 0.074615354478404172 -0.27986014395819647 0 0.087755608200669327 -0.28440773572457823 0 0.066420075856435529 -0.30156260943484148 0 0.074615354478404172 -0.27986014395819647 0 0.071050251710601198 -0.26387615718726343 0 0.062309436811790957 -0.28015833660389949 0 0.074615354478404172 -0.27986014395819647 0 0.071050251710601198 -0.26387615718726343 0 0.085541399812524135 -0.26929588084039979 0 0.071050251710601198 -0.26387615718726343 0 0.055835307651992849 -0.25860407515123002 0 0.063191750791965512 -0.2478844723196435 0 0.071050251710601198 -0.26387615718726343 0 0.063191750791965512 -0.2478844723196435 0 0.077824764188750256 -0.24806112706710451 0 0.071050251710601198 -0.26387615718726343 0 0.091226166940717016 -0.25523961270148521 0 0.085541399812524135 -0.26929588084039979 0 0.071050251710601198 -0.26387615718726343 0 0.091226166940717016 -0.25523961270148521 0 0.071050251710601198 -0.26387615718726343 0 0.091226166940717016 -0.25523961270148521 0 0.077824764188750256 -0.24806112706710451 0 0.091226166940717016 -0.25523961270148521 0 0.077824764188750256 -0.24806112706710451 0 0.087408311407275799 -0.24871554933453291 0 0.091226166940717016 -0.25523961270148521 0 0.085541399812524135 -0.26929588084039979 0 0.095087836655275662 -0.26525037220608061 0 0.091226166940717016 -0.25523961270148521 0 0.087408311407275799 -0.24871554933453291 0 0.093755337571119035 -0.24848599676784819 0 0.087755608200669327 -0.28440773572457823 0 0.074615354478404172 -0.27986014395819647 0 0.085541399812524135 -0.26929588084039979 0 0.085541399812524135 -0.26929588084039979 0 0.098588492521629392 -0.27544297411638852 0 0.095087836655275662 -0.26525037220608061 0 0.087755608200669327 -0.28440773572457823 0 0.085541399812524135 -0.26929588084039979 0 0.098588492521629392 -0.27544297411638852 0 0.098588492521629392 -0.27544297411638852 0 0.10499528734623211 -0.26102302116604892 0 0.1118173396904354 -0.27974808674103158 0 0.098588492521629392 -0.27544297411638852 0 0.095087836655275662 -0.26525037220608061 0 0.10499528734623211 -0.26102302116604892 0 0.098588492521629392 -0.27544297411638852 0 0.10499528734623211 -0.26102302116604892 0 0.091226166940717016 -0.25523961270148521 0 0.10499528734623211 -0.26102302116604892 0 0.1114020821708336 -0.24660306821570879 0 0.091226166940717016 -0.25523961270148521 0 0.1114020821708336 -0.24660306821570879 0 0.091226166940717016 -0.25523961270148521 0 0.095087836655275662 -0.26525037220608061 0 0.10499528734623211 -0.26102302116604892 0 0.10499528734623211 -0.26102302116604892 0 0.1114020821708336 -0.24660306821570879 0 0.10499528734623211 -0.26102302116604892 0 0.1196722046577542 -0.25417102299646022 0 0.1114020821708336 -0.24660306821570879 0 0.10499528734623211 -0.26102302116604892 0 0.1196722046577542 -0.25417102299646022 0 0.1188275658860955 -0.26719772217839471 0 0.12906799302994659 -0.25991100407216922 0 0.1196722046577542 -0.25417102299646022 0 0.1188275658860955 -0.26719772217839471 0 0.10499528734623211 -0.26102302116604892 0 0.1118173396904354 -0.27974808674103158 0 0.1188275658860955 -0.26719772217839471 0 0.12610381228901629 -0.27973635839720201 0 0.1118173396904354 -0.27974808674103158 0 0.1188275658860955 -0.26719772217839471 0 0.12610381228901629 -0.27973635839720201 0 0.1118173396904354 -0.27974808674103158 0 0.1187848314304174 -0.29077887112321132 0 0.1187848314304174 -0.29077887112321132 0 0.104819728541573 -0.29092961857166127 0 0.11522287992104729 -0.30034084349083251 0 0.1118173396904354 -0.27974808674103158 0 0.1187848314304174 -0.29077887112321132 0 0.104819728541573 -0.29092961857166127 0 0.087755608200669327 -0.28440773572457823 0 0.098588492521629392 -0.27544297411638852 0 0.104819728541573 -0.29092961857166127 0 0.098588492521629392 -0.27544297411638852 0 0.1118173396904354 -0.27974808674103158 0 0.104819728541573 -0.29092961857166127 0 0.087755608200669327 -0.28440773572457823 0 0.104819728541573 -0.29092961857166127 0 0.095717625389146965 -0.29835989490034021 0 0.094525114727023671 -0.30941008054348501 0 0.095717625389146965 -0.29835989490034021 0 0.1067056998043894 -0.30557976668212161 0 0.104819728541573 -0.29092961857166127 0 0.095717625389146965 -0.29835989490034021 0 0.1067056998043894 -0.30557976668212161 0 0.104819728541573 -0.29092961857166127 0 0.1067056998043894 -0.30557976668212161 0 0.11522287992104729 -0.30034084349083251 0 0.094525114727023671 -0.30941008054348501 0 0.1067056998043894 -0.30557976668212161 0 0.10348479743980291 -0.32023470322226699 0 0.1067056998043894 -0.30557976668212161 0 0.11522287992104729 -0.30034084349083251 0 0.1206449350642575 -0.31273267530916599 0 0.1251592047645993 -0.30168328576800202 0 0.1187848314304174 -0.29077887112321132 0 0.11522287992104729 -0.30034084349083251 0 0.1251592047645993 -0.30168328576800202 0 0.11522287992104729 -0.30034084349083251 0 0.1206449350642575 -0.31273267530916599 0 0.12570068138842669 -0.31685230352553612 0 0.1206449350642575 -0.31273267530916599 0 0.1216108526422847 -0.32442835510370271 0 0.1067056998043894 -0.30557976668212161 0 0.1206449350642575 -0.31273267530916599 0 0.11820372969174429 -0.32621139500878021 0 0.1067056998043894 -0.30557976668212161 0 0.11820372969174429 -0.32621139500878021 0 0.1067056998043894 -0.30557976668212161 0 0.11820372969174429 -0.32621139500878021 0 0.10348479743980291 -0.32023470322226699 0 0.1206449350642575 -0.31273267530916599 0 0.11820372969174429 -0.32621139500878021 0 0.1216108526422847 -0.32442835510370271 0 0.12906344148839469 -0.32652582716015532 0 0.11820372969174429 -0.32621139500878021 0 0.1216108526422847 -0.32442835510370271 0 0.11820372969174429 -0.32621139500878021 0 0.1216108526422847 -0.32442835510370271 0 0.12707662910914591 -0.32216327093416952 0 0.12570068138842669 -0.31685230352553612 0 0.1216108526422847 -0.32442835510370271 0 0.11820372969174429 -0.32621139500878021 0 0.1141966428722406 -0.34325081632941551 0 0.103492095462521 -0.33391039245630688 0 0.12981355006034451 -0.34704361593103378 0 0.11820372969174429 -0.32621139500878021 0 0.1141966428722406 -0.34325081632941551 0 0.12981355006034451 -0.34704361593103378 0 0.11820372969174429 -0.32621139500878021 0 0.11820372969174429 -0.32621139500878021 0 0.103492095462521 -0.33391039245630688 0 0.1141966428722406 -0.34325081632941551 0 0.103492095462521 -0.33391039245630688 0 0.1054122982004758 -0.34244547417412319 0 0.1141966428722406 -0.34325081632941551 0 0.103492095462521 -0.33391039245630688 0 0.103492095462521 -0.33391039245630688 0 0.09447639233248635 -0.33862855457916691 0 0.103492095462521 -0.33391039245630688 0 0.1054122982004758 -0.34244547417412319 0 0.09447639233248635 -0.33862855457916691 0 0.1054122982004758 -0.34244547417412319 0 0.09447639233248635 -0.33862855457916691 0 0.1045655088188682 -0.34966460077536748 0 0.09447639233248635 -0.33862855457916691 0 0.094497347513336979 -0.32606188142064357 0 0.103492095462521 -0.33391039245630688 0 0.09447639233248635 -0.33862855457916691 0 0.094497347513336979 -0.32606188142064357 0 0.103492095462521 -0.33391039245630688 0 0.094497347513336979 -0.32606188142064357 0 0.103492095462521 -0.33391039245630688 0 0.094497347513336979 -0.32606188142064357 0 0.10348479743980291 -0.32023470322226699 0 0.094525114727023671 -0.30941008054348501 0 0.094497347513336979 -0.32606188142064357 0 0.10348479743980291 -0.32023470322226699 0 0.094525114727023671 -0.30941008054348501 0 0.094497347513336979 -0.32606188142064357 0 0.11820372969174429 -0.32621139500878021 0 0.103492095462521 -0.33391039245630688 0 0.10348479743980291 -0.32023470322226699 0 0.1172385494377032 -0.37644946353314013 0 0.10152102595498 -0.3769390201155437 0 0.1105361653812456 -0.36958880332721589 0 0.1172385494377032 -0.37644946353314013 0 0.1105361653812456 -0.36958880332721589 0 0.1187090327596223 -0.36620155235890761 0 0.12708238592477769 -0.3711726568853902 0 0.1172385494377032 -0.37644946353314013 0 0.1187090327596223 -0.36620155235890761 0 0.12719922570869319 -0.36045835834078788 0 0.12708238592477769 -0.3711726568853902 0 0.1187090327596223 -0.36620155235890761 0 0.12719922570869319 -0.36045835834078788 0 0.1187090327596223 -0.36620155235890761 0 0.1197528644682677 -0.35463299991206948 0 0.1105361653812456 -0.36958880332721589 0 0.1187090327596223 -0.36620155235890761 0 0.1116696457163588 -0.36166131442005189 0 0.1187090327596223 -0.36620155235890761 0 0.1116696457163588 -0.36166131442005189 0 0.1197528644682677 -0.35463299991206948 0 0.12981355006034451 -0.34704361593103378 0 0.1141966428722406 -0.34325081632941551 0 0.11070685806266679 -0.34585883830517022 0 0.12981355006034451 -0.34704361593103378 0 0.1197528644682677 -0.35463299991206948 0 0.11070685806266679 -0.34585883830517022 0 0.12981355006034451 -0.34704361593103378 0 0.11070685806266679 -0.34585883830517022 0 0.11135479429473751 -0.3542410450488338 0 0.1197528644682677 -0.35463299991206948 0 0.11070685806266679 -0.34585883830517022 0 0.1116696457163588 -0.36166131442005189 0 0.11135479429473751 -0.3542410450488338 0 0.1197528644682677 -0.35463299991206948 0 0.1116696457163588 -0.36166131442005189 0 0.11135479429473751 -0.3542410450488338 0 0.10642429550358221 -0.35732855728135132 0 0.1141966428722406 -0.34325081632941551 0 0.1054122982004758 -0.34244547417412319 0 0.11070685806266679 -0.34585883830517022 0 0.09447639233248635 -0.33862855457916691 0 0.094426251803852862 -0.36869747355664989 0 0.09447639233248635 -0.33862855457916691 0 0.10050390077200121 -0.35610430338959831 0 0.094426251803852862 -0.36869747355664989 0 0.09447639233248635 -0.33862855457916691 0 0.1045655088188682 -0.34966460077536748 0 0.10050390077200121 -0.35610430338959831 0 0.11135479429473751 -0.3542410450488338 0 0.11070685806266679 -0.34585883830517022 0 0.1045655088188682 -0.34966460077536748 0 0.1054122982004758 -0.34244547417412319 0 0.11070685806266679 -0.34585883830517022 0 0.1045655088188682 -0.34966460077536748 0 0.1045655088188682 -0.34966460077536748 0 0.10050390077200121 -0.35610430338959831 0 0.10642429550358221 -0.35732855728135132 0 0.11135479429473751 -0.3542410450488338 0 0.1045655088188682 -0.34966460077536748 0 0.10642429550358221 -0.35732855728135132 0 0.10050390077200121 -0.35610430338959831 0 0.10642429550358221 -0.35732855728135132 0 0.1040276279159454 -0.36497152277290468 0 0.1105361653812456 -0.36958880332721589 0 0.1116696457163588 -0.36166131442005189 0 0.1040276279159454 -0.36497152277290468 0 0.1116696457163588 -0.36166131442005189 0 0.10642429550358221 -0.35732855728135132 0 0.1040276279159454 -0.36497152277290468 0 0.10050390077200121 -0.35610430338959831 0 0.1040276279159454 -0.36497152277290468 0 0.094426251803852862 -0.36869747355664989 0 0.10152102595498 -0.3769390201155437 0 0.1040276279159454 -0.36497152277290468 0 0.094426251803852862 -0.36869747355664989 0 0.10152102595498 -0.3769390201155437 0 0.1105361653812456 -0.36958880332721589 0 0.1040276279159454 -0.36497152277290468 0 0.094426251803852862 -0.36869747355664989 0 0.08409913957018017 -0.35587155130933729 0 0.073891795549607481 -0.36784549658753318 0 0.081640600566346533 -0.38391439224263718 0 0.094426251803852862 -0.36869747355664989 0 0.073891795549607481 -0.36784549658753318 0 0.09447639233248635 -0.33862855457916691 0 0.069797606522369923 -0.35154363294501489 0 0.09447639233248635 -0.33862855457916691 0 0.08409913957018017 -0.35587155130933729 0 0.069797606522369923 -0.35154363294501489 0 0.09447639233248635 -0.33862855457916691 0 0.094426251803852862 -0.36869747355664989 0 0.08409913957018017 -0.35587155130933729 0 0.08409913957018017 -0.35587155130933729 0 0.069797606522369923 -0.35154363294501489 0 0.073891795549607481 -0.36784549658753318 0 0.069797606522369923 -0.35154363294501489 0 0.073891795549607481 -0.36784549658753318 0 0.045118820712252511 -0.36445871131086099 0 0.094497347513336979 -0.32606188142064357 0 0.080458711684886275 -0.31381224542774261 0 0.077982291988881125 -0.33166262846323252 0 0.094525114727023671 -0.30941008054348501 0 0.094497347513336979 -0.32606188142064357 0 0.080458711684886275 -0.31381224542774261 0 0.094497347513336979 -0.32606188142064357 0 0.080458711684886275 -0.31381224542774261 0 0.09447639233248635 -0.33862855457916691 0 0.069797606522369923 -0.35154363294501489 0 0.077982291988881125 -0.33166262846323252 0 0.09447639233248635 -0.33862855457916691 0 0.094497347513336979 -0.32606188142064357 0 0.077982291988881125 -0.33166262846323252 0 0.069797606522369923 -0.35154363294501489 0 0.077982291988881125 -0.33166262846323252 0 0.06290974630975199 -0.33692369367953467 0 0.077982291988881125 -0.33166262846323252 0 0.06290974630975199 -0.33692369367953467 0 0.06461004345746818 -0.32179361845951399 0 0.080458711684886275 -0.31381224542774261 0 0.077982291988881125 -0.33166262846323252 0 0.06461004345746818 -0.32179361845951399 0 0.06461004345746818 -0.32179361845951399 0 0.05268026965995691 -0.32805702588966978 0 0.045082737076614317 -0.31871893561292952 0 0.066420075856435529 -0.30156260943484148 0 0.06461004345746818 -0.32179361845951399 0 0.045082737076614317 -0.31871893561292952 0 0.06290974630975199 -0.33692369367953467 0 0.05268026965995691 -0.32805702588966978 0 0.049547754204683873 -0.33660581399782408 0 0.06290974630975199 -0.33692369367953467 0 0.06461004345746818 -0.32179361845951399 0 0.05268026965995691 -0.32805702588966978 0 0.06290974630975199 -0.33692369367953467 0 0.049547754204683873 -0.33660581399782408 0 0.054762462223884853 -0.34744143045406373 0 0.05268026965995691 -0.32805702588966978 0 0.049547754204683873 -0.33660581399782408 0 0.040372558382361159 -0.32993015920236002 0 0.049547754204683873 -0.33660581399782408 0 0.040372558382361159 -0.32993015920236002 0 0.040372558382361159 -0.32993015920236002 0 0.03552543144613006 -0.32640350464340773 0 0.022101296261978071 -0.33719720503194639 0 0.040372558382361159 -0.32993015920236002 0 0.030406296642247761 -0.35365197443953339 0 0.049547754204683873 -0.33660581399782408 0 0.040372558382361159 -0.32993015920236002 0 0.044338568018333961 -0.34907608706227872 0 0.040372558382361159 -0.32993015920236002 0 0.03552543144613006 -0.32640350464340773 0 0.03552543144613006 -0.32640350464340773 0 0.036509023474654782 -0.31308953626827207 0 0.045082737076614317 -0.31871893561292952 0 0.036509023474654782 -0.31308953626827207 0 0.046505353518844078 -0.31533280696450089 0 0.045082737076614317 -0.31871893561292952 0 0.046505353518844078 -0.31533280696450089 0 0.045082737076614317 -0.31871893561292952 0 0.05268026965995691 -0.32805702588966978 0 0.040372558382361159 -0.32993015920236002 0 0.045082737076614317 -0.31871893561292952 0 0.040372558382361159 -0.32993015920236002 0 0.03552543144613006 -0.32640350464340773 0 0.045082737076614317 -0.31871893561292952 0 0.040372558382361159 -0.32993015920236002 0 0.045082737076614317 -0.31871893561292952 0 0.03552543144613006 -0.32640350464340773 0 0.045082737076614317 -0.31871893561292952 0 0.065890534077391094 -0.3846053134300853 0 0.073891795549607481 -0.36784549658753318 0 0.045118820712252511 -0.36445871131086099 0 0.069797606522369923 -0.35154363294501489 0 0.045118820712252511 -0.36445871131086099 0 0.069797606522369923 -0.35154363294501489 0 0.054762462223884853 -0.34744143045406373 0 0.045118820712252511 -0.36445871131086099 0 0.054762462223884853 -0.34744143045406373 0 0.044338568018333961 -0.34907608706227872 0 0.045118820712252511 -0.36445871131086099 0 0.069797606522369923 -0.35154363294501489 0 0.06290974630975199 -0.33692369367953467 0 0.054762462223884853 -0.34744143045406373 0 0.049547754204683873 -0.33660581399782408 0 0.054762462223884853 -0.34744143045406373 0 0.044338568018333961 -0.34907608706227872 0 0.040372558382361159 -0.32993015920236002 0 0.044338568018333961 -0.34907608706227872 0 0.030406296642247761 -0.35365197443953339 0 0.044338568018333961 -0.34907608706227872 0 0.045118820712252511 -0.36445871131086099 0 0.030406296642247761 -0.35365197443953339 0 0.02044003490213514 -0.37737378967670732 0 0.045118820712252511 -0.36445871131086099 0 0.030406296642247761 -0.35365197443953339 0 0.02044003490213514 -0.37737378967670732 0 0.045118820712252511 -0.36445871131086099 0 0.02044003490213514 -0.37737378967670732 0 0.030406296642247761 -0.35365197443953339 0 0.02044003490213514 -0.37737378967670732 0 0.030406296642247761 -0.35365197443953339 0 0.01391768574883724 -0.36156146619798929 0 0.030406296642247761 -0.35365197443953339 0 0.0086771610778249852 -0.34799090542048389 0 0.022101296261978071 -0.33719720503194639 0 0.030406296642247761 -0.35365197443953339 0 0.0086771610778249852 -0.34799090542048389 0 0.01391768574883724 -0.36156146619798929 0 -0.0038527496268592589 -0.3672291952552324 0 0.0086771610778249852 -0.34799090542048389 0 0.01391768574883724 -0.36156146619798929 0 -0.0038527496268592589 -0.3672291952552324 0 0.02044003490213514 -0.37737378967670732 0 0.01391768574883724 -0.36156146619798929 0 0.03552543144613006 -0.32640350464340773 0 0.022101296261978071 -0.33719720503194639 0 0.015797698828369559 -0.31205007443835531 0 0.03552543144613006 -0.32640350464340773 0 0.015797698828369559 -0.31205007443835531 0 0.03552543144613006 -0.32640350464340773 0 0.036509023474654782 -0.31308953626827207 0 0.015797698828369559 -0.31205007443835531 0 0.03552543144613006 -0.32640350464340773 0 0.022101296261978071 -0.33719720503194639 0 0.040372558382361159 -0.32993015920236002 0 0.030406296642247761 -0.35365197443953339 0 0.022101296261978071 -0.33719720503194639 0 0.0086771610778249852 -0.34799090542048389 0 0.022101296261978071 -0.33719720503194639 0 0.0018253179094817561 -0.33148695818618618 0 0.0086771610778249852 -0.34799090542048389 0 0.022101296261978071 -0.33719720503194639 0 -0.0053491287304535916 -0.31543705698788238 0 0.0018253179094817561 -0.33148695818618618 0 0.015797698828369559 -0.31205007443835531 0 0.022101296261978071 -0.33719720503194639 0 0.0018253179094817561 -0.33148695818618618 0 0.015797698828369559 -0.31205007443835531 0 -0.0039300337893912567 -0.29769664423330311 0 0.015068478431672 -0.28604920032866349 0 0.015797698828369559 -0.31205007443835531 0 -0.0039300337893912567 -0.29769664423330311 0 -0.0053491287304535916 -0.31543705698788238 0 0.015797698828369559 -0.31205007443835531 0 -0.0039300337893912567 -0.29769664423330311 0 0.015797698828369559 -0.31205007443835531 0 -0.0039300337893912567 -0.29769664423330311 0 -0.007981009471871324 -0.26683248623107969 0 0.015068478431672 -0.28604920032866349 0 0.036509023474654782 -0.31308953626827207 0 0.015797698828369559 -0.31205007443835531 0 0.03373521827065281 -0.30001919607980648 0 0.015068478431672 -0.28604920032866349 0 0.015797698828369559 -0.31205007443835531 0 0.03373521827065281 -0.30001919607980648 0 0.015068478431672 -0.28604920032866349 0 0.03373521827065281 -0.30001919607980648 0 0.046845299725428058 -0.28448232576786281 0 0.042198714756396312 -0.30640823682524437 0 0.03373521827065281 -0.30001919607980648 0 0.050587370791805607 -0.29995067378376111 0 0.036509023474654782 -0.31308953626827207 0 0.042198714756396312 -0.30640823682524437 0 0.03373521827065281 -0.30001919607980648 0 0.046505353518844078 -0.31533280696450089 0 0.042198714756396312 -0.30640823682524437 0 0.050587370791805607 -0.29995067378376111 0 0.036509023474654782 -0.31308953626827207 0 0.046505353518844078 -0.31533280696450089 0 0.042198714756396312 -0.30640823682524437 0 0.03373521827065281 -0.30001919607980648 0 0.046845299725428058 -0.28448232576786281 0 0.050587370791805607 -0.29995067378376111 0 0.066420075856435529 -0.30156260943484148 0 0.046845299725428058 -0.28448232576786281 0 0.066420075856435529 -0.30156260943484148 0 0.046845299725428058 -0.28448232576786281 0 0.050587370791805607 -0.29995067378376111 0 0.066420075856435529 -0.30156260943484148 0 0.046845299725428058 -0.28448232576786281 0 0.062309436811790957 -0.28015833660389949 0 0.066420075856435529 -0.30156260943484148 0 0.046505353518844078 -0.31533280696450089 0 0.050587370791805607 -0.29995067378376111 0 0.066420075856435529 -0.30156260943484148 0 0.046505353518844078 -0.31533280696450089 0 0.045082737076614317 -0.31871893561292952 0 0.066420075856435529 -0.30156260943484148 0 0.045082737076614317 -0.31871893561292952 0 0.071050251710601198 -0.26387615718726343 0 0.055835307651992849 -0.25860407515123002 0 0.050874336480485338 -0.27251270167304148 0 0.055835307651992849 -0.25860407515123002 0 0.050874336480485338 -0.27251270167304148 0 0.04275520381104489 -0.25902340891147951 0 0.055835307651992849 -0.25860407515123002 0 0.04275520381104489 -0.25902340891147951 0 0.04855845313208311 -0.24709254666118141 0 0.055835307651992849 -0.25860407515123002 0 0.04855845313208311 -0.24709254666118141 0 0.063191750791965512 -0.2478844723196435 0 0.071050251710601198 -0.26387615718726343 0 0.050874336480485338 -0.27251270167304148 0 0.071050251710601198 -0.26387615718726343 0 0.062309436811790957 -0.28015833660389949 0 0.050874336480485338 -0.27251270167304148 0 0.046845299725428058 -0.28448232576786281 0 0.062309436811790957 -0.28015833660389949 0 0.050874336480485338 -0.27251270167304148 0 0.050874336480485338 -0.27251270167304148 0 0.04275520381104489 -0.25902340891147951 0 0.027270523594420861 -0.26740204210088381 0 0.046845299725428058 -0.28448232576786281 0 0.027270523594420861 -0.26740204210088381 0 0.046845299725428058 -0.28448232576786281 0 0.050874336480485338 -0.27251270167304148 0 0.027270523594420861 -0.26740204210088381 0 0.04275520381104489 -0.25902340891147951 0 0.0312373981962423 -0.24950567897106049 0 0.04855845313208311 -0.24709254666118141 0 0.04275520381104489 -0.25902340891147951 0 0.027270523594420861 -0.26740204210088381 0 0.0312373981962423 -0.24950567897106049 0 0.015068478431672 -0.28604920032866349 0 0.046845299725428058 -0.28448232576786281 0 0.027270523594420861 -0.26740204210088381 0 0.027270523594420861 -0.26740204210088381 0 0.0076957474634097864 -0.25032175843390908 0 0.0312373981962423 -0.24950567897106049 0 0.027270523594420861 -0.26740204210088381 0 0.0076957474634097864 -0.25032175843390908 0 0.015068478431672 -0.28604920032866349 0 0.027270523594420861 -0.26740204210088381 0 0.01051343500440787 -0.26765137177363407 0 -0.007981009471871324 -0.26683248623107969 0 0.015068478431672 -0.28604920032866349 0 0.01051343500440787 -0.26765137177363407 0 -0.007981009471871324 -0.26683248623107969 0 0.01051343500440787 -0.26765137177363407 0 0.0076957474634097864 -0.25032175843390908 0 0.027270523594420861 -0.26740204210088381 0 0.01051343500440787 -0.26765137177363407 0 0.0076957474634097864 -0.25032175843390908 0 -0.0097925411917082275 -0.2350620727506374 0 0.0076957474634097864 -0.25032175843390908 0 0.0052482380929481766 -0.23255468427204029 0 0.0076957474634097864 -0.25032175843390908 0 0.0052482380929481766 -0.23255468427204029 0 0.01988030588950648 -0.23748900684297 0 0.0076957474634097864 -0.25032175843390908 0 0.01988030588950648 -0.23748900684297 0 0.015189879888181809 -0.22049898237531521 0 0.0052482380929481766 -0.23255468427204029 0 0.01988030588950648 -0.23748900684297 0 -0.0065574519470419533 -0.214820418438218 0 0.015189879888181809 -0.22049898237531521 0 0.0052482380929481766 -0.23255468427204029 0 0.015189879888181809 -0.22049898237531521 0 0.028950958588357119 -0.21259362822663161 0 0.032064864315603042 -0.2246562552520307 0 0.015189879888181809 -0.22049898237531521 0 0.01988030588950648 -0.23748900684297 0 0.032064864315603042 -0.2246562552520307 0 0.01988030588950648 -0.23748900684297 0 0.039537496743073608 -0.23646976573838141 0 0.032064864315603042 -0.2246562552520307 0 0.01988030588950648 -0.23748900684297 0 0.032064864315603042 -0.2246562552520307 0 0.0312373981962423 -0.24950567897106049 0 0.01988030588950648 -0.23748900684297 0 0.039537496743073608 -0.23646976573838141 0 0.0076957474634097864 -0.25032175843390908 0 0.0312373981962423 -0.24950567897106049 0 0.01988030588950648 -0.23748900684297 0 0.0066385746459730471 -0.18762293938074459 0 0.012562316241336691 -0.20260624354720391 0 0.0194390299319076 -0.18872677907477881 0 -0.0020010690508425301 -0.2007389962191608 0 0.0066385746459730471 -0.18762293938074459 0 0.012562316241336691 -0.20260624354720391 0 -0.0065574519470419533 -0.214820418438218 0 0.015189879888181809 -0.22049898237531521 0 0.012562316241336691 -0.20260624354720391 0 -0.0065574519470419533 -0.214820418438218 0 -0.0020010690508425301 -0.2007389962191608 0 0.012562316241336691 -0.20260624354720391 0 0.012562316241336691 -0.20260624354720391 0 0.028950958588357119 -0.21259362822663161 0 0.042466594338948269 -0.2004290892140812 0 0.015189879888181809 -0.22049898237531521 0 0.012562316241336691 -0.20260624354720391 0 0.028950958588357119 -0.21259362822663161 0 0.012562316241336691 -0.20260624354720391 0 0.03087609893533149 -0.1916720650261817 0 0.042466594338948269 -0.2004290892140812 0 0.012562316241336691 -0.20260624354720391 0 0.03087609893533149 -0.1916720650261817 0 0.0194390299319076 -0.18872677907477881 0 0.012562316241336691 -0.20260624354720391 0 0.042466594338948269 -0.2004290892140812 0 0.03087609893533149 -0.1916720650261817 0 0.0194390299319076 -0.18872677907477881 0 0.02818368586261235 -0.18386720988780619 0 0.041289517759455538 -0.19087558776508121 0 0.042466594338948269 -0.2004290892140812 0 0.052478181301010153 -0.18907312306575391 0 0.03087609893533149 -0.1916720650261817 0 0.041289517759455538 -0.19087558776508121 0 0.039337196462532281 -0.1823280737543079 0 0.03087609893533149 -0.1916720650261817 0 0.041289517759455538 -0.19087558776508121 0 0.042466594338948269 -0.2004290892140812 0 0.042466594338948269 -0.2004290892140812 0 0.04247113815771579 -0.214777570744527 0 0.050754338395415162 -0.2095684107105335 0 0.028950958588357119 -0.21259362822663161 0 0.042466594338948269 -0.2004290892140812 0 0.04247113815771579 -0.214777570744527 0 0.028950958588357119 -0.21259362822663161 0 0.04247113815771579 -0.214777570744527 0 0.032064864315603042 -0.2246562552520307 0 0.042466594338948269 -0.2004290892140812 0 0.061718130504552153 -0.20648821807976739 0 0.050754338395415162 -0.2095684107105335 0 0.04247113815771579 -0.214777570744527 0 0.056361490580444443 -0.2165787648037584 0 0.050754338395415162 -0.2095684107105335 0 0.056361490580444443 -0.2165787648037584 0 0.061718130504552153 -0.20648821807976739 0 0.066553110684747285 -0.21634006370396139 0 0.056361490580444443 -0.2165787648037584 0 0.061718130504552153 -0.20648821807976739 0 0.050754338395415162 -0.2095684107105335 0 0.042466594338948269 -0.2004290892140812 0 0.072370872436559985 -0.19825193488095941 0 0.052478181301010153 -0.18907312306575391 0 0.072370872436559985 -0.19825193488095941 0 0.059734976696323092 -0.18129515284864031 0 0.042466594338948269 -0.2004290892140812 0 0.052478181301010153 -0.18907312306575391 0 0.072370872436559985 -0.19825193488095941 0 0.042466594338948269 -0.2004290892140812 0 0.061718130504552153 -0.20648821807976739 0 0.072370872436559985 -0.19825193488095941 0 0.0312373981962423 -0.24950567897106049 0 0.039537496743073608 -0.23646976573838141 0 0.04855845313208311 -0.24709254666118141 0 0.039537496743073608 -0.23646976573838141 0 0.032064864315603042 -0.2246562552520307 0 0.048360907556311103 -0.22558980165841661 0 0.04247113815771579 -0.214777570744527 0 0.032064864315603042 -0.2246562552520307 0 0.048360907556311103 -0.22558980165841661 0 0.039537496743073608 -0.23646976573838141 0 0.048360907556311103 -0.22558980165841661 0 0.05652058258868032 -0.23533897924153491 0 0.04247113815771579 -0.214777570744527 0 0.056361490580444443 -0.2165787648037584 0 0.048360907556311103 -0.22558980165841661 0 0.056361490580444443 -0.2165787648037584 0 0.048360907556311103 -0.22558980165841661 0 0.063209872952349408 -0.22571747417026741 0 0.056361490580444443 -0.2165787648037584 0 0.063209872952349408 -0.22571747417026741 0 0.066553110684747285 -0.21634006370396139 0 0.048360907556311103 -0.22558980165841661 0 0.05652058258868032 -0.23533897924153491 0 0.063209872952349408 -0.22571747417026741 0 0.039537496743073608 -0.23646976573838141 0 0.05652058258868032 -0.23533897924153491 0 0.04855845313208311 -0.24709254666118141 0 0.05652058258868032 -0.23533897924153491 0 0.04855845313208311 -0.24709254666118141 0 0.063191750791965512 -0.2478844723196435 0 0.05652058258868032 -0.23533897924153491 0 0.063191750791965512 -0.2478844723196435 0 0.071674350652907948 -0.2345930565650543 0 0.071674350652907948 -0.2345930565650543 0 0.077824764188750256 -0.24806112706710451 0 0.082397753629034051 -0.23805791429464759 0 0.063191750791965512 -0.2478844723196435 0 0.071674350652907948 -0.2345930565650543 0 0.077824764188750256 -0.24806112706710451 0 0.077824764188750256 -0.24806112706710451 0 0.082397753629034051 -0.23805791429464759 0 0.087408311407275799 -0.24871554933453291 0 0.082397753629034051 -0.23805791429464759 0 0.087408311407275799 -0.24871554933453291 0 0.097056617851726756 -0.23370440493663749 0 0.087408311407275799 -0.24871554933453291 0 0.097056617851726756 -0.23370440493663749 0 0.087408311407275799 -0.24871554933453291 0 0.093755337571119035 -0.24848599676784819 0 0.097056617851726756 -0.23370440493663749 0 0.085914468443403627 -0.228469224100038 0 0.08435937213287871 -0.2214642639806689 0 0.10670492429617601 -0.21869326053874111 0 0.082397753629034051 -0.23805791429464759 0 0.085914468443403627 -0.228469224100038 0 0.097056617851726756 -0.23370440493663749 0 0.071674350652907948 -0.2345930565650543 0 0.082397753629034051 -0.23805791429464759 0 0.085914468443403627 -0.228469224100038 0 0.08435937213287871 -0.2214642639806689 0 0.074863334799411749 -0.22295483863780799 0 0.0782144537864779 -0.21784518118232549 0 0.085914468443403627 -0.228469224100038 0 0.08435937213287871 -0.2214642639806689 0 0.074863334799411749 -0.22295483863780799 0 0.074863334799411749 -0.22295483863780799 0 0.073704584966858 -0.21589499145194499 0 0.0782144537864779 -0.21784518118232549 0 0.071674350652907948 -0.2345930565650543 0 0.085914468443403627 -0.228469224100038 0 0.074863334799411749 -0.22295483863780799 0 0.071674350652907948 -0.2345930565650543 0 0.074863334799411749 -0.22295483863780799 0 0.063209872952349408 -0.22571747417026741 0 0.05652058258868032 -0.23533897924153491 0 0.071674350652907948 -0.2345930565650543 0 0.063209872952349408 -0.22571747417026741 0 0.074863334799411749 -0.22295483863780799 0 0.063209872952349408 -0.22571747417026741 0 0.066553110684747285 -0.21634006370396139 0 0.066553110684747285 -0.21634006370396139 0 0.069953373625471632 -0.20924079645872859 0 0.073704584966858 -0.21589499145194499 0 0.061718130504552153 -0.20648821807976739 0 0.069953373625471632 -0.20924079645872859 0 0.072370872436559985 -0.19825193488095941 0 0.061718130504552153 -0.20648821807976739 0 0.066553110684747285 -0.21634006370396139 0 0.069953373625471632 -0.20924079645872859 0 0.069953373625471632 -0.20924079645872859 0 0.077840269022859621 -0.21168414582375669 0 0.072370872436559985 -0.19825193488095941 0 0.072370872436559985 -0.19825193488095941 0 0.083383340408276385 -0.21303015265619099 0 0.077840269022859621 -0.21168414582375669 0 0.072370872436559985 -0.19825193488095941 0 0.083383340408276385 -0.21303015265619099 0 0.069953373625471632 -0.20924079645872859 0 0.077840269022859621 -0.21168414582375669 0 0.073704584966858 -0.21589499145194499 0 0.074863334799411749 -0.22295483863780799 0 0.066553110684747285 -0.21634006370396139 0 0.073704584966858 -0.21589499145194499 0 0.077840269022859621 -0.21168414582375669 0 0.073704584966858 -0.21589499145194499 0 0.0782144537864779 -0.21784518118232549 0 0.072370872436559985 -0.19825193488095941 0 0.059734976696323092 -0.18129515284864031 0 0.072370872436559985 -0.19825193488095941 0 0.071652052597834068 -0.18455300733867849 0 0.059734976696323092 -0.18129515284864031 0 0.072370872436559985 -0.19825193488095941 0 0.084596969222160229 -0.18645607816375981 0 0.071652052597834068 -0.18455300733867849 0 0.072370872436559985 -0.19825193488095941 0 0.098402659808903781 -0.19635671378611599 0 0.072370872436559985 -0.19825193488095941 0 0.098402659808903781 -0.19635671378611599 0 0.084596969222160229 -0.18645607816375981 0 0.072370872436559985 -0.19825193488095941 0 0.083383340408276385 -0.21303015265619099 0 0.098402659808903781 -0.19635671378611599 0 0.083383340408276385 -0.21303015265619099 0 0.085036669035835177 -0.2152488424698504 0 0.10670492429617601 -0.21869326053874111 0 0.08435937213287871 -0.2214642639806689 0 0.085036669035835177 -0.2152488424698504 0 0.10670492429617601 -0.21869326053874111 0 0.083383340408276385 -0.21303015265619099 0 0.085036669035835177 -0.2152488424698504 0 0.081766820877265556 -0.2158545172225585 0 0.083383340408276385 -0.21303015265619099 0 0.085036669035835177 -0.2152488424698504 0 0.08435937213287871 -0.2214642639806689 0 0.085036669035835177 -0.2152488424698504 0 0.081766820877265556 -0.2158545172225585 0 0.08435937213287871 -0.2214642639806689 0 0.081766820877265556 -0.2158545172225585 0 0.0782144537864779 -0.21784518118232549 0 0.077840269022859621 -0.21168414582375669 0 0.081766820877265556 -0.2158545172225585 0 0.0782144537864779 -0.21784518118232549 0 0.077840269022859621 -0.21168414582375669 0 0.083383340408276385 -0.21303015265619099 0 0.081766820877265556 -0.2158545172225585 0 0.077840269022859621 -0.21168414582375669 0 0.083383340408276385 -0.21303015265619099 0 0.083383340408276385 -0.21303015265619099 0 0.10670492429617601 -0.21869326053874111 0 0.083383340408276385 -0.21303015265619099 0 0.1014590643764887 -0.20755467466026331 0 0.10670492429617601 -0.21869326053874111 0 0.1014590643764887 -0.20755467466026331 0 0.10670492429617601 -0.21869326053874111 0 0.1173453329925984 -0.20213857166000601 0 0.083383340408276385 -0.21303015265619099 0 0.1014590643764887 -0.20755467466026331 0 0.098402659808903781 -0.19635671378611599 0 0.098402659808903781 -0.19635671378611599 0 0.1112114008499262 -0.19084163836449611 0 0.1011118689091851 -0.17928738523059459 0 0.098402659808903781 -0.19635671378611599 0 0.1112114008499262 -0.19084163836449611 0 0.1173453329925984 -0.20213857166000601 0 0.1014590643764887 -0.20755467466026331 0 0.098402659808903781 -0.19635671378611599 0 0.1173453329925984 -0.20213857166000601 0 0.1112114008499262 -0.19084163836449611 0 0.1173453329925984 -0.20213857166000601 0 0.1279857416890173 -0.18558388278126861 0 0.1173453329925984 -0.20213857166000601 0 0.1279857416890173 -0.18558388278126861 0 0.10670492429617601 -0.21869326053874111 0 0.1173453329925984 -0.20213857166000601 0 0.10670492429617601 -0.21869326053874111 0 0.1173453329925984 -0.20213857166000601 0 0.1221374426251142 -0.222440691099903 0 0.1173453329925984 -0.20213857166000601 0 0.1221374426251142 -0.222440691099903 0 0.12982892170523949 -0.2051292632345971 0 0.1221374426251142 -0.222440691099903 0 0.12457107474955061 -0.2338111052969441 0 0.1114020821708336 -0.24660306821570879 0 0.1221374426251142 -0.222440691099903 0 0.1114020821708336 -0.24660306821570879 0 0.1093625149626264 -0.23220598180581159 0 0.10670492429617601 -0.21869326053874111 0 0.1221374426251142 -0.222440691099903 0 0.1093625149626264 -0.23220598180581159 0 0.10670492429617601 -0.21869326053874111 0 0.1221374426251142 -0.222440691099903 0 0.12457107474955061 -0.2338111052969441 0 0.1228593492382601 -0.2416986465037454 0 0.1114020821708336 -0.24660306821570879 0 0.1221374426251142 -0.222440691099903 0 0.1114020821708336 -0.24660306821570879 0 0.1196722046577542 -0.25417102299646022 0 0.1228593492382601 -0.2416986465037454 0 0.1308809502751575 -0.24859267584269421 0 0.1196722046577542 -0.25417102299646022 0 0.1228593492382601 -0.2416986465037454 0 0.1114020821708336 -0.24660306821570879 0 0.1228593492382601 -0.2416986465037454 0 0.1114020821708336 -0.24660306821570879 0 0.091226166940717016 -0.25523961270148521 0 0.1114020821708336 -0.24660306821570879 0 0.099272472968013586 -0.24615181840820349 0 0.1042734219883001 -0.23966631834159041 0 0.097056617851726756 -0.23370440493663749 0 0.1093625149626264 -0.23220598180581159 0 0.1114020821708336 -0.24660306821570879 0 0.1042734219883001 -0.23966631834159041 0 0.1093625149626264 -0.23220598180581159 0 0.1114020821708336 -0.24660306821570879 0 0.1042734219883001 -0.23966631834159041 0 0.099272472968013586 -0.24615181840820349 0 0.091226166940717016 -0.25523961270148521 0 0.099272472968013586 -0.24615181840820349 0 0.093755337571119035 -0.24848599676784819 0 0.099272472968013586 -0.24615181840820349 0 0.093755337571119035 -0.24848599676784819 0 0.097056617851726756 -0.23370440493663749 0 0.1042734219883001 -0.23966631834159041 0 0.099272472968013586 -0.24615181840820349 0 0.097056617851726756 -0.23370440493663749 0 0.085914468443403627 -0.228469224100038 0 0.10670492429617601 -0.21869326053874111 0 0.097056617851726756 -0.23370440493663749 0 0.10670492429617601 -0.21869326053874111 0 0.097056617851726756 -0.23370440493663749 0 0.10670492429617601 -0.21869326053874111 0 0.097056617851726756 -0.23370440493663749 0 0.1093625149626264 -0.23220598180581159 0 0.1005044731883776 -0.15022463901170349 0 0.1117277373052422 -0.1358397973682664 0 0.1106023833996419 -0.1536403171909364 0 0.1005044731883776 -0.15022463901170349 0 0.096586903501071339 -0.14141051084316711 0 0.1117277373052422 -0.1358397973682664 0 0.1005044731883776 -0.15022463901170349 0 0.1106023833996419 -0.1536403171909364 0 0.1015179006842817 -0.16373140770161829 0 0.1005044731883776 -0.15022463901170349 0 0.090702481026810625 -0.14668351717112749 0 0.091396849417981402 -0.15624695213702439 0 0.1005044731883776 -0.15022463901170349 0 0.096586903501071339 -0.14141051084316711 0 0.090702481026810625 -0.14668351717112749 0 0.096586903501071339 -0.14141051084316711 0 0.096086019000178297 -0.13354347782894271 0 0.089362572592944528 -0.1378610711800918 0 0.1117277373052422 -0.1358397973682664 0 0.094782475788349918 -0.12468437348382121 0 0.096586903501071339 -0.14141051084316711 0 0.096086019000178297 -0.13354347782894271 0 0.1117277373052422 -0.1358397973682664 0 0.096086019000178297 -0.13354347782894271 0 0.1117277373052422 -0.1358397973682664 0 0.094782475788349918 -0.12468437348382121 0 0.1117277373052422 -0.1358397973682664 0 0.094782475788349918 -0.12468437348382121 0 0.1128421822290344 -0.1221868460475129 0 0.1117277373052422 -0.1358397973682664 0 0.13114775909195911 -0.1205588017539125 0 0.1286729988221347 -0.14699522125271139 0 0.1117277373052422 -0.1358397973682664 0 0.1128421822290344 -0.1221868460475129 0 0.13114775909195911 -0.1205588017539125 0 0.1106023833996419 -0.1536403171909364 0 0.1217991003066968 -0.15799651051727601 0 0.1286729988221347 -0.14699522125271139 0 0.1117277373052422 -0.1358397973682664 0 0.1286729988221347 -0.14699522125271139 0 0.1117277373052422 -0.1358397973682664 0 0.1106023833996419 -0.1536403171909364 0 0.1286729988221347 -0.14699522125271139 0 0.1217991003066968 -0.15799651051727601 0 0.1176399146522763 -0.1692425724924089 0 0.13028110435273449 -0.16210793113304739 0 0.1106023833996419 -0.1536403171909364 0 0.1176399146522763 -0.1692425724924089 0 0.1015179006842817 -0.16373140770161829 0 0.1106023833996419 -0.1536403171909364 0 0.1217991003066968 -0.15799651051727601 0 0.1176399146522763 -0.1692425724924089 0 0.1011118689091851 -0.17928738523059459 0 0.1279857416890173 -0.18558388278126861 0 0.1176399146522763 -0.1692425724924089 0 0.1279857416890173 -0.18558388278126861 0 0.12817719042701259 -0.17220041259148461 0 0.1176399146522763 -0.1692425724924089 0 0.1011118689091851 -0.17928738523059459 0 0.1279857416890173 -0.18558388278126861 0 0.1112114008499262 -0.19084163836449611 0 0.1011118689091851 -0.17928738523059459 0 0.1279857416890173 -0.18558388278126861 0 0.098402659808903781 -0.19635671378611599 0 0.1011118689091851 -0.17928738523059459 0 0.084596969222160229 -0.18645607816375981 0 0.1176399146522763 -0.1692425724924089 0 0.1011118689091851 -0.17928738523059459 0 0.1015179006842817 -0.16373140770161829 0 0.1011118689091851 -0.17928738523059459 0 0.1015179006842817 -0.16373140770161829 0 0.088119734894828883 -0.16589882889923979 0 0.1005044731883776 -0.15022463901170349 0 0.1015179006842817 -0.16373140770161829 0 0.091396849417981402 -0.15624695213702439 0 0.1015179006842817 -0.16373140770161829 0 0.088119734894828883 -0.16589882889923979 0 0.091396849417981402 -0.15624695213702439 0 0.088119734894828883 -0.16589882889923979 0 0.085401856790348715 -0.1583176436285893 0 0.091396849417981402 -0.15624695213702439 0 0.088119734894828883 -0.16589882889923979 0 0.078210251276526352 -0.15930258865293381 0 0.074237996129352807 -0.17299088767992121 0 0.088119734894828883 -0.16589882889923979 0 0.078210251276526352 -0.15930258865293381 0 0.085401856790348715 -0.1583176436285893 0 0.078210251276526352 -0.15930258865293381 0 0.085401856790348715 -0.1583176436285893 0 0.083880591572058238 -0.1518222048251591 0 0.1011118689091851 -0.17928738523059459 0 0.074237996129352807 -0.17299088767992121 0 0.1011118689091851 -0.17928738523059459 0 0.084596969222160229 -0.18645607816375981 0 0.074237996129352807 -0.17299088767992121 0 0.1011118689091851 -0.17928738523059459 0 0.088119734894828883 -0.16589882889923979 0 0.074237996129352807 -0.17299088767992121 0 0.084596969222160229 -0.18645607816375981 0 0.071652052597834068 -0.18455300733867849 0 0.074237996129352807 -0.17299088767992121 0 0.071652052597834068 -0.18455300733867849 0 0.074237996129352807 -0.17299088767992121 0 0.065651763808915853 -0.17238624033135741 0 0.071652052597834068 -0.18455300733867849 0 0.065651763808915853 -0.17238624033135741 0 0.059734976696323092 -0.18129515284864031 0 0.078210251276526352 -0.15930258865293381 0 0.069835354206025699 -0.1637447777469172 0 0.069545162457228138 -0.15433013329456091 0 0.078210251276526352 -0.15930258865293381 0 0.074237996129352807 -0.17299088767992121 0 0.069835354206025699 -0.1637447777469172 0 0.074237996129352807 -0.17299088767992121 0 0.065651763808915853 -0.17238624033135741 0 0.069835354206025699 -0.1637447777469172 0 0.065651763808915853 -0.17238624033135741 0 0.069835354206025699 -0.1637447777469172 0 0.061631355004415869 -0.1619045544139833 0 0.069545162457228138 -0.15433013329456091 0 0.061025519451714472 -0.15256405433100051 0 0.061631355004415869 -0.1619045544139833 0 0.069835354206025699 -0.1637447777469172 0 0.069545162457228138 -0.15433013329456091 0 0.061631355004415869 -0.1619045544139833 0 0.069545162457228138 -0.15433013329456091 0 0.068012341945966892 -0.1464227187664901 0 0.061025519451714472 -0.15256405433100051 0 0.068012341945966892 -0.1464227187664901 0 0.074373229172573066 -0.13948591619899031 0 0.065596261861118443 -0.13777207635014779 0 0.068012341945966892 -0.1464227187664901 0 0.065596261861118443 -0.13777207635014779 0 0.060478846344982948 -0.14485377962952919 0 0.068012341945966892 -0.1464227187664901 0 0.060478846344982948 -0.14485377962952919 0 0.061025519451714472 -0.15256405433100051 0 0.068012341945966892 -0.1464227187664901 0 0.076171044860603762 -0.1489593253684951 0 0.074373229172573066 -0.13948591619899031 0 0.076171044860603762 -0.1489593253684951 0 0.082483495888430652 -0.14253572502961889 0 0.074373229172573066 -0.13948591619899031 0 0.069545162457228138 -0.15433013329456091 0 0.068012341945966892 -0.1464227187664901 0 0.076171044860603762 -0.1489593253684951 0 0.078210251276526352 -0.15930258865293381 0 0.069545162457228138 -0.15433013329456091 0 0.076171044860603762 -0.1489593253684951 0 0.078210251276526352 -0.15930258865293381 0 0.076171044860603762 -0.1489593253684951 0 0.083880591572058238 -0.1518222048251591 0 0.083880591572058238 -0.1518222048251591 0 0.082483495888430652 -0.14253572502961889 0 0.090702481026810625 -0.14668351717112749 0 0.076171044860603762 -0.1489593253684951 0 0.083880591572058238 -0.1518222048251591 0 0.082483495888430652 -0.14253572502961889 0 0.096586903501071339 -0.14141051084316711 0 0.090702481026810625 -0.14668351717112749 0 0.089362572592944528 -0.1378610711800918 0 0.082483495888430652 -0.14253572502961889 0 0.090702481026810625 -0.14668351717112749 0 0.089362572592944528 -0.1378610711800918 0 0.083880591572058238 -0.1518222048251591 0 0.090702481026810625 -0.14668351717112749 0 0.091396849417981402 -0.15624695213702439 0 0.085401856790348715 -0.1583176436285893 0 0.083880591572058238 -0.1518222048251591 0 0.091396849417981402 -0.15624695213702439 0 0.08977806153169271 -0.12918425069078451 0 0.08135191820936806 -0.13521808458618789 0 0.072569887579608583 -0.12828607425287111 0 0.096086019000178297 -0.13354347782894271 0 0.08977806153169271 -0.12918425069078451 0 0.094782475788349918 -0.12468437348382121 0 0.08977806153169271 -0.12918425069078451 0 0.094782475788349918 -0.12468437348382121 0 0.096086019000178297 -0.13354347782894271 0 0.08977806153169271 -0.12918425069078451 0 0.089362572592944528 -0.1378610711800918 0 0.08977806153169271 -0.12918425069078451 0 0.089362572592944528 -0.1378610711800918 0 0.08135191820936806 -0.13521808458618789 0 0.082483495888430652 -0.14253572502961889 0 0.089362572592944528 -0.1378610711800918 0 0.08135191820936806 -0.13521808458618789 0 0.082483495888430652 -0.14253572502961889 0 0.08135191820936806 -0.13521808458618789 0 0.074373229172573066 -0.13948591619899031 0 0.08135191820936806 -0.13521808458618789 0 0.072569887579608583 -0.12828607425287111 0 0.074373229172573066 -0.13948591619899031 0 0.072569887579608583 -0.12828607425287111 0 0.074373229172573066 -0.13948591619899031 0 0.065596261861118443 -0.13777207635014779 0 0.072569887579608583 -0.12828607425287111 0 0.060635312355333808 -0.1301749635369758 0 0.058987051151021187 -0.1183752014297997 0 0.072569887579608583 -0.12828607425287111 0 0.065596261861118443 -0.13777207635014779 0 0.060635312355333808 -0.1301749635369758 0 0.060635312355333808 -0.1301749635369758 0 0.049913936842726568 -0.1282250855367475 0 0.056109424342194271 -0.13821638011531279 0 0.060635312355333808 -0.1301749635369758 0 0.049913936842726568 -0.1282250855367475 0 0.058987051151021187 -0.1183752014297997 0 0.049913936842726568 -0.1282250855367475 0 0.056109424342194271 -0.13821638011531279 0 0.045878275151451743 -0.13894728633834691 0 0.065596261861118443 -0.13777207635014779 0 0.056109424342194271 -0.13821638011531279 0 0.060478846344982948 -0.14485377962952919 0 0.065596261861118443 -0.13777207635014779 0 0.060635312355333808 -0.1301749635369758 0 0.056109424342194271 -0.13821638011531279 0 0.056109424342194271 -0.13821638011531279 0 0.060478846344982948 -0.14485377962952919 0 0.051650684123920668 -0.14929366858469481 0 0.061025519451714472 -0.15256405433100051 0 0.051650684123920668 -0.14929366858469481 0 0.055027374189235027 -0.1585920115060282 0 0.060478846344982948 -0.14485377962952919 0 0.061025519451714472 -0.15256405433100051 0 0.051650684123920668 -0.14929366858469481 0 0.056109424342194271 -0.13821638011531279 0 0.051650684123920668 -0.14929366858469481 0 0.045878275151451743 -0.13894728633834691 0 0.034463185215851247 -0.14738158878400079 0 0.047099080956087537 -0.1643383708163203 0 0.051650684123920668 -0.14929366858469481 0 0.034463185215851247 -0.14738158878400079 0 0.047099080956087537 -0.1643383708163203 0 0.051650684123920668 -0.14929366858469481 0 0.034463185215851247 -0.14738158878400079 0 0.045878275151451743 -0.13894728633834691 0 0.034463185215851247 -0.14738158878400079 0 0.037254145232565948 -0.13161970867097861 0 0.025104937903267271 -0.1257240937279191 0 0.034463185215851247 -0.14738158878400079 0 0.037254145232565948 -0.13161970867097861 0 0.045878275151451743 -0.13894728633834691 0 0.037254145232565948 -0.13161970867097861 0 0.032423661992285559 -0.1235501806860889 0 0.038805943593728791 -0.1212769224173425 0 0.037254145232565948 -0.13161970867097861 0 0.025104937903267271 -0.1257240937279191 0 0.032423661992285559 -0.1235501806860889 0 0.049913936842726568 -0.1282250855367475 0 0.037254145232565948 -0.13161970867097861 0 0.038805943593728791 -0.1212769224173425 0 0.049913936842726568 -0.1282250855367475 0 0.037254145232565948 -0.13161970867097861 0 0.045878275151451743 -0.13894728633834691 0 0.052478181301010153 -0.18907312306575391 0 0.043470683258430287 -0.1682273559248775 0 0.059734976696323092 -0.18129515284864031 0 0.047099080956087537 -0.1643383708163203 0 0.052478181301010153 -0.18907312306575391 0 0.059734976696323092 -0.18129515284864031 0 0.043470683258430287 -0.1682273559248775 0 0.065651763808915853 -0.17238624033135741 0 0.059734976696323092 -0.18129515284864031 0 0.056818848219543618 -0.16982906196000411 0 0.059734976696323092 -0.18129515284864031 0 0.047099080956087537 -0.1643383708163203 0 0.043470683258430287 -0.1682273559248775 0 0.059734976696323092 -0.18129515284864031 0 0.047099080956087537 -0.1643383708163203 0 0.056818848219543618 -0.16982906196000411 0 0.047099080956087537 -0.1643383708163203 0 0.056818848219543618 -0.16982906196000411 0 0.05465282871528488 -0.16403832328757839 0 0.065651763808915853 -0.17238624033135741 0 0.056818848219543618 -0.16982906196000411 0 0.061631355004415869 -0.1619045544139833 0 0.056818848219543618 -0.16982906196000411 0 0.061631355004415869 -0.1619045544139833 0 0.05465282871528488 -0.16403832328757839 0 0.061631355004415869 -0.1619045544139833 0 0.055027374189235027 -0.1585920115060282 0 0.05465282871528488 -0.16403832328757839 0 0.061025519451714472 -0.15256405433100051 0 0.061631355004415869 -0.1619045544139833 0 0.055027374189235027 -0.1585920115060282 0 0.047099080956087537 -0.1643383708163203 0 0.055027374189235027 -0.1585920115060282 0 0.05465282871528488 -0.16403832328757839 0 0.051650684123920668 -0.14929366858469481 0 0.047099080956087537 -0.1643383708163203 0 0.055027374189235027 -0.1585920115060282 0 0.034463185215851247 -0.14738158878400079 0 0.047099080956087537 -0.1643383708163203 0 0.043470683258430287 -0.1682273559248775 0 0.034463185215851247 -0.14738158878400079 0 0.043470683258430287 -0.1682273559248775 0 0.034463185215851247 -0.14738158878400079 0 0.032706849434253497 -0.1634279226108491 0 0.043470683258430287 -0.1682273559248775 0 0.032706849434253497 -0.1634279226108491 0 0.043470683258430287 -0.1682273559248775 0 0.036211840824592778 -0.17338493606596089 0 0.032706849434253497 -0.1634279226108491 0 0.036211840824592778 -0.17338493606596089 0 0.026277385366023701 -0.16948408667637119 0 0.052478181301010153 -0.18907312306575391 0 0.043470683258430287 -0.1682273559248775 0 0.042874475461641373 -0.17825337220272511 0 0.043470683258430287 -0.1682273559248775 0 0.042874475461641373 -0.17825337220272511 0 0.036211840824592778 -0.17338493606596089 0 0.042874475461641373 -0.17825337220272511 0 0.036211840824592778 -0.17338493606596089 0 0.039337196462532281 -0.1823280737543079 0 0.036211840824592778 -0.17338493606596089 0 0.039337196462532281 -0.1823280737543079 0 0.02916918984645096 -0.1764141058895928 0 0.03087609893533149 -0.1916720650261817 0 0.039337196462532281 -0.1823280737543079 0 0.02818368586261235 -0.18386720988780619 0 0.039337196462532281 -0.1823280737543079 0 0.02818368586261235 -0.18386720988780619 0 0.02916918984645096 -0.1764141058895928 0 0.052478181301010153 -0.18907312306575391 0 0.042874475461641373 -0.17825337220272511 0 0.039337196462532281 -0.1823280737543079 0 0.041289517759455538 -0.19087558776508121 0 0.052478181301010153 -0.18907312306575391 0 0.039337196462532281 -0.1823280737543079 0 0.0194390299319076 -0.18872677907477881 0 0.02818368586261235 -0.18386720988780619 0 0.018934473974284449 -0.1778654375319576 0 0.036211840824592778 -0.17338493606596089 0 0.02916918984645096 -0.1764141058895928 0 0.026277385366023701 -0.16948408667637119 0 0.02818368586261235 -0.18386720988780619 0 0.02916918984645096 -0.1764141058895928 0 0.018934473974284449 -0.1778654375319576 0 0.02916918984645096 -0.1764141058895928 0 0.018934473974284449 -0.1778654375319576 0 0.026277385366023701 -0.16948408667637119 0 0.034463185215851247 -0.14738158878400079 0 0.032706849434253497 -0.1634279226108491 0 0.023209002225429931 -0.15814921743912569 0 0.026277385366023701 -0.16948408667637119 0 0.023209002225429931 -0.15814921743912569 0 0.013927526419299219 -0.16576103898933139 0 0.018934473974284449 -0.1778654375319576 0 0.026277385366023701 -0.16948408667637119 0 0.013927526419299219 -0.16576103898933139 0 0.032706849434253497 -0.1634279226108491 0 0.026277385366023701 -0.16948408667637119 0 0.023209002225429931 -0.15814921743912569 0 0.023209002225429931 -0.15814921743912569 0 0.013927526419299219 -0.16576103898933139 0 0.013664375101580341 -0.15563240239310541 0 0.0043218265361713573 -0.15896927279267381 0 0.013927526419299219 -0.16576103898933139 0 0.013664375101580341 -0.15563240239310541 0 -0.0014132101915579399 -0.1698976651757427 0 0.0043218265361713573 -0.15896927279267381 0 0.013927526419299219 -0.16576103898933139 0 -0.0014132101915579399 -0.1698976651757427 0 0.013927526419299219 -0.16576103898933139 0 0.006868393305995495 -0.17616281559889649 0 0.018934473974284449 -0.1778654375319576 0 0.013927526419299219 -0.16576103898933139 0 0.006868393305995495 -0.17616281559889649 0 -0.0076674425692238608 -0.1819829379196311 0 0.0066385746459730471 -0.18762293938074459 0 0.006868393305995495 -0.17616281559889649 0 0.0066385746459730471 -0.18762293938074459 0 0.0194390299319076 -0.18872677907477881 0 0.018934473974284449 -0.1778654375319576 0 0.0066385746459730471 -0.18762293938074459 0 0.018934473974284449 -0.1778654375319576 0 0.006868393305995495 -0.17616281559889649 0 0.034463185215851247 -0.14738158878400079 0 0.018669485885678311 -0.12618718179210031 0 0.02044783616013222 -0.12692200537465681 0 0.034463185215851247 -0.14738158878400079 0 0.025104937903267271 -0.1257240937279191 0 0.034463185215851247 -0.14738158878400079 0 0.018669485885678311 -0.12618718179210031 0 0.034463185215851247 -0.14738158878400079 0 0.02044783616013222 -0.12692200537465681 0 0.025104937903267271 -0.1257240937279191 0 0.034463185215851247 -0.14738158878400079 0 0.01842602651195116 -0.13411475616691529 0 0.018669485885678311 -0.12618718179210031 0 0.01842602651195116 -0.13411475616691529 0 0.01821469181557156 -0.1472082651810962 0 0.01147915295746395 -0.1384692313047298 0 0.01842602651195116 -0.13411475616691529 0 0.017072445380067171 -0.12552727634901609 0 0.018669485885678311 -0.12618718179210031 0 0.01842602651195116 -0.13411475616691529 0 0.017072445380067171 -0.12552727634901609 0 0.013397928334703621 -0.13220653661405171 0 0.01842602651195116 -0.13411475616691529 0 0.017072445380067171 -0.12552727634901609 0 0.02044783616013222 -0.12692200537465681 0 0.025104937903267271 -0.1257240937279191 0 0.01677593290750418 -0.12364612211753551 0 0.017072445380067171 -0.12552727634901609 0 0.018669485885678311 -0.12618718179210031 0 0.01677593290750418 -0.12364612211753551 0 0.018669485885678311 -0.12618718179210031 0 0.02044783616013222 -0.12692200537465681 0 0.01677593290750418 -0.12364612211753551 0 0.017072445380067171 -0.12552727634901609 0 0.018669485885678311 -0.12618718179210031 0 0.018669485885678311 -0.12618718179210031 0 0.02044783616013222 -0.12692200537465681 0 0.034463185215851247 -0.14738158878400079 0 0.023209002225429931 -0.15814921743912569 0 0.01821469181557156 -0.1472082651810962 0 0.034463185215851247 -0.14738158878400079 0 0.01842602651195116 -0.13411475616691529 0 0.01821469181557156 -0.1472082651810962 0 0.023209002225429931 -0.15814921743912569 0 0.01821469181557156 -0.1472082651810962 0 0.013664375101580341 -0.15563240239310541 0 0.01821469181557156 -0.1472082651810962 0 0.0081073840471503882 -0.14777337367705581 0 0.01147915295746395 -0.1384692313047298 0 0.01821469181557156 -0.1472082651810962 0 0.0081073840471503882 -0.14777337367705581 0 0.013664375101580341 -0.15563240239310541 0 0.0043218265361713573 -0.15896927279267381 0 0.0081073840471503882 -0.14777337367705581 0 0.013664375101580341 -0.15563240239310541 0 -0.0054537170625873922 -0.14476509036948029 0 0.0043218265361713573 -0.15896927279267381 0 0.0081073840471503882 -0.14777337367705581 0 -0.0054537170625873922 -0.14476509036948029 0 0.0081073840471503882 -0.14777337367705581 0 0.003567896516931476 -0.1387464326858992 0 0.0081073840471503882 -0.14777337367705581 0 0.003567896516931476 -0.1387464326858992 0 0.01147915295746395 -0.1384692313047298 0 0.003567896516931476 -0.1387464326858992 0 0.01147915295746395 -0.1384692313047298 0 0.0066140884893323548 -0.1307148826355457 0 -0.002907425846701919 -0.1320095854426846 0 0.003567896516931476 -0.1387464326858992 0 0.0066140884893323548 -0.1307148826355457 0 0.01147915295746395 -0.1384692313047298 0 0.013397928334703621 -0.13220653661405171 0 0.0066140884893323548 -0.1307148826355457 0 0.01842602651195116 -0.13411475616691529 0 0.01147915295746395 -0.1384692313047298 0 0.013397928334703621 -0.13220653661405171 0 0.017072445380067171 -0.12552727634901609 0 0.013397928334703621 -0.13220653661405171 0 0.0066140884893323548 -0.1307148826355457 0 0.01677593290750418 -0.12364612211753551 0 0.01282882395839233 -0.098604609908837293 0 -9.9257394721649628e-06 -0.10112028365277261 0 0.01677593290750418 -0.12364612211753551 0 -9.9257394721649628e-06 -0.10112028365277261 0 -0.0088127683241351288 -0.1148313714181288 0 0.01677593290750418 -0.12364612211753551 0 -0.0088127683241351288 -0.1148313714181288 0 0.017072445380067171 -0.12552727634901609 0 0.01677593290750418 -0.12364612211753551 0 -0.0088127683241351288 -0.1148313714181288 0 0.017072445380067171 -0.12552727634901609 0 -0.0088127683241351288 -0.1148313714181288 0 0.017072445380067171 -0.12552727634901609 0 0.0066140884893323548 -0.1307148826355457 0 0.025104937903267271 -0.1257240937279191 0 0.028529621239580229 -0.1155799979281157 0 0.0157466905906841 -0.1040665986718371 0 0.025104937903267271 -0.1257240937279191 0 0.01677593290750418 -0.12364612211753551 0 0.0157466905906841 -0.1040665986718371 0 0.025104937903267271 -0.1257240937279191 0 0.0157466905906841 -0.1040665986718371 0 0.017072445380067171 -0.12552727634901609 0 0.01677593290750418 -0.12364612211753551 0 0.018669485885678311 -0.12618718179210031 0 0.01677593290750418 -0.12364612211753551 0 0.025104937903267271 -0.1257240937279191 0 0.028529621239580229 -0.1155799979281157 0 0.032423661992285559 -0.1235501806860889 0 0.024642581488433141 -0.097534580463059767 0 0.033878501383730338 -0.0919679859098472 0 0.034191388863637942 -0.10649289041687859 0 0.028529621239580229 -0.1155799979281157 0 0.025777570545583849 -0.10591851686997281 0 0.034191388863637942 -0.10649289041687859 0 0.024642581488433141 -0.097534580463059767 0 0.025777570545583849 -0.10591851686997281 0 0.034191388863637942 -0.10649289041687859 0 0.028529621239580229 -0.1155799979281157 0 0.025777570545583849 -0.10591851686997281 0 0.0157466905906841 -0.1040665986718371 0 0.024642581488433141 -0.097534580463059767 0 0.025777570545583849 -0.10591851686997281 0 0.0157466905906841 -0.1040665986718371 0 0.024642581488433141 -0.097534580463059767 0 0.0157466905906841 -0.1040665986718371 0 0.01282882395839233 -0.098604609908837293 0 0.01677593290750418 -0.12364612211753551 0 0.0157466905906841 -0.1040665986718371 0 0.01282882395839233 -0.098604609908837293 0 -9.9257394721649628e-06 -0.10112028365277261 0 0.01677593290750418 -0.12364612211753551 0 0.01282882395839233 -0.098604609908837293 0 0.01282882395839233 -0.098604609908837293 0 0.008881715009281383 -0.073563097700138733 0 -9.9257394721649628e-06 -0.10112028365277261 0 0.01282882395839233 -0.098604609908837293 0 0.008881715009281383 -0.073563097700138733 0 -0.0060173714802337049 -0.068191951659488145 0 0.008881715009281383 -0.073563097700138733 0 0.0070875359577966344 -0.062180347134700713 0 0.008881715009281383 -0.073563097700138733 0 0.0070875359577966344 -0.062180347134700713 0 0.008881715009281383 -0.073563097700138733 0 0.0099555453691832409 -0.062721701534484336 0 0.0089049546355461189 -0.06438810340400096 0 0.008881715009281383 -0.073563097700138733 0 0.0089049546355461189 -0.06438810340400096 0 0.0070875359577966344 -0.062180347134700713 0 0.0099555453691832409 -0.062721701534484336 0 0.0089049546355461189 -0.06438810340400096 0 0.0070875359577966344 -0.062180347134700713 0 0.0099555453691832409 -0.062721701534484336 0 0.0089049546355461189 -0.06438810340400096 0 0.0099555453691832409 -0.062721701534484336 0 0.037590030753034777 -0.067937880459466693 0 0.008881715009281383 -0.073563097700138733 0 0.026531322424834702 -0.08433858160231808 0 0.037590030753034777 -0.067937880459466693 0 0.008881715009281383 -0.073563097700138733 0 0.037590030753034777 -0.067937880459466693 0 0.008881715009281383 -0.073563097700138733 0 0.0099555453691832409 -0.062721701534484336 0 0.037590030753034777 -0.067937880459466693 0 0.01282882395839233 -0.098604609908837293 0 0.008881715009281383 -0.073563097700138733 0 0.026531322424834702 -0.08433858160231808 0 0.024642581488433141 -0.097534580463059767 0 0.01282882395839233 -0.098604609908837293 0 0.026531322424834702 -0.08433858160231808 0 0.024642581488433141 -0.097534580463059767 0 0.026531322424834702 -0.08433858160231808 0 0.033878501383730338 -0.0919679859098472 0 0.026531322424834702 -0.08433858160231808 0 0.033878501383730338 -0.0919679859098472 0 0.03829030315300537 -0.08239996065292636 0 0.026531322424834702 -0.08433858160231808 0 0.03829030315300537 -0.08239996065292636 0 0.037590030753034777 -0.067937880459466693 0 0.03829030315300537 -0.08239996065292636 0 0.045736910988740588 -0.089073916414053156 0 0.046116227567617393 -0.076789584384071657 0 0.033878501383730338 -0.0919679859098472 0 0.03829030315300537 -0.08239996065292636 0 0.045736910988740588 -0.089073916414053156 0 0.03829030315300537 -0.08239996065292636 0 0.037590030753034777 -0.067937880459466693 0 0.046116227567617393 -0.076789584384071657 0 0.037590030753034777 -0.067937880459466693 0 0.057282433113842193 -0.071654942411226968 0 0.056998542716921417 -0.064134902357592255 0 0.037590030753034777 -0.067937880459466693 0 0.057282433113842193 -0.071654942411226968 0 0.037590030753034777 -0.067937880459466693 0 0.046116227567617393 -0.076789584384071657 0 0.057282433113842193 -0.071654942411226968 0 0.037590030753034777 -0.067937880459466693 0 0.056998542716921417 -0.064134902357592255 0 0.037590030753034777 -0.067937880459466693 0 0.056998542716921417 -0.064134902357592255 0 0.046943433796381398 -0.056312288606575257 0 0.059777513205840078 -0.074932366962408611 0 0.057282433113842193 -0.071654942411226968 0 0.057817173531981667 -0.07867336705556402 0 0.059777513205840078 -0.074932366962408611 0 0.061008610713344208 -0.072358281329801835 0 0.063001835464192288 -0.077042877053041636 0 0.059777513205840078 -0.074932366962408611 0 0.057817173531981667 -0.07867336705556402 0 0.063001835464192288 -0.077042877053041636 0 0.059777513205840078 -0.074932366962408611 0 0.061008610713344208 -0.072358281329801835 0 0.057282433113842193 -0.071654942411226968 0 0.061008610713344208 -0.072358281329801835 0 0.057282433113842193 -0.071654942411226968 0 0.061008610713344208 -0.072358281329801835 0 0.057282433113842193 -0.071654942411226968 0 0.067559629417126676 -0.066206401852268573 0 0.057282433113842193 -0.071654942411226968 0 0.066830696606223025 -0.05724927485079144 0 0.057282433113842193 -0.071654942411226968 0 0.056998542716921417 -0.064134902357592255 0 0.066830696606223025 -0.05724927485079144 0 0.058389673461980957 -0.089945231743554926 0 0.0507966991404614 -0.095727606844099575 0 0.066720237858353904 -0.093129692257573143 0 0.045736910988740588 -0.089073916414053156 0 0.057282433113842193 -0.071654942411226968 0 0.045736910988740588 -0.089073916414053156 0 0.046116227567617393 -0.076789584384071657 0 0.057282433113842193 -0.071654942411226968 0 0.045736910988740588 -0.089073916414053156 0 0.057282433113842193 -0.071654942411226968 0 0.057817173531981667 -0.07867336705556402 0 0.045736910988740588 -0.089073916414053156 0 0.053156453878163652 -0.090136641663916328 0 0.05635087598907397 -0.08500611295645355 0 0.053156453878163652 -0.090136641663916328 0 0.058389673461980957 -0.089945231743554926 0 0.0507966991404614 -0.095727606844099575 0 0.045736910988740588 -0.089073916414053156 0 0.053156453878163652 -0.090136641663916328 0 0.0507966991404614 -0.095727606844099575 0 0.045736910988740588 -0.089073916414053156 0 0.05635087598907397 -0.08500611295645355 0 0.057817173531981667 -0.07867336705556402 0 0.057817173531981667 -0.07867336705556402 0 0.062220788579056503 -0.084138707600723978 0 0.063001835464192288 -0.077042877053041636 0 0.05635087598907397 -0.08500611295645355 0 0.057817173531981667 -0.07867336705556402 0 0.062220788579056503 -0.084138707600723978 0 0.05635087598907397 -0.08500611295645355 0 0.062220788579056503 -0.084138707600723978 0 0.058389673461980957 -0.089945231743554926 0 0.062220788579056503 -0.084138707600723978 0 0.058389673461980957 -0.089945231743554926 0 0.066720237858353904 -0.093129692257573143 0 0.053156453878163652 -0.090136641663916328 0 0.05635087598907397 -0.08500611295645355 0 0.058389673461980957 -0.089945231743554926 0 0.0507966991404614 -0.095727606844099575 0 0.055428292566328141 -0.1076598034373876 0 0.072789587464405517 -0.1102059901639605 0 0.0507966991404614 -0.095727606844099575 0 0.072789587464405517 -0.1102059901639605 0 0.045736910988740588 -0.089073916414053156 0 0.0507966991404614 -0.095727606844099575 0 0.045474755241195937 -0.1029278421852579 0 0.0507966991404614 -0.095727606844099575 0 0.055428292566328141 -0.1076598034373876 0 0.045474755241195937 -0.1029278421852579 0 0.055428292566328141 -0.1076598034373876 0 0.049093369834556672 -0.11106237656382 0 0.045474755241195937 -0.1029278421852579 0 0.055428292566328141 -0.1076598034373876 0 0.058987051151021187 -0.1183752014297997 0 0.072789587464405517 -0.1102059901639605 0 0.049913936842726568 -0.1282250855367475 0 0.058987051151021187 -0.1183752014297997 0 0.046729711167958418 -0.1187886865893992 0 0.055428292566328141 -0.1076598034373876 0 0.058987051151021187 -0.1183752014297997 0 0.049093369834556672 -0.11106237656382 0 0.058987051151021187 -0.1183752014297997 0 0.049093369834556672 -0.11106237656382 0 0.046729711167958418 -0.1187886865893992 0 0.049093369834556672 -0.11106237656382 0 0.040765873231756969 -0.1124428915425508 0 0.046729711167958418 -0.1187886865893992 0 0.040765873231756969 -0.1124428915425508 0 0.046729711167958418 -0.1187886865893992 0 0.038805943593728791 -0.1212769224173425 0 0.049913936842726568 -0.1282250855367475 0 0.046729711167958418 -0.1187886865893992 0 0.038805943593728791 -0.1212769224173425 0 0.028529621239580229 -0.1155799979281157 0 0.032423661992285559 -0.1235501806860889 0 0.038805943593728791 -0.1212769224173425 0 0.028529621239580229 -0.1155799979281157 0 0.040765873231756969 -0.1124428915425508 0 0.034191388863637942 -0.10649289041687859 0 0.028529621239580229 -0.1155799979281157 0 0.040765873231756969 -0.1124428915425508 0 0.038805943593728791 -0.1212769224173425 0 0.045736910988740588 -0.089073916414053156 0 0.034191388863637942 -0.10649289041687859 0 0.045474755241195937 -0.1029278421852579 0 0.033878501383730338 -0.0919679859098472 0 0.045736910988740588 -0.089073916414053156 0 0.034191388863637942 -0.10649289041687859 0 0.045736910988740588 -0.089073916414053156 0 0.034191388863637942 -0.10649289041687859 0 0.040765873231756969 -0.1124428915425508 0 0.034191388863637942 -0.10649289041687859 0 0.045474755241195937 -0.1029278421852579 0 0.049093369834556672 -0.11106237656382 0 0.040765873231756969 -0.1124428915425508 0 0.045474755241195937 -0.1029278421852579 0 0.021259495660713831 0.00072546366398377766 0 0.023841356810678851 -0.009458596356204536 0 0.033795628823587942 -0.00040229243432294458 0 0.023841356810678851 -0.009458596356204536 0 0.013676123525549529 -0.010683941624674859 0 0.01468830858681008 -0.022747749959726449 0 0.021259495660713831 0.00072546366398377766 0 0.023841356810678851 -0.009458596356204536 0 0.013676123525549529 -0.010683941624674859 0 0.021259495660713831 0.00072546366398377766 0 0.010417021748207351 -0.00078749865505162858 0 0.013676123525549529 -0.010683941624674859 0 0.0037321413375690821 -0.01238002763455166 0 0.013676123525549529 -0.010683941624674859 0 0.0073116097955266291 -0.01860456642761606 0 0.010417021748207351 -0.00078749865505162858 0 0.0037321413375690821 -0.01238002763455166 0 0.013676123525549529 -0.010683941624674859 0 0.013676123525549529 -0.010683941624674859 0 0.01468830858681008 -0.022747749959726449 0 0.0073116097955266291 -0.01860456642761606 0 0.01468830858681008 -0.022747749959726449 0 0.0073116097955266291 -0.01860456642761606 0 0.0014308770969664081 -0.026292994201149229 0 0.0037321413375690821 -0.01238002763455166 0 0.0073116097955266291 -0.01860456642761606 0 0.001416984003155328 -0.019216769960212959 0 0.0073116097955266291 -0.01860456642761606 0 0.001416984003155328 -0.019216769960212959 0 0.0014308770969664081 -0.026292994201149229 0 0.01468830858681008 -0.022747749959726449 0 0.0014308770969664081 -0.026292994201149229 0 0.01070149112423137 -0.033660226913964662 0 0.01468830858681008 -0.022747749959726449 0 0.024515040940259539 -0.039628055396105637 0 0.039074536511336251 -0.016534409257727201 0 0.023841356810678851 -0.009458596356204536 0 0.01468830858681008 -0.022747749959726449 0 0.039074536511336251 -0.016534409257727201 0 0.01468830858681008 -0.022747749959726449 0 0.024515040940259539 -0.039628055396105637 0 0.01070149112423137 -0.033660226913964662 0 0.024515040940259539 -0.039628055396105637 0 0.01070149112423137 -0.033660226913964662 0 0.0042592065273816164 -0.044236670667924971 0 0.0014308770969664081 -0.026292994201149229 0 0.01070149112423137 -0.033660226913964662 0 0.0042592065273816164 -0.044236670667924971 0 0.0014308770969664081 -0.026292994201149229 0 0.0042592065273816164 -0.044236670667924971 0 0.0099555453691832409 -0.062721701534484336 0 0.024515040940259539 -0.039628055396105637 0 0.0042592065273816164 -0.044236670667924971 0 0.0099555453691832409 -0.062721701534484336 0 0.0042592065273816164 -0.044236670667924971 0 0.0070875359577966344 -0.062180347134700713 0 0.0042592065273816164 -0.044236670667924971 0 0.0070875359577966344 -0.062180347134700713 0 0.0099555453691832409 -0.062721701534484336 0 0.0070875359577966344 -0.062180347134700713 0 0.0099555453691832409 -0.062721701534484336 0 0.037590030753034777 -0.067937880459466693 0 0.026368251096046989 -0.055549948744807912 0 0.0099555453691832409 -0.062721701534484336 0 0.024515040940259539 -0.039628055396105637 0 0.0099555453691832409 -0.062721701534484336 0 0.024515040940259539 -0.039628055396105637 0 0.026368251096046989 -0.055549948744807912 0 0.024515040940259539 -0.039628055396105637 0 0.026368251096046989 -0.055549948744807912 0 0.036815156562354963 -0.051226221211624137 0 0.037590030753034777 -0.067937880459466693 0 0.026368251096046989 -0.055549948744807912 0 0.036815156562354963 -0.051226221211624137 0 0.037590030753034777 -0.067937880459466693 0 0.036815156562354963 -0.051226221211624137 0 0.046943433796381398 -0.056312288606575257 0 0.036815156562354963 -0.051226221211624137 0 0.046943433796381398 -0.056312288606575257 0 0.048529392530168872 -0.041578999365886611 0 0.056998542716921417 -0.064134902357592255 0 0.046943433796381398 -0.056312288606575257 0 0.056746330957256889 -0.053599744644928171 0 0.056746330957256889 -0.053599744644928171 0 0.048529392530168872 -0.041578999365886611 0 0.064275078623680898 -0.045669013121620992 0 0.056998542716921417 -0.064134902357592255 0 0.056746330957256889 -0.053599744644928171 0 0.066830696606223025 -0.05724927485079144 0 0.046943433796381398 -0.056312288606575257 0 0.056746330957256889 -0.053599744644928171 0 0.048529392530168872 -0.041578999365886611 0 0.048529392530168872 -0.041578999365886611 0 0.062704519211624468 -0.030515158908002781 0 0.064275078623680898 -0.045669013121620992 0 0.024515040940259539 -0.039628055396105637 0 0.036815156562354963 -0.051226221211624137 0 0.048529392530168872 -0.041578999365886611 0 0.024515040940259539 -0.039628055396105637 0 0.048529392530168872 -0.041578999365886611 0 0.039074536511336251 -0.016534409257727201 0 0.024515040940259539 -0.039628055396105637 0 0.039074536511336251 -0.016534409257727201 0 0.048529392530168872 -0.041578999365886611 0 0.039074536511336251 -0.016534409257727201 0 0.062704519211624468 -0.030515158908002781 0 0.039074536511336251 -0.016534409257727201 0 0.058266044987361348 -0.010552270544904849 0 0.062704519211624468 -0.030515158908002781 0 0.053634032082412977 0.0065592368806512294 0 0.039074536511336251 -0.016534409257727201 0 0.058266044987361348 -0.010552270544904849 0 0.053634032082412977 0.0065592368806512294 0 0.071634822515017182 0.001768830129076531 0 0.058266044987361348 -0.010552270544904849 0 0.053634032082412977 0.0065592368806512294 0 0.039074536511336251 -0.016534409257727201 0 0.053634032082412977 0.0065592368806512294 0 0.039074536511336251 -0.016534409257727201 0 0.033795628823587942 -0.00040229243432294458 0 0.023841356810678851 -0.009458596356204536 0 0.039074536511336251 -0.016534409257727201 0 0.033795628823587942 -0.00040229243432294458 0 0.071634822515017182 0.001768830129076531 0 0.091155594027020059 -0.0067354950573685667 0 0.071844502931639811 -0.014917187954618169 0 0.071634822515017182 0.001768830129076531 0 0.058266044987361348 -0.010552270544904849 0 0.071844502931639811 -0.014917187954618169 0 0.058266044987361348 -0.010552270544904849 0 0.071844502931639811 -0.014917187954618169 0 0.062704519211624468 -0.030515158908002781 0 0.071844502931639811 -0.014917187954618169 0 0.062704519211624468 -0.030515158908002781 0 0.080814208062064019 -0.027512971210684169 0 0.091155594027020059 -0.0067354950573685667 0 0.071844502931639811 -0.014917187954618169 0 0.080814208062064019 -0.027512971210684169 0 0.091155594027020059 -0.0067354950573685667 0 0.080814208062064019 -0.027512971210684169 0 0.095987712894303537 -0.026100046717776531 0 0.080814208062064019 -0.027512971210684169 0 0.091323280783567412 -0.042226464333016148 0 0.095987712894303537 -0.026100046717776531 0 0.080814208062064019 -0.027512971210684169 0 0.091323280783567412 -0.042226464333016148 0 0.076378960098602788 -0.042843607290355183 0 0.062704519211624468 -0.030515158908002781 0 0.080814208062064019 -0.027512971210684169 0 0.076378960098602788 -0.042843607290355183 0 0.062704519211624468 -0.030515158908002781 0 0.064275078623680898 -0.045669013121620992 0 0.076378960098602788 -0.042843607290355183 0 0.076378960098602788 -0.042843607290355183 0 0.066830696606223025 -0.05724927485079144 0 0.076378960098602788 -0.042843607290355183 0 0.066830696606223025 -0.05724927485079144 0 0.079652212511878373 -0.057649252718823207 0 0.064275078623680898 -0.045669013121620992 0 0.076378960098602788 -0.042843607290355183 0 0.066830696606223025 -0.05724927485079144 0 0.056746330957256889 -0.053599744644928171 0 0.064275078623680898 -0.045669013121620992 0 0.066830696606223025 -0.05724927485079144 0 0.066830696606223025 -0.05724927485079144 0 0.079652212511878373 -0.057649252718823207 0 0.067559629417126676 -0.066206401852268573 0 0.091323280783567412 -0.042226464333016148 0 0.076378960098602788 -0.042843607290355183 0 0.079652212511878373 -0.057649252718823207 0 0.091323280783567412 -0.042226464333016148 0 0.079652212511878373 -0.057649252718823207 0 0.091921830250970574 -0.055959828701819037 0 0.079652212511878373 -0.057649252718823207 0 0.091921830250970574 -0.055959828701819037 0 0.088069186450185077 -0.06781982909402863 0 0.091921830250970574 -0.055959828701819037 0 0.10496326532541179 -0.055950225443708999 0 0.088069186450185077 -0.06781982909402863 0 0.091323280783567412 -0.042226464333016148 0 0.091921830250970574 -0.055959828701819037 0 0.10496326532541179 -0.055950225443708999 0 0.10496326532541179 -0.055950225443708999 0 0.11962790286634389 -0.072513204585105989 0 0.12747835617616429 -0.054051541912677359 0 0.10496326532541179 -0.055950225443708999 0 0.1172609593535735 -0.041102182837248029 0 0.12747835617616429 -0.054051541912677359 0 0.1172609593535735 -0.041102182837248029 0 0.1042484950089492 -0.036819422118710997 0 0.1153210839099684 -0.024132783886428491 0 0.1172609593535735 -0.041102182837248029 0 0.1153210839099684 -0.024132783886428491 0 0.1304382963626787 -0.03553960451510297 0 0.091323280783567412 -0.042226464333016148 0 0.10496326532541179 -0.055950225443708999 0 0.1042484950089492 -0.036819422118710997 0 0.091323280783567412 -0.042226464333016148 0 0.1042484950089492 -0.036819422118710997 0 0.095987712894303537 -0.026100046717776531 0 0.10496326532541179 -0.055950225443708999 0 0.1172609593535735 -0.041102182837248029 0 0.1042484950089492 -0.036819422118710997 0 0.1042484950089492 -0.036819422118710997 0 0.095987712894303537 -0.026100046717776531 0 0.1153210839099684 -0.024132783886428491 0 0.091155594027020059 -0.0067354950573685667 0 0.095987712894303537 -0.026100046717776531 0 0.1044170721438132 -0.016282736442319951 0 0.095987712894303537 -0.026100046717776531 0 0.1044170721438132 -0.016282736442319951 0 0.1153210839099684 -0.024132783886428491 0 0.1044170721438132 -0.016282736442319951 0 0.1153210839099684 -0.024132783886428491 0 0.111052763499568 -0.0051741236291446974 0 0.13162326829794649 0.011309293970379429 0 0.111052763499568 -0.0051741236291446974 0 0.12668019528294311 -0.0069025068300239542 0 0.1153210839099684 -0.024132783886428491 0 0.111052763499568 -0.0051741236291446974 0 0.12668019528294311 -0.0069025068300239542 0 0.1003978342016343 0.003046416883448567 0 0.091155594027020059 -0.0067354950573685667 0 0.111052763499568 -0.0051741236291446974 0 0.091155594027020059 -0.0067354950573685667 0 0.1044170721438132 -0.016282736442319951 0 0.111052763499568 -0.0051741236291446974 0 0.078731692277935389 -0.09644011146042468 0 0.093686078533611689 -0.098895544513761438 0 0.072789587464405517 -0.1102059901639605 0 0.072789587464405517 -0.1102059901639605 0 0.094782475788349918 -0.12468437348382121 0 0.08977806153169271 -0.12918425069078451 0 0.072789587464405517 -0.1102059901639605 0 0.094782475788349918 -0.12468437348382121 0 0.093686078533611689 -0.098895544513761438 0 0.072789587464405517 -0.1102059901639605 0 0.094782475788349918 -0.12468437348382121 0 0.08977806153169271 -0.12918425069078451 0 0.072569887579608583 -0.12828607425287111 0 0.072789587464405517 -0.1102059901639605 0 0.072569887579608583 -0.12828607425287111 0 0.058987051151021187 -0.1183752014297997 0 0.072789587464405517 -0.1102059901639605 0 0.0507966991404614 -0.095727606844099575 0 0.072789587464405517 -0.1102059901639605 0 0.066720237858353904 -0.093129692257573143 0 0.078731692277935389 -0.09644011146042468 0 0.072789587464405517 -0.1102059901639605 0 0.066720237858353904 -0.093129692257573143 0 0.062220788579056503 -0.084138707600723978 0 0.066720237858353904 -0.093129692257573143 0 0.069693279236358555 -0.080241265840652665 0 0.062220788579056503 -0.084138707600723978 0 0.069693279236358555 -0.080241265840652665 0 0.063001835464192288 -0.077042877053041636 0 0.066720237858353904 -0.093129692257573143 0 0.069693279236358555 -0.080241265840652665 0 0.081730865255370433 -0.083529218906403704 0 0.069693279236358555 -0.080241265840652665 0 0.075481903976473058 -0.071239362909483461 0 0.081730865255370433 -0.083529218906403704 0 0.078731692277935389 -0.09644011146042468 0 0.066720237858353904 -0.093129692257573143 0 0.081730865255370433 -0.083529218906403704 0 0.057282433113842193 -0.071654942411226968 0 0.066830696606223025 -0.05724927485079144 0 0.067559629417126676 -0.066206401852268573 0 0.067559629417126676 -0.066206401852268573 0 0.06775527963146602 -0.072978712972372517 0 0.075481903976473058 -0.071239362909483461 0 0.061008610713344208 -0.072358281329801835 0 0.067559629417126676 -0.066206401852268573 0 0.06775527963146602 -0.072978712972372517 0 0.061008610713344208 -0.072358281329801835 0 0.06775527963146602 -0.072978712972372517 0 0.063001835464192288 -0.077042877053041636 0 0.069693279236358555 -0.080241265840652665 0 0.06775527963146602 -0.072978712972372517 0 0.063001835464192288 -0.077042877053041636 0 0.069693279236358555 -0.080241265840652665 0 0.06775527963146602 -0.072978712972372517 0 0.075481903976473058 -0.071239362909483461 0 0.079652212511878373 -0.057649252718823207 0 0.067559629417126676 -0.066206401852268573 0 0.075481903976473058 -0.071239362909483461 0 0.075481903976473058 -0.071239362909483461 0 0.088069186450185077 -0.06781982909402863 0 0.081730865255370433 -0.083529218906403704 0 0.088069186450185077 -0.06781982909402863 0 0.081730865255370433 -0.083529218906403704 0 0.10003046329167101 -0.077490424605623165 0 0.079652212511878373 -0.057649252718823207 0 0.075481903976473058 -0.071239362909483461 0 0.088069186450185077 -0.06781982909402863 0 0.093686078533611689 -0.098895544513761438 0 0.081730865255370433 -0.083529218906403704 0 0.10003046329167101 -0.077490424605623165 0 0.078731692277935389 -0.09644011146042468 0 0.093686078533611689 -0.098895544513761438 0 0.081730865255370433 -0.083529218906403704 0 0.093686078533611689 -0.098895544513761438 0 0.10003046329167101 -0.077490424605623165 0 0.1119388478190072 -0.089441606994564729 0 0.10496326532541179 -0.055950225443708999 0 0.088069186450185077 -0.06781982909402863 0 0.10003046329167101 -0.077490424605623165 0 0.10496326532541179 -0.055950225443708999 0 0.10003046329167101 -0.077490424605623165 0 0.11962790286634389 -0.072513204585105989 0 0.11962790286634389 -0.072513204585105989 0 0.1119388478190072 -0.089441606994564729 0 0.13263903767282309 -0.090644449684281633 0 0.10003046329167101 -0.077490424605623165 0 0.11962790286634389 -0.072513204585105989 0 0.1119388478190072 -0.089441606994564729 0 0.1119388478190072 -0.089441606994564729 0 0.1137107567305865 -0.10766441158405141 0 0.13263903767282309 -0.090644449684281633 0 0.1137107567305865 -0.10766441158405141 0 0.13263903767282309 -0.090644449684281633 0 0.093686078533611689 -0.098895544513761438 0 0.1119388478190072 -0.089441606994564729 0 0.1137107567305865 -0.10766441158405141 0 0.093686078533611689 -0.098895544513761438 0 0.1137107567305865 -0.10766441158405141 0 0.094782475788349918 -0.12468437348382121 0 0.1137107567305865 -0.10766441158405141 0 0.094782475788349918 -0.12468437348382121 0 0.1137107567305865 -0.10766441158405141 0 0.094782475788349918 -0.12468437348382121 0 0.1128421822290344 -0.1221868460475129 0 0.1137107567305865 -0.10766441158405141 0 0.1128421822290344 -0.1221868460475129 0 0.13114775909195911 -0.1205588017539125 0 0.13114775909195911 -0.1205588017539125 0 0.15403025153812569 -0.1203975911672322 0 0.15258680661598559 -0.1016822829933328 0 0.1137107567305865 -0.10766441158405141 0 0.13114775909195911 -0.1205588017539125 0 0.13263903767282309 -0.090644449684281633 0 0.13114775909195911 -0.1205588017539125 0 0.15258680661598559 -0.1016822829933328 0 0.13263903767282309 -0.090644449684281633 0 0.13263903767282309 -0.090644449684281633 0 0.13511081640998771 -0.068062628614451864 0 0.1515673186150597 -0.073624487784511833 0 0.11962790286634389 -0.072513204585105989 0 0.13263903767282309 -0.090644449684281633 0 0.13511081640998771 -0.068062628614451864 0 0.11962790286634389 -0.072513204585105989 0 0.13511081640998771 -0.068062628614451864 0 0.12747835617616429 -0.054051541912677359 0 0.13511081640998771 -0.068062628614451864 0 0.1515673186150597 -0.073624487784511833 0 0.14189418340508941 -0.04995756174741682 0 0.15258680661598559 -0.1016822829933328 0 0.13263903767282309 -0.090644449684281633 0 0.1515673186150597 -0.073624487784511833 0 0.13263903767282309 -0.090644449684281633 0 0.1515673186150597 -0.073624487784511833 0 0.15258680661598559 -0.1016822829933328 0 0.1515673186150597 -0.073624487784511833 0 0.17169493352550869 -0.091281743208694033 0 0.1515673186150597 -0.073624487784511833 0 0.17169493352550869 -0.091281743208694033 0 0.18127233057205011 -0.071339771330443558 0 0.1515673186150597 -0.073624487784511833 0 0.18127233057205011 -0.071339771330443558 0 0.17784050006796831 -0.050450698260329649 0 0.17169493352550869 -0.091281743208694033 0 0.18625784307586099 -0.10063434636033269 0 0.19032044022035821 -0.085968292600336171 0 0.17169493352550869 -0.091281743208694033 0 0.18127233057205011 -0.071339771330443558 0 0.19032044022035821 -0.085968292600336171 0 0.18625784307586099 -0.10063434636033269 0 0.1733554249428905 -0.11499627546057439 0 0.20285222039429249 -0.1124495952823458 0 0.17169493352550869 -0.091281743208694033 0 0.18625784307586099 -0.10063434636033269 0 0.1733554249428905 -0.11499627546057439 0 0.15403025153812569 -0.1203975911672322 0 0.15258680661598559 -0.1016822829933328 0 0.1733554249428905 -0.11499627546057439 0 0.15403025153812569 -0.1203975911672322 0 0.1733554249428905 -0.11499627546057439 0 0.15948684264095811 -0.13657346029886649 0 0.15258680661598559 -0.1016822829933328 0 0.17169493352550869 -0.091281743208694033 0 0.1733554249428905 -0.11499627546057439 0 0.15466091238919971 -0.0093276693272003365 0 0.13982110672202591 -0.0020998739402764322 0 0.1351624345487841 -0.016542676972347001 0 0.1526184812893058 0.0087924494580814833 0 0.15466091238919971 -0.0093276693272003365 0 0.13982110672202591 -0.0020998739402764322 0 0.13982110672202591 -0.0020998739402764322 0 0.12668019528294311 -0.0069025068300239542 0 0.1351624345487841 -0.016542676972347001 0 0.1153210839099684 -0.024132783886428491 0 0.12668019528294311 -0.0069025068300239542 0 0.1351624345487841 -0.016542676972347001 0 0.1153210839099684 -0.024132783886428491 0 0.1351624345487841 -0.016542676972347001 0 0.1304382963626787 -0.03553960451510297 0 0.1351624345487841 -0.016542676972347001 0 0.14591733158672279 -0.0281390221347773 0 0.1304382963626787 -0.03553960451510297 0 0.15466091238919971 -0.0093276693272003365 0 0.14591733158672279 -0.0281390221347773 0 0.16076571907195369 -0.026656020206073449 0 0.15466091238919971 -0.0093276693272003365 0 0.1351624345487841 -0.016542676972347001 0 0.14591733158672279 -0.0281390221347773 0 0.14591733158672279 -0.0281390221347773 0 0.15948021412642921 -0.042543152708288838 0 0.16076571907195369 -0.026656020206073449 0 0.14591733158672279 -0.0281390221347773 0 0.14189418340508941 -0.04995756174741682 0 0.15948021412642921 -0.042543152708288838 0 0.1304382963626787 -0.03553960451510297 0 0.12747835617616429 -0.054051541912677359 0 0.14189418340508941 -0.04995756174741682 0 0.14591733158672279 -0.0281390221347773 0 0.1304382963626787 -0.03553960451510297 0 0.14189418340508941 -0.04995756174741682 0 0.1172609593535735 -0.041102182837248029 0 0.1304382963626787 -0.03553960451510297 0 0.12747835617616429 -0.054051541912677359 0 0.13511081640998771 -0.068062628614451864 0 0.12747835617616429 -0.054051541912677359 0 0.14189418340508941 -0.04995756174741682 0 0.1515673186150597 -0.073624487784511833 0 0.14189418340508941 -0.04995756174741682 0 0.15948021412642921 -0.042543152708288838 0 0.1515673186150597 -0.073624487784511833 0 0.17784050006796831 -0.050450698260329649 0 0.15948021412642921 -0.042543152708288838 0 0.18127233057205011 -0.071339771330443558 0 0.17784050006796831 -0.050450698260329649 0 0.1975673683951043 -0.054916948311966307 0 0.17784050006796831 -0.050450698260329649 0 0.15948021412642921 -0.042543152708288838 0 0.17930080281601141 -0.027119268516901229 0 0.17784050006796831 -0.050450698260329649 0 0.17930080281601141 -0.027119268516901229 0 0.19704658523737739 -0.035191482480507921 0 0.15948021412642921 -0.042543152708288838 0 0.16076571907195369 -0.026656020206073449 0 0.17930080281601141 -0.027119268516901229 0 0.16076571907195369 -0.026656020206073449 0 0.17930080281601141 -0.027119268516901229 0 0.17979020566437609 -0.0061718643226255166 0 0.17930080281601141 -0.027119268516901229 0 0.17979020566437609 -0.0061718643226255166 0 0.19616664162111261 -0.0092357271221407307 0 0.16895567864545941 0.004835180427338678 0 0.15466091238919971 -0.0093276693272003365 0 0.17979020566437609 -0.0061718643226255166 0 0.15466091238919971 -0.0093276693272003365 0 0.16076571907195369 -0.026656020206073449 0 0.17979020566437609 -0.0061718643226255166 0 0.2056422560813041 0.0044678359364639644 0 0.19616664162111261 -0.0092357271221407307 0 0.21218807383825811 -0.017871547831707069 0 0.2056422560813041 0.0044678359364639644 0 0.21218807383825811 -0.017871547831707069 0 0.2252186252630293 -0.001905012025652924 0 0.19123036879170949 0.01431327226320799 0 0.17979020566437609 -0.0061718643226255166 0 0.19616664162111261 -0.0092357271221407307 0 0.17930080281601141 -0.027119268516901229 0 0.19616664162111261 -0.0092357271221407307 0 0.19704658523737739 -0.035191482480507921 0 0.19616664162111261 -0.0092357271221407307 0 0.21218807383825811 -0.017871547831707069 0 0.19704658523737739 -0.035191482480507921 0 0.21218807383825811 -0.017871547831707069 0 0.2163725161273452 -0.041019115970170758 0 0.19704658523737739 -0.035191482480507921 0 0.2163725161273452 -0.041019115970170758 0 0.19704658523737739 -0.035191482480507921 0 0.1975673683951043 -0.054916948311966307 0 0.17784050006796831 -0.050450698260329649 0 0.19704658523737739 -0.035191482480507921 0 0.1975673683951043 -0.054916948311966307 0 0.2163725161273452 -0.041019115970170758 0 0.1975673683951043 -0.054916948311966307 0 0.21604280568800249 -0.060304572584948229 0 0.1975673683951043 -0.054916948311966307 0 0.21604280568800249 -0.060304572584948229 0 0.1998740400292052 -0.071978340593484208 0 0.2163725161273452 -0.041019115970170758 0 0.21604280568800249 -0.060304572584948229 0 0.23643270331562971 -0.046729204305435937 0 0.21604280568800249 -0.060304572584948229 0 0.23643270331562971 -0.046729204305435937 0 0.22709412080129951 -0.070347450277860116 0 0.23643270331562971 -0.046729204305435937 0 0.22709412080129951 -0.070347450277860116 0 0.24051398262587639 -0.070213629672212396 0 0.23643270331562971 -0.046729204305435937 0 0.24051398262587639 -0.070213629672212396 0 0.24721937315541639 -0.056573217580361643 0 0.23643270331562971 -0.046729204305435937 0 0.24051398262587639 -0.070213629672212396 0 0.24721937315541639 -0.056573217580361643 0 0.23643270331562971 -0.046729204305435937 0 0.24910752483994139 -0.039692287742642877 0 0.23643270331562971 -0.046729204305435937 0 0.24910752483994139 -0.039692287742642877 0 0.232351424005383 -0.023244778938659481 0 0.23643270331562971 -0.046729204305435937 0 0.232351424005383 -0.023244778938659481 0 0.2163725161273452 -0.041019115970170758 0 0.23643270331562971 -0.046729204305435937 0 0.232351424005383 -0.023244778938659481 0 0.21218807383825811 -0.017871547831707069 0 0.2163725161273452 -0.041019115970170758 0 0.232351424005383 -0.023244778938659481 0 0.26227521970404888 -0.025810670910376629 0 0.232351424005383 -0.023244778938659481 0 0.2453786940251601 -0.0068958978480940566 0 0.26227521970404888 -0.025810670910376629 0 0.24910752483994139 -0.039692287742642877 0 0.232351424005383 -0.023244778938659481 0 0.232351424005383 -0.023244778938659481 0 0.2453786940251601 -0.0068958978480940566 0 0.2252186252630293 -0.001905012025652924 0 0.21218807383825811 -0.017871547831707069 0 0.232351424005383 -0.023244778938659481 0 0.2252186252630293 -0.001905012025652924 0 0.2133239764245253 -0.097749079484779636 0 0.20285222039429249 -0.1124495952823458 0 0.19925355472980161 -0.096261314370733986 0 0.2133239764245253 -0.097749079484779636 0 0.20285222039429249 -0.1124495952823458 0 0.22045063064723111 -0.10980496883912889 0 0.21870798606497541 -0.1218526811545695 0 0.20285222039429249 -0.1124495952823458 0 0.20235825323530179 -0.13099159982484709 0 0.21870798606497541 -0.1218526811545695 0 0.20285222039429249 -0.1124495952823458 0 0.22045063064723111 -0.10980496883912889 0 0.1733554249428905 -0.11499627546057439 0 0.20285222039429249 -0.1124495952823458 0 0.20235825323530179 -0.13099159982484709 0 0.18625784307586099 -0.10063434636033269 0 0.20285222039429249 -0.1124495952823458 0 0.19925355472980161 -0.096261314370733986 0 0.18625784307586099 -0.10063434636033269 0 0.19925355472980161 -0.096261314370733986 0 0.19032044022035821 -0.085968292600336171 0 0.19925355472980161 -0.096261314370733986 0 0.19032044022035821 -0.085968292600336171 0 0.206523421199892 -0.084750758402314635 0 0.19032044022035821 -0.085968292600336171 0 0.1998740400292052 -0.071978340593484208 0 0.206523421199892 -0.084750758402314635 0 0.18127233057205011 -0.071339771330443558 0 0.19032044022035821 -0.085968292600336171 0 0.1998740400292052 -0.071978340593484208 0 0.18127233057205011 -0.071339771330443558 0 0.1975673683951043 -0.054916948311966307 0 0.1998740400292052 -0.071978340593484208 0 0.21604280568800249 -0.060304572584948229 0 0.1998740400292052 -0.071978340593484208 0 0.2151930900424916 -0.075129451443135792 0 0.1998740400292052 -0.071978340593484208 0 0.2151930900424916 -0.075129451443135792 0 0.206523421199892 -0.084750758402314635 0 0.2133239764245253 -0.097749079484779636 0 0.19925355472980161 -0.096261314370733986 0 0.206523421199892 -0.084750758402314635 0 0.2151930900424916 -0.075129451443135792 0 0.206523421199892 -0.084750758402314635 0 0.22142794752987091 -0.085627376115080103 0 0.2133239764245253 -0.097749079484779636 0 0.206523421199892 -0.084750758402314635 0 0.22142794752987091 -0.085627376115080103 0 0.2133239764245253 -0.097749079484779636 0 0.22142794752987091 -0.085627376115080103 0 0.2294360840460638 -0.097600463899074438 0 0.22142794752987091 -0.085627376115080103 0 0.232602061951352 -0.08389474406366311 0 0.22709412080129951 -0.070347450277860116 0 0.22142794752987091 -0.085627376115080103 0 0.232602061951352 -0.08389474406366311 0 0.2294360840460638 -0.097600463899074438 0 0.21604280568800249 -0.060304572584948229 0 0.2151930900424916 -0.075129451443135792 0 0.22709412080129951 -0.070347450277860116 0 0.2151930900424916 -0.075129451443135792 0 0.22142794752987091 -0.085627376115080103 0 0.22709412080129951 -0.070347450277860116 0 0.232602061951352 -0.08389474406366311 0 0.22709412080129951 -0.070347450277860116 0 0.24051398262587639 -0.070213629672212396 0 0.24051398262587639 -0.070213629672212396 0 0.24944737075499149 -0.068843888556443175 0 0.2460700497688284 -0.080793953707780183 0 0.24721937315541639 -0.056573217580361643 0 0.24051398262587639 -0.070213629672212396 0 0.24944737075499149 -0.068843888556443175 0 0.24051398262587639 -0.070213629672212396 0 0.2445952619361231 -0.093698055038988842 0 0.232602061951352 -0.08389474406366311 0 0.24051398262587639 -0.070213629672212396 0 0.2445952619361231 -0.093698055038988842 0 0.24051398262587639 -0.070213629672212396 0 0.2460700497688284 -0.080793953707780183 0 0.2445952619361231 -0.093698055038988842 0 0.232602061951352 -0.08389474406366311 0 0.2445952619361231 -0.093698055038988842 0 0.2294360840460638 -0.097600463899074438 0 0.25478116043846633 -0.080602048818224442 0 0.2460700497688284 -0.080793953707780183 0 0.2445952619361231 -0.093698055038988842 0 0.2445952619361231 -0.093698055038988842 0 0.24867654124636951 -0.1171824804057654 0 0.25082829793759442 -0.1095026453344221 0 0.2445952619361231 -0.093698055038988842 0 0.24867654124636951 -0.1171824804057654 0 0.2445952619361231 -0.093698055038988842 0 0.24040722749264451 -0.1062566355604514 0 0.24867654124636951 -0.1171824804057654 0 0.2445952619361231 -0.093698055038988842 0 0.24040722749264451 -0.1062566355604514 0 0.2294360840460638 -0.097600463899074438 0 0.2133239764245253 -0.097749079484779636 0 0.2294360840460638 -0.097600463899074438 0 0.22045063064723111 -0.10980496883912889 0 0.24040722749264451 -0.1062566355604514 0 0.2294360840460638 -0.097600463899074438 0 0.2315739689825092 -0.10808823887331589 0 0.2294360840460638 -0.097600463899074438 0 0.2315739689825092 -0.10808823887331589 0 0.22045063064723111 -0.10980496883912889 0 0.21870798606497541 -0.1218526811545695 0 0.22045063064723111 -0.10980496883912889 0 0.2324684028944996 -0.11711446694985191 0 0.2315739689825092 -0.10808823887331589 0 0.2324684028944996 -0.11711446694985191 0 0.2385422281373856 -0.113931491067882 0 0.2315739689825092 -0.10808823887331589 0 0.22045063064723111 -0.10980496883912889 0 0.2324684028944996 -0.11711446694985191 0 0.21870798606497541 -0.1218526811545695 0 0.2324684028944996 -0.11711446694985191 0 0.23235352844560361 -0.12690043121811129 0 0.2324684028944996 -0.11711446694985191 0 0.23958500007090541 -0.1210156335500253 0 0.23235352844560361 -0.12690043121811129 0 0.2324684028944996 -0.11711446694985191 0 0.23958500007090541 -0.1210156335500253 0 0.2385422281373856 -0.113931491067882 0 0.24040722749264451 -0.1062566355604514 0 0.2315739689825092 -0.10808823887331589 0 0.2385422281373856 -0.113931491067882 0 0.24040722749264451 -0.1062566355604514 0 0.2385422281373856 -0.113931491067882 0 0.24867654124636951 -0.1171824804057654 0 0.23958500007090541 -0.1210156335500253 0 0.24867654124636951 -0.1171824804057654 0 0.24157268059043999 -0.13035438288878731 0 0.24867654124636951 -0.1171824804057654 0 0.24157268059043999 -0.13035438288878731 0 0.23958500007090541 -0.1210156335500253 0 0.2385422281373856 -0.113931491067882 0 0.24867654124636951 -0.1171824804057654 0 0.25138186385401579 -0.13274940000198271 0 0.24867654124636951 -0.1171824804057654 0 0.24157268059043999 -0.13035438288878731 0 0.25138186385401579 -0.13274940000198271 0 0.24157268059043999 -0.13035438288878731 0 0.24412551523773349 -0.14171593062005389 0 0.24157268059043999 -0.13035438288878731 0 0.24412551523773349 -0.14171593062005389 0 0.23280817255724101 -0.14040227835510499 0 0.24157268059043999 -0.13035438288878731 0 0.23235352844560361 -0.12690043121811129 0 0.23280817255724101 -0.14040227835510499 0 0.23958500007090541 -0.1210156335500253 0 0.24157268059043999 -0.13035438288878731 0 0.23235352844560361 -0.12690043121811129 0 0.25408718646166178 -0.14831631959819991 0 0.24412551523773349 -0.14171593062005389 0 0.24012759994652949 -0.157929475398466 0 0.24412551523773349 -0.14171593062005389 0 0.23280817255724101 -0.14040227835510499 0 0.24012759994652949 -0.157929475398466 0 0.25539367275013369 -0.16061178211912899 0 0.25408718646166178 -0.14831631959819991 0 0.24012759994652949 -0.157929475398466 0 0.25138186385401579 -0.13274940000198271 0 0.25408718646166178 -0.14831631959819991 0 0.24412551523773349 -0.14171593062005389 0 0.23280817255724101 -0.14040227835510499 0 0.221764880772924 -0.1338550248131323 0 0.21690483035021521 -0.1516584251920792 0 0.23280817255724101 -0.14040227835510499 0 0.21690483035021521 -0.1516584251920792 0 0.24012759994652949 -0.157929475398466 0 0.23235352844560361 -0.12690043121811129 0 0.23280817255724101 -0.14040227835510499 0 0.221764880772924 -0.1338550248131323 0 0.21870798606497541 -0.1218526811545695 0 0.23235352844560361 -0.12690043121811129 0 0.221764880772924 -0.1338550248131323 0 0.21870798606497541 -0.1218526811545695 0 0.221764880772924 -0.1338550248131323 0 0.20235825323530179 -0.13099159982484709 0 0.221764880772924 -0.1338550248131323 0 0.21690483035021521 -0.1516584251920792 0 0.20235825323530179 -0.13099159982484709 0 0.21690483035021521 -0.1516584251920792 0 0.1979831779233662 -0.1486492653411142 0 0.20235825323530179 -0.13099159982484709 0 0.1979831779233662 -0.1486492653411142 0 0.20235825323530179 -0.13099159982484709 0 0.18148397833791621 -0.13550664385479619 0 0.20010084942967041 -0.18706385832226249 0 0.19771496754817641 -0.1692241386930394 0 0.1785251047461375 -0.1867898521939996 0 0.19771496754817641 -0.1692241386930394 0 0.1785251047461375 -0.1867898521939996 0 0.1979831779233662 -0.1486492653411142 0 0.19771496754817641 -0.1692241386930394 0 0.17808357016969881 -0.1511287846963949 0 0.21690483035021521 -0.1516584251920792 0 0.1979831779233662 -0.1486492653411142 0 0.19771496754817641 -0.1692241386930394 0 0.21690483035021521 -0.1516584251920792 0 0.19771496754817641 -0.1692241386930394 0 0.2227162268770945 -0.16750169699817341 0 0.21690483035021521 -0.1516584251920792 0 0.19771496754817641 -0.1692241386930394 0 0.19771496754817641 -0.1692241386930394 0 0.2176574584277485 -0.18327880094506091 0 0.2227162268770945 -0.16750169699817341 0 0.20010084942967041 -0.18706385832226249 0 0.19771496754817641 -0.1692241386930394 0 0.2176574584277485 -0.18327880094506091 0 0.2176574584277485 -0.18327880094506091 0 0.2227162268770945 -0.16750169699817341 0 0.23557431356518341 -0.1793031322352048 0 0.2176574584277485 -0.18327880094506091 0 0.23557431356518341 -0.1793031322352048 0 0.2305047989351737 -0.19856279498283699 0 0.2227162268770945 -0.16750169699817341 0 0.24012759994652949 -0.157929475398466 0 0.23557431356518341 -0.1793031322352048 0 0.21690483035021521 -0.1516584251920792 0 0.2227162268770945 -0.16750169699817341 0 0.24012759994652949 -0.157929475398466 0 0.2515057650938059 -0.1733624733555551 0 0.24012759994652949 -0.157929475398466 0 0.23557431356518341 -0.1793031322352048 0 0.2515057650938059 -0.1733624733555551 0 0.25539367275013369 -0.16061178211912899 0 0.24012759994652949 -0.157929475398466 0 0.2515057650938059 -0.1733624733555551 0 0.23557431356518341 -0.1793031322352048 0 0.24813304983693851 -0.197126295467628 0 0.23557431356518341 -0.1793031322352048 0 0.24813304983693851 -0.197126295467628 0 0.2305047989351737 -0.19856279498283699 0 0.24813304983693851 -0.197126295467628 0 0.24154439157591809 -0.21549740969834391 0 0.2305047989351737 -0.19856279498283699 0 0.2305047989351737 -0.19856279498283699 0 0.22397241020713449 -0.21901810495799501 0 0.21248654411095699 -0.19724661871839169 0 0.24154439157591809 -0.21549740969834391 0 0.2305047989351737 -0.19856279498283699 0 0.22397241020713449 -0.21901810495799501 0 0.2176574584277485 -0.18327880094506091 0 0.2305047989351737 -0.19856279498283699 0 0.21248654411095699 -0.19724661871839169 0 0.24061150457431191 -0.25186374409499401 0 0.24467313358478149 -0.2347618647698089 0 0.22231123182094389 -0.24471117443653381 0 0.26145137686751269 -0.25057166113606721 0 0.24061150457431191 -0.25186374409499401 0 0.24467313358478149 -0.2347618647698089 0 0.24154439157591809 -0.21549740969834391 0 0.24467313358478149 -0.2347618647698089 0 0.22397241020713449 -0.21901810495799501 0 0.24467313358478149 -0.2347618647698089 0 0.22397241020713449 -0.21901810495799501 0 0.22231123182094389 -0.24471117443653381 0 0.24467313358478149 -0.2347618647698089 0 0.22231123182094389 -0.24471117443653381 0 0.22231123182094389 -0.24471117443653381 0 0.20813320916813269 -0.22971618325568871 0 0.19096637578835671 -0.24771322335898729 0 0.22397241020713449 -0.21901810495799501 0 0.20813320916813269 -0.22971618325568871 0 0.20593777448522169 -0.21411174859089621 0 0.22397241020713449 -0.21901810495799501 0 0.22231123182094389 -0.24471117443653381 0 0.20813320916813269 -0.22971618325568871 0 0.20813320916813269 -0.22971618325568871 0 0.19240997434778881 -0.22450968238758959 0 0.20593777448522169 -0.21411174859089621 0 0.20813320916813269 -0.22971618325568871 0 0.19240997434778881 -0.22450968238758959 0 0.19096637578835671 -0.24771322335898729 0 0.19240997434778881 -0.22450968238758959 0 0.19096637578835671 -0.24771322335898729 0 0.20010084942967041 -0.18706385832226249 0 0.2176574584277485 -0.18327880094506091 0 0.21248654411095699 -0.19724661871839169 0 0.22397241020713449 -0.21901810495799501 0 0.21248654411095699 -0.19724661871839169 0 0.20593777448522169 -0.21411174859089621 0 0.21248654411095699 -0.19724661871839169 0 0.20593777448522169 -0.21411174859089621 0 0.19385357290722099 -0.20130614141619191 0 0.19240997434778881 -0.22450968238758959 0 0.19385357290722099 -0.20130614141619191 0 0.19240997434778881 -0.22450968238758959 0 0.20593777448522169 -0.21411174859089621 0 0.19385357290722099 -0.20130614141619191 0 0.20010084942967041 -0.18706385832226249 0 0.21248654411095699 -0.19724661871839169 0 0.19385357290722099 -0.20130614141619191 0 0.20010084942967041 -0.18706385832226249 0 0.19385357290722099 -0.20130614141619191 0 0.1785251047461375 -0.1867898521939996 0 0.19385357290722099 -0.20130614141619191 0 0.17597764217945619 -0.20506700597695229 0 0.1785251047461375 -0.1867898521939996 0 0.19240997434778881 -0.22450968238758959 0 0.19385357290722099 -0.20130614141619191 0 0.17597764217945619 -0.20506700597695229 0 0.19240997434778881 -0.22450968238758959 0 0.17597764217945619 -0.20506700597695229 0 0.17160699294609269 -0.22162270101367129 0 0.17597764217945619 -0.20506700597695229 0 0.16333839195414171 -0.21585418778984911 0 0.15933524194409851 -0.20435556569495991 0 0.17597764217945619 -0.20506700597695229 0 0.16333839195414171 -0.21585418778984911 0 0.17160699294609269 -0.22162270101367129 0 0.16333839195414171 -0.21585418778984911 0 0.15933524194409851 -0.20435556569495991 0 0.15454453356182579 -0.2177498072294006 0 0.17597764217945619 -0.20506700597695229 0 0.15933524194409851 -0.20435556569495991 0 0.1785251047461375 -0.1867898521939996 0 0.15933524194409851 -0.20435556569495991 0 0.1785251047461375 -0.1867898521939996 0 0.15933524194409851 -0.20435556569495991 0 0.15933220057419251 -0.19292829879491019 0 0.1785251047461375 -0.1867898521939996 0 0.19240997434778881 -0.22450968238758959 0 0.19096637578835671 -0.24771322335898729 0 0.1742648767975214 -0.23741472471534311 0 0.1757536332365727 -0.25234785155315981 0 0.19096637578835671 -0.24771322335898729 0 0.1742648767975214 -0.23741472471534311 0 0.19240997434778881 -0.22450968238758959 0 0.1742648767975214 -0.23741472471534311 0 0.17160699294609269 -0.22162270101367129 0 0.16333839195414171 -0.21585418778984911 0 0.17160699294609269 -0.22162270101367129 0 0.15522754913923531 -0.2304758590342616 0 0.1742648767975214 -0.23741472471534311 0 0.17160699294609269 -0.22162270101367129 0 0.15522754913923531 -0.2304758590342616 0 0.16333839195414171 -0.21585418778984911 0 0.15522754913923531 -0.2304758590342616 0 0.15454453356182579 -0.2177498072294006 0 0.1757536332365727 -0.25234785155315981 0 0.1742648767975214 -0.23741472471534311 0 0.15993424921527771 -0.24882487645807311 0 0.1742648767975214 -0.23741472471534311 0 0.15993424921527771 -0.24882487645807311 0 0.15522754913923531 -0.2304758590342616 0 0.15993424921527771 -0.24882487645807311 0 0.1498738958393499 -0.24242729502683041 0 0.15522754913923531 -0.2304758590342616 0 0.14809292821024431 -0.25134993503629383 0 0.14141424986332879 -0.24505502678180921 0 0.1498738958393499 -0.24242729502683041 0 0.14809292821024431 -0.25134993503629383 0 0.15993424921527771 -0.24882487645807311 0 0.1498738958393499 -0.24242729502683041 0 0.1498738958393499 -0.24242729502683041 0 0.1434235362174221 -0.23535417050642371 0 0.15522754913923531 -0.2304758590342616 0 0.14141424986332879 -0.24505502678180921 0 0.1498738958393499 -0.24242729502683041 0 0.1434235362174221 -0.23535417050642371 0 0.15522754913923531 -0.2304758590342616 0 0.14014537914205949 -0.2219212791959202 0 0.13868249588217479 -0.22645827506708169 0 0.15522754913923531 -0.2304758590342616 0 0.13868249588217479 -0.22645827506708169 0 0.1434235362174221 -0.23535417050642371 0 0.15522754913923531 -0.2304758590342616 0 0.13868249588217479 -0.22645827506708169 0 0.15522754913923531 -0.2304758590342616 0 0.14014537914205949 -0.2219212791959202 0 0.15454453356182579 -0.2177498072294006 0 0.1221374426251142 -0.222440691099903 0 0.13868249588217479 -0.22645827506708169 0 0.13412559720266001 -0.21713962991926619 0 0.1221374426251142 -0.222440691099903 0 0.13868249588217479 -0.22645827506708169 0 0.13118691157600229 -0.2304955893304772 0 0.1221374426251142 -0.222440691099903 0 0.13868249588217479 -0.22645827506708169 0 0.14014537914205949 -0.2219212791959202 0 0.13868249588217479 -0.22645827506708169 0 0.13412559720266001 -0.21713962991926619 0 0.12457107474955061 -0.2338111052969441 0 0.13118691157600229 -0.2304955893304772 0 0.1333171234832321 -0.23752440078609291 0 0.1221374426251142 -0.222440691099903 0 0.12457107474955061 -0.2338111052969441 0 0.13118691157600229 -0.2304955893304772 0 0.13118691157600229 -0.2304955893304772 0 0.13693361279798461 -0.23235298181060629 0 0.1333171234832321 -0.23752440078609291 0 0.1434235362174221 -0.23535417050642371 0 0.13868249588217479 -0.22645827506708169 0 0.13693361279798461 -0.23235298181060629 0 0.13868249588217479 -0.22645827506708169 0 0.13118691157600229 -0.2304955893304772 0 0.13693361279798461 -0.23235298181060629 0 0.14141424986332879 -0.24505502678180921 0 0.1434235362174221 -0.23535417050642371 0 0.1333171234832321 -0.23752440078609291 0 0.1434235362174221 -0.23535417050642371 0 0.13693361279798461 -0.23235298181060629 0 0.1333171234832321 -0.23752440078609291 0 0.12457107474955061 -0.2338111052969441 0 0.1228593492382601 -0.2416986465037454 0 0.1333171234832321 -0.23752440078609291 0 0.1228593492382601 -0.2416986465037454 0 0.1333171234832321 -0.23752440078609291 0 0.1308809502751575 -0.24859267584269421 0 0.14141424986332879 -0.24505502678180921 0 0.1333171234832321 -0.23752440078609291 0 0.1308809502751575 -0.24859267584269421 0 0.15933220057419251 -0.19292829879491019 0 0.14642878854203209 -0.19931117508426399 0 0.1375204007853644 -0.18781783536929089 0 0.15933220057419251 -0.19292829879491019 0 0.1375204007853644 -0.18781783536929089 0 0.15933220057419251 -0.19292829879491019 0 0.1375204007853644 -0.18781783536929089 0 0.1508784609231609 -0.1819604709552726 0 0.15933524194409851 -0.20435556569495991 0 0.15933220057419251 -0.19292829879491019 0 0.14642878854203209 -0.19931117508426399 0 0.15933524194409851 -0.20435556569495991 0 0.14014537914205949 -0.2219212791959202 0 0.15933524194409851 -0.20435556569495991 0 0.14642878854203209 -0.19931117508426399 0 0.14643578907172539 -0.20883416524349321 0 0.15933524194409851 -0.20435556569495991 0 0.14014537914205949 -0.2219212791959202 0 0.15454453356182579 -0.2177498072294006 0 0.15933524194409851 -0.20435556569495991 0 0.14014537914205949 -0.2219212791959202 0 0.14643578907172539 -0.20883416524349321 0 0.14014537914205949 -0.2219212791959202 0 0.14643578907172539 -0.20883416524349321 0 0.13983374665871151 -0.20974864099882881 0 0.14642878854203209 -0.19931117508426399 0 0.14643578907172539 -0.20883416524349321 0 0.13983374665871151 -0.20974864099882881 0 0.13983374665871151 -0.20974864099882881 0 0.13412559720266001 -0.21713962991926619 0 0.12982892170523949 -0.2051292632345971 0 0.1221374426251142 -0.222440691099903 0 0.12982892170523949 -0.2051292632345971 0 0.14642878854203209 -0.19931117508426399 0 0.13983374665871151 -0.20974864099882881 0 0.12982892170523949 -0.2051292632345971 0 0.1221374426251142 -0.222440691099903 0 0.13412559720266001 -0.21713962991926619 0 0.12982892170523949 -0.2051292632345971 0 0.14014537914205949 -0.2219212791959202 0 0.13983374665871151 -0.20974864099882881 0 0.13412559720266001 -0.21713962991926619 0 0.12982892170523949 -0.2051292632345971 0 0.1375204007853644 -0.18781783536929089 0 0.1279857416890173 -0.18558388278126861 0 0.1173453329925984 -0.20213857166000601 0 0.12982892170523949 -0.2051292632345971 0 0.1279857416890173 -0.18558388278126861 0 0.14642878854203209 -0.19931117508426399 0 0.12982892170523949 -0.2051292632345971 0 0.1375204007853644 -0.18781783536929089 0 0.12982892170523949 -0.2051292632345971 0 0.1375204007853644 -0.18781783536929089 0 0.1375204007853644 -0.18781783536929089 0 0.1279857416890173 -0.18558388278126861 0 0.13680200101402229 -0.17186726395921409 0 0.1375204007853644 -0.18781783536929089 0 0.1279857416890173 -0.18558388278126861 0 0.1375204007853644 -0.18781783536929089 0 0.1455867074470707 -0.16966277254471809 0 0.13680200101402229 -0.17186726395921409 0 0.1279857416890173 -0.18558388278126861 0 0.12817719042701259 -0.17220041259148461 0 0.13680200101402229 -0.17186726395921409 0 0.1279857416890173 -0.18558388278126861 0 0.13680200101402229 -0.17186726395921409 0 0.1375204007853644 -0.18781783536929089 0 0.1508784609231609 -0.1819604709552726 0 0.1455867074470707 -0.16966277254471809 0 0.1375204007853644 -0.18781783536929089 0 0.1455867074470707 -0.16966277254471809 0 0.154395754202241 -0.17416114522891499 0 0.1508784609231609 -0.1819604709552726 0 0.1455867074470707 -0.16966277254471809 0 0.154395754202241 -0.17416114522891499 0 0.1508784609231609 -0.1819604709552726 0 0.16255288946441299 -0.17834760686983561 0 0.1456182603390257 -0.15815064513715851 0 0.1621000602494285 -0.15476822070633689 0 0.15856495897431941 -0.16667373054583379 0 0.1456182603390257 -0.15815064513715851 0 0.15856495897431941 -0.16667373054583379 0 0.154395754202241 -0.17416114522891499 0 0.1455867074470707 -0.16966277254471809 0 0.15856495897431941 -0.16667373054583379 0 0.1455867074470707 -0.16966277254471809 0 0.1456182603390257 -0.15815064513715851 0 0.15856495897431941 -0.16667373054583379 0 0.1455867074470707 -0.16966277254471809 0 0.1456182603390257 -0.15815064513715851 0 0.13680200101402229 -0.17186726395921409 0 0.1456182603390257 -0.15815064513715851 0 0.13680200101402229 -0.17186726395921409 0 0.1456182603390257 -0.15815064513715851 0 0.13680200101402229 -0.17186726395921409 0 0.13028110435273449 -0.16210793113304739 0 0.12817719042701259 -0.17220041259148461 0 0.13680200101402229 -0.17186726395921409 0 0.13028110435273449 -0.16210793113304739 0 0.1176399146522763 -0.1692425724924089 0 0.12817719042701259 -0.17220041259148461 0 0.13028110435273449 -0.16210793113304739 0 0.1456182603390257 -0.15815064513715851 0 0.1286729988221347 -0.14699522125271139 0 0.1456182603390257 -0.15815064513715851 0 0.13028110435273449 -0.16210793113304739 0 0.1286729988221347 -0.14699522125271139 0 0.1217991003066968 -0.15799651051727601 0 0.13028110435273449 -0.16210793113304739 0 0.1286729988221347 -0.14699522125271139 0 0.1456182603390257 -0.15815064513715851 0 0.1286729988221347 -0.14699522125271139 0 0.14410350761958879 -0.14046929291458171 0 0.13114775909195911 -0.1205588017539125 0 0.1286729988221347 -0.14699522125271139 0 0.14410350761958879 -0.14046929291458171 0 0.15403025153812569 -0.1203975911672322 0 0.14410350761958879 -0.14046929291458171 0 0.15948684264095811 -0.13657346029886649 0 0.13114775909195911 -0.1205588017539125 0 0.15403025153812569 -0.1203975911672322 0 0.14410350761958879 -0.14046929291458171 0 0.1456182603390257 -0.15815064513715851 0 0.14410350761958879 -0.14046929291458171 0 0.15948684264095811 -0.13657346029886649 0 0.1456182603390257 -0.15815064513715851 0 0.1621000602494285 -0.15476822070633689 0 0.15948684264095811 -0.13657346029886649 0 0.1456182603390257 -0.15815064513715851 0 0.15948684264095811 -0.13657346029886649 0 0.1621000602494285 -0.15476822070633689 0 0.15948684264095811 -0.13657346029886649 0 0.17808357016969881 -0.1511287846963949 0 0.1733554249428905 -0.11499627546057439 0 0.15948684264095811 -0.13657346029886649 0 0.18148397833791621 -0.13550664385479619 0 0.1733554249428905 -0.11499627546057439 0 0.15948684264095811 -0.13657346029886649 0 0.1733554249428905 -0.11499627546057439 0 0.20235825323530179 -0.13099159982484709 0 0.18148397833791621 -0.13550664385479619 0 0.1979831779233662 -0.1486492653411142 0 0.18148397833791621 -0.13550664385479619 0 0.17808357016969881 -0.1511287846963949 0 0.15948684264095811 -0.13657346029886649 0 0.18148397833791621 -0.13550664385479619 0 0.17808357016969881 -0.1511287846963949 0 0.19771496754817641 -0.1692241386930394 0 0.17808357016969881 -0.1511287846963949 0 0.17456549673618871 -0.1675936420628181 0 0.19771496754817641 -0.1692241386930394 0 0.17456549673618871 -0.1675936420628181 0 0.1785251047461375 -0.1867898521939996 0 0.17456549673618871 -0.1675936420628181 0 0.1785251047461375 -0.1867898521939996 0 0.16255288946441299 -0.17834760686983561 0 0.15933220057419251 -0.19292829879491019 0 0.1785251047461375 -0.1867898521939996 0 0.16255288946441299 -0.17834760686983561 0 0.15933220057419251 -0.19292829879491019 0 0.1508784609231609 -0.1819604709552726 0 0.16255288946441299 -0.17834760686983561 0 0.154395754202241 -0.17416114522891499 0 0.16255288946441299 -0.17834760686983561 0 0.15856495897431941 -0.16667373054583379 0 0.17456549673618871 -0.1675936420628181 0 0.16255288946441299 -0.17834760686983561 0 0.15856495897431941 -0.16667373054583379 0 0.1621000602494285 -0.15476822070633689 0 0.17808357016969881 -0.1511287846963949 0 0.17456549673618871 -0.1675936420628181 0 0.1621000602494285 -0.15476822070633689 0 0.17456549673618871 -0.1675936420628181 0 0.15856495897431941 -0.16667373054583379 0 
</DataArray>
</Points>
<Cells>
<DataArray type="UInt32" Name="connectivity" format="ascii">
0 1 2 3 4 5 6 7 8 9 10 11 12 13 14 15 16 17 18 19 20 21 22 23 24 25 26 27 28 29 30 31 32 33 34 35 36 37 38 39 40 41 42 43 44 45 46 47 48 49 50 51 52 53 54 55 56 57 58 59 60 61 62 63 64 65 66 67 68 69 70 71 72 73 74 75 76 77 78 79 80 81 82 83 84 85 86 87 88 89 90 91 92 93 94 95 96 97 98 99 100 101 102 103 104 105 106 107 108 109 110 111 112 113 114 115 116 117 118 119 120 121 122 123 124 125 126 127 128 129 130 131 132 133 134 135 136 137 138 139 140 141 142 143 144 145 146 147 148 149 150 151 152 153 154 155 156 157 158 159 160 161 162 163 164 165 166 167 168 169 170 171 172 173 174 175 176 177 178 179 180 181 182 183 184 185 186 187 188 189 190 191 192 193 194 195 196 197 198 199 200 201 202 203 204 205 206 207 208 209 210 211 212 213 214 215 216 217 218 219 220 221 222 223 224 225 226 227 228 229 230 231 232 233 234 235 236 237 238 239 240 241 242 243 244 245 246 247 248 249 250 251 252 253 254 255 256 257 258 259 260 261 262 263 264 265 266 267 268 269 270 271 272 273 274 275 276 277 278 279 280 281 282 283 284 285 286 287 288 289 290 291 292 293 294 295 296 297 298 299 300 301 302 303 304 305 306 307 308 309 310 311 312 313 314 315 316 317 318 319 320 321 322 323 324 325 326 327 328 329 330 331 332 333 334 335 336 337 338 339 340 341 342 343 344 345 346 347 348 349 350 351 352 353 354 355 356 357 358 359 360 361 362 363 364 365 366 367 368 369 370 371 372 373 374 375 376 377 378 379 380 381 382 383 384 385 386 387 388 389 390 391 392 393 394 395 396 397 398 399 400 401 402 403 404 405 406 407 408 409 410 411 412 413 414 415 416 417 418 419 420 421 422 423 424 425 426 427 428 429 430 431 432 433 434 435 436 437 438 439 440 441 442 443 444 445 446 447 448 449 450 451 452 453 454 455 456 457 458 459 460 461 462 463 464 465 466 467 468 469 470 471 472 473 474 475 476 477 478 479 480 481 482 483 484 485 486 487 488 489 490 491 492 493 494 495 496 497 498 499 500 501 502 503 504 505 506 507 508 509 510 511 512 513 514 515 516 517 518 519 520 521 522 523 524 525 526 527 528 529 530 531 532 533 534 535 536 537 538 539 540 541 542 543 544 545 546 547 548 549 550 551 552 553 554 555 556 557 558 559 560 561 562 563 564 565 566 567 568 569 570 571 572 573 574 575 576 577 578 579 580 581 582 583 584 585 586 587 588 589 590 591 592 593 594 595 596 597 598 599 600 601 602 603 604 605 606 607 608 609 610 611 612 613 614 615 616 617 618 619 620 621 622 623 624 625 626 627 628 629 630 631 632 633 634 635 636 637 638 639 640 641 642 643 644 645 646 647 648 649 650 651 652 653 654 655 656 657 658 659 660 661 662 663 664 665 666 667 668 669 670 671 672 673 674 675 676 677 678 679 680 681 682 683 684 685 686 687 688 689 690 691 692 693 694 695 696 697 698 699 700 701 702 703 704 705 706 707 708 709 710 711 712 713 714 715 716 717 718 719 720 721 722 723 724 725 726 727 728 729 730 731 732 733 734 735 736 737 738 739 740 741 742 743 744 745 746 747 748 749 750 751 752 753 754 755 756 757 758 759 760 761 762 763 764 765 766 767 768 769 770 771 772 773 774 775 776 777 778 779 780 781 782 783 784 785 786 787 788 789 790 791 792 793 794 795 796 797 798 799 800 801 802 803 804 805 806 807 808 809 810 811 812 813 814 815 816 817 818 819 820 821 822 823 824 825 826 827 828 829 830 831 832 833 834 835 836 837 838 839 840 841 842 843 844 845 846 847 848 849 850 851 852 853 854 855 856 857 858 859 860 861 862 863 864 865 866 867 868 869 870 871 872 873 874 875 876 877 878 879 880 881 882 883 884 885 886 887 888 889 890 891 892 893 894 895 896 897 898 899 900 901 902 903 904 905 906 907 908 909 910 911 912 913 914 915 916 917 918 919 920 921 922 923 924 925 926 927 928 929 930 931 932 933 934 935 936 937 938 939 940 941 942 943 944 945 946 947 948 949 950 951 952 953 954 955 956 957 958 959 960 961 962 963 964 965 966 967 968 969 970 971 972 973 974 975 976 977 978 979 980 981 982 983 984 985 986 987 988 989 990 991 992 993 994 995 996 997 998 999 1000 1001 1002 1003 1004 1005 1006 1007 1008 1009 1010 1011 1012 1013 1014 1015 1016 1017 1018 1019 1020 1021 1022 1023 1024 1025 1026 1027 1028 1029 1030 1031 1032 1033 1034 1035 1036 1037 1038 1039 1040 1041 1042 1043 1044 1045 1046 1047 1048 1049 1050 1051 1052 1053 1054 1055 1056 1057 1058 1059 1060 1061 1062 1063 1064 1065 1066 1067 1068 1069 1070 1071 1072 1073 1074 1075 1076 1077 1078 1079 1080 1081 1082 1083 1084 1085 1086 1087 1088 1089 1090 1091 1092 1093 1094 1095 1096 1097 1098 1099 1100 1101 1102 1103 1104 1105 1106 1107 1108 1109 1110 1111 1112 1113 1114 1115 1116 1117 1118 1119 1120 1121 1122 1123 1124 1125 1126 1127 1128 1129 1130 1131 1132 1133 1134 1135 1136 1137 1138 1139 1140 1141 1142 1143 1144 1145 1146 1147 1148 1149 1150 1151 1152 1153 1154 1155 1156 1157 1158 1159 1160 1161 1162 1163 1164 1165 1166 1167 1168 1169 1170 1171 1172 1173 1174 1175 1176 1177 1178 1179 1180 1181 1182 1183 1184 1185 1186 1187 1188 1189 1190 1191 1192 1193 1194 1195 1196 1197 1198 1199 1200 1201 1202 1203 1204 1205 1206 1207 1208 1209 1210 1211 1212 1213 1214 1215 1216 1217 1218 1219 1220 1221 1222 1223 1224 1225 1226 1227 1228 1229 1230 1231 1232 1233 1234 1235 1236 1237 1238 1239 1240 1241 1242 1243 1244 1245 1246 1247 1248 1249 1250 1251 1252 1253 1254 1255 1256 1257 1258 1259 1260 1261 1262 1263 1264 1265 1266 1267 1268 1269 1270 1271 1272 1273 1274 1275 1276 1277 1278 1279 1280 1281 1282 1283 1284 1285 1286 1287 1288 1289 1290 1291 1292 1293 1294 1295 1296 1297 1298 1299 1300 1301 1302 1303 1304 1305 1306 1307 1308 1309 1310 1311 1312 1313 1314 1315 1316 1317 1318 1319 1320 1321 1322 1323 1324 1325 1326 1327 1328 1329 1330 1331 1332 1333 1334 1335 1336 1337 1338 1339 1340 1341 1342 1343 1344 1345 1346 1347 1348 1349 1350 1351 1352 1353 1354 1355 1356 1357 1358 1359 1360 1361 1362 1363 1364 1365 1366 1367 1368 1369 1370 1371 1372 1373 1374 1375 1376 1377 1378 1379 1380 1381 1382 1383 1384 1385 1386 1387 1388 1389 1390 1391 1392 1393 1394 1395 1396 1397 1398 1399 1400 1401 1402 1403 1404 1405 1406 1407 1408 1409 1410 1411 1412 1413 1414 1415 1416 1417 1418 1419 1420 1421 1422 1423 1424 1425 1426 1427 1428 1429 1430 1431 1432 1433 1434 1435 1436 1437 1438 1439 1440 1441 1442 1443 1444 1445 1446 1447 1448 1449 1450 1451 1452 1453 1454 1455 1456 1457 1458 1459 1460 1461 1462 1463 1464 1465 1466 1467 1468 1469 1470 1471 1472 1473 1474 1475 1476 1477 1478 1479 1480 1481 1482 1483 1484 1485 1486 1487 1488 1489 1490 1491 1492 1493 1494 1495 1496 1497 1498 1499 1500 1501 1502 1503 1504 1505 1506 1507 1508 1509 1510 1511 1512 1513 1514 1515 1516 1517 1518 1519 1520 1521 1522 1523 1524 1525 1526 1527 1528 1529 1530 1531 1532 1533 1534 1535 1536 1537 1538 1539 1540 1541 1542 1543 1544 1545 1546 1547 1548 1549 1550 1551 1552 1553 1554 1555 1556 1557 1558 1559 1560 1561 1562 1563 1564 1565 1566 1567 1568 1569 1570 1571 1572 1573 1574 1575 1576 1577 1578 1579 1580 1581 1582 1583 1584 1585 1586 1587 1588 1589 1590 1591 1592 1593 1594 1595 1596 1597 1598 1599 1600 1601 1602 1603 1604 1605 1606 1607 1608 1609 1610 1611 1612 1613 1614 1615 1616 1617 1618 1619 1620 1621 1622 1623 1624 1625 1626 1627 1628 1629 1630 1631 1632 1633 1634 1635 1636 1637 1638 1639 1640 1641 1642 1643 1644 1645 1646 1647 1648 1649 1650 1651 1652 1653 1654 1655 1656 1657 1658 1659 1660 1661 1662 1663 1664 1665 1666 1667 1668 1669 1670 1671 1672 1673 1674 1675 1676 1677 1678 1679 1680 1681 1682 1683 1684 1685 1686 1687 1688 1689 1690 1691 1692 1693 1694 1695 1696 1697 1698 1699 1700 1701 1702 1703 1704 1705 1706 1707 1708 1709 1710 1711 1712 1713 1714 1715 1716 1717 1718 1719 1720 1721 1722 1723 1724 1725 1726 1727 1728 1729 1730 1731 1732 1733 1734 1735 1736 1737 1738 1739 1740 1741 1742 1743 1744 1745 1746 1747 1748 1749 1750 1751 1752 1753 1754 1755 1756 1757 1758 1759 1760 1761 1762 1763 1764 1765 1766 1767 1768 1769 1770 1771 1772 1773 1774 1775 1776 1777 1778 1779 1780 1781 1782 1783 1784 1785 1786 1787 1788 1789 1790 1791 1792 1793 1794 1795 1796 1797 1798 1799 1800 1801 1802 1803 1804 1805 1806 1807 1808 1809 1810 1811 1812 1813 1814 1815 1816 1817 1818 1819 1820 1821 1822 1823 1824 1825 1826 1827 1828 1829 1830 1831 1832 1833 1834 1835 1836 1837 1838 1839 1840 1841 1842 1843 1844 1845 1846 1847 1848 1849 1850 1851 1852 1853 1854 1855 1856 1857 1858 1859 1860 1861 1862 1863 1864 1865 1866 1867 1868 1869 1870 1871 1872 1873 1874 1875 1876 1877 1878 1879 1880 1881 1882 1883 1884 1885 1886 1887 1888 1889 1890 1891 1892 1893 1894 1895 1896 1897 1898 1899 1900 1901 1902 1903 1904 1905 1906 1907 1908 1909 1910 1911 1912 1913 1914 1915 1916 1917 1918 1919 1920 1921 1922 1923 1924 1925 1926 1927 1928 1929 1930 1931 1932 1933 1934 1935 1936 1937 1938 1939 1940 1941 1942 1943 1944 1945 1946 1947 1948 1949 1950 1951 1952 1953 1954 1955 1956 1957 1958 1959 1960 1961 1962 1963 1964 1965 1966 1967 1968 1969 1970 1971 1972 1973 1974 1975 1976 1977 1978 1979 1980 1981 1982 1983 1984 1985 1986 1987 1988 1989 1990 1991 1992 1993 1994 1995 1996 1997 1998 1999 2000 2001 2002 2003 2004 2005 2006 2007 2008 2009 2010 2011 2012 2013 2014 2015 2016 2017 2018 2019 2020 2021 2022 2023 2024 2025 2026 2027 2028 2029 2030 2031 2032 2033 2034 2035 2036 2037 2038 2039 2040 2041 2042 2043 2044 2045 2046 2047 2048 2049 2050 2051 2052 2053 2054 2055 2056 2057 2058 2059 2060 2061 2062 2063 2064 2065 2066 2067 2068 2069 2070 2071 2072 2073 2074 2075 2076 2077 2078 2079 2080 2081 2082 2083 2084 2085 2086 2087 2088 2089 2090 2091 2092 2093 2094 2095 2096 2097 2098 2099 2100 2101 2102 2103 2104 2105 2106 2107 2108 2109 2110 2111 2112 2113 2114 2115 2116 2117 2118 2119 2120 2121 2122 2123 2124 2125 2126 2127 2128 2129 2130 2131 2132 2133 2134 2135 2136 2137 2138 2139 2140 2141 2142 2143 2144 2145 2146 2147 2148 2149 2150 2151 2152 2153 2154 2155 2156 2157 2158 2159 2160 2161 2162 2163 2164 2165 2166 2167 2168 2169 2170 2171 2172 2173 2174 2175 2176 2177 2178 2179 2180 2181 2182 2183 2184 2185 2186 2187 2188 2189 2190 2191 2192 2193 2194 2195 2196 2197 2198 2199 2200 2201 2202 2203 2204 2205 2206 2207 2208 2209 2210 2211 2212 2213 2214 2215 2216 2217 2218 2219 2220 2221 2222 2223 2224 2225 2226 2227 2228 2229 2230 2231 2232 2233 2234 2235 2236 2237 2238 2239 2240 2241 2242 2243 2244 2245 2246 2247 2248 2249 2250 2251 2252 2253 2254 2255 2256 2257 2258 2259 2260 2261 2262 2263 2264 2265 2266 2267 2268 2269 2270 2271 2272 2273 2274 2275 2276 2277 2278 2279 2280 2281 2282 2283 2284 2285 2286 2287 2288 2289 2290 2291 2292 2293 2294 2295 2296 2297 2298 2299 2300 2301 2302 2303 2304 2305 2306 2307 2308 2309 2310 2311 2312 2313 2314 2315 2316 2317 2318 2319 2320 2321 2322 2323 2324 2325 2326 2327 2328 2329 2330 2331 2332 2333 2334 2335 2336 2337 2338 2339 2340 2341 2342 2343 2344 2345 2346 2347 2348 2349 2350 2351 2352 2353 2354 2355 2356 2357 2358 2359 2360 2361 2362 2363 2364 2365 2366 2367 2368 2369 2370 2371 2372 2373 2374 2375 2376 2377 2378 2379 2380 2381 2382 2383 2384 2385 2386 2387 2388 2389 2390 2391 2392 2393 2394 2395 2396 2397 2398 2399 2400 2401 2402 2403 2404 2405 2406 2407 2408 2409 2410 2411 2412 2413 2414 2415 2416 2417 2418 2419 2420 2421 2422 2423 2424 2425 2426 2427 2428 2429 2430 2431 2432 2433 2434 2435 2436 2437 2438 2439 2440 2441 2442 2443 2444 2445 2446 2447 2448 2449 2450 2451 2452 2453 2454 2455 2456 2457 2458 2459 2460 2461 2462 2463 2464 2465 2466 2467 2468 2469 2470 2471 2472 2473 2474 2475 2476 2477 2478 2479 2480 2481 2482 2483 2484 2485 2486 2487 2488 2489 2490 2491 2492 2493 2494 2495 2496 2497 2498 2499 2500 2501 2502 2503 2504 2505 2506 2507 2508 2509 2510 2511 2512 2513 2514 2515 2516 2517 2518 2519 2520 2521 2522 2523 2524 2525 2526 2527 2528 2529 2530 2531 2532 2533 2534 2535 2536 2537 2538 2539 2540 2541 2542 2543 2544 2545 2546 2547 2548 2549 2550 2551 2552 2553 2554 2555 2556 2557 2558 2559 2560 2561 2562 2563 2564 2565 2566 2567 2568 2569 2570 2571 2572 2573 2574 2575 2576 2577 2578 2579 2580 2581 2582 2583 2584 2585 2586 2587 2588 2589 2590 2591 2592 2593 2594 2595 2596 2597 2598 2599 2600 2601 2602 2603 2604 2605 2606 2607 2608 2609 2610 2611 2612 2613 2614 2615 2616 2617 2618 2619 2620 2621 2622 2623 2624 2625 2626 2627 2628 2629 2630 2631 2632 2633 2634 2635 2636 2637 2638 2639 2640 2641 2642 2643 2644 2645 2646 2647 2648 2649 2650 2651 2652 2653 2654 2655 2656 2657 2658 2659 2660 2661 2662 2663 2664 2665 2666 2667 2668 2669 2670 2671 2672 2673 2674 2675 2676 2677 2678 2679 2680 2681 2682 2683 2684 2685 2686 2687 2688 2689 2690 2691 2692 2693 2694 2695 2696 2697 2698 2699 2700 2701 2702 2703 2704 2705 2706 2707 2708 2709 2710 2711 2712 2713 2714 2715 2716 2717 2718 2719 2720 2721 2722 2723 2724 2725 2726 2727 2728 2729 2730 2731 2732 2733 2734 2735 2736 2737 2738 2739 2740 2741 2742 2743 2744 2745 2746 2747 2748 2749 2750 2751 2752 2753 2754 2755 2756 2757 2758 2759 2760 2761 2762 2763 2764 2765 2766 2767 2768 2769 2770 2771 2772 2773 2774 2775 2776 2777 2778 2779 2780 2781 2782 2783 2784 2785 2786 2787 2788 2789 2790 2791 2792 2793 2794 2795 2796 2797 2798 2799 2800 2801 2802 2803 2804 2805 2806 2807 2808 2809 2810 2811 2812 2813 2814 2815 2816 2817 2818 2819 2820 2821 2822 2823 2824 2825 2826 2827 2828 2829 2830 2831 2832 2833 2834 2835 2836 2837 2838 2839 2840 2841 2842 2843 2844 2845 2846 2847 2848 2849 2850 2851 2852 2853 2854 2855 2856 2857 2858 2859 2860 2861 2862 2863 2864 2865 2866 2867 2868 2869 2870 2871 2872 2873 2874 2875 2876 2877 2878 2879 2880 2881 2882 2883 2884 2885 2886 2887 2888 2889 2890 2891 2892 2893 2894 2895 2896 2897 2898 2899 2900 2901 2902 2903 2904 2905 2906 2907 2908 2909 2910 2911 2912 2913 2914 2915 2916 2917 2918 2919 2920 2921 2922 2923 2924 2925 2926 2927 2928 2929 2930 2931 2932 2933 2934 2935 2936 2937 2938 2939 2940 2941 2942 2943 2944 2945 2946 2947 2948 2949 2950 2951 2952 2953 2954 2955 2956 2957 2958 2959 2960 2961 2962 2963 2964 2965 2966 2967 2968 2969 2970 2971 2972 2973 2974 2975 2976 2977 2978 2979 2980 2981 2982 2983 2984 2985 2986 2987 2988 2989 2990 2991 2992 2993 2994 2995 2996 2997 2998 2999 3000 3001 3002 3003 3004 3005 3006 3007 3008 3009 3010 3011 3012 3013 3014 3015 3016 3017 3018 3019 3020 3021 3022 3023 3024 3025 3026 3027 3028 3029 3030 3031 3032 3033 3034 3035 3036 3037 3038 3039 3040 3041 3042 3043 3044 3045 3046 3047 3048 3049 3050 3051 3052 3053 3054 3055 3056 3057 3058 3059 3060 3061 3062 3063 3064 3065 3066 3067 3068 3069 3070 3071 3072 3073 3074 3075 3076 3077 3078 3079 3080 3081 3082 3083 3084 3085 3086 3087 3088 3089 3090 3091 3092 3093 3094 3095 3096 3097 3098 3099 3100 3101 3102 3103 3104 3105 3106 3107 3108 3109 3110 3111 3112 3113 3114 3115 3116 3117 3118 3119 3120 3121 3122 3123 3124 3125 3126 3127 3128 3129 3130 3131 3132 3133 3134 3135 3136 3137 3138 3139 3140 3141 3142 3143 3144 3145 3146 3147 3148 3149 3150 3151 3152 3153 3154 3155 3156 3157 3158 3159 3160 3161 3162 3163 3164 3165 3166 3167 3168 3169 3170 3171 3172 3173 3174 3175 3176 3177 3178 3179 3180 3181 3182 3183 3184 3185 3186 3187 3188 3189 3190 3191 3192 3193 3194 3195 3196 3197 3198 3199 3200 3201 3202 3203 3204 3205 3206 3207 3208 3209 3210 3211 3212 3213 3214 3215 3216 3217 3218 3219 3220 3221 3222 3223 3224 3225 3226 3227 3228 3229 3230 3231 3232 3233 3234 3235 3236 3237 3238 3239 3240 3241 3242 3243 3244 3245 3246 3247 3248 3249 3250 3251 3252 3253 3254 3255 3256 3257 3258 3259 3260 3261 3262 3263 3264 3265 3266 3267 3268 3269 3270 3271 3272 3273 3274 3275 3276 3277 3278 3279 3280 3281 3282 3283 3284 3285 3286 3287 3288 3289 3290 3291 3292 3293 3294 3295 3296 3297 3298 3299 3300 3301 3302 3303 3304 3305 3306 3307 3308 3309 3310 3311 3312 3313 3314 3315 3316 3317 3318 3319 3320 3321 3322 3323 3324 3325 3326 3327 3328 3329 3330 3331 3332 3333 3334 3335 3336 3337 3338 3339 3340 3341 3342 3343 3344 3345 3346 3347 3348 3349 3350 3351 3352 3353 3354 3355 3356 3357 3358 3359 3360 3361 3362 3363 3364 3365 3366 3367 3368 3369 3370 3371 3372 3373 3374 3375 3376 3377 3378 3379 3380 3381 3382 3383 3384 3385 3386 3387 3388 3389 3390 3391 3392 3393 3394 3395 3396 3397 3398 3399 3400 3401 3402 3403 3404 3405 3406 3407 3408 3409 3410 3411 3412 3413 3414 3415 3416 3417 3418 3419 3420 3421 3422 3423 3424 3425 3426 3427 3428 3429 3430 3431 3432 3433 3434 3435 3436 3437 3438 3439 3440 3441 3442 3443 3444 3445 3446 3447 3448 3449 3450 3451 3452 3453 3454 3455 3456 3457 3458 3459 3460 3461 3462 3463 3464 3465 3466 3467 3468 3469 3470 3471 3472 3473 3474 3475 3476 3477 3478 3479 3480 3481 3482 3483 3484 3485 3486 3487 3488 3489 3490 3491 3492 3493 3494 3495 3496 3497 3498 3499 3500 3501 3502 3503 3504 3505 3506 3507 3508 3509 3510 3511 3512 3513 3514 3515 3516 3517 3518 3519 3520 3521 3522 3523 3524 3525 3526 3527 3528 3529 3530 3531 3532 3533 3534 3535 3536 3537 3538 3539 3540 3541 3542 3543 3544 3545 3546 3547 3548 3549 3550 3551 3552 3553 3554 3555 3556 3557 3558 3559 3560 3561 3562 3563 3564 3565 3566 3567 3568 3569 3570 3571 3572 3573 3574 3575 3576 3577 3578 3579 3580 3581 3582 3583 3584 3585 3586 3587 3588 3589 3590 3591 3592 3593 3594 3595 3596 3597 3598 3599 3600 3601 3602 3603 3604 3605 3606 3607 3608 3609 3610 3611 3612 3613 3614 3615 3616 3617 3618 3619 3620 3621 3622 3623 3624 3625 3626 3627 3628 3629 3630 3631 3632 3633 3634 3635 3636 3637 3638 3639 3640 3641 3642 3643 3644 3645 3646 3647 3648 3649 3650 3651 3652 3653 3654 3655 3656 3657 3658 3659 3660 3661 3662 3663 3664 3665 3666 3667 3668 3669 3670 3671 3672 3673 3674 3675 3676 3677 3678 3679 3680 3681 3682 3683 3684 3685 3686 3687 3688 3689 3690 3691 3692 3693 3694 3695 3696 3697 3698 3699 3700 3701 3702 3703 3704 3705 3706 3707 3708 3709 3710 3711 3712 3713 3714 3715 3716 3717 3718 3719 3720 3721 3722 3723 3724 3725 3726 3727 3728 3729 3730 3731 3732 3733 3734 3735 3736 3737 3738 3739 3740 3741 3742 3743 3744 3745 3746 3747 3748 3749 3750 3751 3752 3753 3754 3755 3756 3757 3758 3759 3760 3761 3762 3763 3764 3765 3766 3767 3768 3769 3770 3771 3772 3773 3774 3775 3776 3777 3778 3779 3780 3781 3782 3783 3784 3785 3786 3787 3788 3789 3790 3791 3792 3793 3794 3795 3796 3797 3798 3799 3800 3801 3802 3803 3804 3805 3806 3807 3808 3809 3810 3811 3812 3813 3814 3815 3816 3817 3818 3819 3820 3821 3822 3823 3824 3825 3826 3827 3828 3829 3830 3831 3832 3833 3834 3835 3836 3837 3838 3839 3840 3841 3842 3843 3844 3845 3846 3847 3848 3849 3850 3851 3852 3853 3854 3855 3856 3857 3858 3859 3860 3861 3862 3863 3864 3865 3866 3867 3868 3869 3870 3871 3872 3873 3874 3875 3876 3877 3878 3879 3880 3881 3882 3883 3884 3885 3886 3887 3888 3889 3890 3891 3892 3893 3894 3895 3896 3897 3898 3899 3900 3901 3902 3903 3904 3905 3906 3907 3908 3909 3910 3911 3912 3913 3914 3915 3916 3917 3918 3919 3920 3921 3922 3923 3924 3925 3926 3927 3928 3929 3930 3931 3932 3933 3934 3935 3936 3937 3938 3939 3940 3941 3942 3943 3944 3945 3946 3947 3948 3949 3950 3951 3952 3953 3954 3955 3956 3957 3958 3959 3960 3961 3962 3963 3964 3965 3966 3967 3968 3969 3970 3971 3972 3973 3974 3975 3976 3977 3978 3979 3980 3981 3982 3983 3984 3985 3986 3987 3988 3989 3990 3991 3992 3993 3994 3995 3996 3997 3998 3999 4000 4001 4002 4003 4004 4005 4006 4007 4008 4009 4010 4011 4012 4013 4014 4015 4016 4017 4018 4019 4020 4021 4022 4023 4024 4025 4026 4027 4028 4029 4030 4031 4032 4033 4034 4035 4036 4037 4038 4039 4040 4041 4042 4043 4044 4045 4046 4047 4048 4049 4050 4051 4052 4053 4054 4055 4056 4057 4058 4059 4060 4061 4062 4063 4064 4065 4066 4067 4068 4069 4070 4071 4072 4073 4074 4075 4076 4077 4078 4079 4080 4081 4082 4083 4084 4085 4086 4087 4088 4089 4090 4091 4092 4093 4094 4095 4096 4097 4098 4099 4100 4101 4102 4103 4104 4105 4106 4107 4108 4109 4110 4111 4112 4113 4114 4115 4116 4117 4118 4119 4120 4121 4122 4123 4124 4125 4126 4127 4128 4129 4130 4131 4132 4133 4134 4135 4136 4137 4138 4139 4140 4141 4142 4143 4144 4145 4146 4147 4148 4149 4150 4151 4152 4153 4154 4155 4156 4157 4158 4159 4160 4161 4162 4163 4164 4165 4166 4167 4168 4169 4170 4171 4172 4173 4174 4175 4176 4177 4178 4179 4180 4181 4182 4183 4184 4185 4186 4187 4188 4189 4190 4191 4192 4193 4194 4195 4196 4197 4198 4199 4200 4201 4202 4203 4204 4205 4206 4207 4208 4209 4210 4211 4212 4213 4214 4215 4216 4217 4218 4219 4220 4221 4222 4223 4224 4225 4226 4227 4228 4229 4230 4231 4232 4233 4234 4235 4236 4237 4238 4239 4240 4241 4242 4243 4244 4245 4246 4247 4248 4249 4250 4251 4252 4253 4254 4255 4256 4257 4258 4259 4260 4261 4262 4263 4264 4265 4266 4267 4268 4269 4270 4271 4272 4273 4274 4275 4276 4277 4278 4279 4280 4281 4282 4283 4284 4285 4286 4287 4288 4289 4290 4291 4292 4293 4294 4295 4296 4297 4298 4299 4300 4301 4302 4303 4304 4305 4306 4307 4308 4309 4310 4311 4312 4313 4314 4315 4316 4317 4318 4319 4320 4321 4322 4323 4324 4325 4326 4327 4328 4329 4330 4331 4332 4333 4334 4335 4336 4337 4338 4339 4340 4341 4342 4343 4344 4345 4346 4347 4348 4349 4350 4351 4352 4353 4354 4355 4356 4357 4358 4359 4360 4361 4362 4363 4364 4365 4366 4367 4368 4369 4370 4371 4372 4373 4374 4375 4376 4377 4378 4379 4380 4381 4382 4383 4384 4385 4386 4387 4388 4389 4390 4391 4392 4393 4394 4395 4396 4397 4398 4399 4400 4401 4402 4403 4404 4405 4406 4407 4408 4409 4410 4411 4412 4413 4414 4415 4416 4417 4418 4419 4420 4421 4422 4423 4424 4425 4426 4427 4428 4429 4430 4431 4432 4433 4434 4435 4436 4437 4438 4439 4440 4441 4442 4443 4444 4445 4446 4447 4448 4449 4450 4451 4452 4453 4454 4455 4456 4457 4458 4459 4460 4461 4462 4463 4464 4465 4466 4467 4468 4469 4470 4471 4472 4473 4474 4475 4476 4477 4478 4479 4480 4481 4482 4483 4484 4485 4486 4487 4488 4489 4490 4491 4492 4493 4494 4495 4496 4497 4498 4499 4500 4501 4502 4503 4504 4505 4506 4507 4508 4509 4510 4511 4512 4513 4514 4515 4516 4517 4518 4519 4520 4521 4522 4523 4524 4525 4526 4527 4528 4529 4530 4531 4532 4533 4534 4535 4536 4537 4538 4539 4540 4541 4542 4543 4544 4545 4546 4547 4548 4549 4550 4551 4552 4553 4554 4555 4556 4557 4558 4559 4560 4561 4562 4563 4564 4565 4566 4567 4568 4569 4570 4571 4572 4573 4574 4575 4576 4577 4578 4579 4580 4581 4582 4583 4584 4585 4586 4587 4588 4589 4590 4591 4592 4593 4594 4595 4596 4597 4598 4599 4600 4601 4602 4603 4604 4605 4606 4607 4608 4609 4610 4611 4612 4613 4614 4615 4616 4617 4618 4619 4620 4621 4622 4623 4624 4625 4626 4627 4628 4629 4630 4631 4632 4633 4634 4635 4636 4637 4638 4639 4640 4641 4642 4643 4644 4645 4646 4647 4648 4649 4650 4651 4652 4653 4654 4655 4656 4657 4658 4659 4660 4661 4662 4663 4664 4665 4666 4667 4668 4669 4670 4671 4672 4673 4674 4675 4676 4677 4678 4679 4680 4681 4682 4683 4684 4685 4686 4687 4688 4689 4690 4691 4692 4693 4694 4695 4696 4697 4698 4699 4700 4701 4702 4703 4704 4705 4706 4707 4708 4709 4710 4711 4712 4713 4714 4715 4716 4717 4718 4719 4720 4721 4722 4723 4724 4725 4726 4727 4728 4729 4730 4731 4732 4733 4734 4735 4736 4737 4738 4739 4740 4741 4742 4743 4744 4745 4746 4747 4748 4749 4750 4751 4752 4753 4754 4755 4756 4757 4758 4759 4760 4761 4762 4763 4764 4765 4766 4767 4768 4769 4770 4771 4772 4773 4774 4775 4776 4777 4778 4779 4780 4781 4782 4783 4784 4785 4786 4787 4788 4789 4790 4791 4792 4793 4794 4795 4796 4797 4798 4799 4800 4801 4802 4803 4804 4805 4806 4807 4808 4809 4810 4811 4812 4813 4814 4815 4816 4817 4818 4819 4820 4821 4822 4823 4824 4825 4826 4827 4828 4829 4830 4831 4832 4833 4834 4835 4836 4837 4838 4839 4840 4841 4842 4843 4844 4845 4846 4847 4848 4849 4850 4851 4852 4853 4854 4855 4856 4857 4858 4859 4860 4861 4862 4863 4864 4865 4866 4867 4868 4869 4870 4871 4872 4873 4874 4875 4876 4877 4878 4879 4880 4881 4882 4883 4884 4885 4886 4887 4888 4889 4890 4891 4892 4893 4894 4895 4896 4897 4898 4899 4900 4901 4902 4903 4904 4905 4906 4907 4908 4909 4910 4911 4912 4913 4914 4915 4916 4917 4918 4919 4920 4921 4922 4923 4924 4925 4926 4927 4928 4929 4930 4931 4932 4933 4934 4935 4936 4937 4938 4939 4940 4941 4942 4943 4944 4945 4946 4947 4948 4949 4950 4951 4952 4953 4954 4955 4956 4957 4958 4959 4960 4961 4962 4963 4964 4965 4966 4967 4968 4969 4970 4971 4972 4973 4974 4975 4976 4977 4978 4979 4980 4981 4982 4983 4984 4985 4986 4987 4988 4989 4990 4991 4992 4993 4994 4995 4996 4997 4998 4999 5000 5001 5002 5003 5004 5005 5006 5007 5008 5009 5010 5011 5012 5013 5014 5015 5016 5017 5018 5019 5020 5021 5022 5023 5024 5025 5026 5027 5028 5029 5030 5031 5032 5033 5034 5035 5036 5037 5038 5039 5040 5041 5042 5043 5044 5045 5046 5047 5048 5049 5050 5051 5052 5053 5054 5055 5056 5057 5058 5059 5060 5061 5062 5063 5064 5065 5066 5067 5068 5069 5070 5071 5072 5073 5074 5075 5076 5077 5078 5079 5080 5081 5082 5083 5084 5085 5086 5087 5088 5089 5090 5091 5092 5093 5094 5095 5096 5097 5098 5099 5100 5101 5102 5103 5104 5105 5106 5107 5108 5109 5110 5111 5112 5113 5114 5115 5116 5117 5118 5119 5120 5121 5122 5123 5124 5125 5126 5127 5128 5129 5130 5131 5132 5133 5134 5135 5136 5137 5138 5139 5140 5141 5142 5143 5144 5145 5146 5147 5148 5149 5150 5151 5152 5153 5154 5155 5156 5157 5158 5159 5160 5161 5162 5163 5164 5165 5166 5167 5168 5169 5170 5171 5172 5173 5174 5175 5176 5177 5178 5179 5180 5181 5182 5183 5184 5185 5186 5187 5188 5189 5190 5191 5192 5193 5194 5195 5196 5197 5198 5199 5200 5201 5202 5203 5204 5205 5206 5207 5208 5209 5210 5211 5212 5213 5214 5215 5216 5217 5218 5219 5220 5221 5222 5223 5224 5225 5226 5227 5228 5229 5230 5231 5232 5233 5234 5235 5236 5237 5238 5239 5240 5241 5242 5243 5244 5245 5246 5247 5248 5249 5250 5251 5252 5253 5254 5255 5256 5257 5258 5259 5260 5261 5262 5263 5264 5265 5266 5267 5268 5269 5270 5271 5272 5273 5274 5275 5276 5277 5278 5279 5280 5281 5282 5283 5284 5285 5286 5287 5288 5289 5290 5291 5292 5293 5294 5295 5296 5297 5298 5299 5300 5301 5302 5303 5304 5305 5306 5307 5308 5309 5310 5311 5312 5313 5314 5315 5316 5317 5318 5319 5320 5321 5322 5323 5324 5325 5326 5327 5328 5329 5330 5331 5332 5333 5334 5335 5336 5337 5338 5339 5340 5341 5342 5343 5344 5345 5346 5347 5348 5349 5350 5351 5352 5353 5354 5355 5356 5357 5358 5359 5360 5361 5362 5363 5364 5365 5366 5367 5368 5369 5370 5371 5372 5373 5374 5375 5376 5377 5378 5379 5380 5381 5382 5383 5384 5385 5386 5387 5388 5389 5390 5391 5392 5393 5394 5395 5396 5397 5398 5399 5400 5401 5402 5403 5404 5405 5406 5407 5408 5409 5410 5411 5412 5413 5414 5415 5416 5417 5418 5419 5420 5421 5422 5423 5424 5425 5426 5427 5428 5429 5430 5431 5432 5433 5434 5435 5436 5437 5438 5439 5440 5441 5442 5443 5444 5445 5446 5447 5448 5449 5450 5451 5452 5453 5454 5455 5456 5457 5458 5459 5460 5461 5462 5463 5464 5465 5466 5467 5468 5469 5470 5471 5472 5473 5474 5475 5476 5477 5478 5479 5480 5481 5482 5483 5484 5485 5486 5487 5488 5489 5490 5491 5492 5493 5494 5495 5496 5497 5498 5499 5500 5501 5502 5503 5504 5505 5506 5507 5508 5509 5510 5511 5512 5513 5514 5515 5516 5517 5518 5519 5520 5521 5522 5523 5524 5525 5526 5527 5528 5529 5530 5531 5532 5533 5534 5535 5536 5537 5538 5539 5540 5541 5542 5543 5544 5545 5546 5547 5548 5549 5550 5551 5552 5553 5554 5555 5556 5557 5558 5559 5560 5561 5562 5563 5564 5565 5566 5567 5568 5569 5570 5571 5572 5573 5574 5575 5576 5577 5578 5579 5580 5581 5582 5583 5584 5585 5586 5587 5588 5589 5590 5591 5592 5593 5594 5595 5596 5597 5598 5599 5600 5601 5602 5603 5604 5605 5606 5607 5608 5609 5610 5611 5612 5613 5614 5615 5616 5617 5618 5619 5620 5621 5622 5623 5624 5625 5626 5627 5628 5629 5630 5631 5632 5633 5634 5635 5636 5637 5638 5639 5640 5641 5642 5643 5644 5645 5646 5647 5648 5649 5650 5651 5652 5653 5654 5655 5656 5657 5658 5659 5660 5661 5662 5663 5664 5665 5666 5667 5668 5669 5670 5671 5672 5673 5674 5675 5676 5677 5678 5679 5680 5681 5682 5683 5684 5685 5686 5687 5688 5689 5690 5691 5692 5693 5694 5695 5696 5697 5698 5699 5700 5701 5702 5703 5704 5705 5706 5707 5708 5709 5710 5711 5712 5713 5714 5715 5716 5717 5718 5719 5720 5721 5722 5723 5724 5725 5726 5727 5728 5729 5730 5731 5732 5733 5734 5735 5736 5737 5738 5739 5740 5741 5742 5743 5744 5745 5746 5747 5748 5749 5750 5751 5752 5753 5754 5755 5756 5757 5758 5759 5760 5761 5762 5763 5764 5765 5766 5767 5768 5769 5770 5771 5772 5773 5774 5775 5776 5777 5778 5779 5780 5781 5782 5783 5784 5785 5786 5787 5788 5789 5790 5791 5792 5793 5794 5795 5796 5797 5798 5799 5800 5801 5802 5803 5804 5805 5806 5807 5808 5809 5810 5811 5812 5813 5814 5815 5816 5817 5818 5819 5820 5821 5822 5823 5824 5825 5826 5827 5828 5829 5830 5831 5832 5833 5834 5835 5836 5837 5838 5839 5840 5841 5842 5843 5844 5845 5846 5847 5848 5849 5850 5851 5852 5853 5854 5855 5856 5857 5858 5859 5860 5861 5862 5863 5864 5865 5866 5867 5868 5869 5870 5871 5872 5873 5874 5875 5876 5877 5878 5879 5880 5881 5882 5883 5884 5885 5886 5887 5888 5889 5890 5891 5892 5893 5894 5895 5896 5897 5898 5899 5900 5901 5902 5903 5904 5905 5906 5907 5908 5909 5910 5911 5912 5913 5914 5915 5916 5917 5918 5919 5920 5921 5922 5923 5924 5925 5926 5927 5928 5929 5930 5931 5932 5933 5934 5935 5936 5937 5938 5939 5940 5941 5942 5943 5944 5945 5946 5947 5948 5949 5950 5951 5952 5953 5954 5955 5956 5957 5958 5959 5960 5961 5962 5963 5964 5965 5966 5967 5968 5969 5970 5971 5972 5973 5974 5975 5976 5977 5978 5979 5980 5981 5982 5983 5984 5985 5986 5987 5988 5989 5990 5991 5992 5993 5994 5995 5996 5997 5998 5999 6000 6001 6002 6003 6004 6005 6006 6007 6008 6009 6010 6011 6012 6013 6014 6015 6016 6017 6018 6019 6020 6021 6022 6023 6024 6025 6026 6027 6028 6029 6030 6031 6032 6033 6034 6035 6036 6037 6038 6039 6040 6041 6042 6043 6044 6045 6046 6047 6048 6049 6050 6051 6052 6053 6054 6055 6056 6057 6058 6059 6060 6061 6062 6063 6064 6065 6066 6067 6068 6069 6070 6071 6072 6073 6074 6075 6076 6077 6078 6079 6080 6081 6082 6083 6084 6085 6086 6087 6088 6089 6090 6091 6092 6093 6094 6095 6096 6097 6098 6099 6100 6101 6102 6103 6104 6105 6106 6107 6108 6109 6110 6111 6112 6113 6114 6115 6116 6117 6118 6119 6120 6121 6122 6123 6124 6125 6126 6127 6128 6129 6130 6131 6132 6133 6134 6135 6136 6137 6138 6139 6140 6141 6142 6143 6144 6145 6146 6147 6148 6149 6150 6151 6152 6153 6154 6155 6156 6157 6158 6159 6160 6161 6162 6163 6164 6165 6166 6167 6168 6169 6170 6171 6172 6173 6174 6175 6176 6177 6178 6179 6180 6181 6182 6183 6184 6185 6186 6187 6188 6189 6190 6191 6192 6193 6194 6195 6196 6197 6198 6199 6200 6201 6202 6203 6204 6205 6206 6207 6208 6209 6210 6211 6212 6213 6214 6215 6216 6217 6218 6219 6220 6221 6222 6223 6224 6225 6226 6227 6228 6229 6230 6231 6232 6233 6234 6235 6236 6237 6238 6239 6240 6241 6242 6243 6244 6245 6246 6247 6248 6249 6250 6251 6252 6253 6254 6255 6256 6257 6258 6259 6260 6261 6262 6263 6264 6265 6266 6267 6268 6269 6270 6271 6272 6273 6274 6275 6276 6277 6278 6279 6280 6281 6282 6283 6284 6285 6286 6287 6288 6289 6290 6291 6292 6293 6294 6295 6296 6297 6298 6299 6300 6301 6302 6303 6304 6305 6306 6307 6308 6309 6310 6311 6312 6313 6314 6315 6316 6317 6318 6319 6320 6321 6322 6323 6324 6325 6326 6327 6328 6329 6330 6331 6332 6333 6334 6335 6336 6337 6338 6339 6340 6341 6342 6343 6344 6345 6346 6347 6348 6349 6350 6351 6352 6353 6354 6355 6356 6357 6358 6359 6360 6361 6362 6363 6364 6365 6366 6367 6368 6369 6370 6371 6372 6373 6374 6375 6376 6377 6378 6379 6380 6381 6382 6383 6384 6385 6386 6387 6388 6389 6390 6391 6392 6393 6394 6395 6396 6397 6398 6399 6400 6401 6402 6403 6404 6405 6406 6407 6408 6409 6410 6411 6412 6413 6414 6415 6416 6417 6418 6419 6420 6421 6422 6423 6424 6425 6426 6427 6428 6429 6430 6431 6432 6433 6434 6435 6436 6437 6438 6439 6440 6441 6442 6443 6444 6445 6446 6447 6448 6449 6450 6451 6452 6453 6454 6455 6456 6457 6458 6459 6460 6461 6462 6463 6464 6465 6466 6467 6468 6469 6470 6471 6472 6473 6474 6475 6476 6477 6478 6479 6480 6481 6482 6483 6484 6485 6486 6487 6488 6489 6490 6491 6492 6493 6494 6495 6496 6497 6498 6499 6500 6501 6502 6503 6504 6505 6506 6507 6508 6509 6510 6511 6512 6513 6514 6515 6516 6517 6518 6519 6520 6521 6522 6523 6524 6525 6526 6527 6528 6529 6530 6531 6532 6533 6534 6535 6536 6537 6538 6539 6540 6541 6542 6543 6544 6545 6546 6547 6548 6549 6550 6551 6552 6553 6554 6555 6556 6557 6558 6559 6560 6561 6562 6563 6564 6565 6566 6567 6568 6569 6570 6571 6572 6573 6574 6575 6576 6577 6578 6579 6580 6581 6582 6583 6584 6585 6586 6587 6588 6589 6590 6591 6592 6593 6594 6595 6596 6597 6598 6599 6600 6601 6602 6603 6604 6605 6606 6607 6608 6609 6610 6611 6612 6613 6614 6615 6616 6617 6618 6619 6620 6621 6622 6623 6624 6625 6626 6627 6628 6629 6630 6631 6632 6633 6634 6635 6636 6637 6638 6639 6640 6641 6642 6643 6644 6645 6646 6647 6648 6649 6650 6651 6652 6653 6654 6655 6656 6657 6658 6659 6660 6661 6662 6663 6664 6665 6666 6667 6668 6669 6670 6671 6672 6673 6674 6675 6676 6677 6678 6679 6680 6681 6682 6683 6684 6685 6686 6687 6688 6689 6690 6691 6692 6693 6694 6695 6696 6697 6698 6699 6700 6701 6702 6703 6704 6705 6706 6707 6708 6709 6710 6711 6712 6713 6714 6715 6716 6717 6718 6719 6720 6721 6722 6723 6724 6725 6726 6727 6728 6729 6730 6731 6732 6733 6734 6735 6736 6737 6738 6739 6740 6741 6742 6743 6744 6745 6746 6747 6748 6749 6750 6751 6752 6753 6754 6755 6756 6757 6758 6759 6760 6761 6762 6763 6764 6765 6766 6767 6768 6769 6770 6771 6772 6773 6774 6775 6776 6777 6778 6779 6780 6781 6782 6783 6784 6785 6786 6787 6788 6789 6790 6791 6792 6793 6794 6795 6796 6797 6798 6799 6800 6801 6802 6803 6804 6805 6806 6807 6808 6809 6810 6811 6812 6813 6814 6815 6816 6817 6818 6819 6820 6821 6822 6823 6824 6825 6826 6827 6828 6829 6830 6831 6832 6833 6834 6835 6836 6837 6838 6839 6840 6841 6842 6843 6844 6845 6846 6847 6848 6849 6850 6851 6852 6853 6854 6855 6856 6857 6858 6859 6860 6861 6862 6863 6864 6865 6866 6867 6868 6869 6870 6871 6872 6873 6874 6875 6876 6877 6878 6879 6880 6881 6882 6883 6884 6885 6886 6887 6888 6889 6890 6891 6892 6893 6894 6895 6896 6897 6898 6899 6900 6901 6902 6903 6904 6905 6906 6907 6908 6909 6910 6911 6912 6913 6914 6915 6916 6917 6918 6919 6920 6921 6922 6923 6924 6925 6926 6927 6928 6929 6930 6931 6932 6933 6934 6935 6936 6937 6938 6939 6940 6941 6942 6943 6944 6945 6946 6947 6948 6949 6950 6951 6952 6953 6954 6955 6956 6957 6958 6959 6960 6961 6962 6963 6964 6965 6966 6967 6968 6969 6970 6971 6972 6973 6974 6975 6976 6977 6978 6979 6980 6981 6982 6983 6984 6985 6986 6987 6988 6989 6990 6991 6992 6993 6994 6995 6996 6997 6998 6999 7000 7001 7002 7003 7004 7005 7006 7007 7008 7009 7010 7011 7012 7013 7014 7015 7016 7017 7018 7019 7020 7021 7022 7023 7024 7025 7026 7027 7028 7029 7030 7031 7032 7033 7034 7035 7036 7037 7038 7039 7040 7041 7042 7043 7044 7045 7046 7047 7048 7049 7050 7051 7052 7053 7054 7055 7056 7057 7058 7059 7060 7061 7062 7063 7064 7065 7066 7067 7068 7069 7070 7071 7072 7073 7074 7075 7076 7077 7078 7079 7080 7081 7082 7083 7084 7085 7086 7087 7088 7089 7090 7091 7092 7093 7094 7095 7096 7097 7098 7099 7100 7101 7102 7103 7104 7105 7106 7107 7108 7109 7110 7111 7112 7113 7114 7115 7116 7117 7118 7119 7120 7121 7122 7123 7124 7125 7126 7127 7128 7129 7130 7131 7132 7133 7134 7135 7136 7137 7138 7139 7140 7141 7142 7143 7144 7145 7146 7147 7148 7149 7150 7151 7152 7153 7154 7155 7156 7157 7158 7159 7160 7161 7162 7163 7164 7165 7166 7167 7168 7169 7170 7171 7172 7173 7174 7175 7176 7177 7178 7179 7180 7181 7182 7183 7184 7185 7186 7187 7188 7189 7190 7191 7192 7193 7194 7195 7196 7197 7198 7199 7200 7201 7202 7203 7204 7205 7206 7207 7208 7209 7210 7211 7212 7213 7214 7215 7216 7217 7218 7219 7220 7221 7222 7223 7224 7225 7226 7227 7228 7229 7230 7231 7232 7233 7234 7235 7236 7237 7238 7239 7240 7241 7242 7243 7244 7245 7246 7247 7248 7249 7250 7251 7252 7253 7254 7255 7256 7257 7258 7259 7260 7261 7262 7263 7264 7265 7266 7267 7268 7269 7270 7271 7272 7273 7274 7275 7276 7277 7278 7279 7280 7281 7282 7283 7284 7285 7286 7287 7288 7289 7290 7291 7292 7293 7294 7295 7296 7297 7298 7299 7300 7301 7302 7303 7304 7305 7306 7307 7308 7309 7310 7311 7312 7313 7314 7315 7316 7317 7318 7319 7320 7321 7322 7323 7324 7325 7326 7327 7328 7329 7330 7331 7332 7333 7334 7335 7336 7337 7338 7339 7340 7341 7342 7343 7344 7345 7346 7347 7348 7349 7350 7351 7352 7353 7354 7355 7356 7357 7358 7359 7360 7361 7362 7363 7364 7365 7366 7367 7368 7369 7370 7371 7372 7373 7374 7375 7376 7377 7378 7379 7380 7381 7382 7383 7384 7385 7386 7387 7388 7389 7390 7391 7392 7393 7394 7395 7396 7397 7398 7399 7400 7401 7402 7403 7404 7405 7406 7407 7408 7409 7410 7411 7412 7413 7414 7415 7416 7417 7418 7419 7420 7421 7422 7423 7424 7425 7426 7427 7428 7429 7430 7431 7432 7433 7434 7435 7436 7437 7438 7439 7440 7441 7442 7443 7444 7445 7446 7447 7448 7449 7450 7451 7452 7453 7454 7455 7456 7457 7458 7459 7460 7461 7462 7463 7464 7465 7466 7467 7468 7469 7470 7471 7472 7473 7474 7475 7476 7477 7478 7479 7480 7481 7482 7483 7484 7485 7486 7487 7488 7489 7490 7491 7492 7493 7494 7495 7496 7497 7498 7499 7500 7501 7502 7503 7504 7505 7506 7507 7508 7509 7510 7511 7512 7513 7514 7515 7516 7517 7518 7519 7520 7521 7522 7523 7524 7525 7526 7527 7528 7529 7530 7531 7532 7533 7534 7535 7536 7537 7538 7539 7540 7541 7542 7543 7544 7545 7546 7547 7548 7549 7550 7551 7552 7553 7554 7555 7556 7557 7558 7559 7560 7561 7562 7563 7564 7565 7566 7567 7568 7569 7570 7571 7572 7573 7574 7575 7576 7577 7578 7579 7580 7581 7582 7583 7584 7585 7586 7587 7588 7589 7590 7591 7592 7593 7594 7595 7596 7597 7598 7599 7600 7601 7602 7603 7604 7605 7606 7607 7608 7609 7610 7611 7612 7613 7614 7615 7616 7617 7618 7619 7620 7621 7622 7623 7624 7625 7626 7627 7628 7629 7630 7631 7632 7633 7634 7635 7636 7637 7638 7639 7640 7641 7642 7643 7644 7645 7646 7647 7648 7649 7650 7651 7652 7653 7654 7655 7656 7657 7658 7659 7660 7661 7662 7663 7664 7665 7666 7667 7668 7669 7670 7671 7672 7673 7674 7675 7676 7677 7678 7679 7680 7681 7682 7683 7684 7685 7686 7687 7688 7689 7690 7691 7692 7693 7694 7695 7696 7697 7698 7699 7700 7701 7702 7703 7704 7705 7706 7707 7708 7709 7710 7711 7712 7713 7714 7715 7716 7717 7718 7719 7720 7721 7722 7723 7724 7725 7726 7727 7728 7729 7730 7731 7732 7733 7734 7735 7736 7737 7738 7739 7740 7741 7742 7743 7744 7745 7746 7747 7748 7749 7750 7751 7752 7753 7754 7755 7756 7757 7758 7759 7760 7761 7762 7763 7764 7765 7766 7767 7768 7769 7770 7771 7772 7773 7774 7775 7776 7777 7778 7779 7780 7781 7782 7783 7784 7785 7786 7787 7788 7789 7790 7791 7792 7793 7794 7795 7796 7797 7798 7799 7800 7801 7802 7803 7804 7805 7806 7807 7808 7809 7810 7811 7812 7813 7814 7815 7816 7817 7818 7819 7820 7821 7822 7823 7824 7825 7826 7827 7828 7829 7830 7831 7832 7833 7834 7835 7836 7837 7838 7839 7840 7841 7842 7843 7844 7845 7846 7847 7848 7849 7850 7851 7852 7853 7854 7855 7856 7857 7858 7859 7860 7861 7862 7863 7864 7865 7866 7867 7868 7869 7870 7871 7872 7873 7874 7875 7876 7877 7878 7879 7880 7881 7882 7883 7884 7885 7886 7887 7888 7889 7890 7891 7892 7893 7894 7895 7896 7897 7898 7899 7900 7901 7902 7903 7904 7905 7906 7907 7908 7909 7910 7911 7912 7913 7914 7915 7916 7917 7918 7919 7920 7921 7922 7923 7924 7925 7926 7927 7928 7929 7930 7931 7932 7933 7934 7935 7936 7937 7938 7939 7940 7941 7942 7943 7944 7945 7946 7947 7948 7949 7950 7951 7952 7953 7954 7955 7956 7957 7958 7959 7960 7961 7962 7963 7964 7965 7966 7967 7968 7969 7970 7971 7972 7973 7974 7975 7976 7977 7978 7979 7980 7981 7982 7983 7984 7985 7986 7987 7988 7989 7990 7991 7992 7993 7994 7995 7996 7997 7998 7999 8000 8001 8002 8003 8004 8005 8006 8007 8008 8009 8010 8011 8012 8013 8014 8015 8016 8017 8018 8019 8020 8021 8022 8023 8024 8025 8026 8027 8028 8029 8030 8031 8032 8033 8034 8035 8036 8037 8038 8039 8040 8041 8042 8043 8044 8045 8046 8047 8048 8049 8050 8051 8052 8053 8054 8055 8056 8057 8058 8059 8060 8061 8062 8063 8064 8065 8066 8067 8068 8069 8070 8071 8072 8073 8074 8075 8076 8077 8078 8079 8080 8081 8082 8083 8084 8085 8086 8087 8088 8089 8090 8091 8092 8093 8094 8095 8096 8097 8098 8099 8100 8101 8102 8103 8104 8105 8106 8107 8108 8109 8110 8111 8112 8113 8114 8115 8116 8117 8118 8119 8120 8121 8122 8123 8124 8125 8126 8127 8128 8129 8130 8131 8132 8133 8134 8135 8136 8137 8138 8139 8140 8141 8142 8143 8144 8145 8146 8147 8148 8149 8150 8151 8152 8153 8154 8155 8156 8157 8158 8159 8160 8161 8162 8163 8164 8165 8166 8167 8168 8169 8170 8171 8172 8173 8174 8175 8176 8177 8178 8179 8180 8181 8182 8183 8184 8185 8186 8187 8188 8189 8190 8191 8192 8193 8194 8195 8196 8197 8198 8199 8200 8201 8202 8203 8204 8205 8206 8207 8208 8209 8210 8211 8212 8213 8214 8215 8216 8217 8218 8219 8220 8221 8222 8223 8224 8225 8226 8227 8228 8229 8230 8231 8232 8233 8234 8235 8236 8237 8238 8239 8240 8241 8242 8243 8244 8245 8246 8247 8248 8249 8250 8251 8252 8253 8254 8255 8256 8257 8258 8259 8260 8261 8262 8263 8264 8265 8266 8267 8268 8269 8270 8271 8272 8273 8274 8275 8276 8277 8278 8279 8280 8281 8282 8283 8284 8285 8286 8287 8288 8289 8290 8291 8292 8293 8294 8295 8296 8297 8298 8299 8300 8301 8302 8303 8304 8305 8306 8307 8308 8309 8310 8311 8312 8313 8314 8315 8316 8317 8318 8319 8320 8321 8322 8323 8324 8325 8326 8327 8328 8329 8330 8331 8332 8333 8334 8335 8336 8337 8338 8339 8340 8341 8342 8343 8344 8345 8346 8347 8348 8349 8350 8351 8352 8353 8354 8355 8356 8357 8358 8359 8360 8361 8362 8363 8364 8365 8366 8367 8368 8369 8370 8371 8372 8373 8374 8375 8376 8377 8378 8379 8380 8381 8382 8383 8384 8385 8386 8387 8388 8389 8390 8391 8392 8393 8394 8395 8396 8397 8398 8399 8400 8401 8402 8403 8404 8405 8406 8407 8408 8409 8410 8411 8412 8413 8414 8415 8416 8417 8418 8419 8420 8421 8422 8423 8424 8425 8426 8427 8428 8429 8430 8431 8432 8433 8434 8435 8436 8437 8438 8439 8440 8441 8442 8443 8444 8445 8446 8447 8448 8449 8450 8451 8452 8453 8454 8455 8456 8457 8458 8459 8460 8461 8462 8463 8464 8465 8466 8467 8468 8469 8470 8471 8472 8473 8474 8475 8476 8477 8478 8479 8480 8481 8482 8483 8484 8485 8486 8487 8488 8489 8490 8491 8492 8493 8494 8495 8496 8497 8498 8499 8500 8501 8502 8503 8504 8505 8506 8507 8508 8509 8510 8511 8512 8513 8514 8515 8516 8517 8518 8519 8520 8521 8522 8523 8524 8525 8526 8527 8528 8529 8530 8531 8532 8533 8534 8535 8536 8537 8538 8539 8540 8541 8542 8543 8544 8545 8546 8547 8548 8549 8550 8551 8552 8553 8554 8555 8556 8557 8558 8559 8560 8561 8562 8563 8564 8565 8566 8567 8568 8569 8570 8571 8572 8573 8574 8575 8576 8577 8578 8579 8580 8581 8582 8583 8584 8585 8586 8587 8588 8589 8590 8591 8592 8593 8594 8595 8596 8597 8598 8599 8600 8601 8602 8603 8604 8605 8606 8607 8608 8609 8610 8611 8612 8613 8614 8615 8616 8617 8618 8619 8620 8621 8622 8623 8624 8625 8626 8627 8628 8629 8630 8631 8632 8633 8634 8635 8636 8637 8638 8639 8640 8641 8642 8643 8644 8645 8646 8647 8648 8649 8650 8651 8652 8653 8654 8655 8656 8657 8658 8659 8660 8661 8662 8663 8664 8665 8666 8667 8668 8669 8670 8671 8672 8673 8674 8675 8676 8677 8678 8679 8680 8681 8682 8683 8684 8685 8686 8687 8688 8689 8690 8691 8692 8693 8694 8695 8696 8697 8698 8699 8700 8701 8702 8703 8704 8705 8706 8707 8708 8709 8710 8711 8712 8713 8714 8715 8716 8717 8718 8719 8720 8721 8722 8723 8724 8725 8726 8727 8728 8729 8730 8731 8732 8733 8734 8735 8736 8737 8738 8739 8740 8741 8742 8743 8744 8745 8746 8747 8748 8749 8750 8751 8752 8753 8754 8755 8756 8757 8758 8759 8760 8761 8762 8763 8764 8765 8766 8767 8768 8769 8770 8771 8772 8773 8774 8775 8776 8777 8778 8779 8780 8781 8782 8783 8784 8785 8786 8787 8788 8789 8790 8791 8792 8793 8794 8795 8796 8797 8798 8799 8800 8801 8802 8803 8804 8805 8806 8807 8808 8809 8810 8811 8812 8813 8814 8815 8816 8817 8818 8819 8820 8821 8822 8823 8824 8825 8826 8827 8828 8829 8830 8831 8832 8833 8834 8835 8836 8837 8838 8839 8840 8841 8842 8843 8844 8845 8846 8847 8848 8849 8850 8851 8852 8853 8854 8855 8856 8857 8858 8859 8860 8861 8862 8863 8864 8865 8866 8867 8868 8869 8870 8871 8872 8873 8874 8875 8876 8877 8878 8879 8880 8881 8882 8883 8884 8885 8886 8887 8888 8889 8890 8891 8892 8893 8894 8895 8896 8897 8898 8899 8900 8901 8902 8903 8904 8905 8906 8907 8908 8909 8910 8911 8912 8913 8914 8915 8916 8917 8918 8919 8920 8921 8922 8923 8924 8925 8926 8927 8928 8929 8930 8931 8932 8933 8934 8935 8936 8937 8938 8939 8940 8941 8942 8943 8944 8945 8946 8947 8948 8949 8950 8951 8952 8953 8954 8955 8956 8957 8958 8959 8960 8961 8962 8963 8964 8965 8966 8967 8968 8969 8970 8971 8972 8973 8974 8975 8976 8977 8978 8979 8980 8981 8982 8983 8984 8985 8986 8987 8988 8989 8990 8991 8992 8993 8994 8995 8996 8997 8998 8999 9000 9001 9002 9003 9004 9005 9006 9007 9008 9009 9010 9011 9012 9013 9014 9015 9016 9017 9018 9019 9020 9021 9022 9023 9024 9025 9026 9027 9028 9029 9030 9031 9032 9033 9034 9035 9036 9037 9038 9039 9040 9041 9042 9043 9044 9045 9046 9047 9048 9049 9050 9051 9052 9053 9054 9055 9056 9057 9058 9059 9060 9061 9062 9063 9064 9065 9066 9067 9068 9069 9070 9071 9072 9073 9074 9075 9076 9077 9078 9079 9080 9081 9082 9083 9084 9085 9086 9087 9088 9089 9090 9091 9092 9093 9094 9095 9096 9097 9098 9099 9100 9101 9102 9103 9104 9105 9106 9107 9108 9109 9110 9111 9112 9113 9114 9115 9116 9117 9118 9119 9120 9121 9122 9123 9124 9125 9126 9127 9128 9129 9130 9131 9132 9133 9134 9135 9136 9137 9138 9139 9140 9141 9142 9143 9144 9145 9146 9147 9148 9149 9150 9151 9152 9153 9154 9155 9156 9157 9158 9159 9160 9161 9162 9163 9164 9165 9166 9167 9168 9169 9170 9171 9172 9173 9174 9175 9176 9177 9178 9179 9180 9181 9182 9183 9184 9185 9186 9187 9188 9189 9190 9191 9192 9193 9194 9195 9196 9197 9198 9199 9200 9201 9202 9203 9204 9205 9206 9207 9208 9209 9210 9211 9212 9213 9214 9215 9216 9217 9218 9219 9220 9221 9222 9223 9224 9225 9226 9227 9228 9229 9230 9231 9232 9233 9234 9235 9236 9237 9238 9239 9240 9241 9242 9243 9244 9245 9246 9247 9248 9249 9250 9251 9252 9253 9254 9255 9256 9257 9258 9259 9260 9261 9262 9263 9264 9265 9266 9267 9268 9269 9270 9271 9272 9273 9274 9275 9276 9277 9278 9279 9280 9281 9282 9283 9284 9285 9286 9287 9288 9289 9290 9291 9292 9293 9294 9295 9296 9297 9298 9299 9300 9301 9302 9303 9304 9305 9306 9307 9308 9309 9310 9311 9312 9313 9314 9315 9316 9317 9318 9319 9320 9321 9322 9323 9324 9325 9326 9327 9328 9329 9330 9331 9332 9333 9334 9335 9336 9337 9338 9339 9340 9341 9342 9343 9344 9345 9346 9347 9348 9349 9350 9351 9352 9353 9354 9355 9356 9357 9358 9359 9360 9361 9362 9363 9364 9365 9366 9367 9368 9369 9370 9371 9372 9373 9374 9375 9376 9377 9378 9379 9380 9381 9382 9383 9384 9385 9386 9387 9388 9389 9390 9391 9392 9393 9394 9395 9396 9397 9398 9399 9400 9401 9402 9403 9404 9405 9406 9407 9408 9409 9410 9411 9412 9413 9414 9415 9416 9417 9418 9419 9420 9421 9422 9423 9424 9425 9426 9427 9428 9429 9430 9431 9432 9433 9434 9435 9436 9437 9438 9439 9440 9441 9442 9443 9444 9445 9446 9447 9448 9449 9450 9451 9452 9453 9454 9455 9456 9457 9458 9459 9460 9461 9462 9463 9464 9465 9466 9467 9468 9469 9470 9471 9472 9473 9474 9475 9476 9477 9478 9479 9480 9481 9482 9483 9484 9485 9486 9487 9488 9489 9490 9491 9492 9493 9494 9495 9496 9497 9498 9499 9500 9501 9502 9503 9504 9505 9506 9507 9508 9509 9510 9511 9512 9513 9514 9515 9516 9517 9518 9519 9520 9521 9522 9523 9524 9525 9526 9527 9528 9529 9530 9531 9532 9533 9534 9535 9536 9537 9538 9539 9540 9541 9542 9543 9544 9545 9546 9547 9548 9549 9550 9551 9552 9553 9554 9555 9556 9557 9558 9559 9560 9561 9562 9563 9564 9565 9566 9567 9568 9569 9570 9571 9572 9573 9574 9575 9576 9577 9578 9579 9580 9581 9582 9583 9584 9585 9586 9587 9588 9589 9590 9591 9592 9593 9594 9595 9596 9597 9598 9599 9600 9601 9602 9603 9604 9605 9606 9607 9608 9609 9610 9611 9612 9613 9614 9615 9616 9617 9618 9619 9620 9621 9622 9623 9624 9625 9626 9627 9628 9629 9630 9631 9632 9633 9634 9635 9636 9637 9638 9639 9640 9641 9642 9643 9644 9645 9646 9647 9648 9649 9650 9651 9652 9653 9654 9655 9656 9657 9658 9659 9660 9661 9662 9663 9664 9665 9666 9667 9668 9669 9670 9671 9672 9673 9674 9675 9676 9677 9678 9679 9680 9681 9682 9683 9684 9685 9686 9687 9688 9689 9690 9691 9692 9693 9694 9695 9696 9697 9698 9699 9700 9701 9702 9703 9704 9705 9706 9707 9708 9709 9710 9711 9712 9713 9714 9715 9716 9717 9718 9719 9720 9721 9722 9723 9724 9725 9726 9727 9728 9729 9730 9731 9732 9733 9734 9735 9736 9737 9738 9739 9740 9741 9742 9743 9744 9745 9746 9747 9748 9749 9750 9751 9752 9753 9754 9755 9756 9757 9758 9759 9760 9761 9762 9763 9764 9765 9766 9767 9768 9769 9770 9771 9772 9773 9774 9775 9776 9777 9778 9779 9780 9781 9782 9783 9784 9785 9786 9787 9788 9789 9790 9791 9792 9793 9794 9795 9796 9797 9798 9799 9800 9801 9802 9803 9804 9805 9806 9807 9808 9809 9810 9811 9812 9813 9814 9815 9816 9817 9818 9819 9820 9821 9822 9823 9824 9825 9826 9827 9828 9829 9830 9831 9832 9833 9834 9835 9836 9837 9838 9839 9840 9841 9842 9843 9844 9845 9846 9847 9848 9849 9850 9851 9852 9853 9854 9855 9856 9857 9858 9859 9860 9861 9862 9863 9864 9865 9866 9867 9868 9869 9870 9871 9872 9873 9874 9875 9876 9877 9878 9879 9880 9881 9882 9883 9884 9885 9886 9887 9888 9889 9890 9891 9892 9893 9894 9895 9896 9897 9898 9899 9900 9901 9902 9903 9904 9905 9906 9907 9908 9909 9910 9911 9912 9913 9914 9915 9916 9917 9918 9919 9920 9921 9922 9923 9924 9925 9926 9927 9928 9929 9930 9931 9932 9933 9934 9935 9936 9937 9938 9939 9940 9941 9942 9943 9944 9945 9946 9947 9948 9949 9950 9951 9952 9953 9954 9955 9956 9957 9958 9959 9960 9961 9962 9963 9964 9965 9966 9967 9968 9969 9970 9971 9972 9973 9974 9975 9976 9977 9978 9979 9980 9981 9982 9983 9984 9985 9986 9987 9988 9989 9990 9991 9992 9993 9994 9995 9996 9997 9998 9999 10000 10001 10002 10003 10004 10005 10006 10007 10008 10009 10010 10011 10012 10013 10014 10015 10016 10017 10018 10019 10020 10021 10022 10023 10024 10025 10026 10027 10028 10029 10030 10031 10032 10033 10034 10035 10036 10037 10038 10039 10040 10041 10042 10043 10044 10045 10046 10047 10048 10049 10050 10051 10052 10053 10054 10055 10056 10057 10058 10059 10060 10061 10062 10063 10064 10065 10066 10067 10068 10069 10070 10071 10072 10073 10074 10075 10076 10077 10078 10079 10080 10081 10082 10083 10084 10085 10086 10087 10088 10089 10090 10091 10092 10093 10094 10095 10096 10097 10098 10099 10100 10101 10102 10103 10104 10105 10106 10107 10108 10109 10110 10111 10112 10113 10114 10115 10116 10117 10118 10119 10120 10121 10122 10123 10124 10125 10126 10127 10128 10129 10130 10131 10132 10133 10134 10135 10136 10137 10138 10139 10140 10141 10142 10143 10144 10145 10146 10147 10148 10149 10150 10151 10152 10153 10154 10155 10156 10157 10158 10159 10160 10161 10162 10163 10164 10165 10166 10167 10168 10169 10170 10171 10172 10173 10174 10175 10176 10177 10178 10179 10180 10181 10182 10183 10184 10185 10186 10187 10188 10189 10190 10191 10192 10193 10194 10195 10196 10197 10198 10199 10200 10201 10202 10203 10204 10205 10206 10207 10208 10209 10210 10211 10212 10213 10214 10215 10216 10217 10218 10219 10220 10221 10222 10223 10224 10225 10226 10227 10228 10229 10230 10231 10232 10233 10234 10235 10236 10237 10238 10239 10240 10241 10242 10243 10244 10245 10246 10247 10248 10249 10250 10251 10252 10253 10254 10255 10256 10257 10258 10259 10260 10261 10262 10263 10264 10265 10266 10267 10268 10269 10270 10271 10272 10273 10274 10275 10276 10277 10278 10279 10280 10281 10282 10283 10284 10285 10286 10287 10288 10289 10290 10291 10292 10293 10294 10295 10296 10297 10298 10299 10300 10301 10302 10303 10304 10305 10306 10307 10308 10309 10310 10311 10312 10313 10314 10315 10316 10317 10318 10319 10320 10321 10322 10323 10324 10325 10326 10327 10328 10329 10330 10331 10332 10333 10334 10335 10336 10337 10338 10339 10340 10341 10342 10343 10344 10345 10346 10347 10348 10349 10350 10351 10352 10353 10354 10355 10356 10357 10358 10359 10360 10361 10362 10363 10364 10365 10366 10367 10368 10369 10370 10371 10372 10373 10374 10375 10376 10377 10378 10379 10380 10381 10382 10383 10384 10385 10386 10387 10388 10389 10390 10391 10392 10393 10394 10395 10396 10397 10398 10399 10400 10401 10402 10403 10404 10405 10406 10407 10408 10409 10410 10411 10412 10413 10414 10415 10416 10417 10418 10419 10420 10421 10422 10423 10424 10425 10426 10427 10428 10429 10430 10431 10432 10433 10434 10435 10436 10437 10438 10439 10440 10441 10442 10443 10444 10445 10446 10447 10448 10449 10450 10451 10452 10453 10454 10455 10456 10457 10458 10459 10460 10461 10462 10463 10464 10465 10466 10467 10468 10469 10470 10471 10472 10473 10474 10475 10476 10477 10478 10479 10480 10481 10482 10483 10484 10485 10486 10487 10488 10489 10490 10491 10492 10493 10494 10495 10496 10497 10498 10499 10500 10501 10502 10503 10504 10505 10506 10507 10508 10509 10510 10511 10512 10513 10514 10515 10516 10517 10518 10519 10520 10521 10522 10523 10524 10525 10526 10527 10528 10529 10530 10531 10532 10533 10534 10535 10536 10537 10538 10539 10540 10541 10542 10543 10544 10545 10546 10547 10548 10549 10550 10551 10552 10553 10554 10555 10556 10557 10558 10559 10560 10561 10562 10563 10564 10565 10566 10567 10568 10569 10570 10571 10572 10573 10574 10575 10576 10577 10578 10579 10580 10581 10582 10583 10584 10585 10586 10587 10588 10589 10590 10591 10592 10593 10594 10595 10596 10597 10598 10599 10600 10601 10602 10603 10604 10605 10606 10607 10608 10609 10610 10611 10612 10613 10614 10615 10616 10617 10618 10619 10620 10621 10622 10623 10624 10625 10626 10627 10628 10629 10630 10631 10632 10633 10634 10635 10636 10637 10638 10639 10640 10641 10642 10643 10644 10645 10646 10647 10648 10649 10650 10651 10652 10653 10654 10655 10656 10657 10658 10659 10660 10661 10662 10663 10664 10665 10666 10667 10668 10669 10670 10671 10672 10673 10674 10675 10676 10677 10678 10679 10680 10681 10682 10683 10684 10685 10686 10687 10688 10689 10690 10691 10692 10693 10694 10695 10696 10697 10698 10699 10700 10701 10702 10703 10704 10705 10706 10707 10708 10709 10710 10711 10712 10713 10714 10715 10716 10717 10718 10719 10720 10721 10722 10723 10724 10725 10726 10727 10728 10729 10730 10731 10732 10733 10734 10735 10736 10737 10738 10739 10740 10741 10742 10743 10744 10745 10746 10747 10748 10749 10750 10751 10752 10753 10754 10755 10756 10757 10758 10759 10760 10761 10762 10763 10764 10765 10766 10767 10768 10769 10770 10771 10772 10773 10774 10775 10776 10777 10778 10779 10780 10781 10782 10783 10784 10785 10786 10787 10788 10789 10790 10791 10792 10793 10794 10795 10796 10797 10798 10799 10800 10801 10802 10803 10804 10805 10806 10807 10808 10809 10810 10811 10812 10813 10814 10815 10816 10817 10818 10819 10820 10821 10822 10823 10824 10825 10826 10827 10828 10829 10830 10831 10832 10833 10834 10835 10836 10837 10838 10839 10840 10841 10842 10843 10844 10845 10846 10847 10848 10849 10850 10851 10852 10853 10854 10855 10856 10857 10858 10859 10860 10861 10862 10863 10864 10865 10866 10867 10868 10869 10870 10871 10872 10873 10874 10875 10876 10877 10878 10879 10880 10881 10882 10883 10884 10885 10886 10887 10888 10889 10890 10891 10892 10893 10894 10895 10896 10897 10898 10899 10900 10901 10902 10903 10904 10905 10906 10907 10908 10909 10910 10911 10912 10913 10914 10915 10916 10917 10918 10919 10920 10921 10922 10923 10924 10925 10926 10927 10928 10929 10930 10931 10932 10933 10934 10935 10936 10937 10938 10939 10940 10941 10942 10943 10944 10945 10946 10947 10948 10949 10950 10951 10952 10953 10954 10955 10956 10957 10958 10959 10960 10961 10962 10963 10964 10965 10966 10967 10968 10969 10970 10971 10972 10973 10974 10975 10976 10977 10978 10979 10980 10981 10982 10983 10984 10985 10986 10987 10988 10989 10990 10991 10992 10993 10994 10995 10996 10997 10998 10999 11000 11001 11002 11003 11004 11005 11006 11007 11008 11009 11010 11011 11012 11013 11014 11015 11016 11017 11018 11019 11020 11021 11022 11023 11024 11025 11026 11027 11028 11029 11030 11031 11032 11033 11034 11035 11036 11037 11038 11039 11040 11041 11042 11043 11044 11045 11046 11047 11048 11049 11050 11051 11052 11053 11054 11055 11056 11057 11058 11059 11060 11061 11062 11063 11064 11065 11066 11067 11068 11069 11070 11071 11072 11073 11074 11075 11076 11077 11078 11079 11080 11081 11082 11083 11084 11085 11086 11087 11088 11089 11090 11091 11092 11093 11094 11095 11096 11097 11098 11099 11100 11101 11102 11103 11104 11105 11106 11107 11108 11109 11110 11111 11112 11113 11114 11115 11116 11117 11118 11119 11120 11121 11122 11123 11124 11125 11126 11127 11128 11129 11130 11131 11132 11133 11134 11135 11136 11137 11138 11139 11140 11141 11142 11143 11144 11145 11146 11147 11148 11149 11150 11151 11152 11153 11154 11155 11156 11157 11158 11159 11160 11161 11162 11163 11164 11165 11166 11167 11168 11169 11170 11171 11172 11173 11174 11175 11176 11177 11178 11179 11180 11181 11182 11183 11184 11185 11186 11187 11188 11189 11190 11191 11192 11193 11194 11195 11196 11197 11198 11199 11200 11201 11202 11203 11204 11205 11206 11207 11208 11209 11210 11211 11212 11213 11214 11215 11216 11217 11218 11219 11220 11221 11222 11223 11224 11225 11226 11227 11228 11229 11230 11231 11232 11233 11234 11235 11236 11237 11238 11239 11240 11241 11242 11243 11244 11245 11246 11247 11248 11249 11250 11251 11252 11253 11254 11255 11256 11257 11258 11259 11260 11261 11262 11263 11264 11265 11266 11267 11268 11269 11270 11271 11272 11273 11274 11275 11276 11277 11278 11279 11280 11281 11282 11283 11284 11285 11286 11287 11288 11289 11290 11291 11292 11293 11294 11295 11296 11297 11298 11299 11300 11301 11302 11303 11304 11305 11306 11307 11308 11309 11310 11311 11312 11313 11314 11315 11316 11317 11318 11319 11320 11321 11322 11323 11324 11325 11326 11327 11328 11329 11330 11331 11332 11333 11334 11335 11336 11337 11338 11339 11340 11341 11342 11343 11344 11345 11346 11347 11348 11349 11350 11351 11352 11353 11354 11355 11356 11357 11358 11359 11360 11361 11362 11363 11364 11365 11366 11367 11368 11369 11370 11371 11372 11373 11374 11375 11376 11377 11378 11379 11380 11381 11382 11383 11384 11385 11386 11387 11388 11389 11390 11391 11392 11393 11394 11395 11396 11397 11398 11399 11400 11401 11402 11403 11404 11405 11406 11407 11408 11409 11410 11411 11412 11413 11414 11415 11416 11417 11418 11419 11420 11421 11422 11423 11424 11425 11426 11427 11428 11429 11430 11431 11432 11433 11434 11435 11436 11437 11438 11439 11440 11441 11442 11443 11444 11445 11446 11447 11448 11449 11450 11451 11452 11453 11454 11455 11456 11457 11458 11459 11460 11461 11462 11463 11464 11465 11466 11467 11468 11469 11470 11471 11472 11473 11474 11475 11476 11477 11478 11479 11480 11481 11482 11483 11484 11485 11486 11487 11488 11489 11490 11491 11492 11493 11494 11495 11496 11497 11498 11499 11500 11501 11502 11503 11504 11505 11506 11507 11508 11509 11510 11511 11512 11513 11514 11515 11516 11517 11518 11519 11520 11521 11522 11523 11524 11525 11526 11527 11528 11529 11530 11531 11532 11533 11534 11535 11536 11537 11538 11539 11540 11541 11542 11543 11544 11545 11546 11547 11548 11549 11550 11551 11552 11553 11554 11555 11556 11557 11558 11559 11560 11561 11562 11563 11564 11565 11566 11567 11568 11569 11570 11571 11572 11573 11574 11575 11576 11577 11578 11579 11580 11581 11582 11583 11584 11585 11586 11587 11588 11589 11590 11591 11592 11593 11594 11595 11596 11597 11598 11599 11600 11601 11602 11603 11604 11605 11606 11607 11608 11609 11610 11611 11612 11613 11614 11615 11616 11617 11618 11619 11620 11621 11622 11623 11624 11625 11626 11627 11628 11629 11630 11631 11632 11633 11634 11635 11636 11637 11638 11639 11640 11641 11642 11643 11644 11645 11646 11647 11648 11649 11650 11651 11652 11653 11654 11655 11656 11657 11658 11659 11660 11661 11662 11663 11664 11665 11666 11667 11668 11669 11670 11671 11672 11673 11674 11675 11676 11677 11678 11679 11680 11681 11682 11683 11684 11685 11686 11687 11688 11689 11690 11691 11692 11693 11694 11695 11696 11697 11698 11699 11700 11701 11702 11703 11704 11705 11706 11707 11708 11709 11710 11711 11712 11713 11714 11715 11716 11717 11718 11719 11720 11721 11722 11723 11724 11725 11726 11727 11728 11729 11730 11731 11732 11733 11734 11735 11736 11737 11738 11739 11740 11741 11742 11743 11744 11745 11746 11747 11748 11749 11750 11751 11752 11753 11754 11755 11756 11757 11758 11759 11760 11761 11762 11763 11764 11765 11766 11767 11768 11769 11770 11771 11772 11773 11774 11775 11776 11777 11778 11779 11780 11781 11782 11783 11784 11785 11786 11787 11788 11789 11790 11791 11792 11793 11794 11795 11796 11797 11798 11799 11800 11801 11802 11803 11804 11805 11806 11807 11808 11809 11810 11811 11812 11813 11814 11815 11816 11817 11818 11819 11820 11821 11822 11823 11824 11825 11826 11827 11828 11829 11830 11831 11832 11833 11834 11835 11836 11837 11838 11839 11840 11841 11842 11843 11844 11845 11846 11847 11848 11849 11850 11851 11852 11853 11854 11855 11856 11857 11858 11859 11860 11861 11862 11863 11864 11865 11866 11867 11868 11869 11870 11871 11872 11873 11874 11875 11876 11877 11878 11879 11880 11881 11882 11883 11884 11885 11886 11887 11888 11889 11890 11891 11892 11893 11894 11895 11896 11897 11898 11899 11900 11901 11902 11903 11904 11905 11906 11907 11908 11909 11910 11911 11912 11913 11914 11915 11916 11917 11918 11919 11920 11921 11922 11923 11924 11925 11926 11927 11928 11929 11930 11931 11932 11933 11934 11935 11936 11937 11938 11939 11940 11941 11942 11943 11944 11945 11946 11947 11948 11949 11950 11951 11952 11953 11954 11955 11956 11957 11958 11959 11960 11961 11962 11963 11964 11965 11966 11967 11968 11969 11970 11971 11972 11973 11974 11975 11976 11977 11978 11979 11980 11981 11982 11983 11984 11985 11986 11987 11988 11989 11990 11991 11992 11993 11994 11995 11996 11997 11998 11999 12000 12001 12002 12003 12004 12005 12006 12007 12008 12009 12010 12011 12012 12013 12014 12015 12016 12017 12018 12019 12020 12021 12022 12023 12024 12025 12026 12027 12028 12029 12030 12031 12032 12033 12034 12035 12036 12037 12038 12039 12040 12041 12042 12043 12044 12045 12046 12047 12048 12049 12050 12051 12052 12053 12054 12055 12056 12057 12058 12059 12060 12061 12062 12063 12064 12065 12066 12067 12068 12069 12070 12071 12072 12073 12074 12075 12076 12077 12078 12079 12080 12081 12082 12083 12084 12085 12086 12087 12088 12089 12090 12091 12092 12093 12094 12095 12096 12097 12098 12099 12100 12101 12102 12103 12104 12105 12106 12107 12108 12109 12110 12111 12112 12113 12114 12115 12116 12117 12118 12119 12120 12121 12122 12123 12124 12125 12126 12127 12128 12129 12130 12131 12132 12133 12134 12135 12136 12137 12138 12139 12140 12141 12142 12143 12144 12145 12146 12147 12148 12149 12150 12151 12152 12153 12154 12155 12156 12157 12158 12159 12160 12161 12162 12163 12164 12165 12166 12167 12168 12169 12170 12171 12172 12173 12174 12175 12176 12177 12178 12179 12180 12181 12182 12183 12184 12185 12186 12187 12188 12189 12190 12191 12192 12193 12194 12195 12196 12197 12198 12199 12200 12201 12202 12203 12204 12205 12206 12207 12208 12209 12210 12211 12212 12213 12214 12215 12216 12217 12218 12219 12220 12221 12222 12223 12224 12225 12226 12227 12228 12229 12230 12231 12232 12233 12234 12235 12236 12237 12238 12239 12240 12241 12242 12243 12244 12245 12246 12247 12248 12249 12250 12251 12252 12253 12254 12255 12256 12257 12258 12259 12260 12261 12262 12263 12264 12265 12266 12267 12268 12269 12270 12271 12272 12273 12274 12275 12276 12277 12278 12279 12280 12281 12282 12283 12284 12285 12286 12287 12288 12289 12290 12291 12292 12293 12294 12295 12296 12297 12298 12299 12300 12301 12302 12303 12304 12305 12306 12307 12308 12309 12310 12311 12312 12313 12314 12315 12316 12317 12318 12319 12320 12321 12322 12323 12324 12325 12326 12327 12328 12329 12330 12331 12332 12333 12334 12335 12336 12337 12338 12339 12340 12341 12342 12343 12344 12345 12346 12347 12348 12349 12350 12351 12352 12353 12354 12355 12356 12357 12358 12359 12360 12361 12362 12363 12364 12365 12366 12367 12368 12369 12370 12371 12372 12373 12374 12375 12376 12377 12378 12379 12380 12381 12382 12383 12384 12385 12386 12387 12388 12389 12390 12391 12392 12393 12394 12395 12396 12397 12398 12399 12400 12401 12402 12403 12404 12405 12406 12407 12408 12409 12410 12411 12412 12413 12414 12415 12416 12417 12418 12419 12420 12421 12422 12423 12424 12425 12426 12427 12428 12429 12430 12431 12432 12433 12434 12435 12436 12437 12438 12439 12440 12441 12442 12443 12444 12445 12446 12447 12448 12449 12450 12451 12452 12453 12454 12455 12456 12457 12458 12459 12460 12461 12462 12463 12464 12465 12466 12467 12468 12469 12470 12471 12472 12473 12474 12475 12476 12477 12478 12479 12480 12481 12482 12483 12484 12485 12486 12487 12488 12489 12490 12491 12492 12493 12494 12495 12496 12497 12498 12499 12500 12501 12502 12503 12504 12505 12506 12507 12508 12509 12510 12511 12512 12513 12514 12515 12516 12517 12518 12519 12520 12521 12522 12523 12524 12525 12526 12527 12528 12529 12530 12531 12532 12533 12534 12535 12536 12537 12538 12539 12540 12541 12542 12543 12544 12545 12546 12547 12548 12549 12550 12551 12552 12553 12554 12555 12556 12557 12558 12559 12560 12561 12562 12563 12564 12565 12566 12567 12568 12569 12570 12571 12572 12573 12574 12575 12576 12577 12578 12579 12580 12581 12582 12583 12584 12585 12586 12587 12588 12589 12590 12591 12592 12593 12594 12595 12596 12597 12598 12599 12600 12601 12602 12603 12604 12605 12606 12607 12608 12609 12610 12611 12612 12613 12614 12615 12616 12617 12618 12619 12620 12621 12622 12623 12624 12625 12626 12627 12628 12629 12630 12631 12632 12633 12634 12635 12636 12637 12638 12639 12640 12641 12642 12643 12644 12645 12646 12647 12648 12649 12650 12651 12652 12653 12654 12655 12656 12657 12658 12659 12660 12661 12662 12663 12664 12665 12666 12667 12668 12669 12670 12671 12672 12673 12674 12675 12676 12677 12678 12679 12680 12681 12682 12683 12684 12685 12686 12687 12688 12689 12690 12691 12692 12693 12694 12695 12696 12697 12698 12699 12700 12701 12702 12703 12704 12705 12706 12707 12708 12709 12710 12711 12712 12713 12714 12715 12716 12717 12718 12719 12720 12721 12722 12723 12724 12725 12726 12727 12728 12729 12730 12731 12732 12733 12734 12735 12736 12737 12738 12739 12740 12741 12742 12743 12744 12745 12746 12747 12748 12749 12750 12751 12752 12753 12754 12755 12756 12757 12758 12759 12760 12761 12762 12763 12764 12765 12766 12767 12768 12769 12770 12771 12772 12773 12774 12775 12776 12777 12778 12779 12780 12781 12782 12783 12784 12785 12786 12787 12788 12789 12790 12791 12792 12793 12794 12795 12796 12797 12798 12799 12800 12801 12802 12803 12804 12805 12806 12807 12808 12809 12810 12811 12812 12813 12814 12815 12816 12817 12818 12819 12820 12821 12822 12823 12824 12825 12826 12827 12828 12829 12830 12831 12832 12833 12834 12835 12836 12837 12838 12839 12840 12841 12842 12843 12844 12845 12846 12847 12848 12849 12850 12851 12852 12853 12854 12855 12856 12857 12858 12859 12860 12861 12862 12863 12864 12865 12866 12867 12868 12869 12870 12871 12872 12873 12874 12875 12876 12877 12878 12879 12880 12881 12882 12883 12884 12885 12886 12887 12888 12889 12890 12891 12892 12893 12894 12895 12896 12897 12898 12899 12900 12901 12902 12903 12904 12905 12906 12907 12908 12909 12910 12911 12912 12913 12914 12915 12916 12917 12918 12919 12920 12921 12922 12923 12924 12925 12926 12927 12928 12929 12930 12931 12932 12933 12934 12935 12936 12937 12938 12939 12940 12941 12942 12943 12944 12945 12946 12947 12948 12949 12950 12951 12952 12953 12954 12955 12956 12957 12958 12959 12960 12961 12962 12963 12964 12965 12966 12967 12968 12969 12970 12971 12972 12973 12974 12975 12976 12977 12978 12979 12980 12981 12982 12983 12984 12985 12986 12987 12988 12989 12990 12991 12992 12993 12994 12995 12996 12997 12998 12999 13000 13001 13002 13003 13004 13005 13006 13007 13008 13009 13010 13011 13012 13013 13014 13015 13016 13017 13018 13019 13020 13021 13022 13023 13024 13025 13026 13027 13028 13029 13030 13031 13032 13033 13034 13035 13036 13037 13038 13039 13040 13041 13042 13043 13044 13045 13046 13047 13048 13049 13050 13051 13052 13053 13054 13055 13056 13057 13058 13059 13060 13061 13062 13063 13064 13065 13066 13067 13068 13069 13070 13071 13072 13073 13074 13075 13076 13077 13078 13079 13080 13081 13082 13083 13084 13085 13086 13087 13088 13089 13090 13091 13092 13093 13094 13095 13096 13097 13098 13099 13100 13101 13102 13103 13104 13105 13106 13107 13108 13109 13110 13111 13112 13113 13114 13115 13116 13117 13118 13119 13120 13121 13122 13123 13124 13125 13126 13127 13128 13129 13130 13131 13132 13133 13134 13135 13136 13137 13138 13139 13140 13141 13142 13143 13144 13145 13146 13147 13148 13149 13150 13151 13152 13153 13154 13155 13156 13157 13158 13159 13160 13161 13162 13163 13164 13165 13166 13167 13168 13169 13170 13171 13172 13173 13174 13175 13176 13177 13178 13179 13180 13181 13182 13183 13184 13185 13186 13187 13188 13189 13190 13191 13192 13193 13194 13195 13196 13197 13198 13199 13200 13201 13202 13203 13204 13205 13206 13207 13208 13209 13210 13211 13212 13213 13214 13215 13216 13217 13218 13219 13220 13221 13222 13223 13224 13225 13226 13227 13228 13229 13230 13231 13232 13233 13234 13235 13236 13237 13238 13239 13240 13241 13242 13243 13244 13245 13246 13247 13248 13249 13250 13251 13252 13253 13254 13255 13256 13257 13258 13259 13260 13261 13262 13263 13264 13265 13266 13267 13268 13269 13270 13271 13272 13273 13274 13275 13276 13277 13278 13279 13280 13281 13282 13283 13284 13285 13286 13287 13288 13289 13290 13291 13292 13293 13294 13295 13296 13297 13298 13299 13300 13301 13302 13303 13304 13305 13306 13307 13308 13309 13310 13311 13312 13313 13314 13315 13316 13317 13318 13319 13320 13321 13322 13323 13324 13325 13326 13327 13328 13329 13330 13331 13332 13333 13334 13335 13336 13337 13338 13339 13340 13341 13342 13343 13344 13345 13346 13347 13348 13349 13350 13351 13352 13353 13354 13355 13356 13357 13358 13359 13360 13361 13362 13363 13364 13365 13366 13367 13368 13369 13370 13371 13372 13373 13374 13375 13376 13377 13378 13379 13380 13381 13382 13383 13384 13385 13386 13387 13388 13389 13390 13391 13392 13393 13394 13395 13396 13397 13398 13399 13400 13401 13402 13403 13404 13405 13406 13407 13408 13409 13410 13411 13412 13413 13414 13415 13416 13417 13418 13419 13420 13421 13422 13423 13424 13425 13426 13427 13428 13429 13430 13431 13432 13433 13434 13435 13436 13437 13438 13439 13440 13441 13442 13443 13444 13445 13446 13447 13448 13449 13450 13451 13452 13453 13454 13455 13456 13457 13458 13459 13460 13461 13462 13463 13464 13465 13466 13467 13468 13469 13470 13471 13472 13473 13474 13475 13476 13477 13478 13479 13480 13481 13482 13483 13484 13485 13486 13487 13488 13489 13490 13491 13492 13493 13494 13495 13496 13497 13498 13499 13500 13501 13502 13503 13504 13505 13506 13507 13508 13509 13510 13511 13512 13513 13514 13515 13516 13517 13518 13519 13520 13521 13522 13523 13524 13525 13526 13527 13528 13529 13530 13531 13532 13533 13534 13535 13536 13537 13538 13539 13540 13541 13542 13543 13544 13545 13546 13547 13548 13549 13550 13551 13552 13553 13554 13555 13556 13557 13558 13559 13560 13561 13562 13563 13564 13565 13566 13567 13568 13569 13570 13571 13572 13573 13574 13575 13576 13577 13578 13579 13580 13581 13582 13583 13584 13585 13586 13587 13588 13589 13590 13591 13592 13593 13594 13595 13596 13597 13598 13599 13600 13601 13602 13603 13604 13605 13606 13607 13608 13609 13610 13611 13612 13613 13614 13615 13616 13617 13618 13619 13620 13621 13622 13623 13624 13625 13626 13627 13628 13629 13630 13631 13632 13633 13634 13635 13636 13637 13638 13639 13640 13641 13642 13643 13644 13645 13646 13647 13648 13649 13650 13651 13652 13653 13654 13655 13656 13657 13658 13659 13660 13661 13662 13663 13664 13665 13666 13667 13668 13669 13670 13671 13672 13673 13674 13675 13676 13677 13678 13679 13680 13681 13682 13683 13684 13685 13686 13687 13688 13689 13690 13691 13692 13693 13694 13695 13696 13697 13698 13699 13700 13701 13702 13703 13704 13705 13706 13707 13708 13709 13710 13711 13712 13713 13714 13715 13716 13717 13718 13719 13720 13721 13722 13723 13724 13725 13726 13727 13728 13729 13730 13731 13732 13733 13734 13735 13736 13737 13738 13739 13740 13741 13742 13743 13744 13745 13746 13747 13748 13749 13750 13751 13752 13753 13754 13755 13756 13757 13758 13759 13760 13761 13762 13763 13764 13765 13766 13767 13768 13769 13770 13771 13772 13773 13774 13775 13776 13777 13778 13779 13780 13781 13782 13783 13784 13785 13786 13787 13788 13789 13790 13791 13792 13793 13794 13795 13796 13797 13798 13799 13800 13801 13802 13803 13804 13805 13806 13807 13808 13809 13810 13811 13812 13813 13814 13815 13816 13817 13818 13819 13820 13821 13822 13823 13824 13825 13826 13827 13828 13829 13830 13831 13832 13833 13834 13835 13836 13837 13838 13839 13840 13841 13842 13843 13844 13845 13846 13847 13848 13849 13850 13851 13852 13853 13854 13855 13856 13857 13858 13859 13860 13861 13862 13863 13864 13865 13866 13867 13868 13869 13870 13871 13872 13873 13874 13875 13876 13877 13878 13879 13880 13881 13882 13883 13884 13885 13886 13887 13888 13889 13890 13891 13892 13893 13894 13895 13896 13897 13898 13899 13900 13901 13902 13903 13904 13905 13906 13907 13908 13909 13910 13911 13912 13913 13914 13915 13916 13917 13918 13919 13920 13921 13922 13923 13924 13925 13926 13927 13928 13929 13930 13931 13932 13933 13934 13935 13936 13937 13938 13939 13940 13941 13942 13943 13944 13945 13946 13947 13948 13949 13950 13951 13952 13953 13954 13955 13956 13957 13958 13959 13960 13961 13962 13963 13964 13965 13966 13967 13968 13969 13970 13971 13972 13973 13974 13975 13976 13977 13978 13979 13980 13981 13982 13983 13984 13985 13986 13987 13988 13989 13990 13991 13992 13993 13994 13995 13996 13997 13998 13999 14000 14001 14002 14003 14004 14005 14006 14007 14008 14009 14010 14011 14012 14013 14014 14015 14016 14017 14018 14019 14020 14021 14022 14023 14024 14025 14026 14027 14028 14029 14030 14031 14032 14033 14034 14035 14036 14037 14038 14039 14040 14041 14042 14043 14044 14045 14046 14047 14048 14049 14050 14051 14052 14053 14054 14055 14056 14057 14058 14059 14060 14061 14062 14063 14064 14065 14066 14067 14068 14069 14070 14071 14072 14073 14074 14075 14076 14077 14078 14079 14080 14081 14082 14083 14084 14085 14086 14087 14088 14089 14090 14091 14092 14093 14094 14095 14096 14097 14098 14099 14100 14101 14102 14103 14104 14105 14106 14107 14108 14109 14110 14111 14112 14113 14114 14115 14116 14117 14118 14119 14120 14121 14122 14123 14124 14125 14126 14127 14128 14129 14130 14131 14132 14133 14134 14135 14136 14137 14138 14139 14140 14141 14142 14143 14144 14145 14146 14147 14148 14149 14150 14151 14152 14153 14154 14155 14156 14157 14158 14159 14160 14161 14162 14163 14164 14165 14166 14167 14168 14169 14170 14171 14172 14173 14174 14175 14176 14177 14178 14179 14180 14181 14182 14183 14184 14185 14186 14187 14188 14189 14190 14191 14192 14193 14194 14195 14196 14197 14198 14199 14200 14201 14202 14203 14204 14205 14206 14207 14208 14209 14210 14211 14212 14213 14214 14215 14216 14217 14218 14219 14220 14221 14222 14223 14224 14225 14226 14227 14228 14229 14230 14231 14232 14233 14234 14235 14236 14237 14238 14239 14240 14241 14242 14243 14244 14245 14246 14247 14248 14249 14250 14251 14252 14253 14254 14255 14256 14257 14258 14259 14260 14261 14262 14263 14264 14265 14266 14267 14268 14269 14270 14271 14272 14273 14274 14275 14276 14277 14278 14279 14280 14281 14282 14283 14284 14285 14286 14287 14288 14289 14290 14291 14292 14293 14294 14295 14296 14297 14298 14299 14300 14301 14302 14303 14304 14305 14306 14307 14308 14309 14310 14311 14312 14313 14314 14315 14316 14317 14318 14319 14320 14321 14322 14323 14324 14325 14326 14327 14328 14329 14330 14331 14332 14333 14334 14335 14336 14337 14338 14339 14340 14341 14342 14343 14344 14345 14346 14347 14348 14349 14350 14351 14352 14353 14354 14355 14356 14357 14358 14359 14360 14361 14362 14363 14364 14365 14366 14367 14368 14369 14370 14371 14372 14373 14374 14375 14376 14377 14378 14379 14380 14381 14382 14383 14384 14385 14386 14387 14388 14389 14390 14391 14392 14393 14394 14395 14396 14397 14398 14399 14400 14401 14402 14403 14404 14405 14406 14407 14408 14409 14410 14411 14412 14413 14414 14415 14416 14417 14418 14419 14420 14421 14422 14423 14424 14425 14426 14427 14428 14429 14430 14431 14432 14433 14434 14435 14436 14437 14438 14439 14440 14441 14442 14443 14444 14445 14446 14447 14448 14449 14450 14451 14452 14453 14454 14455 14456 14457 14458 14459 14460 14461 14462 14463 14464 14465 14466 14467 14468 14469 14470 14471 14472 14473 14474 14475 14476 14477 14478 14479 14480 14481 14482 14483 14484 14485 14486 14487 14488 14489 14490 14491 14492 14493 14494 14495 14496 14497 14498 14499 14500 14501 14502 14503 14504 14505 14506 14507 14508 14509 14510 14511 14512 14513 14514 14515 14516 14517 14518 14519 14520 14521 14522 14523 14524 14525 14526 14527 14528 14529 14530 14531 14532 14533 14534 14535 14536 14537 14538 14539 14540 14541 14542 14543 14544 14545 14546 14547 14548 14549 14550 14551 14552 14553 14554 14555 14556 14557 14558 14559 14560 14561 14562 14563 14564 14565 14566 14567 14568 14569 14570 14571 14572 14573 14574 14575 14576 14577 14578 14579 14580 14581 14582 14583 14584 14585 14586 14587 14588 14589 14590 14591 14592 14593 14594 14595 14596 14597 14598 14599 14600 14601 14602 14603 14604 14605 14606 14607 14608 14609 14610 14611 14612 14613 14614 14615 14616 14617 14618 14619 14620 14621 14622 14623 14624 14625 14626 14627 14628 14629 14630 14631 14632 14633 14634 14635 14636 14637 14638 14639 14640 14641 14642 14643 14644 14645 14646 14647 14648 14649 14650 14651 14652 14653 14654 14655 14656 14657 14658 14659 14660 14661 14662 14663 14664 14665 14666 14667 14668 14669 14670 14671 14672 14673 14674 14675 14676 14677 14678 14679 14680 14681 14682 14683 14684 14685 14686 14687 14688 14689 14690 14691 14692 14693 14694 14695 14696 14697 14698 14699 14700 14701 14702 14703 14704 14705 14706 14707 14708 14709 14710 14711 14712 14713 14714 14715 14716 14717 14718 14719 14720 14721 14722 14723 14724 14725 14726 14727 14728 14729 14730 14731 14732 14733 14734 14735 14736 14737 14738 14739 14740 14741 14742 14743 14744 14745 14746 14747 14748 14749 14750 14751 14752 14753 14754 14755 14756 14757 14758 14759 14760 14761 14762 14763 14764 14765 14766 14767 14768 14769 14770 14771 14772 14773 14774 14775 14776 14777 14778 14779 14780 14781 14782 14783 14784 14785 14786 14787 14788 14789 14790 14791 14792 14793 14794 14795 14796 14797 14798 14799 14800 14801 14802 14803 14804 14805 14806 14807 14808 14809 14810 14811 14812 14813 14814 14815 14816 14817 14818 14819 14820 14821 14822 14823 14824 14825 14826 14827 14828 14829 14830 14831 14832 14833 14834 14835 14836 14837 14838 14839 14840 14841 14842 14843 14844 14845 14846 14847 14848 14849 14850 14851 14852 14853 14854 14855 14856 14857 14858 14859 14860 14861 14862 14863 14864 14865 14866 14867 14868 14869 14870 14871 14872 14873 14874 14875 14876 14877 14878 14879 14880 14881 14882 14883 14884 14885 14886 14887 14888 14889 14890 14891 14892 14893 14894 14895 14896 14897 14898 14899 14900 14901 14902 14903 14904 14905 14906 14907 14908 14909 14910 14911 14912 14913 14914 14915 14916 14917 14918 14919 14920 14921 14922 14923 14924 14925 14926 14927 14928 14929 14930 14931 14932 14933 14934 14935 14936 14937 14938 14939 14940 14941 14942 14943 14944 14945 14946 14947 14948 14949 14950 14951 14952 14953 14954 14955 14956 14957 14958 14959 14960 14961 14962 14963 14964 14965 14966 14967 14968 14969 14970 14971 14972 14973 14974 14975 14976 14977 14978 14979 14980 14981 14982 14983 14984 14985 14986 14987 14988 14989 14990 14991 14992 14993 14994 14995 14996 14997 14998 14999 15000 15001 15002 15003 15004 15005 15006 15007 15008 15009 15010 15011 15012 15013 15014 15015 15016 15017 15018 15019 15020 15021 15022 15023 15024 15025 15026 15027 15028 15029 15030 15031 15032 15033 15034 15035 15036 15037 15038 15039 15040 15041 15042 15043 15044 15045 15046 15047 15048 15049 15050 15051 15052 15053 15054 15055 15056 15057 15058 15059 15060 15061 15062 15063 15064 15065 15066 15067 15068 15069 15070 15071 15072 15073 15074 15075 15076 15077 15078 15079 15080 15081 15082 15083 15084 15085 15086 15087 15088 15089 15090 15091 15092 15093 15094 15095 15096 15097 15098 15099 15100 15101 15102 15103 15104 15105 15106 15107 15108 15109 15110 15111 15112 15113 15114 15115 15116 15117 15118 15119 15120 15121 15122 15123 15124 15125 15126 15127 15128 15129 15130 15131 15132 15133 15134 15135 15136 15137 15138 15139 15140 15141 15142 15143 15144 15145 15146 15147 15148 15149 15150 15151 15152 15153 15154 15155 15156 15157 15158 15159 15160 15161 15162 15163 15164 15165 15166 15167 15168 15169 15170 15171 15172 15173 15174 15175 15176 15177 15178 15179 15180 15181 15182 15183 15184 15185 15186 15187 15188 15189 15190 15191 15192 15193 15194 15195 15196 15197 15198 15199 15200 15201 15202 15203 15204 15205 15206 15207 15208 15209 15210 15211 15212 15213 15214 15215 15216 15217 15218 15219 15220 15221 15222 15223 15224 15225 15226 15227 15228 15229 15230 15231 15232 15233 15234 15235 15236 15237 15238 15239 15240 15241 15242 15243 15244 15245 15246 15247 15248 15249 15250 15251 15252 15253 15254 15255 15256 15257 15258 15259 15260 15261 15262 15263 15264 15265 15266 15267 15268 15269 15270 15271 15272 15273 15274 15275 15276 15277 15278 15279 15280 15281 15282 15283 15284 15285 15286 15287 15288 15289 15290 15291 15292 15293 15294 15295 15296 15297 15298 15299 15300 15301 15302 15303 15304 15305 15306 15307 15308 15309 15310 15311 15312 15313 15314 15315 15316 15317 15318 15319 15320 15321 15322 15323 15324 15325 15326 15327 15328 15329 15330 15331 15332 15333 15334 15335 15336 15337 15338 15339 15340 15341 15342 15343 15344 15345 15346 15347 15348 15349 15350 15351 15352 15353 15354 15355 15356 15357 15358 15359 15360 15361 15362 15363 15364 15365 15366 15367 15368 15369 15370 15371 15372 15373 15374 15375 15376 15377 15378 15379 15380 15381 15382 15383 15384 15385 15386 15387 15388 15389 15390 15391 15392 15393 15394 15395 15396 15397 15398 15399 15400 15401 15402 15403 15404 15405 15406 15407 15408 15409 15410 15411 15412 15413 15414 15415 15416 15417 15418 15419 15420 15421 15422 15423 15424 15425 15426 15427 15428 15429 15430 15431 15432 15433 15434 15435 15436 15437 15438 15439 15440 15441 15442 15443 15444 15445 15446 15447 15448 15449 15450 15451 15452 15453 15454 15455 15456 15457 15458 15459 15460 15461 15462 15463 15464 15465 15466 15467 15468 15469 15470 15471 15472 15473 15474 15475 15476 15477 15478 15479 15480 15481 15482 15483 15484 15485 15486 15487 15488 15489 15490 15491 15492 15493 15494 15495 15496 15497 15498 15499 15500 15501 15502 15503 15504 15505 15506 15507 15508 15509 15510 15511 15512 15513 15514 15515 15516 15517 15518 15519 15520 15521 15522 15523 15524 15525 15526 15527 15528 15529 15530 15531 15532 15533 15534 15535 15536 15537 15538 15539 15540 15541 15542 15543 15544 15545 15546 15547 15548 15549 15550 15551 15552 15553 15554 15555 15556 15557 15558 15559 15560 15561 15562 15563 15564 15565 15566 15567 15568 15569 15570 15571 15572 15573 15574 15575 15576 15577 15578 15579 15580 15581 15582 15583 15584 15585 15586 15587 15588 15589 15590 15591 15592 15593 15594 15595 15596 15597 15598 15599 15600 15601 15602 15603 15604 15605 15606 15607 15608 15609 15610 15611 15612 15613 15614 15615 15616 15617 15618 15619 15620 15621 15622 15623 15624 15625 15626 15627 15628 15629 15630 15631 15632 15633 15634 15635 15636 15637 15638 15639 15640 15641 15642 15643 15644 15645 15646 15647 15648 15649 15650 15651 15652 15653 15654 15655 15656 15657 15658 15659 15660 15661 15662 15663 15664 15665 15666 15667 15668 15669 15670 15671 15672 15673 15674 15675 15676 15677 15678 15679 15680 15681 15682 15683 15684 15685 15686 15687 15688 15689 15690 15691 15692 15693 15694 15695 15696 15697 15698 15699 15700 15701 15702 15703 15704 15705 15706 15707 15708 15709 15710 15711 15712 15713 15714 15715 15716 15717 15718 15719 15720 15721 15722 15723 15724 15725 15726 15727 15728 15729 15730 15731 15732 15733 15734 15735 15736 15737 15738 15739 15740 15741 15742 15743 15744 15745 15746 15747 15748 15749 15750 15751 15752 15753 15754 15755 15756 15757 15758 15759 15760 15761 15762 15763 15764 15765 15766 15767 15768 15769 15770 15771 15772 15773 15774 15775 15776 15777 15778 15779 15780 15781 15782 15783 15784 15785 15786 15787 15788 15789 15790 15791 15792 15793 15794 15795 15796 15797 15798 15799 15800 15801 15802 15803 15804 15805 15806 15807 15808 15809 15810 15811 15812 15813 15814 15815 15816 15817 15818 15819 15820 15821 15822 15823 15824 15825 15826 15827 15828 15829 15830 15831 15832 15833 15834 15835 15836 15837 15838 15839 15840 15841 15842 15843 15844 15845 15846 15847 15848 15849 15850 15851 15852 15853 15854 15855 15856 15857 15858 15859 15860 15861 15862 15863 15864 15865 15866 15867 15868 15869 15870 15871 15872 15873 15874 15875 15876 15877 15878 15879 15880 15881 15882 15883 15884 15885 15886 15887 15888 15889 15890 15891 15892 15893 15894 15895 15896 15897 15898 15899 15900 15901 15902 15903 15904 15905 15906 15907 15908 15909 15910 15911 15912 15913 15914 15915 15916 15917 15918 15919 15920 15921 15922 15923 15924 15925 15926 15927 15928 15929 15930 15931 15932 15933 15934 15935 15936 15937 15938 15939 15940 15941 15942 15943 15944 15945 15946 15947 15948 15949 15950 15951 15952 15953 15954 15955 15956 15957 15958 15959 15960 15961 15962 15963 15964 15965 15966 15967 15968 15969 15970 15971 15972 15973 15974 15975 15976 15977 15978 15979 15980 15981 15982 15983 15984 15985 15986 15987 15988 15989 15990 15991 15992 15993 15994 15995 15996 15997 15998 15999 16000 16001 16002 16003 16004 16005 16006 16007 16008 16009 16010 16011 16012 16013 16014 16015 16016 16017 16018 16019 16020 16021 16022 16023 16024 16025 16026 16027 16028 16029 16030 16031 16032 16033 16034 16035 16036 16037 16038 16039 16040 16041 16042 16043 16044 16045 16046 16047 16048 16049 16050 16051 16052 16053 16054 16055 16056 16057 16058 16059 16060 16061 16062 16063 16064 16065 16066 16067 16068 16069 16070 16071 16072 16073 16074 16075 16076 16077 16078 16079 16080 16081 16082 16083 16084 16085 16086 16087 16088 16089 16090 16091 16092 16093 16094 16095 16096 16097 16098 16099 16100 16101 16102 16103 16104 16105 16106 16107 16108 16109 16110 16111 16112 16113 16114 16115 16116 16117 16118 16119 16120 16121 16122 16123 16124 16125 16126 16127 16128 16129 16130 16131 16132 16133 16134 16135 16136 16137 16138 16139 16140 16141 16142 16143 16144 16145 16146 16147 16148 16149 16150 16151 16152 16153 16154 16155 16156 16157 16158 16159 16160 16161 16162 16163 16164 16165 16166 16167 16168 16169 16170 16171 16172 16173 16174 16175 16176 16177 16178 16179 16180 16181 16182 16183 16184 16185 16186 16187 16188 16189 16190 16191 16192 16193 16194 16195 16196 16197 16198 16199 16200 16201 16202 16203 16204 16205 16206 16207 16208 16209 16210 16211 16212 16213 16214 16215 16216 16217 16218 16219 16220 16221 16222 16223 16224 16225 16226 16227 16228 16229 16230 16231 16232 16233 16234 16235 16236 16237 16238 16239 16240 16241 16242 16243 16244 16245 16246 16247 16248 16249 16250 16251 16252 16253 16254 16255 16256 16257 16258 16259 16260 16261 16262 16263 16264 16265 16266 16267 16268 16269 16270 16271 16272 16273 16274 16275 16276 16277 16278 16279 16280 16281 16282 16283 16284 16285 16286 16287 16288 16289 16290 16291 16292 16293 16294 16295 16296 16297 16298 16299 16300 16301 16302 16303 16304 16305 16306 16307 16308 16309 16310 16311 16312 16313 16314 16315 16316 16317 16318 16319 16320 16321 16322 16323 16324 16325 16326 16327 16328 16329 16330 16331 16332 16333 16334 16335 16336 16337 16338 16339 16340 16341 16342 16343 16344 16345 16346 16347 16348 16349 16350 16351 16352 16353 16354 16355 16356 16357 16358 16359 16360 16361 16362 16363 16364 16365 16366 16367 16368 16369 16370 16371 16372 16373 16374 16375 16376 16377 16378 16379 16380 16381 16382 16383 16384 16385 16386 16387 16388 16389 16390 16391 16392 16393 16394 16395 16396 16397 16398 16399 16400 16401 16402 16403 16404 16405 16406 16407 16408 16409 16410 16411 16412 16413 16414 16415 16416 16417 16418 16419 16420 16421 16422 16423 16424 16425 16426 16427 16428 16429 16430 16431 16432 16433 16434 16435 16436 16437 16438 16439 16440 16441 16442 16443 16444 16445 16446 16447 16448 16449 16450 16451 16452 16453 16454 16455 16456 16457 16458 16459 16460 16461 16462 16463 16464 16465 16466 16467 16468 16469 16470 16471 16472 16473 16474 16475 16476 16477 16478 16479 16480 16481 16482 16483 16484 16485 16486 16487 16488 16489 16490 16491 16492 16493 16494 16495 16496 16497 16498 16499 16500 16501 16502 16503 16504 16505 16506 16507 16508 16509 16510 16511 16512 16513 16514 16515 16516 16517 16518 16519 16520 16521 16522 16523 16524 16525 16526 16527 16528 16529 16530 16531 16532 16533 16534 16535 16536 16537 16538 16539 16540 16541 16542 16543 16544 16545 16546 16547 16548 16549 16550 16551 16552 16553 16554 16555 16556 16557 16558 16559 16560 16561 16562 16563 16564 16565 16566 16567 16568 16569 16570 16571 16572 16573 16574 16575 16576 16577 16578 16579 16580 16581 16582 16583 16584 16585 16586 16587 16588 16589 16590 16591 16592 16593 16594 16595 16596 16597 16598 16599 16600 16601 16602 16603 16604 16605 16606 16607 16608 16609 16610 16611 16612 16613 16614 16615 16616 16617 16618 16619 16620 16621 16622 16623 16624 16625 16626 16627 16628 16629 16630 16631 16632 16633 16634 16635 16636 16637 16638 16639 16640 16641 16642 16643 16644 16645 16646 16647 16648 16649 16650 16651 16652 16653 16654 16655 16656 16657 16658 16659 16660 16661 16662 16663 16664 16665 16666 16667 16668 16669 16670 16671 16672 16673 16674 16675 16676 16677 16678 16679 16680 16681 16682 16683 16684 16685 16686 16687 16688 16689 16690 16691 16692 16693 16694 16695 16696 16697 16698 16699 16700 16701 16702 16703 16704 16705 16706 16707 16708 16709 16710 16711 16712 16713 16714 16715 16716 16717 16718 16719 16720 16721 16722 16723 16724 16725 16726 16727 16728 16729 16730 16731 16732 16733 16734 16735 16736 16737 16738 16739 16740 16741 16742 16743 16744 16745 16746 16747 16748 16749 16750 16751 16752 16753 16754 16755 16756 16757 16758 16759 16760 16761 16762 16763 16764 16765 16766 16767 16768 16769 16770 16771 16772 16773 16774 16775 16776 16777 16778 16779 16780 16781 16782 16783 16784 16785 16786 16787 16788 16789 16790 16791 16792 16793 16794 16795 16796 16797 16798 16799 16800 16801 16802 16803 16804 16805 16806 16807 16808 16809 16810 16811 16812 16813 16814 16815 16816 16817 16818 16819 16820 16821 16822 16823 16824 16825 16826 16827 16828 16829 16830 16831 16832 16833 16834 16835 16836 16837 16838 16839 16840 16841 16842 16843 16844 16845 16846 16847 16848 16849 16850 16851 16852 16853 16854 16855 16856 16857 16858 16859 16860 16861 16862 16863 16864 16865 16866 16867 16868 16869 16870 16871 16872 16873 16874 16875 16876 16877 16878 16879 16880 16881 16882 16883 16884 16885 16886 16887 16888 16889 16890 16891 16892 16893 16894 16895 16896 16897 16898 16899 16900 16901 16902 16903 16904 16905 16906 16907 16908 16909 16910 16911 16912 16913 16914 16915 16916 16917 16918 16919 16920 16921 16922 16923 16924 16925 16926 16927 16928 16929 16930 16931 16932 16933 16934 16935 16936 16937 16938 16939 16940 16941 16942 16943 16944 16945 16946 16947 16948 16949 16950 16951 16952 16953 16954 16955 16956 16957 16958 16959 16960 16961 16962 16963 16964 16965 16966 16967 16968 16969 16970 16971 16972 16973 16974 16975 16976 16977 16978 16979 16980 16981 16982 16983 16984 16985 16986 16987 16988 16989 16990 16991 16992 16993 16994 16995 16996 16997 16998 16999 17000 17001 17002 17003 17004 17005 17006 17007 17008 17009 17010 17011 17012 17013 17014 17015 17016 17017 17018 17019 17020 17021 17022 17023 17024 17025 17026 17027 17028 17029 17030 17031 17032 17033 17034 17035 17036 17037 17038 17039 17040 17041 17042 17043 17044 17045 17046 17047 17048 17049 17050 17051 17052 17053 17054 17055 17056 17057 17058 17059 17060 17061 17062 17063 17064 17065 17066 17067 17068 17069 17070 17071 17072 17073 17074 17075 17076 17077 17078 17079 17080 17081 17082 17083 17084 17085 17086 17087 17088 17089 17090 17091 17092 17093 17094 17095 17096 17097 17098 17099 17100 17101 17102 17103 17104 17105 17106 17107 17108 17109 17110 17111 17112 17113 17114 17115 17116 17117 17118 17119 17120 17121 17122 17123 17124 17125 17126 17127 17128 17129 17130 17131 17132 17133 17134 17135 17136 17137 17138 17139 17140 17141 17142 17143 17144 17145 17146 17147 17148 17149 17150 17151 17152 17153 17154 17155 17156 17157 17158 17159 17160 17161 17162 17163 17164 17165 17166 17167 17168 17169 17170 17171 17172 17173 17174 17175 17176 17177 17178 17179 17180 17181 17182 17183 17184 17185 17186 17187 17188 17189 17190 17191 17192 17193 17194 17195 17196 17197 17198 17199 17200 17201 17202 17203 17204 17205 17206 17207 17208 17209 17210 17211 17212 17213 17214 17215 17216 17217 17218 17219 17220 17221 17222 17223 17224 17225 17226 17227 17228 17229 17230 17231 17232 17233 17234 17235 17236 17237 17238 17239 17240 17241 17242 17243 17244 17245 17246 17247 17248 17249 17250 17251 17252 17253 17254 17255 17256 17257 17258 17259 17260 17261 17262 17263 17264 17265 17266 17267 17268 17269 17270 17271 17272 17273 17274 17275 17276 17277 17278 17279 17280 17281 17282 17283 17284 17285 17286 17287 17288 17289 17290 17291 17292 17293 17294 17295 17296 17297 17298 17299 17300 17301 17302 17303 17304 17305 17306 17307 17308 17309 17310 17311 17312 17313 17314 17315 17316 17317 17318 17319 17320 17321 17322 17323 17324 17325 17326 17327 17328 17329 17330 17331 17332 17333 17334 17335 17336 17337 17338 17339 17340 17341 17342 17343 17344 17345 17346 17347 17348 17349 17350 17351 17352 17353 17354 17355 17356 17357 17358 17359 17360 17361 17362 17363 17364 17365 17366 17367 17368 17369 17370 17371 17372 17373 17374 17375 17376 17377 17378 17379 17380 17381 17382 17383 17384 17385 17386 17387 17388 17389 17390 17391 17392 17393 17394 17395 17396 17397 17398 17399 17400 17401 17402 17403 17404 17405 17406 17407 17408 17409 17410 17411 17412 17413 17414 17415 17416 17417 17418 17419 17420 17421 17422 17423 17424 17425 17426 17427 17428 17429 17430 17431 17432 17433 17434 17435 17436 17437 17438 17439 17440 17441 17442 17443 17444 17445 17446 17447 17448 17449 17450 17451 17452 17453 17454 17455 17456 17457 17458 17459 17460 17461 17462 17463 17464 17465 17466 17467 17468 17469 17470 17471 17472 17473 17474 17475 17476 17477 17478 17479 17480 17481 17482 17483 17484 17485 17486 17487 17488 17489 17490 17491 17492 17493 17494 17495 17496 17497 17498 17499 17500 17501 17502 17503 17504 17505 17506 17507 17508 17509 17510 17511 17512 17513 17514 17515 17516 17517 17518 17519 17520 17521 17522 17523 17524 17525 17526 17527 17528 17529 17530 17531 17532 17533 17534 17535 17536 17537 17538 17539 17540 17541 17542 17543 17544 17545 17546 17547 17548 17549 17550 17551 17552 17553 17554 17555 17556 17557 17558 17559 17560 17561 17562 17563 17564 17565 17566 17567 17568 17569 17570 17571 17572 17573 17574 17575 17576 17577 17578 17579 17580 17581 17582 17583 17584 17585 17586 17587 17588 17589 17590 17591 17592 17593 17594 17595 17596 17597 17598 17599 17600 17601 17602 17603 17604 17605 17606 17607 17608 17609 17610 17611 17612 17613 17614 17615 17616 17617 17618 17619 17620 17621 17622 17623 17624 17625 17626 17627 17628 17629 17630 17631 17632 17633 17634 17635 17636 17637 17638 17639 17640 17641 17642 17643 17644 17645 17646 17647 17648 17649 17650 17651 17652 17653 17654 17655 17656 17657 17658 17659 17660 17661 17662 17663 17664 17665 17666 17667 17668 17669 17670 17671 17672 17673 17674 17675 17676 17677 17678 17679 17680 17681 17682 17683 17684 17685 17686 17687 17688 17689 17690 17691 17692 17693 17694 17695 17696 17697 17698 17699 17700 17701 17702 17703 17704 17705 17706 17707 17708 17709 17710 17711 17712 17713 17714 17715 17716 17717 17718 17719 17720 17721 17722 17723 17724 17725 17726 17727 17728 17729 17730 17731 17732 17733 17734 17735 17736 17737 17738 17739 17740 17741 17742 17743 17744 17745 17746 17747 17748 17749 17750 17751 17752 17753 17754 17755 17756 17757 17758 17759 17760 17761 17762 17763 17764 17765 17766 17767 17768 17769 17770 17771 17772 17773 17774 17775 17776 17777 17778 17779 17780 17781 17782 17783 17784 17785 17786 17787 17788 17789 17790 17791 17792 17793 17794 17795 17796 17797 17798 17799 17800 17801 17802 17803 17804 17805 17806 17807 17808 17809 17810 17811 17812 17813 17814 17815 17816 17817 17818 17819 17820 17821 17822 17823 17824 17825 17826 17827 17828 17829 17830 17831 17832 17833 17834 17835 17836 17837 17838 17839 17840 17841 17842 17843 17844 17845 17846 17847 17848 17849 17850 17851 17852 17853 17854 17855 17856 17857 17858 17859 17860 17861 17862 17863 17864 17865 17866 17867 17868 17869 17870 17871 17872 17873 17874 17875 17876 17877 17878 17879 17880 17881 17882 17883 17884 17885 17886 17887 17888 17889 17890 17891 17892 17893 17894 17895 17896 17897 17898 17899 17900 17901 17902 17903 17904 17905 17906 17907 17908 17909 17910 17911 17912 17913 17914 17915 17916 17917 17918 17919 17920 17921 17922 17923 17924 17925 17926 17927 17928 17929 17930 17931 17932 17933 17934 17935 17936 17937 17938 17939 17940 17941 17942 17943 17944 17945 17946 17947 17948 17949 17950 17951 17952 17953 17954 17955 17956 17957 17958 17959 17960 17961 17962 17963 17964 17965 17966 17967 17968 17969 17970 17971 17972 17973 17974 17975 17976 17977 17978 17979 17980 17981 17982 17983 17984 17985 17986 17987 17988 17989 17990 17991 17992 17993 17994 17995 17996 17997 17998 17999 18000 18001 18002 18003 18004 18005 18006 18007 18008 18009 18010 18011 18012 18013 18014 18015 18016 18017 18018 18019 18020 18021 18022 18023 18024 18025 18026 18027 18028 18029 18030 18031 18032 18033 18034 18035 18036 18037 18038 18039 18040 18041 18042 18043 18044 18045 18046 18047 18048 18049 18050 18051 18052 18053 18054 18055 18056 18057 18058 18059 18060 18061 18062 18063 18064 18065 18066 18067 18068 18069 18070 18071 18072 18073 18074 18075 18076 18077 18078 18079 18080 18081 18082 18083 18084 18085 18086 18087 18088 18089 18090 18091 18092 18093 18094 18095 18096 18097 18098 18099 18100 18101 18102 18103 18104 18105 18106 18107 18108 18109 18110 18111 18112 18113 18114 18115 18116 18117 18118 18119 18120 18121 18122 18123 18124 18125 18126 18127 18128 18129 18130 18131 18132 18133 18134 18135 18136 18137 18138 18139 18140 18141 18142 18143 18144 18145 18146 18147 18148 18149 18150 18151 18152 18153 18154 18155 18156 18157 18158 18159 18160 18161 18162 18163 18164 18165 18166 18167 18168 18169 18170 18171 18172 18173 18174 18175 18176 18177 18178 18179 18180 18181 18182 18183 18184 18185 18186 18187 18188 18189 18190 18191 18192 18193 18194 18195 18196 18197 18198 18199 18200 18201 18202 18203 18204 18205 18206 18207 18208 18209 18210 18211 18212 18213 18214 18215 18216 18217 18218 18219 18220 18221 18222 18223 18224 18225 18226 18227 18228 18229 18230 18231 18232 18233 18234 18235 18236 18237 18238 18239 18240 18241 18242 18243 18244 18245 18246 18247 18248 18249 18250 18251 18252 18253 18254 18255 18256 18257 18258 18259 18260 18261 18262 18263 18264 18265 18266 18267 18268 18269 18270 18271 18272 18273 18274 18275 18276 18277 18278 18279 18280 18281 18282 18283 18284 18285 18286 18287 18288 18289 18290 18291 18292 18293 18294 18295 18296 18297 18298 18299 18300 18301 18302 18303 18304 18305 18306 18307 18308 18309 18310 18311 18312 18313 18314 18315 18316 18317 18318 18319 18320 18321 18322 18323 18324 18325 18326 18327 18328 18329 18330 18331 18332 18333 18334 18335 18336 18337 18338 18339 18340 18341 18342 18343 18344 18345 18346 18347 18348 18349 18350 18351 18352 18353 18354 18355 18356 18357 18358 18359 18360 18361 18362 18363 18364 18365 18366 18367 18368 18369 18370 18371 18372 18373 18374 18375 18376 18377 18378 18379 18380 18381 18382 18383 18384 18385 18386 18387 18388 18389 18390 18391 18392 18393 18394 18395 18396 18397 18398 18399 18400 18401 18402 18403 18404 18405 18406 18407 18408 18409 18410 18411 18412 18413 18414 18415 18416 18417 18418 18419 18420 18421 18422 18423 18424 18425 18426 18427 18428 18429 18430 18431 18432 18433 18434 18435 18436 18437 18438 18439 18440 18441 18442 18443 18444 18445 18446 18447 18448 18449 18450 18451 18452 18453 18454 18455 18456 18457 18458 18459 18460 18461 18462 18463 18464 18465 18466 18467 18468 18469 18470 18471 18472 18473 18474 18475 18476 18477 18478 18479 18480 18481 18482 18483 18484 18485 18486 18487 18488 18489 18490 18491 18492 18493 18494 18495 18496 18497 18498 18499 18500 18501 18502 18503 18504 18505 18506 18507 18508 18509 18510 18511 18512 18513 18514 18515 18516 18517 18518 18519 18520 18521 18522 18523 18524 18525 18526 18527 18528 18529 18530 18531 18532 18533 18534 18535 18536 18537 18538 18539 18540 18541 18542 18543 18544 18545 18546 18547 18548 18549 18550 18551 18552 18553 18554 18555 18556 18557 18558 18559 18560 18561 18562 18563 18564 18565 18566 18567 18568 18569 18570 18571 18572 18573 18574 18575 18576 18577 18578 18579 18580 18581 18582 18583 18584 18585 18586 18587 18588 18589 18590 18591 18592 18593 18594 18595 18596 18597 18598 18599 18600 18601 18602 18603 18604 18605 18606 18607 18608 18609 18610 18611 18612 18613 18614 18615 18616 18617 18618 18619 18620 18621 18622 18623 18624 18625 18626 18627 18628 18629 18630 18631 18632 18633 18634 18635 18636 18637 18638 18639 18640 18641 18642 18643 18644 18645 18646 18647 18648 18649 18650 18651 18652 18653 18654 18655 18656 18657 18658 18659 18660 18661 18662 18663 18664 18665 18666 18667 18668 18669 18670 18671 18672 18673 18674 18675 18676 18677 18678 18679 18680 18681 18682 18683 18684 18685 18686 18687 18688 18689 18690 18691 18692 18693 18694 18695 18696 18697 18698 18699 18700 18701 18702 18703 18704 18705 18706 18707 18708 18709 18710 18711 18712 18713 18714 18715 18716 18717 18718 18719 18720 18721 18722 18723 18724 18725 18726 18727 18728 18729 18730 18731 18732 18733 18734 18735 18736 18737 18738 18739 18740 18741 18742 18743 18744 18745 18746 18747 18748 18749 18750 18751 18752 18753 18754 18755 18756 18757 18758 18759 18760 18761 18762 18763 18764 18765 18766 18767 18768 18769 18770 18771 18772 18773 18774 18775 18776 18777 18778 18779 18780 18781 18782 18783 18784 18785 18786 18787 18788 18789 18790 18791 18792 18793 18794 18795 18796 18797 18798 18799 18800 18801 18802 18803 18804 18805 18806 18807 18808 18809 18810 18811 18812 18813 18814 18815 18816 18817 18818 18819 18820 18821 18822 18823 18824 18825 18826 18827 18828 18829 18830 18831 18832 18833 18834 18835 18836 18837 18838 18839 18840 18841 18842 18843 18844 18845 18846 18847 18848 18849 18850 18851 18852 18853 18854 18855 18856 18857 18858 18859 18860 18861 18862 18863 18864 18865 18866 18867 18868 18869 18870 18871 18872 18873 18874 18875 18876 18877 18878 18879 18880 18881 18882 18883 18884 18885 18886 18887 18888 18889 18890 18891 18892 18893 18894 18895 18896 18897 18898 18899 18900 18901 18902 18903 18904 18905 18906 18907 18908 18909 18910 18911 18912 18913 18914 18915 18916 18917 18918 18919 18920 18921 18922 18923 18924 18925 18926 18927 18928 18929 18930 18931 18932 18933 18934 18935 18936 18937 18938 18939 18940 18941 18942 18943 18944 18945 18946 18947 18948 18949 18950 18951 18952 18953 18954 18955 18956 18957 18958 18959 18960 18961 18962 18963 18964 18965 18966 18967 18968 18969 18970 18971 18972 18973 18974 18975 18976 18977 18978 18979 18980 18981 18982 18983 18984 18985 18986 18987 18988 18989 18990 18991 18992 18993 18994 18995 18996 18997 18998 18999 19000 19001 19002 19003 19004 19005 19006 19007 19008 19009 19010 19011 19012 19013 19014 19015 19016 19017 19018 19019 19020 19021 19022 19023 19024 19025 19026 19027 19028 19029 19030 19031 19032 19033 19034 19035 19036 19037 19038 19039 19040 19041 19042 19043 19044 19045 19046 19047 19048 19049 19050 19051 19052 19053 19054 19055 19056 19057 19058 19059 19060 19061 19062 19063 19064 19065 19066 19067 19068 19069 19070 19071 19072 19073 19074 19075 19076 19077 19078 19079 19080 19081 19082 19083 19084 19085 19086 19087 19088 19089 19090 19091 19092 19093 19094 19095 19096 19097 19098 19099 19100 19101 19102 19103 19104 19105 19106 19107 19108 19109 19110 19111 19112 19113 19114 19115 19116 19117 19118 19119 19120 19121 19122 19123 19124 19125 19126 19127 19128 19129 19130 19131 19132 19133 19134 19135 19136 19137 19138 19139 19140 19141 19142 19143 19144 19145 19146 19147 19148 19149 19150 19151 19152 19153 19154 19155 19156 19157 19158 19159 19160 19161 19162 19163 19164 19165 19166 19167 19168 19169 19170 19171 19172 19173 19174 19175 19176 19177 19178 19179 19180 19181 19182 19183 19184 19185 19186 19187 19188 19189 19190 19191 19192 19193 19194 19195 19196 19197 19198 19199 19200 19201 19202 19203 19204 19205 19206 19207 19208 19209 19210 19211 19212 19213 19214 19215 19216 19217 19218 19219 19220 19221 19222 19223 19224 19225 19226 19227 19228 19229 19230 19231 19232 19233 19234 19235 19236 19237 19238 19239 19240 19241 19242 19243 19244 19245 19246 19247 19248 19249 19250 19251 19252 19253 19254 19255 19256 19257 19258 19259 19260 19261 19262 19263 19264 19265 19266 19267 19268 19269 19270 19271 19272 19273 19274 19275 19276 19277 19278 19279 19280 19281 19282 19283 19284 19285 19286 19287 19288 19289 19290 19291 19292 19293 19294 19295 19296 19297 19298 19299 19300 19301 19302 19303 19304 19305 19306 19307 19308 19309 19310 19311 19312 19313 19314 19315 19316 19317 19318 19319 19320 19321 19322 19323 19324 19325 19326 19327 19328 19329 19330 19331 19332 19333 19334 19335 19336 19337 19338 19339 19340 19341 19342 19343 19344 19345 19346 19347 19348 19349 19350 19351 19352 19353 19354 19355 19356 19357 19358 19359 19360 19361 19362 19363 19364 19365 19366 19367 19368 19369 19370 19371 19372 19373 19374 19375 19376 19377 19378 19379 19380 19381 19382 19383 19384 19385 19386 19387 19388 19389 19390 19391 19392 19393 19394 19395 19396 19397 19398 19399 19400 19401 19402 19403 19404 19405 19406 19407 19408 19409 19410 19411 19412 19413 19414 19415 19416 19417 19418 19419 19420 19421 19422 19423 19424 19425 19426 19427 19428 19429 19430 19431 19432 19433 19434 19435 19436 19437 19438 19439 19440 19441 19442 19443 19444 19445 19446 19447 19448 19449 19450 19451 19452 19453 19454 19455 19456 19457 19458 19459 19460 19461 19462 19463 19464 19465 19466 19467 19468 19469 19470 19471 19472 19473 19474 19475 19476 19477 19478 19479 19480 19481 19482 19483 19484 19485 19486 19487 19488 19489 19490 19491 19492 19493 19494 19495 19496 19497 19498 19499 19500 19501 19502 19503 19504 19505 19506 19507 19508 19509 19510 19511 19512 19513 19514 19515 19516 19517 19518 19519 19520 19521 19522 19523 19524 19525 19526 19527 19528 19529 19530 19531 19532 19533 19534 19535 19536 19537 19538 19539 19540 19541 19542 19543 19544 19545 19546 19547 19548 19549 19550 19551 19552 19553 19554 19555 19556 19557 19558 19559 19560 19561 19562 19563 19564 19565 19566 19567 19568 19569 19570 19571 19572 19573 19574 19575 19576 19577 19578 19579 19580 19581 19582 19583 19584 19585 19586 19587 19588 19589 19590 19591 19592 19593 19594 19595 19596 19597 19598 19599 19600 19601 19602 19603 19604 19605 19606 19607 19608 19609 19610 19611 19612 19613 19614 19615 19616 19617 19618 19619 19620 19621 19622 19623 19624 19625 19626 19627 19628 19629 19630 19631 19632 19633 19634 19635 19636 19637 19638 19639 19640 19641 19642 19643 19644 19645 19646 19647 19648 19649 19650 19651 19652 19653 19654 19655 19656 19657 19658 19659 19660 19661 19662 19663 19664 19665 19666 19667 19668 19669 19670 19671 19672 19673 19674 19675 19676 19677 19678 19679 19680 19681 19682 19683 19684 19685 19686 19687 19688 19689 19690 19691 19692 19693 19694 19695 19696 19697 19698 19699 19700 19701 19702 19703 19704 19705 19706 19707 19708 19709 19710 19711 19712 19713 19714 19715 19716 19717 19718 19719 19720 19721 19722 19723 19724 19725 19726 19727 19728 19729 19730 19731 19732 19733 19734 19735 19736 19737 19738 19739 19740 19741 19742 19743 19744 19745 19746 19747 19748 19749 19750 19751 19752 19753 19754 19755 19756 19757 19758 19759 19760 19761 19762 19763 19764 19765 19766 19767 19768 19769 19770 19771 19772 19773 19774 19775 19776 19777 19778 19779 19780 19781 19782 19783 19784 19785 19786 19787 19788 19789 19790 19791 19792 19793 19794 19795 19796 19797 19798 19799 19800 19801 19802 19803 19804 19805 19806 19807 19808 19809 19810 19811 19812 19813 19814 19815 19816 19817 19818 19819 19820 19821 19822 19823 19824 19825 19826 19827 19828 19829 19830 19831 19832 19833 19834 19835 19836 19837 19838 19839 19840 19841 19842 19843 19844 19845 19846 19847 19848 19849 19850 19851 19852 19853 19854 19855 19856 19857 19858 19859 19860 19861 19862 19863 19864 19865 19866 19867 19868 19869 19870 19871 19872 19873 19874 19875 19876 19877 19878 19879 19880 19881 19882 19883 19884 19885 19886 19887 19888 19889 19890 19891 19892 19893 19894 19895 19896 19897 19898 19899 19900 19901 19902 19903 19904 19905 19906 19907 19908 19909 19910 19911 19912 19913 19914 19915 19916 19917 19918 19919 19920 19921 19922 19923 19924 19925 19926 19927 19928 19929 19930 19931 19932 19933 19934 19935 19936 19937 19938 19939 19940 19941 19942 19943 19944 19945 19946 19947 19948 19949 19950 19951 19952 19953 19954 19955 19956 19957 19958 19959 19960 19961 19962 19963 19964 19965 19966 19967 19968 19969 19970 19971 19972 19973 19974 19975 19976 19977 19978 19979 19980 19981 19982 19983 19984 19985 19986 19987 19988 19989 19990 19991 19992 19993 19994 19995 19996 19997 19998 19999 20000 20001 20002 20003 20004 20005 20006 20007 20008 20009 20010 20011 20012 20013 20014 20015 20016 20017 20018 20019 20020 20021 20022 20023 20024 20025 20026 20027 20028 20029 20030 20031 20032 20033 20034 20035 20036 20037 20038 20039 20040 20041 20042 20043 20044 20045 20046 20047 20048 20049 20050 20051 20052 20053 20054 20055 20056 20057 20058 20059 20060 20061 20062 20063 20064 20065 20066 20067 20068 20069 20070 20071 20072 20073 20074 20075 20076 20077 20078 20079 20080 20081 20082 20083 20084 20085 20086 20087 20088 20089 20090 20091 20092 20093 20094 20095 20096 20097 20098 20099 20100 20101 20102 20103 20104 20105 20106 20107 20108 20109 20110 20111 20112 20113 20114 20115 20116 20117 20118 20119 20120 20121 20122 20123 20124 20125 20126 20127 20128 20129 20130 20131 20132 20133 20134 20135 20136 20137 20138 20139 20140 20141 20142 20143 20144 20145 20146 20147 20148 20149 20150 20151 20152 20153 20154 20155 20156 20157 20158 20159 20160 20161 20162 20163 20164 20165 20166 20167 20168 20169 20170 20171 20172 20173 20174 20175 20176 20177 20178 20179 20180 20181 20182 20183 20184 20185 20186 20187 20188 20189 20190 20191 20192 20193 20194 20195 20196 20197 20198 20199 20200 20201 20202 20203 20204 20205 20206 20207 20208 20209 20210 20211 20212 20213 20214 20215 20216 20217 20218 20219 20220 20221 20222 20223 20224 20225 20226 20227 20228 20229 20230 20231 20232 20233 20234 20235 20236 20237 20238 20239 20240 20241 20242 20243 20244 20245 20246 20247 20248 20249 20250 20251 20252 20253 20254 20255 20256 20257 20258 20259 20260 20261 20262 20263 20264 20265 20266 20267 20268 20269 20270 20271 20272 20273 20274 20275 20276 20277 20278 20279 20280 20281 20282 20283 20284 20285 20286 20287 20288 20289 20290 20291 20292 20293 20294 20295 20296 20297 20298 20299 20300 20301 20302 20303 20304 20305 20306 20307 20308 20309 20310 20311 20312 20313 20314 20315 20316 20317 20318 20319 20320 20321 20322 20323 20324 20325 20326 20327 20328 20329 20330 20331 20332 20333 20334 20335 20336 20337 20338 20339 20340 20341 20342 20343 20344 20345 20346 20347 20348 20349 20350 20351 20352 20353 20354 20355 20356 20357 20358 20359 20360 20361 20362 20363 20364 20365 20366 20367 20368 20369 20370 20371 20372 20373 20374 20375 20376 20377 20378 20379 20380 20381 20382 20383 20384 20385 20386 20387 20388 20389 20390 20391 20392 20393 20394 20395 20396 20397 20398 20399 20400 20401 20402 20403 20404 20405 20406 20407 20408 20409 20410 20411 20412 20413 20414 20415 20416 20417 20418 20419 20420 20421 20422 20423 20424 20425 20426 20427 20428 20429 20430 20431 20432 20433 20434 20435 20436 20437 20438 20439 20440 20441 20442 20443 20444 20445 20446 20447 20448 20449 20450 20451 20452 20453 20454 20455 20456 20457 20458 20459 20460 20461 20462 20463 20464 20465 20466 20467 20468 20469 20470 20471 20472 20473 20474 20475 20476 20477 20478 20479 20480 20481 20482 20483 20484 20485 20486 20487 20488 20489 20490 20491 20492 20493 20494 20495 20496 20497 20498 20499 20500 20501 20502 20503 20504 20505 20506 20507 20508 20509 20510 20511 20512 20513 20514 20515 20516 20517 20518 20519 20520 20521 20522 20523 20524 20525 20526 20527 20528 20529 20530 20531 20532 20533 20534 20535 20536 20537 20538 20539 20540 20541 20542 20543 20544 20545 20546 20547 20548 20549 20550 20551 20552 20553 20554 20555 20556 20557 20558 20559 20560 20561 20562 20563 20564 20565 20566 20567 20568 20569 20570 20571 20572 20573 20574 20575 20576 20577 20578 20579 20580 20581 20582 20583 20584 20585 20586 20587 20588 20589 20590 20591 20592 20593 20594 20595 20596 20597 20598 20599 20600 20601 20602 20603 20604 20605 20606 20607 20608 20609 20610 20611 20612 20613 20614 20615 20616 20617 20618 20619 20620 20621 20622 20623 20624 20625 20626 20627 20628 20629 20630 20631 20632 20633 20634 20635 20636 20637 20638 20639 20640 20641 20642 20643 20644 20645 20646 20647 20648 20649 20650 20651 20652 20653 20654 20655 20656 20657 20658 20659 20660 20661 20662 20663 20664 20665 20666 20667 20668 20669 20670 20671 20672 20673 20674 20675 20676 20677 20678 20679 20680 20681 20682 20683 20684 20685 20686 20687 20688 20689 20690 20691 20692 20693 20694 20695 20696 20697 20698 20699 20700 20701 20702 20703 20704 20705 20706 20707 20708 20709 20710 20711 20712 20713 20714 20715 20716 20717 20718 20719 20720 20721 20722 20723 20724 20725 20726 20727 20728 20729 20730 20731 20732 20733 20734 20735 20736 20737 20738 20739 20740 20741 20742 20743 20744 20745 20746 20747 20748 20749 20750 20751 20752 20753 20754 20755 20756 20757 20758 20759 20760 20761 20762 20763 20764 20765 20766 20767 20768 20769 20770 20771 20772 20773 20774 20775 20776 20777 20778 20779 20780 20781 20782 20783 20784 20785 20786 20787 20788 20789 20790 20791 20792 20793 20794 20795 20796 20797 20798 20799 20800 20801 20802 20803 20804 20805 20806 20807 20808 20809 20810 20811 20812 20813 20814 20815 20816 20817 20818 20819 20820 20821 20822 20823 20824 20825 20826 20827 20828 20829 20830 20831 20832 20833 20834 20835 20836 20837 20838 20839 20840 20841 20842 20843 20844 20845 20846 20847 20848 20849 20850 20851 20852 20853 20854 20855 20856 20857 20858 20859 20860 20861 20862 20863 20864 20865 20866 20867 20868 20869 20870 20871 20872 20873 20874 20875 20876 20877 20878 20879 20880 20881 20882 20883 20884 20885 20886 20887 20888 20889 20890 20891 20892 20893 20894 20895 20896 20897 20898 20899 20900 20901 20902 20903 20904 20905 20906 20907 20908 20909 20910 20911 20912 20913 20914 20915 20916 20917 20918 20919 20920 20921 20922 20923 20924 20925 20926 20927 20928 20929 20930 20931 20932 20933 20934 20935 20936 20937 20938 20939 20940 20941 20942 20943 20944 20945 20946 20947 20948 20949 20950 20951 20952 20953 20954 20955 20956 20957 20958 20959 20960 20961 20962 20963 20964 20965 20966 20967 20968 20969 20970 20971 20972 20973 20974 20975 20976 20977 20978 20979 20980 20981 20982 20983 20984 20985 20986 20987 20988 20989 20990 20991 20992 20993 20994 20995 20996 20997 20998 20999 21000 21001 21002 21003 21004 21005 21006 21007 21008 21009 21010 21011 21012 21013 21014 21015 21016 21017 21018 21019 21020 21021 21022 21023 21024 21025 21026 21027 21028 21029 21030 21031 21032 21033 21034 21035 21036 21037 21038 21039 21040 21041 21042 21043 21044 21045 21046 21047 21048 21049 21050 21051 21052 21053 21054 21055 21056 21057 21058 21059 21060 21061 21062 21063 21064 21065 21066 21067 21068 21069 21070 21071 21072 21073 21074 21075 21076 21077 21078 21079 21080 21081 21082 21083 21084 21085 21086 21087 21088 21089 21090 21091 21092 21093 21094 21095 21096 21097 21098 21099 21100 21101 21102 21103 21104 21105 21106 21107 21108 21109 21110 21111 21112 21113 21114 21115 21116 21117 21118 21119 21120 21121 21122 21123 21124 21125 21126 21127 21128 21129 21130 21131 21132 21133 21134 21135 21136 21137 21138 21139 21140 21141 21142 21143 21144 21145 21146 21147 21148 21149 21150 21151 21152 21153 21154 21155 21156 21157 21158 21159 21160 21161 21162 21163 21164 21165 21166 21167 21168 21169 21170 21171 21172 21173 21174 21175 21176 21177 21178 21179 21180 21181 21182 21183 21184 21185 21186 21187 21188 21189 21190 21191 21192 21193 21194 21195 21196 21197 21198 21199 21200 21201 21202 21203 21204 21205 21206 21207 21208 21209 21210 21211 21212 21213 21214 21215 21216 21217 21218 21219 21220 21221 21222 21223 21224 21225 21226 21227 21228 21229 21230 21231 21232 21233 21234 21235 21236 21237 21238 21239 21240 21241 21242 21243 21244 21245 21246 21247 21248 21249 21250 21251 21252 21253 21254 21255 21256 21257 21258 21259 21260 21261 21262 21263 21264 21265 21266 21267 21268 21269 21270 21271 21272 21273 21274 21275 21276 21277 21278 21279 21280 21281 21282 21283 21284 21285 21286 21287 21288 21289 21290 21291 21292 21293 21294 21295 21296 21297 21298 21299 21300 21301 21302 21303 21304 21305 21306 21307 21308 21309 21310 21311 21312 21313 21314 21315 21316 21317 21318 21319 21320 21321 21322 21323 21324 21325 21326 21327 21328 21329 21330 21331 21332 21333 21334 21335 21336 21337 21338 21339 21340 21341 21342 21343 21344 21345 21346 21347 21348 21349 21350 21351 21352 21353 21354 21355 21356 21357 21358 21359 21360 21361 21362 21363 21364 21365 21366 21367 21368 21369 21370 21371 21372 21373 21374 21375 21376 21377 21378 21379 21380 21381 21382 21383 21384 21385 21386 21387 21388 21389 21390 21391 21392 21393 21394 21395 21396 21397 21398 21399 21400 21401 21402 21403 21404 21405 21406 21407 21408 21409 21410 21411 21412 21413 21414 21415 21416 21417 21418 21419 21420 21421 21422 21423 21424 21425 21426 21427 21428 21429 21430 21431 21432 21433 21434 21435 21436 21437 21438 21439 21440 21441 21442 21443 21444 21445 21446 21447 21448 21449 21450 21451 21452 21453 21454 21455 21456 21457 21458 21459 21460 21461 21462 21463 21464 21465 21466 21467 21468 21469 21470 21471 21472 21473 21474 21475 21476 21477 21478 21479 21480 21481 21482 21483 21484 21485 21486 21487 21488 21489 21490 21491 21492 21493 21494 21495 21496 21497 21498 21499 21500 21501 21502 21503 21504 21505 21506 21507 21508 21509 21510 21511 21512 21513 21514 21515 21516 21517 21518 21519 21520 21521 21522 21523 21524 21525 21526 21527 21528 21529 21530 21531 21532 21533 21534 21535 21536 21537 21538 21539 21540 21541 21542 21543 21544 21545 21546 21547 21548 21549 21550 21551 21552 21553 21554 21555 21556 21557 21558 21559 21560 21561 21562 21563 21564 21565 21566 21567 21568 21569 21570 21571 21572 21573 21574 21575 21576 21577 21578 21579 21580 21581 21582 21583 21584 21585 21586 21587 21588 21589 21590 21591 21592 21593 21594 21595 21596 21597 21598 21599 21600 21601 21602 21603 21604 21605 21606 21607 21608 21609 21610 21611 21612 21613 21614 21615 21616 21617 21618 21619 21620 21621 21622 21623 21624 21625 21626 21627 21628 21629 21630 21631 21632 21633 21634 21635 21636 21637 21638 21639 21640 21641 21642 21643 21644 21645 21646 21647 21648 21649 21650 21651 21652 21653 21654 21655 21656 21657 21658 21659 21660 21661 21662 21663 21664 21665 21666 21667 21668 21669 21670 21671 21672 21673 21674 21675 21676 21677 21678 21679 21680 21681 21682 21683 21684 21685 21686 21687 21688 21689 21690 21691 21692 21693 21694 21695 21696 21697 21698 21699 21700 21701 21702 21703 21704 21705 21706 21707 21708 21709 21710 21711 21712 21713 21714 21715 21716 21717 21718 21719 21720 21721 21722 21723 21724 21725 21726 21727 21728 21729 21730 21731 21732 21733 21734 21735 21736 21737 21738 21739 21740 21741 21742 21743 21744 21745 21746 21747 21748 21749 21750 21751 21752 21753 21754 21755 21756 21757 21758 21759 21760 21761 21762 21763 21764 21765 21766 21767 21768 21769 21770 21771 21772 21773 21774 21775 21776 21777 21778 21779 21780 21781 21782 21783 21784 21785 21786 21787 21788 21789 21790 21791 21792 21793 21794 21795 21796 21797 21798 21799 21800 21801 21802 21803 21804 21805 21806 21807 21808 21809 21810 21811 21812 21813 21814 21815 21816 21817 21818 21819 21820 21821 21822 21823 21824 21825 21826 21827 21828 21829 21830 21831 21832 21833 21834 21835 21836 21837 21838 21839 21840 21841 21842 21843 21844 21845 21846 21847 21848 21849 21850 21851 21852 21853 21854 21855 21856 21857 21858 21859 21860 21861 21862 21863 21864 21865 21866 21867 21868 21869 21870 21871 21872 21873 21874 21875 21876 21877 21878 21879 21880 21881 21882 21883 21884 21885 21886 21887 21888 21889 21890 21891 21892 21893 21894 21895 21896 21897 21898 21899 21900 21901 21902 21903 21904 21905 21906 21907 21908 21909 21910 21911 21912 21913 21914 21915 21916 21917 21918 21919 21920 21921 21922 21923 21924 21925 21926 21927 21928 21929 21930 21931 21932 21933 21934 21935 21936 21937 21938 21939 21940 21941 21942 21943 21944 21945 21946 21947 21948 21949 21950 21951 21952 21953 21954 21955 21956 21957 21958 21959 21960 21961 21962 21963 21964 21965 21966 21967 21968 21969 21970 21971 21972 21973 21974 21975 21976 21977 21978 21979 21980 21981 21982 21983 21984 21985 21986 21987 21988 21989 21990 21991 21992 21993 21994 21995 21996 21997 21998 21999 22000 22001 22002 22003 22004 22005 22006 22007 22008 22009 22010 22011 22012 22013 22014 22015 22016 22017 22018 22019 22020 22021 22022 22023 22024 22025 22026 22027 22028 22029 22030 22031 22032 22033 22034 22035 22036 22037 22038 22039 22040 22041 22042 22043 22044 22045 22046 22047 22048 22049 22050 22051 22052 22053 22054 22055 22056 22057 22058 22059 22060 22061 22062 22063 22064 22065 22066 22067 22068 22069 22070 22071 22072 22073 22074 22075 22076 22077 22078 22079 22080 22081 22082 22083 22084 22085 22086 22087 22088 22089 22090 22091 22092 22093 22094 22095 22096 22097 22098 22099 22100 22101 22102 22103 22104 22105 22106 22107 22108 22109 22110 22111 22112 22113 22114 22115 22116 22117 22118 22119 22120 22121 22122 22123 22124 22125 22126 22127 22128 22129 22130 22131 22132 22133 22134 22135 22136 22137 22138 22139 22140 22141 22142 22143 22144 22145 22146 22147 22148 22149 22150 22151 22152 22153 22154 22155 22156 22157 22158 22159 22160 22161 22162 22163 22164 22165 22166 22167 22168 22169 22170 22171 22172 22173 22174 22175 22176 22177 22178 22179 22180 22181 22182 22183 22184 22185 22186 22187 22188 22189 22190 22191 22192 22193 22194 22195 22196 22197 22198 22199 22200 22201 22202 22203 22204 22205 22206 22207 22208 22209 22210 22211 22212 22213 22214 22215 22216 22217 22218 22219 22220 22221 22222 22223 22224 22225 22226 22227 22228 22229 22230 22231 22232 22233 22234 22235 22236 22237 22238 22239 22240 22241 22242 22243 22244 22245 22246 22247 22248 22249 22250 22251 22252 22253 22254 22255 22256 22257 22258 22259 22260 22261 22262 22263 22264 22265 22266 22267 22268 22269 22270 22271 22272 22273 22274 22275 22276 22277 22278 22279 22280 22281 22282 22283 22284 22285 22286 22287 22288 22289 22290 22291 22292 22293 22294 22295 22296 22297 22298 22299 22300 22301 22302 22303 22304 22305 22306 22307 22308 22309 22310 22311 22312 22313 22314 22315 22316 22317 22318 22319 22320 22321 22322 22323 22324 22325 22326 22327 22328 22329 22330 22331 22332 22333 22334 22335 22336 22337 22338 22339 22340 22341 22342 22343 22344 22345 22346 22347 22348 22349 22350 22351 22352 22353 22354 22355 22356 22357 22358 22359 22360 22361 22362 22363 22364 22365 22366 22367 22368 22369 22370 22371 22372 22373 22374 22375 22376 22377 22378 22379 22380 22381 22382 22383 22384 22385 22386 22387 22388 22389 22390 22391 22392 22393 22394 22395 22396 22397 22398 22399 22400 22401 22402 22403 22404 22405 22406 22407 22408 22409 22410 22411 22412 22413 22414 22415 22416 22417 22418 22419 22420 22421 22422 22423 22424 22425 22426 22427 22428 22429 22430 22431 22432 22433 22434 22435 22436 22437 22438 22439 22440 22441 22442 22443 22444 22445 22446 22447 22448 22449 22450 22451 22452 22453 22454 22455 22456 22457 22458 22459 22460 22461 22462 22463 22464 22465 22466 22467 22468 22469 22470 22471 22472 22473 22474 22475 22476 22477 22478 22479 22480 22481 22482 22483 22484 22485 22486 22487 22488 22489 22490 22491 22492 22493 22494 22495 22496 22497 22498 22499 22500 22501 22502 22503 22504 22505 22506 22507 22508 22509 22510 22511 22512 22513 22514 22515 22516 22517 22518 22519 22520 22521 22522 22523 22524 22525 22526 22527 22528 22529 22530 22531 22532 22533 22534 22535 22536 22537 22538 22539 22540 22541 22542 22543 22544 22545 22546 22547 22548 22549 22550 22551 22552 22553 22554 22555 22556 22557 22558 22559 22560 22561 22562 22563 22564 22565 22566 22567 22568 22569 22570 22571 22572 22573 22574 22575 22576 22577 22578 22579 22580 22581 22582 22583 22584 22585 22586 22587 22588 22589 22590 22591 22592 22593 22594 22595 22596 22597 22598 22599 22600 22601 22602 22603 22604 22605 22606 22607 22608 22609 22610 22611 22612 22613 22614 22615 22616 22617 22618 22619 22620 22621 22622 22623 22624 22625 22626 22627 22628 22629 22630 22631 22632 22633 22634 22635 22636 22637 22638 22639 22640 22641 22642 22643 22644 22645 22646 22647 22648 22649 22650 22651 22652 22653 22654 22655 22656 22657 22658 22659 22660 22661 22662 22663 22664 22665 22666 22667 22668 22669 22670 22671 22672 22673 22674 22675 22676 22677 22678 22679 22680 22681 22682 22683 22684 22685 22686 22687 22688 22689 22690 22691 22692 22693 22694 22695 22696 22697 22698 22699 22700 22701 22702 22703 22704 22705 22706 22707 22708 22709 22710 22711 22712 22713 22714 22715 22716 22717 22718 22719 22720 22721 22722 22723 22724 22725 22726 22727 22728 22729 22730 22731 22732 22733 22734 22735 22736 22737 22738 22739 22740 22741 22742 22743 22744 22745 22746 22747 22748 22749 22750 22751 22752 22753 22754 22755 22756 22757 22758 22759 22760 22761 22762 22763 22764 22765 22766 22767 22768 22769 22770 22771 22772 22773 22774 22775 22776 22777 22778 22779 22780 22781 22782 22783 22784 22785 22786 22787 22788 22789 22790 22791 22792 22793 22794 22795 22796 22797 22798 22799 22800 22801 22802 22803 22804 22805 22806 22807 22808 22809 22810 22811 22812 22813 22814 22815 22816 22817 22818 22819 22820 22821 22822 22823 22824 22825 22826 22827 22828 22829 22830 22831 22832 22833 22834 22835 22836 22837 22838 22839 22840 22841 22842 22843 22844 22845 22846 22847 22848 22849 22850 22851 22852 22853 22854 22855 22856 22857 22858 22859 22860 22861 22862 22863 22864 22865 22866 22867 22868 22869 22870 22871 22872 22873 22874 22875 22876 22877 22878 22879 22880 22881 22882 22883 22884 22885 22886 22887 22888 22889 22890 22891 22892 22893 22894 22895 22896 22897 22898 22899 22900 22901 22902 22903 22904 22905 22906 22907 22908 22909 22910 22911 22912 22913 22914 22915 22916 22917 22918 22919 22920 22921 22922 22923 22924 22925 22926 22927 22928 22929 22930 22931 22932 22933 22934 22935 22936 22937 22938 22939 22940 22941 22942 22943 22944 22945 22946 22947 22948 22949 22950 22951 22952 22953 22954 22955 22956 22957 22958 22959 22960 22961 22962 22963 22964 22965 22966 22967 22968 22969 22970 22971 22972 22973 22974 22975 22976 22977 22978 22979 22980 22981 22982 22983 22984 22985 22986 22987 22988 22989 22990 22991 22992 22993 22994 22995 22996 22997 22998 22999 23000 23001 23002 23003 23004 23005 23006 23007 23008 23009 23010 23011 23012 23013 23014 23015 23016 23017 23018 23019 23020 23021 23022 23023 23024 23025 23026 23027 23028 23029 23030 23031 23032 23033 23034 23035 23036 23037 23038 23039 23040 23041 23042 23043 23044 23045 23046 23047 23048 23049 23050 23051 23052 23053 23054 23055 23056 23057 23058 23059 23060 23061 23062 23063 23064 23065 23066 23067 23068 23069 23070 23071 23072 23073 23074 23075 23076 23077 23078 23079 23080 23081 23082 23083 23084 23085 23086 23087 23088 23089 23090 23091 23092 23093 23094 23095 23096 23097 23098 23099 23100 23101 23102 23103 23104 23105 23106 23107 23108 23109 23110 23111 23112 23113 23114 23115 23116 23117 23118 23119 23120 23121 23122 23123 23124 23125 23126 23127 23128 23129 23130 23131 23132 23133 23134 23135 23136 23137 23138 23139 23140 23141 23142 23143 23144 23145 23146 23147 23148 23149 23150 23151 23152 23153 23154 23155 23156 23157 23158 23159 23160 23161 23162 23163 23164 23165 23166 23167 23168 23169 23170 23171 23172 23173 23174 23175 23176 23177 23178 23179 23180 23181 23182 23183 23184 23185 23186 23187 23188 23189 23190 23191 23192 23193 23194 23195 23196 23197 23198 23199 23200 23201 23202 23203 23204 23205 23206 23207 23208 23209 23210 23211 23212 23213 23214 23215 23216 23217 23218 23219 23220 23221 23222 23223 23224 23225 23226 23227 23228 23229 23230 23231 23232 23233 23234 23235 23236 23237 23238 23239 23240 23241 23242 23243 23244 23245 23246 23247 23248 23249 23250 23251 23252 23253 23254 23255 23256 23257 23258 23259 23260 23261 23262 23263 23264 23265 23266 23267 23268 23269 23270 23271 23272 23273 23274 23275 23276 23277 23278 23279 23280 23281 23282 23283 23284 23285 23286 23287 23288 23289 23290 23291 23292 23293 23294 23295 23296 23297 23298 23299 23300 23301 23302 23303 23304 23305 23306 23307 23308 23309 23310 23311 23312 23313 23314 23315 23316 23317 23318 23319 23320 23321 23322 23323 23324 23325 23326 23327 23328 23329 23330 23331 23332 23333 23334 23335 23336 23337 23338 23339 23340 23341 23342 23343 23344 23345 23346 23347 23348 23349 23350 23351 23352 23353 23354 23355 23356 23357 23358 23359 23360 23361 23362 23363 23364 23365 23366 23367 23368 23369 23370 23371 23372 23373 23374 23375 23376 23377 23378 23379 23380 23381 23382 23383 23384 23385 23386 23387 23388 23389 23390 23391 23392 23393 23394 23395 23396 23397 23398 23399 23400 23401 23402 23403 23404 23405 23406 23407 23408 23409 23410 23411 23412 23413 23414 23415 23416 23417 23418 23419 23420 23421 23422 23423 23424 23425 23426 23427 23428 23429 23430 23431 23432 23433 23434 23435 23436 23437 23438 23439 23440 23441 23442 23443 23444 23445 23446 23447 23448 23449 23450 23451 23452 23453 23454 23455 23456 23457 23458 23459 23460 23461 23462 23463 23464 23465 23466 23467 23468 23469 23470 23471 23472 23473 23474 23475 23476 23477 23478 23479 23480 23481 23482 23483 23484 23485 23486 23487 23488 23489 23490 23491 23492 23493 23494 23495 23496 23497 23498 23499 23500 23501 23502 23503 23504 23505 23506 23507 23508 23509 23510 23511 23512 23513 23514 23515 23516 23517 23518 23519 23520 23521 23522 23523 23524 23525 23526 23527 23528 23529 23530 23531 23532 23533 23534 23535 23536 23537 23538 23539 23540 23541 23542 23543 23544 23545 23546 23547 23548 23549 23550 23551 23552 23553 23554 23555 23556 23557 23558 23559 23560 23561 23562 23563 23564 23565 23566 23567 23568 23569 23570 23571 23572 23573 23574 23575 23576 23577 23578 23579 23580 23581 23582 23583 23584 23585 23586 23587 23588 23589 23590 23591 23592 23593 23594 23595 23596 23597 23598 23599 23600 23601 23602 23603 23604 23605 23606 23607 23608 23609 23610 23611 23612 23613 23614 23615 23616 23617 23618 23619 23620 23621 23622 23623 23624 23625 23626 23627 23628 23629 23630 23631 23632 23633 23634 23635 23636 23637 23638 23639 23640 23641 23642 23643 23644 23645 23646 23647 23648 23649 23650 23651 23652 23653 23654 23655 23656 23657 23658 23659 23660 23661 23662 23663 23664 23665 23666 23667 23668 23669 23670 23671 23672 23673 23674 23675 23676 23677 23678 23679 23680 23681 23682 23683 23684 23685 23686 23687 23688 23689 23690 23691 23692 23693 23694 23695 23696 23697 23698 23699 23700 23701 23702 23703 23704 23705 23706 23707 23708 23709 23710 23711 23712 23713 23714 23715 23716 23717 23718 23719 23720 23721 23722 23723 23724 23725 23726 23727 23728 23729 23730 23731 23732 23733 23734 23735 23736 23737 23738 23739 23740 23741 23742 23743 23744 23745 23746 23747 23748 23749 23750 23751 23752 23753 23754 23755 23756 23757 23758 23759 23760 23761 23762 23763 23764 23765 23766 23767 23768 23769 23770 23771 23772 23773 23774 23775 23776 23777 23778 23779 23780 23781 23782 23783 23784 23785 23786 23787 23788 23789 23790 23791 23792 23793 23794 23795 23796 23797 23798 23799 23800 23801 23802 23803 23804 23805 23806 23807 23808 23809 23810 23811 23812 23813 23814 23815 23816 23817 23818 23819 23820 23821 23822 23823 23824 23825 23826 23827 23828 23829 23830 23831 23832 23833 23834 23835 23836 23837 23838 23839 23840 23841 23842 23843 23844 23845 23846 23847 23848 23849 23850 23851 23852 23853 23854 23855 23856 23857 23858 23859 23860 23861 23862 23863 23864 23865 23866 23867 23868 23869 23870 23871 23872 23873 23874 23875 23876 23877 23878 23879 23880 23881 23882 23883 23884 23885 23886 23887 23888 23889 23890 23891 23892 23893 23894 23895 23896 23897 23898 23899 23900 23901 23902 23903 23904 23905 23906 23907 23908 23909 23910 23911 23912 23913 23914 23915 23916 23917 23918 23919 23920 23921 23922 23923 23924 23925 23926 23927 23928 23929 23930 23931 23932 23933 23934 23935 23936 23937 23938 23939 23940 23941 23942 23943 23944 23945 23946 23947 23948 23949 23950 23951 23952 23953 23954 23955 23956 23957 23958 23959 23960 23961 23962 23963 23964 23965 23966 23967 23968 23969 23970 23971 23972 23973 23974 23975 23976 23977 23978 23979 23980 23981 23982 23983 23984 23985 23986 23987 23988 23989 23990 23991 23992 23993 23994 23995 23996 23997 23998 23999 24000 24001 24002 24003 24004 24005 24006 24007 24008 24009 24010 24011 24012 24013 24014 24015 24016 24017 24018 24019 24020 24021 24022 24023 24024 24025 24026 24027 24028 24029 24030 24031 24032 24033 24034 24035 24036 24037 24038 24039 24040 24041 24042 24043 24044 24045 24046 24047 24048 24049 24050 24051 24052 24053 24054 24055 24056 24057 24058 24059 24060 24061 24062 24063 24064 24065 24066 24067 24068 24069 24070 24071 24072 24073 24074 24075 24076 24077 24078 24079 24080 24081 24082 24083 24084 24085 24086 24087 24088 24089 24090 24091 24092 24093 24094 24095 24096 24097 24098 24099 24100 24101 24102 24103 24104 24105 24106 24107 24108 24109 24110 24111 24112 24113 24114 24115 24116 24117 24118 24119 24120 24121 24122 24123 24124 24125 24126 24127 24128 24129 24130 24131 24132 24133 24134 24135 24136 24137 24138 24139 24140 24141 24142 24143 24144 24145 24146 24147 24148 24149 24150 24151 24152 24153 24154 24155 24156 24157 24158 24159 24160 24161 24162 24163 24164 24165 24166 24167 24168 24169 24170 24171 24172 24173 24174 24175 24176 24177 24178 24179 24180 24181 24182 24183 24184 24185 24186 24187 24188 24189 24190 24191 24192 24193 24194 24195 24196 24197 24198 24199 24200 24201 24202 24203 24204 24205 24206 24207 24208 24209 24210 24211 24212 24213 24214 24215 24216 24217 24218 24219 24220 24221 24222 24223 24224 24225 24226 24227 24228 24229 24230 24231 24232 24233 24234 24235 24236 24237 24238 24239 24240 24241 24242 24243 24244 24245 24246 24247 24248 24249 24250 24251 24252 24253 24254 24255 24256 24257 24258 24259 24260 24261 24262 24263 24264 24265 24266 24267 24268 24269 24270 24271 24272 24273 24274 24275 24276 24277 24278 24279 24280 24281 24282 24283 24284 24285 24286 24287 24288 24289 24290 24291 24292 24293 24294 24295 24296 24297 24298 24299 24300 24301 24302 24303 24304 24305 24306 24307 24308 24309 24310 24311 24312 24313 24314 24315 24316 24317 24318 24319 24320 24321 24322 24323 24324 24325 24326 24327 24328 24329 24330 24331 24332 24333 24334 24335 24336 24337 24338 24339 24340 24341 24342 24343 24344 24345 24346 24347 24348 24349 24350 24351 24352 24353 24354 24355 24356 24357 24358 24359 24360 24361 24362 24363 24364 24365 24366 24367 24368 24369 24370 24371 24372 24373 24374 24375 24376 24377 24378 24379 24380 24381 24382 24383 24384 24385 24386 24387 24388 24389 24390 24391 24392 24393 24394 24395 24396 24397 24398 24399 24400 24401 24402 24403 24404 24405 24406 24407 24408 24409 24410 24411 24412 24413 24414 24415 24416 24417 24418 24419 24420 24421 24422 24423 24424 24425 24426 24427 24428 24429 24430 24431 24432 24433 24434 24435 24436 24437 24438 24439 24440 24441 24442 24443 24444 24445 24446 24447 24448 24449 24450 24451 24452 24453 24454 24455 24456 24457 24458 24459 24460 24461 24462 24463 24464 24465 24466 24467 24468 24469 24470 24471 24472 24473 24474 24475 24476 24477 24478 24479 24480 24481 24482 24483 24484 24485 24486 24487 24488 24489 24490 24491 24492 24493 24494 24495 24496 24497 24498 24499 24500 24501 24502 24503 24504 24505 24506 24507 24508 24509 24510 24511 24512 24513 24514 24515 24516 24517 24518 24519 24520 24521 24522 24523 24524 24525 24526 24527 24528 24529 24530 24531 24532 24533 24534 24535 24536 24537 24538 24539 24540 24541 24542 24543 24544 24545 24546 24547 24548 24549 24550 24551 24552 24553 24554 24555 24556 24557 24558 24559 24560 24561 24562 24563 24564 24565 24566 24567 24568 24569 24570 24571 24572 24573 24574 24575 24576 24577 24578 24579 24580 24581 24582 24583 24584 24585 24586 24587 24588 24589 24590 24591 24592 24593 24594 24595 24596 24597 24598 24599 24600 24601 24602 24603 24604 24605 24606 24607 24608 24609 24610 24611 24612 24613 24614 24615 24616 24617 24618 24619 24620 24621 24622 24623 24624 24625 24626 24627 24628 24629 24630 24631 24632 24633 24634 24635 24636 24637 24638 24639 24640 24641 24642 24643 24644 24645 24646 24647 24648 24649 24650 24651 24652 24653 24654 24655 24656 24657 24658 24659 24660 24661 24662 24663 24664 24665 24666 24667 24668 24669 24670 24671 24672 24673 24674 24675 24676 24677 24678 24679 24680 24681 24682 24683 24684 24685 24686 24687 24688 24689 24690 24691 24692 24693 24694 24695 24696 24697 24698 24699 24700 24701 24702 24703 24704 24705 24706 24707 24708 24709 24710 24711 24712 24713 24714 24715 24716 24717 24718 24719 24720 24721 24722 24723 24724 24725 24726 24727 24728 24729 24730 24731 24732 24733 24734 24735 24736 24737 24738 24739 24740 24741 24742 24743 24744 24745 24746 24747 24748 24749 24750 24751 24752 24753 24754 24755 24756 24757 24758 24759 24760 24761 24762 24763 24764 24765 24766 24767 24768 24769 24770 24771 24772 24773 24774 24775 24776 24777 24778 24779 24780 24781 24782 24783 24784 24785 24786 24787 24788 24789 24790 24791 24792 24793 24794 24795 24796 24797 24798 24799 24800 24801 24802 24803 24804 24805 24806 24807 24808 24809 24810 24811 24812 24813 24814 24815 24816 24817 24818 24819 24820 24821 24822 24823 24824 24825 24826 24827 24828 24829 24830 24831 24832 24833 24834 24835 24836 24837 24838 24839 24840 24841 24842 24843 24844 24845 24846 24847 24848 24849 24850 24851 24852 24853 24854 24855 24856 24857 24858 24859 24860 24861 24862 24863 24864 24865 24866 24867 24868 24869 24870 24871 24872 24873 24874 24875 24876 24877 24878 24879 24880 24881 24882 24883 24884 24885 24886 24887 24888 24889 24890 24891 24892 24893 24894 24895 24896 24897 24898 24899 24900 24901 24902 24903 24904 24905 24906 24907 24908 24909 24910 24911 24912 24913 24914 24915 24916 24917 24918 24919 24920 24921 24922 24923 24924 24925 24926 24927 24928 24929 24930 24931 24932 24933 24934 24935 24936 24937 24938 24939 24940 24941 24942 24943 24944 24945 24946 24947 24948 24949 24950 24951 24952 24953 24954 24955 24956 24957 24958 24959 24960 24961 24962 24963 24964 24965 24966 24967 24968 24969 24970 24971 24972 24973 24974 24975 24976 24977 24978 24979 24980 24981 24982 24983 24984 24985 24986 24987 24988 24989 24990 24991 24992 24993 24994 24995 24996 24997 24998 24999 25000 25001 25002 25003 25004 25005 25006 25007 25008 25009 25010 25011 25012 25013 25014 25015 25016 25017 25018 25019 25020 25021 25022 25023 25024 25025 25026 25027 25028 25029 25030 25031 25032 25033 25034 25035 25036 25037 25038 25039 25040 25041 25042 25043 25044 25045 25046 25047 25048 25049 25050 25051 25052 25053 25054 25055 25056 25057 25058 25059 25060 25061 25062 25063 25064 25065 25066 25067 25068 25069 25070 25071 25072 25073 25074 25075 25076 25077 25078 25079 25080 25081 25082 25083 25084 25085 25086 25087 25088 25089 25090 25091 25092 25093 25094 25095 25096 25097 25098 25099 25100 25101 25102 25103 25104 25105 25106 25107 25108 25109 25110 25111 25112 25113 25114 25115 25116 25117 25118 25119 25120 25121 25122 25123 25124 25125 25126 25127 25128 25129 25130 25131 25132 25133 25134 25135 25136 25137 25138 25139 25140 25141 25142 25143 25144 25145 25146 25147 25148 25149 25150 25151 25152 25153 25154 25155 25156 25157 25158 25159 25160 25161 25162 25163 25164 25165 25166 25167 25168 25169 25170 25171 25172 25173 25174 25175 25176 25177 25178 25179 25180 25181 25182 25183 25184 25185 25186 25187 25188 25189 25190 25191 25192 25193 25194 25195 25196 25197 25198 25199 25200 25201 25202 25203 25204 25205 25206 25207 25208 25209 25210 25211 25212 25213 25214 25215 25216 25217 25218 25219 25220 25221 25222 25223 25224 25225 25226 25227 25228 25229 25230 25231 25232 25233 25234 25235 25236 25237 25238 25239 25240 25241 25242 25243 25244 25245 25246 25247 25248 25249 25250 25251 25252 25253 25254 25255 25256 25257 25258 25259 25260 25261 25262 25263 25264 25265 25266 25267 25268 25269 25270 25271 25272 25273 25274 25275 25276 25277 25278 25279 25280 25281 25282 25283 25284 25285 25286 25287 25288 25289 25290 25291 25292 25293 25294 25295 25296 25297 25298 25299 25300 25301 25302 25303 25304 25305 25306 25307 25308 25309 25310 25311 25312 25313 25314 25315 25316 25317 25318 25319 25320 25321 25322 25323 25324 25325 25326 25327 25328 25329 25330 25331 25332 25333 25334 25335 25336 25337 25338 25339 25340 25341 25342 25343 25344 25345 25346 25347 25348 25349 25350 25351 25352 25353 25354 25355 25356 25357 25358 25359 25360 25361 25362 25363 25364 25365 25366 25367 25368 25369 25370 25371 25372 25373 25374 25375 25376 25377 25378 25379 25380 25381 25382 25383 25384 25385 25386 25387 25388 25389 25390 25391 25392 25393 25394 25395 25396 25397 25398 25399 25400 25401 25402 25403 25404 25405 25406 25407 25408 25409 25410 25411 25412 25413 25414 25415 25416 25417 25418 25419 25420 25421 25422 25423 25424 25425 25426 25427 25428 25429 25430 25431 25432 25433 25434 25435 25436 25437 25438 25439 25440 25441 25442 25443 25444 25445 25446 25447 25448 25449 25450 25451 25452 25453 25454 25455 25456 25457 25458 25459 25460 25461 25462 25463 25464 25465 25466 25467 25468 25469 25470 25471 25472 25473 25474 25475 25476 25477 25478 25479 25480 25481 25482 25483 25484 25485 25486 25487 25488 25489 25490 25491 25492 25493 25494 25495 25496 25497 25498 25499 25500 25501 25502 25503 25504 25505 25506 25507 25508 25509 25510 25511 25512 25513 25514 25515 25516 25517 25518 25519 25520 25521 25522 25523 25524 25525 25526 25527 25528 25529 25530 25531 25532 25533 25534 25535 25536 25537 25538 25539 25540 25541 25542 25543 25544 25545 25546 25547 25548 25549 25550 25551 25552 25553 25554 25555 25556 25557 25558 25559 25560 25561 25562 25563 25564 25565 25566 25567 25568 25569 25570 25571 25572 25573 25574 25575 25576 25577 25578 25579 25580 25581 25582 25583 25584 25585 25586 25587 25588 25589 25590 25591 25592 25593 25594 25595 25596 25597 25598 25599 25600 25601 25602 25603 25604 25605 25606 25607 25608 25609 25610 25611 25612 25613 25614 25615 25616 25617 25618 25619 25620 25621 25622 25623 25624 25625 25626 25627 25628 25629 25630 25631 25632 25633 25634 25635 25636 25637 25638 25639 25640 25641 25642 25643 25644 25645 25646 25647 25648 25649 25650 25651 25652 25653 25654 25655 25656 25657 25658 25659 25660 25661 25662 25663 25664 25665 25666 25667 25668 25669 25670 25671 25672 25673 25674 25675 25676 25677 25678 25679 25680 25681 25682 25683 25684 25685 25686 25687 25688 25689 25690 25691 25692 25693 25694 25695 25696 25697 25698 25699 25700 25701 25702 25703 25704 25705 25706 25707 25708 25709 25710 25711 25712 25713 25714 25715 25716 25717 25718 25719 25720 25721 25722 25723 25724 25725 25726 25727 25728 25729 25730 25731 25732 25733 25734 25735 25736 25737 25738 25739 25740 25741 25742 25743 25744 25745 25746 25747 25748 25749 25750 25751 25752 25753 25754 25755 25756 25757 25758 25759 25760 25761 25762 25763 25764 25765 25766 25767 25768 25769 25770 25771 25772 25773 25774 25775 25776 25777 25778 25779 25780 25781 25782 25783 25784 25785 25786 25787 25788 25789 25790 25791 25792 25793 25794 25795 25796 25797 25798 25799 25800 25801 25802 25803 25804 25805 25806 25807 25808 25809 25810 25811 25812 25813 25814 25815 25816 25817 25818 25819 25820 25821 25822 25823 25824 25825 25826 25827 25828 25829 25830 25831 25832 25833 25834 25835 25836 25837 25838 25839 25840 25841 25842 25843 25844 25845 25846 25847 25848 25849 25850 25851 25852 25853 25854 25855 25856 25857 25858 25859 25860 25861 25862 25863 25864 25865 25866 25867 25868 25869 25870 25871 25872 25873 25874 25875 25876 25877 25878 25879 25880 25881 25882 25883 25884 25885 25886 25887 25888 25889 25890 25891 25892 25893 25894 25895 25896 25897 25898 25899 25900 25901 25902 25903 25904 25905 25906 25907 25908 25909 25910 25911 25912 25913 25914 25915 25916 25917 25918 25919 25920 25921 25922 25923 25924 25925 25926 25927 25928 25929 25930 25931 25932 25933 25934 25935 25936 25937 25938 25939 25940 25941 25942 25943 25944 25945 25946 25947 25948 25949 25950 25951 25952 25953 25954 25955 25956 25957 25958 25959 25960 25961 25962 25963 25964 25965 25966 25967 25968 25969 25970 25971 25972 25973 25974 25975 25976 25977 25978 25979 25980 25981 25982 25983 25984 25985 25986 25987 25988 25989 25990 25991 25992 25993 25994 25995 25996 25997 25998 25999 26000 26001 26002 26003 26004 26005 26006 26007 26008 26009 26010 26011 26012 26013 26014 26015 26016 26017 26018 26019 26020 26021 26022 26023 26024 26025 26026 26027 26028 26029 26030 26031 26032 26033 26034 26035 26036 26037 26038 26039 26040 26041 26042 26043 26044 26045 26046 26047 26048 26049 26050 26051 26052 26053 26054 26055 26056 26057 26058 26059 26060 26061 26062 26063 26064 26065 26066 26067 26068 26069 26070 26071 26072 26073 26074 26075 26076 26077 26078 26079 26080 26081 26082 26083 26084 26085 26086 26087 26088 26089 26090 26091 26092 26093 26094 26095 26096 26097 26098 26099 26100 26101 26102 26103 26104 26105 26106 26107 26108 26109 26110 26111 26112 26113 26114 26115 26116 26117 26118 26119 26120 26121 26122 26123 26124 26125 26126 26127 26128 26129 26130 26131 26132 26133 26134 26135 26136 26137 26138 26139 26140 26141 26142 26143 26144 26145 26146 26147 26148 26149 26150 26151 26152 26153 26154 26155 26156 26157 26158 26159 26160 26161 26162 26163 26164 26165 26166 26167 26168 26169 26170 26171 26172 26173 26174 26175 26176 26177 26178 26179 26180 26181 26182 26183 26184 26185 26186 26187 26188 26189 26190 26191 26192 26193 26194 26195 26196 26197 26198 26199 26200 26201 26202 26203 26204 26205 26206 26207 26208 26209 26210 26211 26212 26213 26214 26215 26216 26217 26218 26219 26220 26221 26222 26223 26224 26225 26226 26227 26228 26229 26230 26231 26232 26233 26234 26235 26236 26237 26238 26239 26240 26241 26242 26243 26244 26245 26246 26247 26248 26249 26250 26251 26252 26253 26254 26255 26256 26257 26258 26259 26260 26261 26262 26263 26264 26265 26266 26267 26268 26269 26270 26271 26272 26273 26274 26275 26276 26277 26278 26279 26280 26281 26282 26283 26284 26285 26286 26287 26288 26289 26290 26291 26292 26293 26294 26295 26296 26297 26298 26299 26300 26301 26302 26303 26304 26305 26306 26307 26308 26309 26310 26311 26312 26313 26314 26315 26316 26317 26318 26319 26320 26321 26322 26323 26324 26325 26326 26327 26328 26329 26330 26331 26332 26333 26334 26335 26336 26337 26338 26339 26340 26341 26342 26343 26344 26345 26346 26347 26348 26349 26350 26351 26352 26353 26354 26355 26356 26357 26358 26359 26360 26361 26362 26363 26364 26365 26366 26367 26368 26369 26370 26371 26372 26373 26374 26375 26376 26377 26378 26379 26380 26381 26382 26383 26384 26385 26386 26387 26388 26389 26390 26391 26392 26393 26394 26395 26396 26397 26398 26399 26400 26401 26402 26403 26404 26405 26406 26407 26408 26409 26410 26411 26412 26413 26414 26415 26416 26417 26418 26419 26420 26421 26422 26423 26424 26425 26426 26427 26428 26429 26430 26431 26432 26433 26434 26435 26436 26437 26438 26439 26440 26441 26442 26443 26444 26445 26446 26447 26448 26449 26450 26451 26452 26453 26454 26455 26456 26457 26458 26459 26460 26461 26462 26463 26464 26465 26466 26467 26468 26469 26470 26471 26472 26473 26474 26475 26476 26477 26478 26479 26480 26481 26482 26483 26484 26485 26486 26487 26488 26489 26490 26491 26492 26493 26494 26495 26496 26497 26498 26499 26500 26501 26502 26503 26504 26505 26506 26507 26508 26509 26510 26511 26512 26513 26514 26515 26516 26517 26518 26519 26520 26521 26522 26523 26524 26525 26526 26527 26528 26529 26530 26531 26532 26533 26534 26535 26536 26537 26538 26539 26540 26541 26542 26543 26544 26545 26546 26547 26548 26549 26550 26551 26552 26553 26554 26555 26556 26557 26558 26559 26560 26561 26562 26563 26564 26565 26566 26567 26568 26569 26570 26571 26572 26573 26574 26575 26576 26577 26578 26579 26580 26581 26582 26583 26584 26585 26586 26587 26588 26589 26590 26591 26592 26593 26594 26595 26596 26597 26598 26599 26600 26601 26602 26603 26604 26605 26606 26607 26608 26609 26610 26611 26612 26613 26614 26615 26616 26617 26618 26619 26620 26621 26622 26623 26624 26625 26626 26627 26628 26629 26630 26631 26632 26633 26634 26635 26636 26637 26638 26639 26640 26641 26642 26643 26644 26645 26646 26647 26648 26649 26650 26651 26652 26653 26654 26655 26656 26657 26658 26659 26660 26661 26662 26663 26664 26665 26666 26667 26668 26669 26670 26671 26672 26673 26674 26675 26676 26677 26678 26679 26680 26681 26682 26683 26684 26685 26686 26687 26688 26689 26690 26691 26692 26693 26694 26695 26696 26697 26698 26699 26700 26701 26702 26703 26704 26705 26706 26707 26708 26709 26710 26711 26712 26713 26714 26715 26716 26717 26718 26719 26720 26721 26722 26723 26724 26725 26726 26727 26728 26729 26730 26731 26732 26733 26734 26735 26736 26737 26738 26739 26740 26741 26742 26743 26744 26745 26746 26747 26748 26749 26750 26751 26752 26753 26754 26755 26756 26757 26758 26759 26760 26761 26762 26763 26764 26765 26766 26767 26768 26769 26770 26771 26772 26773 26774 26775 26776 26777 26778 26779 26780 26781 26782 26783 26784 26785 26786 26787 26788 26789 26790 26791 26792 26793 26794 26795 26796 26797 26798 26799 26800 26801 26802 26803 26804 26805 26806 26807 26808 26809 26810 26811 26812 26813 26814 26815 26816 26817 26818 26819 26820 26821 26822 26823 26824 26825 26826 26827 26828 26829 26830 26831 26832 26833 26834 26835 26836 26837 26838 26839 26840 26841 26842 26843 26844 26845 26846 26847 26848 26849 26850 26851 26852 26853 26854 26855 26856 26857 26858 26859 26860 26861 26862 26863 26864 26865 26866 26867 26868 26869 26870 26871 26872 26873 26874 26875 26876 26877 26878 26879 26880 26881 26882 26883 26884 26885 26886 26887 26888 26889 26890 26891 26892 26893 26894 26895 26896 26897 26898 26899 26900 26901 26902 26903 26904 26905 26906 26907 26908 26909 26910 26911 26912 26913 26914 26915 26916 26917 26918 26919 26920 26921 26922 26923 26924 26925 26926 26927 26928 26929 26930 26931 26932 26933 26934 26935 26936 26937 26938 26939 26940 26941 26942 26943 26944 26945 26946 26947 26948 26949 26950 26951 26952 26953 26954 26955 26956 26957 26958 26959 26960 26961 26962 26963 26964 26965 26966 26967 26968 26969 26970 26971 26972 26973 26974 26975 26976 26977 26978 26979 26980 26981 26982 26983 26984 26985 26986 26987 26988 26989 26990 26991 26992 26993 26994 26995 26996 26997 26998 26999 27000 27001 27002 27003 27004 27005 27006 27007 27008 27009 27010 27011 27012 27013 27014 27015 27016 27017 27018 27019 27020 27021 27022 27023 27024 27025 27026 27027 27028 27029 27030 27031 27032 27033 27034 27035 27036 27037 27038 27039 27040 27041 27042 27043 27044 27045 27046 27047 27048 27049 27050 27051 27052 27053 27054 27055 27056 27057 27058 27059 27060 27061 27062 27063 27064 27065 27066 27067 27068 27069 27070 27071 27072 27073 27074 27075 27076 27077 27078 27079 27080 27081 27082 27083 27084 27085 27086 27087 27088 27089 27090 27091 27092 27093 27094 27095 27096 27097 27098 27099 27100 27101 27102 27103 27104 27105 27106 27107 27108 27109 27110 27111 27112 27113 27114 27115 27116 27117 27118 27119 27120 27121 27122 27123 27124 27125 27126 27127 27128 27129 27130 27131 27132 27133 27134 27135 27136 27137 27138 27139 27140 27141 27142 27143 27144 27145 27146 27147 27148 27149 27150 27151 27152 27153 27154 27155 27156 27157 27158 27159 27160 27161 27162 27163 27164 27165 27166 27167 27168 27169 27170 27171 27172 27173 27174 27175 27176 27177 27178 27179 27180 27181 27182 27183 27184 27185 27186 27187 27188 27189 27190 27191 27192 27193 27194 27195 27196 27197 27198 27199 27200 27201 27202 27203 27204 27205 27206 27207 27208 27209 27210 27211 27212 27213 27214 27215 27216 27217 27218 27219 27220 27221 27222 27223 27224 27225 27226 27227 27228 27229 27230 27231 27232 27233 27234 27235 27236 27237 27238 27239 27240 27241 27242 27243 27244 27245 27246 27247 27248 27249 27250 27251 27252 27253 27254 27255 27256 27257 27258 27259 27260 27261 27262 27263 27264 27265 27266 27267 27268 27269 27270 27271 27272 27273 27274 27275 27276 27277 27278 27279 27280 27281 27282 27283 27284 27285 27286 27287 27288 27289 27290 27291 27292 27293 27294 27295 27296 27297 27298 27299 27300 27301 27302 27303 27304 27305 27306 27307 27308 27309 27310 27311 27312 27313 27314 27315 27316 27317 27318 27319 27320 27321 27322 27323 27324 27325 27326 27327 27328 27329 27330 27331 27332 27333 27334 27335 27336 27337 27338 27339 27340 27341 27342 27343 27344 27345 27346 27347 27348 27349 27350 27351 27352 27353 27354 27355 27356 27357 27358 27359 27360 27361 27362 27363 27364 27365 27366 27367 27368 27369 27370 27371 27372 27373 27374 27375 27376 27377 27378 27379 27380 27381 27382 27383 27384 27385 27386 27387 27388 27389 27390 27391 27392 27393 27394 27395 27396 27397 27398 27399 27400 27401 27402 27403 27404 27405 27406 27407 27408 27409 27410 27411 27412 27413 27414 27415 27416 27417 27418 27419 27420 27421 27422 27423 27424 27425 27426 27427 27428 27429 27430 27431 27432 27433 27434 27435 27436 27437 27438 27439 27440 27441 27442 27443 27444 27445 27446 27447 27448 27449 27450 27451 27452 27453 27454 27455 27456 27457 27458 27459 27460 27461 27462 27463 27464 27465 27466 27467 27468 27469 27470 27471 27472 27473 27474 27475 27476 27477 27478 27479 27480 27481 27482 27483 27484 27485 27486 27487 27488 27489 27490 27491 27492 27493 27494 27495 27496 27497 27498 27499 27500 27501 27502 27503 27504 27505 27506 27507 27508 27509 27510 27511 27512 27513 27514 27515 27516 27517 27518 27519 27520 27521 27522 27523 27524 27525 27526 27527 27528 27529 27530 27531 27532 27533 27534 27535 27536 27537 27538 27539 27540 27541 27542 27543 27544 27545 27546 27547 27548 27549 27550 27551 27552 27553 27554 27555 27556 27557 27558 27559 27560 27561 27562 27563 27564 27565 27566 27567 27568 27569 27570 27571 27572 27573 27574 27575 27576 27577 27578 27579 27580 27581 27582 27583 27584 27585 27586 27587 27588 27589 27590 27591 27592 27593 27594 27595 27596 27597 27598 27599 27600 27601 27602 27603 27604 27605 27606 27607 27608 27609 27610 27611 27612 27613 27614 27615 27616 27617 27618 27619 27620 27621 27622 27623 27624 27625 27626 27627 27628 27629 27630 27631 27632 27633 27634 27635 27636 27637 27638 27639 27640 27641 27642 27643 27644 27645 27646 27647 27648 27649 27650 27651 27652 27653 27654 27655 27656 27657 27658 27659 27660 27661 27662 27663 27664 27665 27666 27667 27668 27669 27670 27671 27672 27673 27674 27675 27676 27677 27678 27679 27680 27681 27682 27683 27684 27685 27686 27687 27688 27689 27690 27691 27692 27693 27694 27695 27696 27697 27698 27699 27700 27701 27702 27703 27704 27705 27706 27707 27708 27709 27710 27711 27712 27713 27714 27715 27716 27717 27718 27719 27720 27721 27722 27723 27724 27725 27726 27727 27728 27729 27730 27731 27732 27733 27734 27735 27736 27737 27738 27739 27740 27741 27742 27743 27744 27745 27746 27747 27748 27749 27750 27751 27752 27753 27754 27755 27756 27757 27758 27759 27760 27761 27762 27763 27764 27765 27766 27767 27768 27769 27770 27771 27772 27773 27774 27775 27776 27777 27778 27779 27780 27781 27782 27783 27784 27785 27786 27787 27788 27789 27790 27791 27792 27793 27794 27795 27796 27797 27798 27799 27800 27801 27802 27803 27804 27805 27806 27807 27808 27809 27810 27811 27812 27813 27814 27815 27816 27817 27818 27819 27820 27821 27822 27823 27824 27825 27826 27827 27828 27829 27830 27831 27832 27833 27834 27835 27836 27837 27838 27839 27840 27841 27842 27843 27844 27845 27846 27847 27848 27849 27850 27851 27852 27853 27854 27855 27856 27857 27858 27859 27860 27861 27862 27863 27864 27865 27866 27867 27868 27869 27870 27871 27872 27873 27874 27875 27876 27877 27878 27879 27880 27881 27882 27883 27884 27885 27886 27887 27888 27889 27890 27891 27892 27893 27894 27895 27896 27897 27898 27899 27900 27901 27902 27903 27904 27905 27906 27907 27908 27909 27910 27911 27912 27913 27914 27915 27916 27917 27918 27919 27920 27921 27922 27923 27924 27925 27926 27927 27928 27929 27930 27931 27932 27933 27934 27935 27936 27937 27938 27939 27940 27941 27942 27943 27944 27945 27946 27947 27948 27949 27950 27951 27952 27953 27954 27955 27956 27957 27958 27959 27960 27961 27962 27963 27964 27965 27966 27967 27968 27969 27970 27971 27972 27973 27974 27975 27976 27977 27978 27979 27980 27981 27982 27983 27984 27985 27986 27987 27988 27989 27990 27991 27992 27993 27994 27995 27996 27997 27998 27999 28000 28001 28002 28003 28004 28005 28006 28007 28008 28009 28010 28011 28012 28013 28014 28015 28016 28017 28018 28019 28020 28021 28022 28023 28024 28025 28026 28027 28028 28029 28030 28031 28032 28033 28034 28035 28036 28037 28038 28039 28040 28041 28042 28043 28044 28045 28046 28047 28048 28049 28050 28051 28052 28053 28054 28055 28056 28057 28058 28059 28060 28061 28062 28063 28064 28065 28066 28067 28068 28069 28070 28071 28072 28073 28074 28075 28076 28077 28078 28079 28080 28081 28082 28083 28084 28085 28086 28087 28088 28089 28090 28091 28092 28093 28094 28095 28096 28097 28098 28099 28100 28101 28102 28103 28104 28105 28106 28107 28108 28109 28110 28111 28112 28113 28114 28115 28116 28117 28118 28119 28120 28121 28122 28123 28124 28125 28126 28127 28128 28129 28130 28131 28132 28133 28134 28135 28136 28137 28138 28139 28140 28141 28142 28143 28144 28145 28146 28147 28148 28149 28150 28151 28152 28153 28154 28155 28156 28157 28158 28159 28160 28161 28162 28163 28164 28165 28166 28167 28168 28169 28170 28171 28172 28173 28174 28175 28176 28177 28178 28179 28180 28181 28182 28183 28184 28185 28186 28187 28188 28189 28190 28191 28192 28193 28194 28195 28196 28197 28198 28199 28200 28201 28202 28203 28204 28205 28206 28207 28208 28209 28210 28211 28212 28213 28214 28215 28216 28217 28218 28219 28220 28221 28222 28223 28224 28225 28226 28227 28228 28229 28230 28231 28232 28233 28234 28235 28236 28237 28238 28239 28240 28241 28242 28243 28244 28245 28246 28247 28248 28249 28250 28251 28252 28253 28254 28255 28256 28257 28258 28259 28260 28261 28262 28263 28264 28265 28266 28267 28268 28269 28270 28271 28272 28273 28274 28275 28276 28277 28278 28279 28280 28281 28282 28283 28284 28285 28286 28287 28288 28289 28290 28291 28292 28293 28294 28295 28296 28297 28298 28299 28300 28301 28302 28303 28304 28305 28306 28307 28308 28309 28310 28311 28312 28313 28314 28315 28316 28317 28318 28319 28320 28321 28322 28323 28324 28325 28326 28327 28328 28329 28330 28331 28332 28333 28334 28335 28336 28337 28338 28339 28340 28341 28342 28343 28344 28345 28346 28347 28348 28349 28350 28351 28352 28353 28354 28355 28356 28357 28358 28359 28360 28361 28362 28363 28364 28365 28366 28367 28368 28369 28370 28371 28372 28373 28374 28375 28376 28377 28378 28379 28380 28381 28382 28383 28384 28385 28386 28387 28388 28389 28390 28391 28392 28393 28394 28395 28396 28397 28398 28399 28400 28401 28402 28403 28404 28405 28406 28407 28408 28409 28410 28411 28412 28413 28414 28415 28416 28417 28418 28419 28420 28421 28422 28423 28424 28425 28426 28427 28428 28429 28430 28431 28432 28433 28434 28435 28436 28437 28438 28439 28440 28441 28442 28443 28444 28445 28446 28447 28448 28449 28450 28451 28452 28453 28454 28455 28456 28457 28458 28459 28460 28461 28462 28463 28464 28465 28466 28467 28468 28469 28470 28471 28472 28473 28474 28475 28476 28477 28478 28479 28480 28481 28482 28483 28484 28485 28486 28487 28488 28489 28490 28491 28492 28493 28494 28495 28496 28497 28498 28499 28500 28501 28502 28503 28504 28505 28506 28507 28508 28509 28510 28511 28512 28513 28514 28515 28516 28517 28518 28519 28520 28521 28522 28523 28524 28525 28526 28527 28528 28529 28530 28531 28532 28533 28534 28535 28536 28537 28538 28539 28540 28541 28542 28543 28544 28545 28546 28547 28548 28549 28550 28551 28552 28553 28554 28555 28556 28557 28558 28559 28560 28561 28562 28563 28564 28565 28566 28567 28568 28569 28570 28571 28572 28573 28574 28575 28576 28577 28578 28579 28580 28581 28582 28583 28584 28585 28586 28587 28588 28589 28590 28591 28592 28593 28594 28595 28596 28597 28598 28599 28600 28601 28602 28603 28604 28605 28606 28607 28608 28609 28610 28611 28612 28613 28614 28615 28616 28617 28618 28619 28620 28621 28622 28623 28624 28625 28626 28627 28628 28629 28630 28631 28632 28633 28634 28635 28636 28637 28638 28639 28640 28641 28642 28643 28644 28645 28646 28647 28648 28649 28650 28651 28652 28653 28654 28655 28656 28657 28658 28659 28660 28661 28662 28663 28664 28665 28666 28667 28668 28669 28670 28671 28672 28673 28674 28675 28676 28677 28678 28679 28680 28681 28682 28683 28684 28685 28686 28687 28688 28689 28690 28691 28692 28693 28694 28695 28696 28697 28698 28699 28700 28701 28702 28703 28704 28705 28706 28707 28708 28709 28710 28711 28712 28713 28714 28715 28716 28717 28718 28719 28720 28721 28722 28723 28724 28725 28726 28727 28728 28729 28730 28731 28732 28733 28734 28735 28736 28737 28738 28739 28740 28741 28742 28743 28744 28745 28746 28747 28748 28749 28750 28751 28752 28753 28754 28755 28756 28757 28758 28759 28760 28761 28762 28763 28764 28765 28766 28767 28768 28769 28770 28771 28772 28773 28774 28775 28776 28777 28778 28779 28780 28781 28782 28783 28784 28785 28786 28787 28788 28789 28790 28791 28792 28793 28794 28795 28796 28797 28798 28799 28800 28801 28802 28803 28804 28805 28806 28807 28808 28809 28810 28811 28812 28813 28814 28815 28816 28817 28818 28819 28820 28821 28822 28823 28824 28825 28826 28827 28828 28829 28830 28831 28832 28833 28834 28835 28836 28837 28838 28839 28840 28841 28842 28843 28844 28845 28846 28847 28848 28849 28850 28851 28852 28853 28854 28855 28856 28857 28858 28859 28860 28861 28862 28863 28864 28865 28866 28867 28868 28869 28870 28871 28872 28873 28874 28875 28876 28877 28878 28879 28880 28881 28882 28883 28884 28885 28886 28887 28888 28889 28890 28891 28892 28893 28894 28895 28896 28897 28898 28899 28900 28901 28902 28903 28904 28905 28906 28907 28908 28909 28910 28911 28912 28913 28914 28915 28916 28917 28918 28919 28920 28921 28922 28923 28924 28925 28926 28927 28928 28929 28930 28931 28932 28933 28934 28935 28936 28937 28938 28939 28940 28941 28942 28943 28944 28945 28946 28947 28948 28949 28950 28951 28952 28953 28954 28955 28956 28957 28958 28959 28960 28961 28962 28963 28964 28965 28966 28967 28968 28969 28970 28971 28972 28973 28974 28975 28976 28977 28978 28979 28980 28981 28982 28983 28984 28985 28986 28987 28988 28989 28990 28991 28992 28993 28994 28995 28996 28997 28998 28999 29000 29001 29002 29003 29004 29005 29006 29007 29008 29009 29010 29011 29012 29013 29014 29015 29016 29017 29018 29019 29020 29021 29022 29023 29024 29025 29026 29027 29028 29029 29030 29031 29032 29033 29034 29035 29036 29037 29038 29039 29040 29041 29042 29043 29044 29045 29046 29047 29048 29049 29050 29051 29052 29053 29054 29055 29056 29057 29058 29059 29060 29061 29062 29063 29064 29065 29066 29067 29068 29069 29070 29071 29072 29073 29074 29075 29076 29077 29078 29079 29080 29081 29082 29083 29084 29085 29086 29087 29088 29089 29090 29091 29092 29093 29094 29095 29096 29097 29098 29099 29100 29101 29102 29103 29104 29105 29106 29107 29108 29109 29110 29111 29112 29113 29114 29115 29116 29117 29118 29119 29120 29121 29122 29123 29124 29125 29126 29127 29128 29129 29130 29131 29132 29133 29134 29135 29136 29137 29138 29139 29140 29141 29142 29143 29144 29145 29146 29147 29148 29149 29150 29151 29152 29153 29154 29155 29156 29157 29158 29159 29160 29161 29162 29163 29164 29165 29166 29167 29168 29169 29170 29171 29172 29173 29174 29175 29176 29177 29178 29179 29180 29181 29182 29183 29184 29185 29186 29187 29188 29189 29190 29191 29192 29193 29194 29195 29196 29197 29198 29199 29200 29201 29202 29203 29204 29205 29206 29207 29208 29209 29210 29211 29212 29213 29214 29215 29216 29217 29218 29219 29220 29221 29222 29223 29224 29225 29226 29227 29228 29229 29230 29231 29232 29233 29234 29235 29236 29237 29238 29239 29240 29241 29242 29243 29244 29245 29246 29247 29248 29249 29250 29251 29252 29253 29254 29255 29256 29257 29258 29259 29260 29261 29262 29263 29264 29265 29266 29267 29268 29269 29270 29271 29272 29273 29274 29275 29276 29277 29278 29279 29280 29281 29282 29283 29284 29285 29286 29287 29288 29289 29290 
</DataArray>
<DataArray type="UInt32" Name="offsets" format="ascii">
2 5 8 11 14 17 20 23 26 29 32 35 38 41 44 47 50 53 55 58 61 64 66 69 71 74 77 80 83 86 88 91 94 97 100 103 106 108 111 114 116 118 121 124 127 130 133 136 139 141 144 147 150 153 155 158 161 164 167 169 172 175 178 181 184 187 190 193 196 199 202 205 208 211 214 217 220 222 225 228 231 234 237 240 243 246 249 252 255 258 260 263 266 269 272 275 277 280 283 286 289 292 295 298 301 304 306 309 312 315 318 321 324 327 330 333 336 339 342 345 348 351 353 356 359 362 365 368 371 374 376 379 382 385 388 391 394 397 399 402 405 408 411 414 416 419 422 424 427 430 433 436 439 442 445 448 451 454 457 460 463 466 469 472 475 478 481 484 487 490 493 496 499 502 504 507 510 513 515 518 521 524 527 530 533 536 539 542 544 547 550 553 556 559 562 565 568 570 573 576 579 582 584 587 590 593 595 598 601 603 606 609 612 615 618 620 623 625 628 631 634 637 639 642 644 647 650 653 655 658 661 663 665 668 670 672 675 678 680 682 685 688 691 693 696 698 701 703 706 709 712 715 718 720 722 725 728 731 734 737 740 743 746 749 752 754 757 760 763 766 769 772 775 777 779 782 785 788 791 794 797 800 803 805 808 811 814 817 819 822 825 827 830 833 836 838 841 844 847 850 853 856 859 862 864 867 869 872 875 878 881 884 886 889 892 895 898 901 904 907 910 913 916 919 922 925 928 931 933 936 938 940 943 945 948 951 953 956 959 962 965 968 971 974 977 980 982 985 988 990 992 995 998 1001 1004 1006 1008 1011 1013 1016 1019 1022 1024 1027 1030 1033 1036 1038 1041 1044 1047 1049 1052 1054 1056 1059 1062 1064 1067 1070 1072 1075 1078 1080 1083 1086 1089 1092 1095 1098 1101 1104 1107 1110 1113 1116 1119 1122 1124 1127 1130 1133 1136 1138 1141 1144 1147 1150 1153 1156 1158 1161 1164 1167 1170 1173 1176 1179 1182 1185 1188 1191 1194 1197 1200 1203 1206 1209 1212 1215 1218 1221 1224 1227 1230 1233 1236 1239 1242 1245 1248 1251 1254 1257 1260 1263 1266 1269 1272 1275 1278 1281 1284 1287 1290 1293 1296 1299 1301 1304 1307 1310 1313 1316 1319 1321 1324 1326 1329 1332 1334 1337 1340 1343 1345 1348 1351 1354 1357 1359 1362 1365 1368 1371 1374 1377 1380 1383 1386 1389 1392 1395 1398 1401 1403 1406 1409 1412 1415 1418 1421 1424 1426 1429 1432 1435 1437 1440 1443 1446 1449 1452 1454 1457 1460 1463 1466 1469 1471 1474 1477 1480 1483 1486 1489 1492 1494 1496 1499 1502 1505 1508 1511 1514 1516 1519 1521 1524 1526 1529 1532 1535 1537 1540 1543 1546 1549 1551 1554 1557 1560 1563 1566 1569 1572 1575 1578 1580 1583 1586 1588 1591 1594 1596 1599 1601 1604 1607 1609 1612 1615 1618 1621 1624 1627 1630 1633 1635 1638 1641 1644 1647 1650 1653 1656 1658 1661 1664 1667 1669 1672 1675 1678 1681 1684 1687 1690 1693 1696 1699 1702 1705 1708 1711 1714 1717 1720 1723 1726 1729 1732 1735 1738 1741 1744 1747 1750 1753 1756 1758 1761 1764 1767 1770 1772 1775 1778 1781 1784 1787 1790 1793 1796 1798 1801 1804 1806 1809 1812 1815 1818 1820 1823 1826 1829 1832 1835 1837 1840 1843 1846 1849 1852 1855 1858 1861 1864 1867 1870 1873 1876 1879 1882 1885 1888 1891 1894 1897 1900 1903 1906 1909 1912 1915 1918 1921 1924 1927 1930 1933 1936 1939 1942 1945 1948 1951 1954 1957 1960 1963 1966 1969 1972 1975 1978 1981 1984 1987 1990 1993 1996 1999 2002 2005 2008 2011 2014 2017 2020 2023 2026 2029 2032 2035 2038 2041 2044 2047 2050 2053 2056 2059 2062 2065 2068 2071 2074 2077 2080 2083 2086 2089 2092 2095 2098 2101 2103 2106 2109 2112 2114 2117 2119 2121 2124 2126 2129 2132 2135 2138 2141 2144 2147 2150 2153 2156 2159 2162 2165 2168 2171 2174 2177 2180 2183 2186 2189 2192 2195 2198 2201 2204 2207 2210 2213 2216 2219 2222 2225 2228 2231 2234 2237 2240 2242 2244 2247 2250 2253 2256 2258 2261 2264 2267 2270 2273 2276 2279 2282 2285 2288 2291 2294 2297 2300 2303 2306 2308 2311 2314 2317 2320 2323 2326 2329 2332 2335 2338 2341 2344 2347 2350 2353 2356 2359 2362 2365 2368 2371 2374 2377 2380 2383 2386 2388 2391 2394 2397 2399 2402 2405 2408 2411 2413 2416 2419 2421 2424 2427 2429 2432 2435 2438 2440 2443 2446 2449 2452 2455 2458 2461 2464 2467 2470 2473 2476 2479 2482 2485 2488 2491 2493 2496 2499 2502 2505 2508 2511 2514 2517 2520 2522 2525 2528 2531 2534 2537 2540 2543 2546 2549 2551 2554 2557 2560 2563 2565 2568 2571 2574 2577 2580 2583 2586 2589 2592 2595 2597 2600 2603 2606 2609 2612 2615 2618 2621 2624 2626 2629 2631 2634 2637 2640 2642 2645 2648 2650 2653 2655 2658 2661 2663 2666 2668 2671 2674 2677 2680 2683 2685 2687 2690 2693 2696 2699 2702 2705 2708 2711 2714 2717 2720 2723 2726 2729 2732 2735 2738 2741 2744 2747 2750 2753 2756 2759 2762 2765 2768 2771 2774 2776 2779 2781 2784 2787 2790 2793 2796 2799 2801 2804 2807 2810 2813 2816 2819 2821 2823 2826 2829 2831 2834 2837 2839 2842 2845 2847 2850 2853 2856 2859 2861 2864 2867 2870 2873 2875 2878 2881 2883 2886 2888 2891 2894 2897 2900 2903 2906 2909 2912 2915 2918 2921 2924 2927 2930 2933 2936 2939 2942 2945 2948 2951 2954 2957 2960 2963 2966 2969 2972 2975 2977 2980 2983 2986 2989 2992 2995 2998 3001 3004 3007 3010 3012 3015 3018 3021 3023 3026 3029 3031 3033 3036 3039 3042 3044 3047 3050 3052 3054 3057 3060 3063 3066 3069 3072 3075 3077 3080 3083 3086 3089 3092 3094 3097 3099 3102 3104 3107 3110 3113 3116 3119 3122 3124 3127 3130 3132 3135 3138 3141 3144 3147 3150 3153 3155 3158 3161 3164 3167 3170 3172 3175 3178 3181 3184 3187 3190 3193 3196 3199 3202 3205 3208 3211 3214 3216 3219 3222 3225 3228 3231 3234 3236 3239 3242 3245 3247 3249 3252 3255 3258 3261 3263 3266 3269 3272 3275 3278 3280 3282 3285 3288 3291 3293 3296 3299 3302 3305 3308 3311 3313 3316 3318 3321 3324 3326 3329 3331 3334 3337 3340 3343 3346 3349 3351 3354 3357 3360 3363 3366 3369 3372 3375 3378 3381 3384 3387 3390 3393 3396 3399 3402 3404 3407 3410 3413 3416 3419 3421 3424 3427 3429 3432 3435 3438 3441 3444 3447 3450 3453 3456 3459 3462 3465 3468 3471 3474 3477 3480 3483 3486 3489 3492 3495 3498 3501 3503 3506 3509 3512 3514 3517 3520 3523 3525 3527 3530 3532 3535 3538 3540 3543 3546 3548 3551 3554 3556 3559 3562 3565 3568 3571 3574 3577 3580 3583 3586 3589 3592 3595 3597 3600 3603 3605 3608 3611 3613 3616 3619 3622 3625 3628 3631 3634 3637 3639 3641 3644 3647 3649 3652 3655 3658 3660 3663 3666 3669 3671 3674 3677 3680 3683 3686 3689 3692 3695 3698 3701 3704 3707 3710 3713 3716 3719 3721 3724 3727 3729 3732 3735 3738 3741 3744 3746 3749 3751 3754 3756 3758 3761 3763 3766 3769 3771 3774 3776 3779 3781 3784 3787 3790 3793 3796 3799 3801 3804 3807 3810 3813 3816 3819 3822 3825 3828 3830 3833 3835 3838 3841 3844 3847 3850 3853 3856 3859 3862 3865 3868 3871 3874 3877 3880 3882 3885 3888 3891 3893 3896 3899 3902 3905 3908 3911 3914 3917 3920 3923 3926 3929 3932 3935 3938 3941 3943 3946 3949 3952 3954 3957 3959 3962 3965 3968 3971 3974 3977 3980 3983 3986 3989 3992 3995 3997 4000 4003 4006 4009 4012 4014 4017 4019 4022 4024 4027 4030 4032 4035 4038 4041 4043 4045 4048 4051 4053 4056 4058 4060 4062 4065 4067 4070 4072 4075 4077 4079 4082 4085 4088 4091 4094 4096 4098 4101 4104 4107 4110 4113 4115 4118 4121 4124 4126 4129 4131 4134 4136 4138 4141 4144 4147 4149 4152 4154 4157 4160 4163 4165 4168 4171 4174 4176 4178 4181 4184 4186 4189 4192 4195 4198 4200 4203 4205 4208 4211 4213 4216 4218 4221 4224 4226 4229 4232 4235 4238 4241 4243 4246 4249 4252 4254 4257 4260 4263 4265 4268 4271 4274 4276 4279 4281 4284 4287 4290 4293 4296 4299 4302 4305 4308 4311 4314 4317 4319 4322 4325 4328 4330 4333 4336 4339 4342 4345 4348 4351 4353 4356 4359 4362 4365 4368 4371 4374 4377 4380 4383 4386 4389 4392 4395 4398 4401 4404 4407 4410 4413 4416 4419 4422 4425 4428 4431 4434 4437 4440 4443 4446 4449 4452 4455 4458 4461 4464 4467 4470 4472 4475 4478 4481 4484 4486 4489 4492 4495 4498 4501 4504 4507 4510 4513 4515 4518 4521 4524 4527 4530 4533 4536 4538 4541 4544 4547 4549 4552 4555 4558 4560 4563 4566 4568 4571 4574 4577 4579 4582 4585 4588 4591 4594 4597 4599 4602 4604 4607 4610 4612 4615 4618 4621 4624 4627 4630 4633 4636 4638 4641 4644 4647 4649 4652 4655 4658 4661 4664 4667 4670 4673 4676 4679 4681 4684 4687 4689 4692 4695 4698 4701 4704 4707 4710 4712 4715 4718 4721 4724 4727 4730 4733 4736 4739 4742 4745 4748 4750 4753 4756 4759 4762 4764 4767 4770 4772 4775 4778 4781 4783 4786 4789 4792 4795 4798 4801 4804 4807 4810 4813 4816 4819 4822 4825 4828 4831 4834 4837 4840 4843 4846 4849 4851 4854 4857 4860 4863 4866 4869 4872 4875 4878 4881 4884 4887 4890 4893 4896 4899 4901 4904 4907 4910 4913 4916 4919 4922 4925 4928 4930 4933 4936 4939 4942 4945 4948 4951 4954 4957 4960 4963 4966 4969 4972 4975 4978 4981 4983 4985 4987 4989 4992 4995 4998 5001 5003 5006 5008 5011 5014 5016 5018 5021 5023 5026 5029 5031 5034 5037 5039 5042 5045 5047 5050 5053 5055 5058 5061 5064 5067 5070 5073 5076 5078 5081 5084 5087 5090 5093 5096 5099 5102 5105 5108 5111 5113 5116 5119 5122 5124 5127 5130 5133 5135 5138 5141 5144 5147 5150 5152 5155 5158 5161 5163 5165 5168 5171 5174 5176 5179 5181 5184 5187 5190 5193 5196 5198 5201 5204 5207 5210 5213 5216 5219 5222 5225 5228 5231 5234 5237 5240 5243 5246 5249 5252 5255 5257 5260 5262 5265 5268 5271 5274 5276 5279 5282 5285 5288 5290 5293 5296 5299 5301 5304 5307 5310 5313 5315 5318 5321 5323 5326 5328 5331 5334 5337 5340 5343 5345 5347 5350 5352 5354 5357 5360 5362 5365 5368 5371 5374 5377 5380 5383 5386 5389 5392 5394 5397 5400 5403 5406 5409 5412 5415 5418 5420 5423 5426 5429 5432 5435 5438 5441 5444 5446 5449 5452 5455 5458 5460 5463 5466 5469 5471 5474 5477 5480 5483 5486 5489 5492 5495 5498 5501 5504 5507 5510 5513 5516 5519 5522 5525 5528 5531 5534 5537 5540 5543 5546 5549 5552 5555 5558 5561 5564 5567 5570 5573 5576 5578 5581 5583 5586 5589 5592 5595 5598 5601 5604 5607 5610 5613 5616 5619 5622 5625 5628 5631 5634 5637 5639 5642 5645 5648 5651 5654 5656 5659 5662 5665 5667 5670 5673 5675 5678 5681 5684 5687 5690 5692 5695 5697 5700 5703 5706 5709 5712 5714 5717 5720 5723 5725 5728 5731 5733 5736 5738 5741 5744 5746 5749 5752 5755 5757 5759 5762 5765 5768 5770 5773 5776 5779 5782 5785 5788 5791 5794 5797 5800 5802 5804 5807 5810 5812 5815 5818 5820 5823 5826 5829 5832 5835 5837 5840 5843 5846 5848 5850 5853 5856 5859 5862 5864 5866 5868 5871 5873 5876 5879 5882 5885 5888 5891 5894 5896 5899 5902 5905 5908 5911 5914 5917 5920 5923 5926 5929 5932 5935 5938 5940 5943 5946 5949 5952 5955 5957 5960 5963 5966 5969 5971 5974 5977 5980 5983 5986 5989 5991 5994 5997 6000 6003 6006 6009 6012 6015 6017 6020 6023 6026 6029 6032 6035 6037 6040 6043 6046 6049 6051 6054 6057 6060 6063 6066 6069 6072 6075 6078 6081 6084 6086 6089 6092 6095 6098 6101 6103 6106 6109 6111 6114 6117 6120 6122 6125 6127 6130 6133 6135 6137 6140 6143 6146 6148 6151 6154 6157 6160 6162 6165 6168 6171 6174 6177 6180 6183 6186 6189 6192 6195 6198 6201 6204 6206 6208 6211 6214 6217 6219 6222 6224 6227 6229 6232 6234 6237 6240 6243 6245 6248 6251 6254 6256 6259 6262 6265 6267 6269 6272 6274 6277 6280 6283 6286 6288 6291 6293 6296 6299 6302 6305 6308 6311 6314 6317 6320 6323 6326 6328 6331 6334 6337 6340 6343 6346 6348 6351 6353 6356 6359 6361 6364 6367 6369 6372 6375 6378 6381 6384 6387 6390 6393 6396 6398 6401 6404 6407 6410 6413 6416 6419 6422 6425 6428 6431 6434 6437 6440 6443 6445 6447 6450 6453 6456 6459 6461 6464 6467 6470 6473 6476 6479 6481 6484 6487 6490 6493 6495 6498 6501 6504 6507 6510 6513 6515 6518 6521 6523 6526 6529 6532 6535 6538 6540 6543 6546 6549 6551 6554 6557 6560 6563 6566 6568 6571 6573 6576 6578 6581 6584 6587 6590 6593 6596 6599 6602 6605 6608 6611 6614 6617 6619 6622 6625 6628 6630 6633 6636 6639 6642 6645 6648 6651 6653 6656 6659 6662 6665 6668 6671 6674 6677 6679 6682 6685 6687 6690 6693 6695 6698 6701 6704 6707 6710 6713 6716 6719 6721 6724 6727 6730 6733 6736 6739 6741 6744 6747 6750 6753 6756 6759 6762 6765 6768 6770 6773 6776 6779 6782 6785 6787 6790 6793 6796 6799 6802 6805 6808 6811 6814 6816 6819 6822 6825 6828 6831 6834 6836 6839 6842 6845 6848 6851 6854 6857 6860 6862 6865 6868 6871 6873 6876 6879 6882 6885 6888 6891 6894 6897 6900 6903 6906 6909 6912 6915 6918 6921 6924 6927 6930 6933 6936 6939 6942 6945 6948 6951 6954 6957 6960 6963 6966 6969 6972 6975 6978 6981 6984 6987 6990 6992 6995 6998 7001 7003 7006 7009 7011 7014 7017 7020 7023 7026 7029 7032 7035 7038 7041 7044 7047 7050 7053 7056 7059 7062 7065 7068 7071 7074 7077 7080 7083 7086 7089 7092 7094 7097 7099 7102 7105 7108 7111 7114 7117 7120 7122 7125 7128 7130 7133 7136 7139 7141 7144 7147 7150 7153 7156 7158 7161 7164 7167 7170 7173 7176 7179 7182 7185 7188 7191 7194 7196 7199 7202 7205 7207 7210 7213 7215 7218 7221 7224 7227 7230 7233 7236 7239 7242 7245 7248 7251 7253 7256 7258 7261 7264 7267 7270 7273 7276 7279 7282 7285 7287 7290 7293 7296 7299 7302 7305 7308 7311 7313 7316 7319 7322 7325 7328 7330 7333 7336 7339 7342 7345 7348 7351 7354 7357 7360 7363 7366 7369 7371 7374 7376 7378 7381 7384 7387 7390 7393 7396 7398 7401 7404 7407 7410 7412 7415 7418 7421 7423 7426 7429 7432 7435 7438 7441 7444 7447 7450 7453 7455 7458 7461 7464 7467 7469 7472 7475 7477 7480 7482 7485 7488 7491 7494 7496 7499 7502 7505 7508 7511 7513 7515 7518 7521 7524 7527 7530 7533 7535 7538 7541 7543 7546 7549 7551 7554 7557 7560 7563 7566 7568 7571 7574 7577 7580 7583 7586 7589 7592 7595 7598 7600 7603 7606 7609 7612 7615 7618 7621 7624 7627 7630 7633 7636 7639 7642 7645 7647 7650 7653 7656 7658 7661 7664 7666 7669 7672 7675 7678 7681 7684 7686 7689 7691 7694 7697 7700 7703 7706 7709 7712 7715 7718 7720 7722 7725 7728 7730 7733 7735 7737 7740 7743 7746 7749 7752 7755 7758 7761 7764 7766 7769 7772 7775 7778 7781 7784 7787 7790 7793 7796 7799 7802 7805 7808 7811 7814 7817 7819 7822 7825 7828 7831 7834 7837 7840 7843 7846 7849 7852 7855 7858 7861 7864 7867 7870 7873 7875 7878 7881 7884 7886 7889 7892 7895 7897 7900 7902 7905 7908 7910 7913 7916 7919 7921 7924 7927 7929 7932 7934 7937 7940 7942 7945 7947 7950 7953 7955 7958 7961 7964 7967 7970 7973 7975 7978 7981 7983 7986 7989 7992 7995 7998 8001 8004 8007 8010 8013 8015 8018 8020 8023 8026 8029 8031 8033 8036 8039 8042 8045 8047 8050 8053 8056 8059 8062 8064 8067 8070 8073 8076 8079 8081 8084 8087 8090 8092 8095 8098 8100 8103 8106 8109 8112 8115 8118 8121 8123 8126 8129 8132 8134 8137 8140 8143 8145 8148 8151 8154 8157 8160 8163 8165 8168 8171 8173 8176 8179 8182 8185 8187 8190 8192 8195 8198 8200 8203 8206 8209 8212 8214 8217 8220 8223 8226 8229 8232 8235 8238 8241 8244 8247 8250 8253 8256 8259 8262 8265 8268 8271 8274 8277 8280 8283 8286 8289 8292 8295 8298 8301 8304 8307 8310 8313 8316 8319 8322 8324 8327 8330 8333 8335 8338 8341 8344 8347 8350 8353 8356 8359 8362 8365 8368 8371 8374 8377 8380 8382 8385 8388 8391 8394 8397 8400 8403 8405 8408 8411 8414 8417 8420 8423 8426 8429 8432 8435 8438 8441 8443 8446 8448 8451 8454 8457 8460 8463 8465 8468 8471 8473 8476 8479 8481 8483 8486 8489 8491 8494 8497 8499 8502 8505 8507 8510 8513 8516 8519 8522 8524 8527 8530 8533 8536 8539 8542 8545 8548 8550 8553 8556 8559 8562 8565 8568 8571 8574 8576 8579 8582 8585 8588 8591 8593 8596 8599 8602 8605 8608 8611 8614 8617 8620 8623 8626 8629 8632 8635 8638 8641 8643 8646 8649 8651 8654 8657 8660 8663 8666 8669 8672 8675 8678 8681 8684 8687 8690 8693 8696 8698 8701 8704 8707 8710 8713 8716 8719 8721 8724 8727 8730 8733 8736 8739 8742 8745 8748 8751 8754 8757 8760 8762 8765 8768 8771 8774 8777 8780 8783 8785 8787 8790 8793 8796 8799 8802 8805 8807 8810 8813 8816 8819 8822 8825 8828 8831 8834 8837 8840 8843 8846 8849 8852 8854 8857 8860 8863 8866 8869 8872 8875 8878 8881 8884 8886 8889 8892 8895 8898 8901 8904 8907 8910 8913 8916 8918 8921 8924 8926 8929 8932 8935 8938 8941 8944 8947 8950 8953 8956 8958 8960 8963 8966 8968 8971 8974 8977 8980 8983 8986 8988 8991 8993 8996 8999 9002 9005 9008 9010 9013 9016 9019 9022 9025 9028 9031 9034 9037 9040 9042 9045 9048 9051 9054 9057 9059 9062 9065 9068 9071 9074 9077 9080 9083 9086 9089 9092 9095 9098 9101 9104 9107 9110 9113 9116 9119 9122 9125 9128 9131 9134 9137 9140 9143 9146 9149 9151 9153 9156 9159 9162 9165 9167 9170 9173 9176 9179 9182 9185 9188 9191 9194 9197 9200 9203 9206 9209 9212 9215 9218 9221 9224 9227 9230 9233 9236 9239 9242 9245 9248 9251 9253 9256 9259 9262 9265 9268 9271 9274 9277 9280 9283 9286 9289 9292 9295 9298 9301 9304 9307 9310 9313 9316 9319 9321 9324 9326 9329 9332 9335 9338 9341 9344 9347 9350 9353 9356 9359 9362 9365 9368 9371 9374 9377 9380 9382 9385 9388 9390 9393 9396 9399 9402 9405 9408 9411 9413 9415 9417 9420 9423 9426 9429 9432 9434 9437 9440 9443 9446 9449 9452 9455 9458 9461 9464 9467 9470 9473 9476 9479 9482 9485 9488 9491 9494 9497 9500 9503 9506 9509 9512 9515 9517 9520 9523 9526 9529 9531 9534 9537 9539 9542 9545 9547 9550 9553 9555 9558 9560 9563 9566 9569 9572 9575 9578 9581 9584 9587 9590 9593 9596 9598 9601 9604 9607 9609 9612 9615 9618 9621 9624 9627 9630 9633 9636 9639 9641 9644 9647 9649 9651 9654 9657 9660 9662 9664 9666 9669 9672 9675 9678 9681 9683 9686 9688 9690 9693 9696 9698 9700 9703 9705 9708 9711 9713 9716 9719 9722 9724 9726 9728 9730 9733 9736 9739 9742 9745 9748 9751 9754 9757 9760 9763 9766 9769 9772 9775 9778 9781 9784 9787 9790 9793 9796 9798 9801 9804 9807 9809 9812 9815 9818 9821 9824 9827 9830 9833 9836 9839 9842 9845 9848 9851 9854 9857 9860 9863 9866 9869 9872 9875 9878 9881 9884 9886 9889 9892 9895 9897 9900 9903 9906 9909 9911 9914 9917 9920 9922 9925 9928 9931 9934 9937 9940 9943 9946 9949 9952 9955 9958 9961 9963 9966 9968 9971 9974 9977 9980 9983 9986 9989 9992 9995 9998 10001 10004 10007 10010 10013 10016 10019 10022 10025 10028 10031 10034 10037 10040 10042 10044 10046 10049 10052 10055 10058 10061 10064 10066 10069 10072 10075 10078 10081 10084 10087 10090 10093 10096 10099 10101 10104 10107 10110 10113 10116 10119 10122 10125 10128 10131 10134 10137 10140 10143 10146 10148 10151 10154 10156 10158 10161 10164 10166 10169 10172 10175 10178 10181 10184 10187 10190 10193 10196 10199 10202 10205 10208 10211 10214 10217 10220 10223 10226 10229 10232 10234 10237 10240 10242 10245 10248 10251 10254 10257 10260 10263 10266 10269 10272 10275 10278 10280 10283 10286 10289 10292 10295 10298 10301 10304 10307 10310 10312 10315 10318 10321 10324 10327 10330 10333 10336 10339 10341 10344 10347 10349 10352 10355 10358 10360 10363 10366 10369 10371 10374 10377 10380 10383 10386 10389 10391 10394 10397 10400 10403 10406 10409 10412 10415 10418 10420 10423 10426 10428 10431 10433 10436 10439 10441 10444 10447 10450 10453 10456 10459 10462 10465 10468 10471 10474 10477 10480 10482 10485 10488 10491 10494 10497 10500 10503 10506 10509 10512 10515 10517 10520 10523 10526 10529 10532 10534 10536 10538 10541 10544 10547 10550 10553 10556 10559 10562 10565 10568 10571 10574 10577 10580 10583 10586 10589 10592 10595 10598 10601 10604 10607 10610 10613 10615 10618 10620 10623 10626 10628 10631 10634 10637 10640 10643 10646 10649 10651 10654 10657 10660 10663 10666 10669 10672 10675 10678 10680 10683 10686 10688 10691 10694 10697 10700 10703 10706 10709 10712 10714 10717 10720 10723 10726 10728 10731 10734 10737 10740 10743 10746 10749 10752 10755 10758 10761 10764 10767 10770 10773 10776 10779 10782 10785 10788 10791 10794 10797 10800 10803 10806 10809 10812 10814 10817 10820 10822 10825 10828 10831 10834 10837 10840 10843 10845 10848 10851 10854 10857 10860 10863 10865 10868 10871 10874 10877 10880 10883 10886 10889 10892 10895 10897 10900 10903 10906 10909 10912 10915 10918 10921 10924 10927 10929 10932 10935 10938 10941 10944 10946 10949 10952 10954 10957 10960 10963 10966 10969 10972 10975 10978 10981 10984 10987 10990 10993 10996 10999 11002 11004 11007 11010 11013 11016 11019 11022 11025 11028 11031 11034 11037 11040 11043 11046 11049 11052 11055 11058 11061 11063 11066 11069 11072 11075 11077 11080 11083 11086 11088 11091 11094 11097 11099 11102 11105 11108 11110 11113 11115 11118 11121 11124 11127 11130 11133 11136 11139 11142 11145 11148 11151 11154 11157 11160 11163 11166 11169 11172 11175 11178 11180 11183 11186 11189 11191 11194 11197 11200 11203 11206 11208 11211 11214 11217 11219 11222 11225 11228 11231 11234 11237 11240 11243 11246 11249 11252 11254 11256 11259 11262 11265 11268 11271 11273 11276 11279 11282 11285 11287 11290 11293 11295 11298 11301 11304 11307 11310 11313 11316 11319 11322 11325 11328 11331 11334 11337 11340 11343 11346 11349 11352 11355 11358 11361 11364 11367 11370 11373 11376 11379 11382 11385 11388 11391 11394 11397 11400 11403 11406 11408 11411 11414 11417 11420 11423 11425 11428 11430 11433 11436 11439 11442 11445 11448 11451 11454 11457 11460 11463 11466 11469 11472 11475 11478 11481 11484 11487 11490 11493 11496 11498 11501 11504 11507 11509 11511 11514 11517 11519 11522 11525 11528 11531 11534 11537 11540 11543 11546 11549 11552 11555 11557 11559 11562 11565 11568 11571 11574 11577 11579 11582 11585 11588 11591 11593 11596 11599 11602 11605 11607 11610 11613 11616 11619 11621 11624 11627 11630 11633 11636 11639 11641 11643 11646 11649 11652 11655 11657 11660 11663 11666 11669 11672 11675 11678 11681 11684 11687 11689 11692 11695 11698 11700 11703 11706 11709 11712 11714 11716 11719 11722 11725 11728 11731 11734 11737 11740 11743 11746 11749 11751 11754 11757 11760 11762 11765 11768 11771 11774 11777 11780 11783 11786 11788 11791 11794 11797 11800 11803 11806 11809 11812 11815 11818 11821 11824 11827 11830 11833 11836 11839 11842 11845 11848 11851 11854 11857 11860 11863 11866 11869 11872 11875 11878 11881 11884 11887 11890 11893 11896 11899 11902 11905 11908 11910 11913 11916 11919 11922 11925 11928 11931 11934 11937 11940 11943 11946 11949 11952 11955 11958 11961 11964 11967 11970 11973 11976 11979 11982 11985 11988 11991 11994 11997 12000 12003 12006 12009 12011 12014 12017 12020 12022 12025 12028 12031 12034 12037 12040 12043 12045 12048 12050 12053 12056 12059 12062 12065 12068 12071 12074 12077 12080 12082 12085 12088 12091 12094 12096 12099 12101 12104 12107 12110 12113 12116 12119 12122 12125 12128 12131 12134 12137 12140 12143 12146 12149 12152 12155 12158 12161 12164 12167 12170 12173 12176 12179 12182 12185 12188 12191 12194 12197 12200 12203 12206 12209 12212 12215 12218 12221 12224 12227 12230 12233 12236 12239 12242 12245 12248 12251 12254 12256 12259 12262 12265 12268 12271 12274 12277 12280 12283 12286 12289 12292 12294 12297 12300 12303 12305 12308 12310 12312 12315 12318 12321 12324 12327 12330 12333 12336 12338 12341 12344 12346 12349 12352 12355 12357 12360 12363 12366 12369 12372 12375 12378 12381 12383 12386 12389 12391 12394 12397 12400 12403 12406 12409 12412 12414 12416 12419 12422 12425 12428 12431 12433 12436 12439 12442 12444 12447 12450 12453 12456 12459 12462 12465 12468 12470 12473 12476 12479 12481 12484 12487 12490 12493 12496 12498 12501 12504 12507 12509 12512 12515 12518 12521 12524 12527 12530 12533 12536 12539 12542 12545 12548 12551 12554 12557 12560 12563 12566 12569 12572 12575 12578 12581 12584 12587 12590 12593 12596 12599 12602 12605 12608 12611 12614 12617 12620 12623 12626 12629 12632 12635 12638 12641 12644 12647 12650 12653 12656 12658 12661 12664 12667 12669 12672 12675 12678 12680 12683 12686 12689 12692 12695 12698 12701 12704 12706 12709 12712 12714 12717 12720 12723 12726 12729 12732 12735 12738 12741 12744 12747 12749 12752 12755 12758 12761 12764 12767 12770 12773 12776 12778 12781 12783 12786 12788 12790 12793 12796 12799 12802 12805 12808 12811 12814 12817 12820 12823 12826 12829 12832 12835 12838 12841 12844 12847 12850 12853 12856 12859 12862 12865 12868 12871 12874 12877 12880 12883 12886 12889 12892 12895 12898 12901 12904 12907 12910 12913 12916 12919 12922 12925 12928 12931 12934 12937 12940 12943 12946 12949 12952 12955 12958 12961 12964 12967 12970 12973 12976 12979 12982 12985 12988 12991 12994 12997 13000 13003 13006 13009 13012 13015 13018 13021 13024 13027 13030 13033 13036 13039 13042 13045 13048 13051 13054 13057 13060 13063 13066 13069 13072 13075 13078 13081 13084 13087 13090 13093 13096 13098 13101 13104 13106 13109 13112 13114 13117 13120 13122 13125 13128 13131 13134 13137 13140 13143 13146 13149 13152 13155 13158 13161 13164 13167 13170 13173 13176 13179 13182 13185 13188 13191 13194 13197 13200 13202 13204 13207 13210 13213 13216 13219 13222 13225 13228 13231 13234 13237 13240 13242 13245 13248 13251 13253 13256 13258 13261 13264 13267 13269 13272 13275 13278 13281 13284 13287 13289 13292 13295 13298 13301 13304 13307 13310 13313 13316 13318 13321 13324 13327 13330 13333 13336 13338 13341 13344 13346 13349 13352 13355 13358 13361 13364 13366 13369 13372 13375 13378 13381 13384 13387 13390 13393 13396 13399 13402 13405 13408 13411 13414 13417 13420 13423 13426 13429 13431 13434 13436 13439 13442 13445 13448 13451 13454 13457 13460 13463 13466 13469 13472 13475 13478 13480 13483 13486 13489 13491 13494 13497 13500 13503 13506 13509 13512 13515 13518 13520 13523 13526 13529 13532 13535 13538 13541 13544 13547 13549 13552 13555 13558 13561 13564 13567 13570 13573 13576 13579 13582 13585 13588 13591 13594 13597 13600 13603 13606 13609 13612 13615 13618 13621 13624 13626 13629 13632 13635 13638 13641 13644 13647 13650 13653 13656 13658 13661 13664 13666 13669 13672 13675 13678 13681 13684 13687 13690 13693 13696 13699 13702 13705 13708 13711 13714 13717 13720 13723 13725 13728 13731 13734 13737 13740 13743 13746 13749 13752 13755 13758 13761 13764 13767 13770 13773 13776 13779 13782 13785 13788 13791 13794 13797 13800 13803 13806 13809 13812 13815 13818 13821 13824 13827 13830 13832 13835 13838 13840 13843 13846 13849 13852 13854 13857 13860 13863 13865 13868 13871 13874 13877 13880 13883 13886 13889 13892 13895 13898 13900 13903 13906 13909 13912 13915 13918 13921 13924 13927 13930 13933 13936 13939 13942 13945 13948 13951 13954 13956 13959 13961 13964 13967 13970 13973 13976 13979 13982 13985 13988 13991 13994 13997 14000 14003 14006 14008 14011 14014 14016 14019 14022 14025 14027 14030 14033 14036 14039 14041 14044 14047 14049 14052 14055 14058 14061 14064 14067 14070 14073 14075 14078 14081 14084 14086 14089 14092 14094 14097 14100 14103 14106 14109 14112 14115 14118 14121 14124 14127 14130 14133 14136 14139 14142 14144 14147 14150 14153 14156 14158 14161 14164 14167 14170 14173 14176 14179 14182 14185 14188 14190 14193 14196 14198 14201 14204 14207 14210 14213 14216 14218 14221 14224 14227 14230 14233 14236 14239 14242 14244 14246 14249 14252 14255 14258 14261 14264 14266 14269 14272 14275 14278 14281 14284 14287 14290 14293 14296 14299 14302 14305 14308 14310 14313 14315 14318 14321 14324 14327 14330 14333 14336 14339 14342 14345 14348 14351 14353 14356 14359 14362 14365 14368 14371 14374 14377 14380 14383 14386 14389 14391 14394 14397 14400 14403 14406 14409 14412 14414 14417 14420 14423 14426 14429 14432 14435 14438 14440 14443 14446 14448 14451 14454 14457 14460 14463 14466 14468 14471 14474 14477 14480 14483 14486 14489 14492 14495 14498 14500 14503 14506 14509 14512 14515 14518 14520 14523 14526 14529 14532 14535 14538 14540 14543 14546 14549 14551 14554 14557 14560 14563 14566 14569 14572 14575 14578 14581 14584 14586 14589 14592 14595 14598 14601 14604 14606 14609 14612 14615 14618 14621 14623 14626 14629 14632 14635 14638 14640 14643 14646 14649 14652 14655 14658 14661 14664 14666 14669 14672 14675 14678 14681 14684 14687 14689 14692 14695 14697 14700 14703 14706 14709 14712 14715 14718 14721 14724 14727 14730 14733 14736 14739 14742 14745 14748 14751 14754 14757 14760 14763 14765 14768 14771 14773 14776 14779 14781 14784 14787 14790 14793 14796 14799 14802 14805 14808 14811 14814 14817 14820 14823 14826 14829 14832 14835 14838 14841 14844 14847 14850 14853 14856 14859 14862 14865 14868 14871 14874 14877 14880 14883 14886 14889 14892 14895 14898 14901 14904 14907 14910 14913 14916 14919 14922 14925 14928 14931 14934 14937 14940 14943 14946 14949 14952 14955 14958 14961 14964 14967 14970 14973 14976 14979 14981 14984 14987 14990 14993 14995 14998 15001 15004 15007 15010 15013 15015 15018 15021 15024 15027 15030 15033 15036 15039 15042 15045 15048 15050 15053 15056 15059 15062 15065 15067 15070 15073 15076 15079 15082 15085 15088 15091 15094 15097 15100 15103 15106 15109 15112 15115 15118 15121 15124 15126 15129 15132 15135 15138 15141 15144 15146 15149 15152 15155 15158 15161 15163 15166 15169 15172 15175 15178 15181 15184 15187 15190 15193 15195 15198 15201 15204 15207 15210 15213 15216 15219 15222 15225 15228 15230 15233 15236 15239 15242 15245 15248 15251 15254 15256 15259 15262 15265 15267 15270 15273 15276 15279 15281 15284 15287 15290 15293 15296 15299 15302 15304 15307 15309 15312 15314 15317 15320 15323 15326 15329 15332 15335 15338 15341 15344 15347 15350 15353 15355 15358 15361 15364 15367 15370 15373 15376 15379 15382 15384 15387 15390 15393 15396 15399 15402 15405 15408 15411 15414 15417 15420 15423 15426 15429 15432 15435 15438 15441 15444 15446 15449 15452 15455 15457 15460 15463 15466 15469 15472 15475 15478 15481 15484 15487 15490 15493 15496 15498 15501 15504 15507 15509 15512 15515 15517 15520 15523 15526 15528 15530 15533 15536 15539 15541 15544 15547 15550 15552 15555 15557 15559 15562 15564 15566 15568 15571 15574 15577 15580 15583 15586 15588 15591 15594 15596 15599 15602 15604 15607 15610 15613 15616 15619 15622 15625 15628 15631 15633 15636 15638 15641 15644 15647 15650 15653 15656 15659 15662 15665 15668 15671 15674 15677 15680 15682 15685 15688 15691 15694 15696 15699 15702 15705 15708 15710 15713 15715 15718 15721 15724 15727 15730 15732 15735 15738 15740 15743 15746 15749 15751 15754 15757 15760 15763 15766 15768 15771 15773 15775 15778 15781 15784 15786 15789 15792 15794 15796 15799 15802 15805 15808 15810 15813 15815 15818 15821 15824 15827 15830 15833 15835 15838 15841 15844 15847 15850 15853 15856 15859 15862 15865 15868 15871 15874 15877 15880 15882 15885 15888 15891 15893 15896 15898 15900 15903 15905 15908 15910 15913 15916 15918 15921 15924 15927 15929 15932 15935 15938 15941 15943 15946 15949 15952 15955 15958 15961 15963 15965 15968 15971 15974 15976 15978 15981 15984 15986 15989 15991 15994 15996 15998 16001 16004 16007 16010 16013 16016 16019 16022 16025 16028 16031 16034 16037 16039 16042 16045 16048 16051 16054 16057 16060 16063 16066 16069 16072 16075 16078 16080 16083 16086 16089 16091 16093 16096 16099 16102 16105 16108 16111 16114 16117 16120 16123 16126 16129 16132 16134 16137 16140 16143 16146 16149 16151 16154 16157 16160 16163 16166 16169 16172 16174 16177 16180 16182 16185 16188 16191 16194 16197 16200 16203 16206 16209 16212 16214 16217 16220 16223 16225 16228 16230 16233 16236 16239 16242 16245 16248 16251 16254 16257 16260 16263 16266 16269 16272 16275 16278 16281 16283 16285 16288 16291 16294 16297 16299 16302 16305 16308 16311 16314 16317 16319 16322 16325 16328 16331 16333 16335 16338 16341 16344 16346 16349 16352 16354 16357 16360 16363 16366 16369 16372 16375 16377 16380 16383 16385 16388 16390 16392 16395 16398 16400 16402 16405 16407 16410 16413 16416 16419 16422 16425 16428 16431 16434 16437 16439 16442 16445 16448 16450 16452 16455 16457 16460 16463 16466 16469 16472 16475 16477 16480 16482 16485 16488 16491 16494 16497 16500 16503 16506 16509 16512 16515 16517 16520 16523 16526 16529 16532 16535 16538 16541 16544 16547 16550 16553 16556 16559 16562 16565 16568 16571 16573 16576 16579 16582 16585 16587 16590 16593 16595 16597 16600 16603 16606 16609 16611 16614 16617 16620 16623 16626 16629 16632 16634 16637 16640 16643 16645 16648 16651 16654 16657 16660 16662 16665 16668 16671 16674 16677 16679 16682 16685 16688 16691 16694 16696 16699 16702 16705 16708 16711 16714 16717 16720 16723 16725 16728 16731 16734 16737 16739 16742 16744 16747 16749 16752 16755 16758 16760 16763 16765 16768 16771 16773 16776 16779 16782 16785 16788 16791 16793 16796 16799 16801 16804 16806 16809 16812 16815 16818 16821 16824 16827 16830 16832 16835 16838 16841 16844 16847 16850 16853 16856 16859 16861 16864 16867 16870 16873 16876 16878 16881 16883 16886 16889 16892 16895 16898 16901 16904 16907 16910 16913 16916 16919 16922 16925 16928 16931 16934 16937 16940 16943 16946 16949 16952 16955 16957 16960 16963 16966 16968 16971 16974 16976 16979 16982 16985 16988 16991 16994 16996 16999 17002 17005 17008 17011 17014 17017 17020 17023 17026 17029 17032 17034 17036 17039 17042 17045 17047 17050 17052 17055 17058 17061 17063 17066 17069 17072 17075 17077 17080 17082 17085 17088 17091 17094 17097 17100 17102 17105 17108 17111 17114 17117 17120 17122 17125 17127 17130 17133 17136 17139 17141 17144 17147 17150 17153 17156 17159 17162 17165 17168 17170 17173 17175 17178 17181 17184 17187 17190 17193 17196 17199 17202 17205 17208 17211 17214 17217 17220 17223 17226 17229 17232 17235 17238 17241 17244 17247 17250 17253 17255 17258 17261 17263 17266 17269 17272 17275 17278 17281 17284 17287 17290 17293 17296 17299 17302 17305 17308 17311 17314 17317 17320 17323 17326 17329 17332 17335 17338 17341 17344 17347 17350 17353 17355 17358 17361 17364 17367 17370 17373 17376 17379 17382 17385 17388 17391 17394 17397 17400 17403 17405 17408 17411 17414 17417 17420 17423 17426 17429 17432 17435 17438 17441 17444 17447 17449 17452 17455 17458 17461 17464 17467 17470 17473 17476 17479 17482 17485 17488 17491 17494 17497 17500 17503 17506 17509 17512 17515 17518 17521 17524 17527 17529 17532 17535 17538 17541 17544 17547 17550 17553 17556 17559 17562 17565 17568 17571 17574 17576 17579 17582 17585 17587 17590 17593 17596 17599 17602 17605 17608 17611 17614 17617 17620 17623 17626 17629 17632 17635 17638 17640 17643 17646 17649 17651 17654 17657 17660 17663 17665 17668 17671 17673 17676 17679 17682 17685 17688 17691 17694 17697 17700 17703 17706 17708 17711 17714 17717 17719 17722 17724 17727 17730 17733 17736 17739 17742 17745 17747 17750 17753 17756 17759 17762 17764 17767 17770 17773 17776 17779 17781 17784 17787 17790 17793 17796 17798 17801 17804 17807 17810 17813 17816 17819 17822 17825 17828 17831 17834 17837 17840 17842 17845 17848 17851 17854 17856 17859 17861 17864 17867 17870 17873 17876 17878 17881 17884 17887 17890 17892 17895 17898 17901 17904 17907 17910 17912 17915 17918 17920 17923 17926 17929 17932 17935 17938 17940 17943 17946 17949 17952 17954 17957 17960 17963 17965 17968 17971 17974 17977 17980 17983 17985 17988 17991 17994 17997 18000 18003 18006 18009 18012 18015 18018 18021 18024 18027 18030 18033 18036 18039 18042 18045 18048 18051 18053 18056 18058 18061 18064 18067 18070 18073 18076 18079 18082 18085 18088 18091 18094 18097 18100 18103 18106 18109 18112 18115 18117 18119 18122 18125 18128 18131 18134 18137 18140 18143 18145 18148 18151 18154 18157 18160 18163 18166 18169 18172 18175 18178 18180 18183 18186 18189 18191 18194 18197 18199 18202 18205 18208 18211 18214 18217 18220 18223 18226 18229 18232 18235 18238 18241 18244 18246 18249 18252 18255 18258 18260 18263 18266 18269 18271 18274 18277 18280 18283 18286 18289 18292 18295 18298 18300 18303 18306 18309 18312 18315 18318 18321 18324 18327 18330 18333 18336 18339 18342 18345 18348 18351 18354 18357 18360 18362 18365 18368 18371 18373 18376 18379 18382 18384 18387 18390 18393 18396 18399 18401 18404 18407 18409 18412 18415 18417 18419 18422 18425 18427 18430 18433 18436 18439 18442 18445 18447 18450 18453 18455 18458 18461 18463 18466 18469 18472 18475 18478 18481 18483 18486 18489 18492 18495 18498 18501 18504 18507 18510 18513 18516 18519 18522 18525 18528 18531 18534 18537 18539 18542 18545 18548 18551 18553 18556 18559 18562 18565 18568 18571 18574 18577 18580 18583 18586 18589 18592 18595 18598 18601 18604 18607 18610 18613 18616 18619 18622 18625 18628 18631 18634 18637 18640 18643 18646 18649 18652 18655 18657 18660 18663 18665 18668 18671 18674 18677 18679 18682 18685 18688 18691 18694 18697 18699 18702 18705 18708 18711 18714 18717 18720 18723 18726 18729 18732 18735 18738 18741 18744 18747 18750 18753 18756 18758 18761 18764 18766 18769 18771 18774 18777 18779 18782 18785 18788 18791 18794 18797 18800 18803 18806 18809 18812 18815 18817 18820 18823 18826 18829 18832 18834 18837 18840 18843 18846 18849 18852 18855 18858 18861 18864 18867 18870 18873 18876 18879 18882 18885 18888 18891 18894 18897 18899 18901 18904 18907 18910 18913 18916 18919 18922 18925 18928 18930 18933 18935 18938 18941 18943 18946 18948 18951 18954 18957 18960 18963 18966 18968 18970 18973 18976 18979 18982 18984 18987 18990 18993 18996 18999 19001 19004 19006 19009 19012 19015 19018 19021 19024 19027 19030 19033 19036 19039 19042 19045 19048 19050 19053 19056 19059 19062 19065 19068 19070 19073 19076 19079 19082 19085 19087 19090 19093 19096 19099 19102 19105 19108 19111 19114 19117 19120 19123 19126 19129 19132 19135 19138 19141 19144 19147 19150 19153 19156 19159 19162 19164 19167 19170 19173 19176 19179 19182 19185 19188 19191 19194 19197 19200 19203 19206 19209 19212 19215 19218 19221 19224 19227 19230 19233 19236 19239 19242 19245 19248 19251 19254 19257 19260 19263 19266 19269 19272 19275 19278 19281 19284 19287 19290 19293 19296 19299 19302 19305 19308 19311 19314 19316 19319 19322 19325 19328 19330 19333 19336 19339 19342 19345 19348 19351 19354 19357 19360 19363 19366 19369 19372 19375 19378 19381 19384 19387 19390 19392 19395 19398 19400 19403 19406 19409 19412 19414 19417 19420 19423 19426 19429 19432 19434 19437 19440 19443 19446 19449 19452 19455 19458 19461 19464 19467 19470 19472 19475 19477 19480 19483 19486 19489 19492 19495 19498 19501 19504 19507 19510 19513 19515 19518 19521 19524 19527 19530 19532 19535 19538 19541 19543 19545 19548 19551 19554 19557 19559 19562 19565 19568 19571 19574 19577 19580 19582 19585 19588 19591 19594 19597 19600 19603 19606 19609 19612 19614 19617 19620 19623 19626 19629 19632 19635 19638 19641 19644 19647 19650 19652 19654 19657 19660 19663 19666 19668 19670 19673 19676 19679 19682 19685 19688 19691 19693 19696 19699 19701 19704 19707 19710 19713 19715 19718 19721 19724 19727 19730 19733 19736 19738 19741 19744 19746 19748 19751 19754 19757 19760 19763 19766 19769 19772 19774 19776 19779 19781 19783 19786 19789 19792 19794 19797 19799 19802 19805 19808 19811 19814 19817 19820 19823 19826 19829 19832 19835 19838 19841 19844 19847 19850 19853 19856 19859 19862 19865 19868 19871 19874 19877 19880 19883 19886 19889 19892 19895 19898 19901 19903 19905 19908 19911 19914 19917 19920 19923 19926 19929 19932 19935 19938 19941 19943 19946 19949 19952 19955 19958 19961 19964 19966 19969 19972 19975 19978 19981 19984 19987 19989 19992 19995 19998 20001 20004 20007 20010 20013 20016 20018 20021 20024 20027 20030 20032 20034 20037 20040 20043 20046 20049 20052 20055 20058 20061 20064 20067 20070 20073 20075 20078 20081 20084 20087 20090 20093 20096 20099 20102 20105 20108 20111 20114 20117 20120 20123 20126 20129 20132 20135 20138 20141 20144 20147 20150 20153 20156 20159 20162 20164 20167 20169 20172 20175 20178 20180 20183 20185 20188 20191 20194 20197 20200 20203 20206 20209 20212 20215 20218 20221 20224 20227 20230 20233 20235 20238 20241 20244 20247 20250 20253 20256 20259 20262 20265 20268 20271 20274 20277 20280 20283 20286 20289 20292 20295 20298 20300 20303 20305 20308 20311 20314 20317 20320 20323 20326 20329 20332 20334 20337 20340 20342 20345 20348 20350 20353 20356 20358 20361 20364 20367 20370 20373 20376 20379 20382 20385 20388 20391 20394 20397 20400 20403 20406 20409 20412 20415 20417 20420 20423 20426 20428 20431 20434 20437 20440 20443 20446 20449 20452 20455 20458 20461 20464 20467 20470 20473 20476 20479 20482 20485 20488 20491 20494 20497 20500 20503 20506 20509 20512 20515 20518 20521 20524 20527 20530 20533 20536 20539 20542 20545 20548 20551 20554 20557 20560 20563 20566 20569 20572 20575 20578 20581 20584 20587 20590 20593 20596 20599 20602 20605 20607 20610 20613 20616 20619 20622 20625 20628 20631 20634 20637 20640 20643 20646 20649 20652 20655 20658 20661 20664 20667 20670 20673 20675 20678 20681 20684 20687 20690 20693 20696 20699 20702 20705 20708 20711 20713 20716 20719 20722 20725 20727 20730 20733 20736 20739 20742 20745 20748 20751 20754 20756 20759 20762 20765 20768 20771 20774 20777 20780 20783 20786 20789 20792 20795 20798 20801 20804 20807 20810 20813 20816 20818 20821 20824 20827 20830 20833 20836 20839 20842 20845 20848 20851 20854 20857 20860 20863 20866 20868 20871 20873 20876 20879 20882 20885 20888 20891 20894 20897 20900 20903 20906 20909 20912 20915 20918 20921 20924 20927 20930 20933 20936 20939 20942 20945 20948 20951 20954 20957 20960 20963 20966 20969 20972 20975 20978 20981 20984 20987 20990 20993 20996 20999 21002 21005 21008 21011 21014 21017 21020 21023 21026 21029 21032 21035 21038 21041 21044 21047 21050 21053 21056 21059 21062 21065 21068 21071 21074 21077 21080 21082 21085 21088 21091 21094 21097 21099 21102 21105 21108 21111 21114 21117 21120 21123 21126 21129 21132 21135 21138 21140 21143 21146 21149 21152 21155 21158 21161 21164 21166 21169 21172 21175 21178 21180 21182 21185 21188 21190 21193 21195 21198 21201 21204 21207 21210 21213 21215 21218 21221 21223 21226 21229 21232 21235 21238 21241 21243 21246 21249 21252 21255 21258 21261 21264 21267 21270 21273 21276 21279 21282 21285 21288 21291 21294 21297 21299 21302 21305 21308 21311 21314 21317 21320 21323 21325 21328 21331 21334 21337 21339 21342 21345 21348 21351 21354 21357 21360 21363 21366 21369 21372 21375 21378 21380 21383 21386 21389 21392 21394 21397 21400 21403 21406 21409 21412 21415 21417 21420 21423 21426 21429 21431 21434 21437 21440 21443 21446 21449 21451 21454 21457 21460 21463 21465 21468 21471 21474 21477 21480 21483 21486 21489 21492 21495 21498 21500 21503 21506 21509 21512 21515 21518 21521 21524 21527 21529 21532 21535 21538 21540 21543 21546 21549 21551 21554 21557 21560 21563 21566 21569 21572 21574 21577 21580 21583 21585 21588 21591 21594 21597 21600 21603 21606 21608 21611 21614 21616 21619 21622 21625 21628 21631 21634 21637 21640 21642 21645 21648 21651 21654 21657 21660 21663 21665 21668 21671 21673 21676 21679 21682 21685 21688 21691 21694 21697 21700 21702 21705 21708 21711 21714 21716 21719 21722 21724 21727 21730 21733 21736 21738 21741 21744 21747 21750 21753 21755 21758 21761 21764 21767 21770 21773 21776 21779 21782 21785 21788 21791 21794 21797 21799 21802 21805 21808 21811 21814 21817 21820 21823 21826 21828 21831 21834 21837 21840 21843 21846 21848 21851 21854 21857 21860 21863 21866 21869 21872 21875 21878 21881 21884 21887 21890 21893 21896 21899 21902 21905 21908 21911 21914 21917 21920 21923 21926 21929 21932 21935 21938 21941 21944 21947 21950 21953 21956 21959 21962 21965 21968 21971 21974 21977 21979 21982 21985 21988 21991 21994 21996 21999 22002 22005 22008 22011 22013 22016 22019 22022 22025 22028 22031 22034 22037 22040 22043 22046 22049 22052 22055 22058 22061 22064 22067 22070 22073 22076 22078 22081 22083 22086 22089 22092 22094 22097 22099 22102 22105 22108 22110 22113 22116 22119 22122 22125 22128 22131 22134 22137 22140 22143 22145 22147 22150 22153 22156 22159 22162 22165 22168 22171 22174 22176 22178 22181 22184 22187 22190 22193 22196 22199 22202 22205 22208 22210 22213 22216 22219 22222 22225 22228 22231 22234 22236 22238 22241 22244 22247 22250 22253 22255 22258 22261 22264 22267 22270 22272 22275 22277 22280 22283 22286 22289 22292 22294 22297 22300 22303 22306 22309 22312 22314 22317 22320 22323 22326 22329 22332 22335 22338 22341 22344 22346 22349 22351 22354 22356 22359 22362 22365 22368 22371 22374 22377 22380 22383 22386 22389 22392 22394 22397 22400 22403 22405 22408 22411 22413 22416 22419 22422 22425 22428 22430 22433 22436 22439 22442 22445 22448 22451 22454 22457 22460 22463 22466 22469 22472 22475 22478 22481 22484 22487 22490 22492 22495 22498 22501 22504 22507 22510 22513 22516 22519 22522 22525 22528 22531 22534 22537 22540 22543 22546 22549 22552 22555 22558 22561 22564 22567 22570 22573 22575 22578 22581 22584 22587 22590 22593 22596 22599 22602 22604 22607 22610 22613 22616 22619 22621 22624 22627 22630 22633 22636 22639 22642 22645 22648 22651 22654 22657 22660 22663 22666 22669 22672 22675 22678 22681 22684 22687 22690 22692 22695 22697 22700 22703 22706 22709 22712 22715 22718 22721 22723 22726 22729 22732 22734 22737 22740 22742 22745 22747 22750 22753 22756 22759 22762 22765 22767 22769 22771 22774 22777 22780 22782 22785 22788 22791 22794 22797 22800 22803 22806 22809 22811 22814 22817 22820 22822 22825 22828 22831 22834 22836 22839 22842 22845 22848 22851 22854 22857 22860 22863 22866 22869 22872 22875 22878 22881 22884 22887 22889 22892 22895 22898 22901 22904 22906 22909 22912 22914 22916 22919 22922 22924 22927 22930 22933 22936 22939 22942 22945 22948 22951 22953 22956 22958 22961 22963 22966 22969 22972 22975 22977 22980 22983 22985 22988 22991 22994 22996 22999 23002 23005 23008 23011 23013 23016 23019 23022 23024 23027 23030 23033 23036 23039 23041 23044 23047 23050 23053 23056 23059 23062 23065 23068 23070 23073 23076 23079 23081 23084 23087 23090 23093 23096 23099 23102 23105 23108 23111 23114 23116 23119 23122 23125 23128 23130 23133 23135 23138 23141 23144 23147 23150 23152 23154 23157 23160 23163 23166 23169 23172 23175 23178 23181 23183 23186 23189 23192 23195 23198 23200 23203 23206 23209 23212 23215 23218 23221 23224 23226 23229 23231 23234 23237 23239 23242 23245 23248 23251 23254 23257 23260 23263 23265 23268 23271 23273 23276 23279 23282 23285 23287 23290 23293 23296 23299 23302 23305 23308 23311 23314 23317 23320 23323 23326 23329 23332 23335 23338 23340 23343 23346 23349 23352 23355 23358 23361 23364 23367 23370 23373 23376 23378 23381 23384 23386 23388 23390 23393 23395 23398 23401 23404 23407 23410 23413 23415 23418 23420 23423 23426 23429 23432 23435 23438 23441 23444 23447 23450 23452 23455 23458 23461 23464 23467 23470 23472 23475 23478 23481 23483 23486 23489 23491 23493 23496 23499 23502 23505 23508 23510 23513 23516 23519 23521 23524 23527 23530 23533 23536 23539 23542 23545 23548 23551 23554 23557 23559 23562 23565 23568 23571 23574 23577 23580 23582 23585 23588 23591 23594 23597 23600 23603 23606 23609 23612 23614 23617 23620 23623 23626 23628 23631 23633 23636 23639 23642 23644 23647 23650 23653 23655 23658 23661 23664 23667 23670 23673 23676 23679 23682 23685 23688 23691 23694 23696 23699 23702 23705 23708 23710 23713 23716 23719 23722 23725 23728 23731 23734 23737 23740 23743 23746 23748 23751 23754 23756 23759 23762 23765 23768 23771 23774 23777 23780 23783 23786 23789 23791 23793 23796 23799 23802 23805 23808 23811 23814 23817 23820 23823 23826 23829 23832 23835 23838 23841 23844 23847 23850 23853 23856 23859 23861 23864 23867 23870 23873 23876 23879 23882 23885 23888 23891 23894 23897 23900 23903 23906 23909 23912 23915 23918 23921 23924 23927 23930 23933 23936 23938 23941 23944 23947 23950 23953 23956 23959 23962 23965 23968 23971 23974 23977 23979 23981 23984 23987 23990 23993 23996 23999 24001 24004 24007 24010 24012 24014 24017 24020 24023 24026 24029 24032 24034 24037 24040 24043 24046 24048 24051 24054 24057 24059 24062 24064 24067 24070 24073 24076 24079 24082 24085 24088 24091 24094 24097 24100 24102 24105 24108 24110 24113 24116 24119 24122 24125 24128 24131 24134 24137 24139 24142 24145 24148 24150 24152 24155 24158 24161 24164 24167 24170 24173 24176 24179 24182 24185 24187 24190 24192 24195 24198 24201 24204 24207 24210 24212 24215 24218 24220 24223 24226 24229 24232 24235 24238 24241 24243 24246 24249 24252 24255 24258 24261 24264 24267 24269 24272 24275 24278 24281 24284 24287 24290 24293 24296 24299 24302 24305 24307 24309 24312 24315 24318 24321 24323 24326 24329 24331 24334 24337 24340 24343 24346 24349 24352 24355 24358 24360 24363 24366 24369 24372 24374 24377 24380 24383 24386 24389 24392 24395 24398 24401 24404 24406 24409 24412 24415 24417 24420 24423 24426 24429 24432 24434 24437 24440 24443 24446 24449 24452 24455 24458 24461 24463 24466 24469 24472 24475 24478 24481 24484 24487 24490 24493 24496 24499 24502 24505 24508 24511 24514 24517 24520 24523 24526 24529 24532 24535 24538 24541 24544 24547 24550 24552 24554 24557 24560 24563 24566 24569 24572 24575 24578 24581 24584 24587 24590 24592 24595 24598 24601 24604 24607 24610 24613 24616 24619 24622 24625 24628 24631 24634 24637 24640 24643 24646 24649 24652 24654 24657 24660 24663 24666 24669 24672 24675 24678 24681 24684 24687 24690 24693 24696 24699 24701 24704 24707 24710 24713 24716 24719 24722 24725 24728 24731 24734 24737 24740 24742 24744 24747 24750 24753 24756 24759 24762 24765 24768 24771 24774 24777 24780 24783 24786 24789 24792 24795 24798 24801 24804 24807 24810 24813 24816 24819 24822 24825 24828 24831 24834 24837 24840 24843 24846 24849 24852 24855 24858 24861 24863 24866 24869 24872 24875 24877 24880 24883 24886 24889 24892 24895 24898 24901 24904 24907 24910 24913 24916 24919 24922 24925 24928 24931 24933 24936 24938 24941 24943 24946 24949 24952 24955 24958 24961 24964 24967 24970 24973 24976 24979 24982 24985 24987 24990 24993 24996 24999 25002 25005 25008 25011 25014 25017 25020 25022 25024 25027 25030 25033 25036 25039 25042 25045 25048 25051 25054 25057 25060 25063 25066 25069 25072 25075 25078 25081 25084 25087 25090 25093 25095 25098 25101 25104 25107 25110 25113 25115 25118 25121 25124 25127 25130 25133 25136 25139 25141 25144 25147 25150 25153 25155 25158 25161 25164 25167 25170 25173 25176 25179 25182 25185 25188 25191 25194 25196 25199 25202 25204 25207 25210 25213 25216 25219 25222 25224 25227 25230 25233 25236 25239 25242 25245 25248 25251 25254 25256 25259 25262 25265 25268 25270 25273 25276 25279 25282 25285 25288 25291 25294 25297 25300 25303 25306 25309 25312 25314 25317 25320 25322 25325 25328 25331 25334 25337 25340 25343 25345 25348 25351 25354 25356 25359 25361 25364 25367 25370 25373 25375 25378 25381 25384 25386 25389 25392 25395 25397 25400 25403 25406 25409 25412 25415 25418 25421 25424 25427 25429 25431 25434 25437 25439 25441 25444 25447 25450 25453 25456 25458 25461 25463 25465 25468 25471 25474 25477 25480 25483 25486 25489 25491 25494 25496 25499 25502 25505 25508 25511 25514 25517 25520 25523 25526 25529 25532 25535 25538 25541 25544 25547 25550 25553 25556 25559 25562 25565 25568 25571 25574 25577 25580 25583 25586 25589 25592 25595 25598 25601 25604 25607 25610 25613 25616 25619 25622 25625 25628 25631 25634 25637 25640 25643 25646 25649 25652 25655 25658 25661 25664 25667 25670 25673 25676 25679 25682 25685 25688 25691 25693 25696 25698 25701 25704 25707 25710 25713 25716 25719 25721 25724 25727 25730 25732 25735 25738 25741 25744 25747 25750 25753 25756 25759 25762 25765 25768 25770 25773 25776 25779 25782 25785 25788 25791 25793 25795 25798 25801 25804 25807 25810 25813 25816 25819 25821 25824 25827 25830 25833 25836 25838 25841 25844 25846 25849 25852 25855 25858 25861 25864 25867 25870 25873 25876 25879 25882 25885 25888 25891 25894 25897 25900 25903 25906 25909 25912 25915 25918 25920 25922 25924 25927 25930 25933 25936 25939 25942 25944 25947 25949 25952 25955 25958 25961 25964 25967 25970 25973 25976 25978 25981 25984 25986 25989 25992 25994 25996 25999 26002 26005 26007 26010 26012 26015 26018 26020 26022 26025 26028 26031 26034 26037 26039 26042 26044 26047 26050 26052 26055 26058 26060 26063 26065 26068 26070 26072 26075 26077 26080 26082 26084 26087 26090 26093 26096 26099 26101 26104 26106 26108 26111 26114 26116 26119 26121 26124 26126 26129 26131 26134 26137 26140 26142 26145 26148 26151 26154 26156 26159 26162 26165 26168 26171 26173 26176 26179 26182 26184 26186 26189 26192 26195 26198 26201 26204 26207 26210 26213 26216 26219 26221 26224 26226 26228 26230 26233 26236 26239 26242 26245 26248 26251 26254 26256 26259 26262 26265 26267 26270 26273 26276 26279 26282 26285 26288 26291 26294 26297 26300 26302 26304 26307 26310 26313 26316 26318 26320 26322 26325 26327 26330 26333 26335 26338 26341 26344 26347 26350 26353 26356 26358 26361 26364 26367 26369 26372 26375 26378 26381 26384 26387 26390 26393 26396 26399 26402 26405 26407 26410 26413 26416 26418 26421 26424 26427 26430 26433 26436 26438 26441 26444 26447 26450 26453 26456 26458 26461 26463 26466 26469 26472 26475 26478 26481 26484 26487 26490 26493 26496 26499 26502 26505 26508 26511 26514 26517 26520 26523 26526 26529 26532 26535 26538 26541 26544 26547 26550 26553 26556 26559 26562 26565 26568 26571 26574 26577 26580 26583 26586 26588 26590 26593 26596 26599 26602 26605 26608 26611 26613 26616 26619 26621 26624 26627 26630 26633 26636 26638 26641 26644 26647 26650 26653 26656 26659 26662 26665 26667 26670 26672 26675 26677 26680 26683 26686 26689 26692 26695 26698 26701 26704 26707 26710 26713 26716 26719 26722 26725 26728 26731 26734 26737 26739 26742 26745 26748 26750 26753 26756 26759 26761 26763 26766 26768 26770 26773 26776 26778 26781 26783 26786 26789 26791 26794 26797 26800 26803 26806 26809 26812 26815 26818 26821 26823 26826 26829 26832 26835 26837 26840 26843 26846 26849 26852 26855 26858 26861 26864 26867 26870 26873 26876 26879 26881 26884 26887 26890 26893 26896 26899 26901 26904 26907 26910 26913 26916 26919 26922 26925 26928 26931 26934 26936 26939 26941 26944 26946 26949 26952 26954 26957 26960 26962 26964 26967 26969 26972 26975 26978 26981 26984 26987 26990 26992 26994 26997 27000 27003 27006 27009 27012 27014 27017 27019 27022 27025 27027 27030 27033 27036 27039 27041 27044 27047 27050 27053 27056 27059 27062 27065 27068 27070 27073 27076 27079 27082 27084 27087 27090 27093 27096 27098 27101 27104 27107 27109 27112 27115 27118 27121 27124 27126 27129 27132 27135 27138 27141 27144 27146 27149 27152 27155 27158 27161 27163 27166 27169 27172 27175 27178 27181 27184 27187 27190 27193 27195 27198 27201 27204 27207 27210 27213 27216 27219 27222 27225 27228 27230 27233 27236 27239 27242 27245 27248 27251 27254 27257 27260 27263 27266 27269 27272 27275 27278 27281 27284 27286 27289 27292 27295 27298 27301 27304 27307 27310 27313 27316 27319 27322 27325 27328 27331 27333 27336 27339 27342 27345 27347 27350 27353 27355 27358 27361 27364 27367 27370 27372 27375 27378 27381 27384 27386 27388 27391 27394 27397 27400 27403 27406 27409 27411 27413 27416 27419 27422 27425 27428 27430 27433 27435 27438 27441 27443 27446 27449 27452 27455 27458 27461 27464 27467 27469 27472 27475 27478 27481 27484 27487 27490 27492 27495 27498 27501 27504 27507 27510 27512 27515 27518 27521 27524 27526 27529 27532 27535 27538 27541 27544 27547 27550 27553 27556 27559 27562 27564 27567 27570 27573 27576 27579 27582 27585 27588 27591 27594 27597 27600 27603 27606 27609 27612 27615 27618 27621 27624 27627 27630 27633 27636 27639 27642 27645 27648 27650 27653 27656 27659 27662 27665 27668 27671 27674 27677 27680 27683 27686 27689 27692 27695 27698 27701 27703 27706 27709 27712 27715 27718 27721 27724 27727 27729 27731 27734 27737 27740 27743 27746 27749 27752 27755 27758 27761 27764 27767 27769 27772 27775 27778 27781 27784 27787 27790 27793 27796 27799 27802 27805 27808 27811 27814 27817 27820 27823 27826 27829 27832 27835 27838 27841 27844 27847 27850 27853 27855 27857 27860 27863 27866 27869 27872 27874 27877 27880 27883 27885 27887 27890 27893 27896 27899 27902 27905 27908 27911 27914 27917 27920 27923 27926 27929 27931 27933 27936 27939 27941 27944 27947 27950 27952 27954 27956 27959 27962 27965 27968 27971 27974 27977 27980 27983 27985 27988 27991 27993 27996 27999 28002 28004 28006 28009 28011 28014 28017 28020 28023 28026 28029 28032 28035 28038 28041 28043 28046 28048 28051 28054 28057 28060 28063 28065 28068 28070 28073 28076 28078 28081 28084 28087 28090 28093 28096 28099 28102 28105 28108 28111 28114 28116 28119 28122 28125 28128 28131 28134 28137 28140 28143 28146 28149 28152 28155 28158 28161 28163 28166 28169 28172 28175 28178 28181 28184 28187 28190 28193 28196 28199 28202 28205 28208 28211 28214 28217 28219 28222 28225 28227 28229 28232 28234 28237 28240 28243 28246 28249 28252 28255 28258 28261 28264 28267 28270 28272 28275 28278 28281 28284 28286 28289 28292 28295 28298 28301 28304 28307 28310 28313 28316 28319 28322 28324 28327 28330 28333 28336 28339 28342 28345 28348 28351 28354 28357 28360 28363 28366 28369 28372 28375 28378 28381 28384 28387 28390 28393 28396 28399 28401 28404 28407 28410 28413 28416 28419 28422 28425 28428 28431 28434 28437 28440 28443 28446 28449 28452 28455 28458 28461 28464 28467 28470 28473 28476 28479 28482 28485 28488 28490 28493 28496 28498 28501 28504 28507 28510 28513 28516 28519 28522 28525 28528 28530 28533 28536 28539 28542 28545 28548 28551 28554 28557 28560 28563 28566 28569 28572 28575 28578 28581 28584 28587 28590 28593 28596 28599 28602 28605 28608 28611 28614 28617 28620 28623 28626 28629 28632 28635 28638 28641 28644 28647 28650 28653 28656 28659 28662 28665 28668 28671 28673 28676 28679 28682 28684 28687 28690 28693 28696 28699 28702 28705 28708 28711 28714 28717 28720 28723 28726 28729 28732 28735 28738 28741 28744 28747 28750 28753 28756 28759 28762 28765 28768 28771 28774 28776 28779 28782 28785 28788 28790 28793 28796 28799 28802 28805 28808 28811 28814 28817 28820 28823 28826 28829 28832 28835 28837 28840 28843 28846 28849 28852 28855 28858 28861 28864 28867 28870 28873 28876 28879 28882 28885 28888 28891 28894 28896 28899 28902 28905 28907 28910 28913 28916 28919 28922 28925 28928 28931 28934 28937 28940 28943 28946 28949 28952 28955 28958 28961 28963 28966 28969 28972 28975 28978 28980 28983 28986 28989 28991 28994 28997 29000 29003 29006 29009 29012 29015 29018 29021 29023 29026 29029 29032 29035 29038 29041 29044 29047 29050 29053 29056 29059 29062 29065 29068 29070 29073 29076 29079 29082 29084 29087 29090 29093 29096 29099 29102 29105 29108 29111 29114 29117 29120 29122 29125 29128 29130 29133 29136 29139 29142 29145 29148 29150 29153 29156 29159 29162 29165 29168 29170 29173 29175 29178 29181 29183 29186 29188 29191 29194 29197 29199 29202 29205 29208 29210 29213 29216 29219 29221 29224 29227 29230 29233 29236 29239 29242 29245 29247 29250 29253 29255 29258 29261 29264 29267 29270 29273 29276 29279 29282 29285 29288 29291 
</DataArray>
<DataArray type="UInt32" Name="types" format="ascii">
3 5 5 5 5 5 5 5 5 5 5 5 5 5 5 5 5 5 3 5 5 5 3 5 3 5 5 5 5 5 3 5 5 5 5 5 5 3 5 5 3 3 5 5 5 5 5 5 5 3 5 5 5 5 3 5 5 5 5 3 5 5 5 5 5 5 5 5 5 5 5 5 5 5 5 5 5 3 5 5 5 5 5 5 5 5 5 5 5 5 3 5 5 5 5 5 3 5 5 5 5 5 5 5 5 5 3 5 5 5 5 5 5 5 5 5 5 5 5 5 5 5 3 5 5 5 5 5 5 5 3 5 5 5 5 5 5 5 3 5 5 5 5 5 3 5 5 3 5 5 5 5 5 5 5 5 5 5 5 5 5 5 5 5 5 5 5 5 5 5 5 5 5 5 3 5 5 5 3 5 5 5 5 5 5 5 5 5 3 5 5 5 5 5 5 5 5 3 5 5 5 5 3 5 5 5 3 5 5 3 5 5 5 5 5 3 5 3 5 5 5 5 3 5 3 5 5 5 3 5 5 3 3 5 3 3 5 5 3 3 5 5 5 3 5 3 5 3 5 5 5 5 5 3 3 5 5 5 5 5 5 5 5 5 5 3 5 5 5 5 5 5 5 3 3 5 5 5 5 5 5 5 5 3 5 5 5 5 3 5 5 3 5 5 5 3 5 5 5 5 5 5 5 5 3 5 3 5 5 5 5 5 3 5 5 5 5 5 5 5 5 5 5 5 5 5 5 5 3 5 3 3 5 3 5 5 3 5 5 5 5 5 5 5 5 5 3 5 5 3 3 5 5 5 5 3 3 5 3 5 5 5 3 5 5 5 5 3 5 5 5 3 5 3 3 5 5 3 5 5 3 5 5 3 5 5 5 5 5 5 5 5 5 5 5 5 5 5 3 5 5 5 5 3 5 5 5 5 5 5 3 5 5 5 5 5 5 5 5 5 5 5 5 5 5 5 5 5 5 5 5 5 5 5 5 5 5 5 5 5 5 5 5 5 5 5 5 5 5 5 5 5 5 5 5 5 5 5 3 5 5 5 5 5 5 3 5 3 5 5 3 5 5 5 3 5 5 5 5 3 5 5 5 5 5 5 5 5 5 5 5 5 5 5 3 5 5 5 5 5 5 5 3 5 5 5 3 5 5 5 5 5 3 5 5 5 5 5 3 5 5 5 5 5 5 5 3 3 5 5 5 5 5 5 3 5 3 5 3 5 5 5 3 5 5 5 5 3 5 5 5 5 5 5 5 5 5 3 5 5 3 5 5 3 5 3 5 5 3 5 5 5 5 5 5 5 5 3 5 5 5 5 5 5 5 3 5 5 5 3 5 5 5 5 5 5 5 5 5 5 5 5 5 5 5 5 5 5 5 5 5 5 5 5 5 5 5 5 5 3 5 5 5 5 3 5 5 5 5 5 5 5 5 3 5 5 3 5 5 5 5 3 5 5 5 5 5 3 5 5 5 5 5 5 5 5 5 5 5 5 5 5 5 5 5 5 5 5 5 5 5 5 5 5 5 5 5 5 5 5 5 5 5 5 5 5 5 5 5 5 5 5 5 5 5 5 5 5 5 5 5 5 5 5 5 5 5 5 5 5 5 5 5 5 5 5 5 5 5 5 5 5 5 5 5 5 5 5 5 5 5 5 5 5 5 5 3 5 5 5 3 5 3 3 5 3 5 5 5 5 5 5 5 5 5 5 5 5 5 5 5 5 5 5 5 5 5 5 5 5 5 5 5 5 5 5 5 5 5 5 5 5 5 5 3 3 5 5 5 5 3 5 5 5 5 5 5 5 5 5 5 5 5 5 5 5 5 3 5 5 5 5 5 5 5 5 5 5 5 5 5 5 5 5 5 5 5 5 5 5 5 5 5 5 3 5 5 5 3 5 5 5 5 3 5 5 3 5 5 3 5 5 5 3 5 5 5 5 5 5 5 5 5 5 5 5 5 5 5 5 5 3 5 5 5 5 5 5 5 5 5 3 5 5 5 5 5 5 5 5 5 3 5 5 5 5 3 5 5 5 5 5 5 5 5 5 5 3 5 5 5 5 5 5 5 5 5 3 5 3 5 5 5 3 5 5 3 5 3 5 5 3 5 3 5 5 5 5 5 3 3 5 5 5 5 5 5 5 5 5 5 5 5 5 5 5 5 5 5 5 5 5 5 5 5 5 5 5 5 5 3 5 3 5 5 5 5 5 5 3 5 5 5 5 5 5 3 3 5 5 3 5 5 3 5 5 3 5 5 5 5 3 5 5 5 5 3 5 5 3 5 3 5 5 5 5 5 5 5 5 5 5 5 5 5 5 5 5 5 5 5 5 5 5 5 5 5 5 5 5 5 3 5 5 5 5 5 5 5 5 5 5 5 3 5 5 5 3 5 5 3 3 5 5 5 3 5 5 3 3 5 5 5 5 5 5 5 3 5 5 5 5 5 3 5 3 5 3 5 5 5 5 5 5 3 5 5 3 5 5 5 5 5 5 5 3 5 5 5 5 5 3 5 5 5 5 5 5 5 5 5 5 5 5 5 5 3 5 5 5 5 5 5 3 5 5 5 3 3 5 5 5 5 3 5 5 5 5 5 3 3 5 5 5 3 5 5 5 5 5 5 3 5 3 5 5 3 5 3 5 5 5 5 5 5 3 5 5 5 5 5 5 5 5 5 5 5 5 5 5 5 5 5 3 5 5 5 5 5 3 5 5 3 5 5 5 5 5 5 5 5 5 5 5 5 5 5 5 5 5 5 5 5 5 5 5 5 3 5 5 5 3 5 5 5 3 3 5 3 5 5 3 5 5 3 5 5 3 5 5 5 5 5 5 5 5 5 5 5 5 5 3 5 5 3 5 5 3 5 5 5 5 5 5 5 5 3 3 5 5 3 5 5 5 3 5 5 5 3 5 5 5 5 5 5 5 5 5 5 5 5 5 5 5 5 3 5 5 3 5 5 5 5 5 3 5 3 5 3 3 5 3 5 5 3 5 3 5 3 5 5 5 5 5 5 3 5 5 5 5 5 5 5 5 5 3 5 3 5 5 5 5 5 5 5 5 5 5 5 5 5 5 5 3 5 5 5 3 5 5 5 5 5 5 5 5 5 5 5 5 5 5 5 5 3 5 5 5 3 5 3 5 5 5 5 5 5 5 5 5 5 5 5 3 5 5 5 5 5 3 5 3 5 3 5 5 3 5 5 5 3 3 5 5 3 5 3 3 3 5 3 5 3 5 3 3 5 5 5 5 5 3 3 5 5 5 5 5 3 5 5 5 3 5 3 5 3 3 5 5 5 3 5 3 5 5 5 3 5 5 5 3 3 5 5 3 5 5 5 5 3 5 3 5 5 3 5 3 5 5 3 5 5 5 5 5 3 5 5 5 3 5 5 5 3 5 5 5 3 5 3 5 5 5 5 5 5 5 5 5 5 5 5 3 5 5 5 3 5 5 5 5 5 5 5 3 5 5 5 5 5 5 5 5 5 5 5 5 5 5 5 5 5 5 5 5 5 5 5 5 5 5 5 5 5 5 5 5 5 5 5 5 5 5 5 3 5 5 5 5 3 5 5 5 5 5 5 5 5 5 3 5 5 5 5 5 5 5 3 5 5 5 3 5 5 5 3 5 5 3 5 5 5 3 5 5 5 5 5 5 3 5 3 5 5 3 5 5 5 5 5 5 5 5 3 5 5 5 3 5 5 5 5 5 5 5 5 5 5 3 5 5 3 5 5 5 5 5 5 5 3 5 5 5 5 5 5 5 5 5 5 5 5 3 5 5 5 5 3 5 5 3 5 5 5 3 5 5 5 5 5 5 5 5 5 5 5 5 5 5 5 5 5 5 5 5 5 5 3 5 5 5 5 5 5 5 5 5 5 5 5 5 5 5 5 3 5 5 5 5 5 5 5 5 5 3 5 5 5 5 5 5 5 5 5 5 5 5 5 5 5 5 5 3 3 3 3 5 5 5 5 3 5 3 5 5 3 3 5 3 5 5 3 5 5 3 5 5 3 5 5 3 5 5 5 5 5 5 5 3 5 5 5 5 5 5 5 5 5 5 5 3 5 5 5 3 5 5 5 3 5 5 5 5 5 3 5 5 5 3 3 5 5 5 3 5 3 5 5 5 5 5 3 5 5 5 5 5 5 5 5 5 5 5 5 5 5 5 5 5 5 5 3 5 3 5 5 5 5 3 5 5 5 5 3 5 5 5 3 5 5 5 5 3 5 5 3 5 3 5 5 5 5 5 3 3 5 3 3 5 5 3 5 5 5 5 5 5 5 5 5 5 3 5 5 5 5 5 5 5 5 3 5 5 5 5 5 5 5 5 3 5 5 5 5 3 5 5 5 3 5 5 5 5 5 5 5 5 5 5 5 5 5 5 5 5 5 5 5 5 5 5 5 5 5 5 5 5 5 5 5 5 5 5 5 3 5 3 5 5 5 5 5 5 5 5 5 5 5 5 5 5 5 5 5 5 3 5 5 5 5 5 3 5 5 5 3 5 5 3 5 5 5 5 5 3 5 3 5 5 5 5 5 3 5 5 5 3 5 5 3 5 3 5 5 3 5 5 5 3 3 5 5 5 3 5 5 5 5 5 5 5 5 5 5 3 3 5 5 3 5 5 3 5 5 5 5 5 3 5 5 5 3 3 5 5 5 5 3 3 3 5 3 5 5 5 5 5 5 5 3 5 5 5 5 5 5 5 5 5 5 5 5 5 5 3 5 5 5 5 5 3 5 5 5 5 3 5 5 5 5 5 5 3 5 5 5 5 5 5 5 5 3 5 5 5 5 5 5 3 5 5 5 5 3 5 5 5 5 5 5 5 5 5 5 5 3 5 5 5 5 5 3 5 5 3 5 5 5 3 5 3 5 5 3 3 5 5 5 3 5 5 5 5 3 5 5 5 5 5 5 5 5 5 5 5 5 5 5 3 3 5 5 5 3 5 3 5 3 5 3 5 5 5 3 5 5 5 3 5 5 5 3 3 5 3 5 5 5 5 3 5 3 5 5 5 5 5 5 5 5 5 5 5 3 5 5 5 5 5 5 3 5 3 5 5 3 5 5 3 5 5 5 5 5 5 5 5 5 3 5 5 5 5 5 5 5 5 5 5 5 5 5 5 5 3 3 5 5 5 5 3 5 5 5 5 5 5 3 5 5 5 5 3 5 5 5 5 5 5 3 5 5 3 5 5 5 5 5 3 5 5 5 3 5 5 5 5 5 3 5 3 5 3 5 5 5 5 5 5 5 5 5 5 5 5 5 3 5 5 5 3 5 5 5 5 5 5 5 3 5 5 5 5 5 5 5 5 3 5 5 3 5 5 3 5 5 5 5 5 5 5 5 3 5 5 5 5 5 5 3 5 5 5 5 5 5 5 5 5 3 5 5 5 5 5 3 5 5 5 5 5 5 5 5 5 3 5 5 5 5 5 5 3 5 5 5 5 5 5 5 5 3 5 5 5 3 5 5 5 5 5 5 5 5 5 5 5 5 5 5 5 5 5 5 5 5 5 5 5 5 5 5 5 5 5 5 5 5 5 5 5 5 5 5 5 3 5 5 5 3 5 5 3 5 5 5 5 5 5 5 5 5 5 5 5 5 5 5 5 5 5 5 5 5 5 5 5 5 5 5 3 5 3 5 5 5 5 5 5 5 3 5 5 3 5 5 5 3 5 5 5 5 5 3 5 5 5 5 5 5 5 5 5 5 5 5 3 5 5 5 3 5 5 3 5 5 5 5 5 5 5 5 5 5 5 5 3 5 3 5 5 5 5 5 5 5 5 5 3 5 5 5 5 5 5 5 5 3 5 5 5 5 5 3 5 5 5 5 5 5 5 5 5 5 5 5 5 3 5 3 3 5 5 5 5 5 5 3 5 5 5 5 3 5 5 5 3 5 5 5 5 5 5 5 5 5 5 3 5 5 5 5 3 5 5 3 5 3 5 5 5 5 3 5 5 5 5 5 3 3 5 5 5 5 5 5 3 5 5 3 5 5 3 5 5 5 5 5 3 5 5 5 5 5 5 5 5 5 5 3 5 5 5 5 5 5 5 5 5 5 5 5 5 5 5 3 5 5 5 3 5 5 3 5 5 5 5 5 5 3 5 3 5 5 5 5 5 5 5 5 5 3 3 5 5 3 5 3 3 5 5 5 5 5 5 5 5 5 3 5 5 5 5 5 5 5 5 5 5 5 5 5 5 5 5 5 3 5 5 5 5 5 5 5 5 5 5 5 5 5 5 5 5 5 5 3 5 5 5 3 5 5 5 3 5 3 5 5 3 5 5 5 3 5 5 3 5 3 5 5 3 5 3 5 5 3 5 5 5 5 5 5 3 5 5 3 5 5 5 5 5 5 5 5 5 5 3 5 3 5 5 5 3 3 5 5 5 5 3 5 5 5 5 5 3 5 5 5 5 5 3 5 5 5 3 5 5 3 5 5 5 5 5 5 5 3 5 5 5 3 5 5 5 3 5 5 5 5 5 5 3 5 5 3 5 5 5 5 3 5 3 5 5 3 5 5 5 5 3 5 5 5 5 5 5 5 5 5 5 5 5 5 5 5 5 5 5 5 5 5 5 5 5 5 5 5 5 5 5 5 5 5 5 5 5 3 5 5 5 3 5 5 5 5 5 5 5 5 5 5 5 5 5 5 5 3 5 5 5 5 5 5 5 3 5 5 5 5 5 5 5 5 5 5 5 5 3 5 3 5 5 5 5 5 3 5 5 3 5 5 3 3 5 5 3 5 5 3 5 5 3 5 5 5 5 5 3 5 5 5 5 5 5 5 5 3 5 5 5 5 5 5 5 5 3 5 5 5 5 5 3 5 5 5 5 5 5 5 5 5 5 5 5 5 5 5 5 3 5 5 3 5 5 5 5 5 5 5 5 5 5 5 5 5 5 5 3 5 5 5 5 5 5 5 3 5 5 5 5 5 5 5 5 5 5 5 5 5 3 5 5 5 5 5 5 5 3 3 5 5 5 5 5 5 3 5 5 5 5 5 5 5 5 5 5 5 5 5 5 5 3 5 5 5 5 5 5 5 5 5 5 3 5 5 5 5 5 5 5 5 5 5 3 5 5 3 5 5 5 5 5 5 5 5 5 5 3 3 5 5 3 5 5 5 5 5 5 3 5 3 5 5 5 5 5 3 5 5 5 5 5 5 5 5 5 5 3 5 5 5 5 5 3 5 5 5 5 5 5 5 5 5 5 5 5 5 5 5 5 5 5 5 5 5 5 5 5 5 5 5 5 5 5 3 3 5 5 5 5 3 5 5 5 5 5 5 5 5 5 5 5 5 5 5 5 5 5 5 5 5 5 5 5 5 5 5 5 5 3 5 5 5 5 5 5 5 5 5 5 5 5 5 5 5 5 5 5 5 5 5 5 3 5 3 5 5 5 5 5 5 5 5 5 5 5 5 5 5 5 5 5 5 3 5 5 3 5 5 5 5 5 5 5 3 3 3 5 5 5 5 5 3 5 5 5 5 5 5 5 5 5 5 5 5 5 5 5 5 5 5 5 5 5 5 5 5 5 5 5 3 5 5 5 5 3 5 5 3 5 5 3 5 5 3 5 3 5 5 5 5 5 5 5 5 5 5 5 5 3 5 5 5 3 5 5 5 5 5 5 5 5 5 5 3 5 5 3 3 5 5 5 3 3 3 5 5 5 5 5 3 5 3 3 5 5 3 3 5 3 5 5 3 5 5 5 3 3 3 3 5 5 5 5 5 5 5 5 5 5 5 5 5 5 5 5 5 5 5 5 5 5 3 5 5 5 3 5 5 5 5 5 5 5 5 5 5 5 5 5 5 5 5 5 5 5 5 5 5 5 5 5 3 5 5 5 3 5 5 5 5 3 5 5 5 3 5 5 5 5 5 5 5 5 5 5 5 5 5 3 5 3 5 5 5 5 5 5 5 5 5 5 5 5 5 5 5 5 5 5 5 5 5 5 5 5 3 3 3 5 5 5 5 5 5 3 5 5 5 5 5 5 5 5 5 5 5 3 5 5 5 5 5 5 5 5 5 5 5 5 5 5 5 3 5 5 3 3 5 5 3 5 5 5 5 5 5 5 5 5 5 5 5 5 5 5 5 5 5 5 5 5 5 3 5 5 3 5 5 5 5 5 5 5 5 5 5 5 5 3 5 5 5 5 5 5 5 5 5 5 3 5 5 5 5 5 5 5 5 5 3 5 5 3 5 5 5 3 5 5 5 3 5 5 5 5 5 5 3 5 5 5 5 5 5 5 5 5 3 5 5 3 5 3 5 5 3 5 5 5 5 5 5 5 5 5 5 5 5 5 3 5 5 5 5 5 5 5 5 5 5 5 3 5 5 5 5 5 3 3 3 5 5 5 5 5 5 5 5 5 5 5 5 5 5 5 5 5 5 5 5 5 5 5 5 5 3 5 3 5 5 3 5 5 5 5 5 5 5 3 5 5 5 5 5 5 5 5 5 3 5 5 3 5 5 5 5 5 5 5 5 3 5 5 5 5 3 5 5 5 5 5 5 5 5 5 5 5 5 5 5 5 5 5 5 5 5 5 5 5 5 5 5 5 5 3 5 5 3 5 5 5 5 5 5 5 3 5 5 5 5 5 5 3 5 5 5 5 5 5 5 5 5 5 3 5 5 5 5 5 5 5 5 5 5 3 5 5 5 5 5 3 5 5 3 5 5 5 5 5 5 5 5 5 5 5 5 5 5 5 5 3 5 5 5 5 5 5 5 5 5 5 5 5 5 5 5 5 5 5 5 3 5 5 5 5 3 5 5 5 3 5 5 5 3 5 5 5 3 5 3 5 5 5 5 5 5 5 5 5 5 5 5 5 5 5 5 5 5 5 5 5 3 5 5 5 3 5 5 5 5 5 3 5 5 5 3 5 5 5 5 5 5 5 5 5 5 5 3 3 5 5 5 5 5 3 5 5 5 5 3 5 5 3 5 5 5 5 5 5 5 5 5 5 5 5 5 5 5 5 5 5 5 5 5 5 5 5 5 5 5 5 5 5 5 5 5 5 5 5 5 3 5 5 5 5 5 3 5 3 5 5 5 5 5 5 5 5 5 5 5 5 5 5 5 5 5 5 5 5 5 5 3 5 5 5 3 3 5 5 3 5 5 5 5 5 5 5 5 5 5 5 5 3 3 5 5 5 5 5 5 3 5 5 5 5 3 5 5 5 5 3 5 5 5 5 3 5 5 5 5 5 5 3 3 5 5 5 5 3 5 5 5 5 5 5 5 5 5 5 3 5 5 5 3 5 5 5 5 3 3 5 5 5 5 5 5 5 5 5 5 5 3 5 5 5 3 5 5 5 5 5 5 5 5 3 5 5 5 5 5 5 5 5 5 5 5 5 5 5 5 5 5 5 5 5 5 5 5 5 5 5 5 5 5 5 5 5 5 5 5 5 5 5 5 5 3 5 5 5 5 5 5 5 5 5 5 5 5 5 5 5 5 5 5 5 5 5 5 5 5 5 5 5 5 5 5 5 5 5 3 5 5 5 3 5 5 5 5 5 5 5 3 5 3 5 5 5 5 5 5 5 5 5 5 3 5 5 5 5 3 5 3 5 5 5 5 5 5 5 5 5 5 5 5 5 5 5 5 5 5 5 5 5 5 5 5 5 5 5 5 5 5 5 5 5 5 5 5 5 5 5 5 5 5 5 5 5 5 5 5 5 5 5 3 5 5 5 5 5 5 5 5 5 5 5 5 3 5 5 5 3 5 3 3 5 5 5 5 5 5 5 5 3 5 5 3 5 5 5 3 5 5 5 5 5 5 5 5 3 5 5 3 5 5 5 5 5 5 5 3 3 5 5 5 5 5 3 5 5 5 3 5 5 5 5 5 5 5 5 3 5 5 5 3 5 5 5 5 5 3 5 5 5 3 5 5 5 5 5 5 5 5 5 5 5 5 5 5 5 5 5 5 5 5 5 5 5 5 5 5 5 5 5 5 5 5 5 5 5 5 5 5 5 5 5 5 5 5 5 5 5 5 5 3 5 5 5 3 5 5 5 3 5 5 5 5 5 5 5 5 3 5 5 3 5 5 5 5 5 5 5 5 5 5 5 3 5 5 5 5 5 5 5 5 5 3 5 3 5 3 3 5 5 5 5 5 5 5 5 5 5 5 5 5 5 5 5 5 5 5 5 5 5 5 5 5 5 5 5 5 5 5 5 5 5 5 5 5 5 5 5 5 5 5 5 5 5 5 5 5 5 5 5 5 5 5 5 5 5 5 5 5 5 5 5 5 5 5 5 5 5 5 5 5 5 5 5 5 5 5 5 5 5 5 5 5 5 5 5 5 5 5 5 5 5 5 5 5 5 5 5 5 5 3 5 5 3 5 5 3 5 5 3 5 5 5 5 5 5 5 5 5 5 5 5 5 5 5 5 5 5 5 5 5 5 5 5 5 5 3 3 5 5 5 5 5 5 5 5 5 5 5 5 3 5 5 5 3 5 3 5 5 5 3 5 5 5 5 5 5 3 5 5 5 5 5 5 5 5 5 3 5 5 5 5 5 5 3 5 5 3 5 5 5 5 5 5 3 5 5 5 5 5 5 5 5 5 5 5 5 5 5 5 5 5 5 5 5 5 3 5 3 5 5 5 5 5 5 5 5 5 5 5 5 5 5 3 5 5 5 3 5 5 5 5 5 5 5 5 5 3 5 5 5 5 5 5 5 5 5 3 5 5 5 5 5 5 5 5 5 5 5 5 5 5 5 5 5 5 5 5 5 5 5 5 5 3 5 5 5 5 5 5 5 5 5 5 3 5 5 3 5 5 5 5 5 5 5 5 5 5 5 5 5 5 5 5 5 5 5 3 5 5 5 5 5 5 5 5 5 5 5 5 5 5 5 5 5 5 5 5 5 5 5 5 5 5 5 5 5 5 5 5 5 5 5 3 5 5 3 5 5 5 5 3 5 5 5 3 5 5 5 5 5 5 5 5 5 5 5 3 5 5 5 5 5 5 5 5 5 5 5 5 5 5 5 5 5 5 3 5 3 5 5 5 5 5 5 5 5 5 5 5 5 5 5 5 3 5 5 3 5 5 5 3 5 5 5 5 3 5 5 3 5 5 5 5 5 5 5 5 3 5 5 5 3 5 5 3 5 5 5 5 5 5 5 5 5 5 5 5 5 5 5 5 3 5 5 5 5 3 5 5 5 5 5 5 5 5 5 5 3 5 5 3 5 5 5 5 5 5 3 5 5 5 5 5 5 5 5 3 3 5 5 5 5 5 5 3 5 5 5 5 5 5 5 5 5 5 5 5 5 5 3 5 3 5 5 5 5 5 5 5 5 5 5 5 5 3 5 5 5 5 5 5 5 5 5 5 5 5 3 5 5 5 5 5 5 5 3 5 5 5 5 5 5 5 5 3 5 5 3 5 5 5 5 5 5 3 5 5 5 5 5 5 5 5 5 5 3 5 5 5 5 5 5 3 5 5 5 5 5 5 3 5 5 5 3 5 5 5 5 5 5 5 5 5 5 5 3 5 5 5 5 5 5 3 5 5 5 5 5 3 5 5 5 5 5 3 5 5 5 5 5 5 5 5 3 5 5 5 5 5 5 5 3 5 5 3 5 5 5 5 5 5 5 5 5 5 5 5 5 5 5 5 5 5 5 5 5 5 3 5 5 3 5 5 3 5 5 5 5 5 5 5 5 5 5 5 5 5 5 5 5 5 5 5 5 5 5 5 5 5 5 5 5 5 5 5 5 5 5 5 5 5 5 5 5 5 5 5 5 5 5 5 5 5 5 5 5 5 5 5 5 5 5 5 5 5 5 5 5 5 5 3 5 5 5 5 3 5 5 5 5 5 5 3 5 5 5 5 5 5 5 5 5 5 5 3 5 5 5 5 5 3 5 5 5 5 5 5 5 5 5 5 5 5 5 5 5 5 5 5 5 3 5 5 5 5 5 5 3 5 5 5 5 5 3 5 5 5 5 5 5 5 5 5 5 3 5 5 5 5 5 5 5 5 5 5 5 3 5 5 5 5 5 5 5 5 3 5 5 5 3 5 5 5 5 3 5 5 5 5 5 5 5 3 5 3 5 3 5 5 5 5 5 5 5 5 5 5 5 5 5 3 5 5 5 5 5 5 5 5 5 3 5 5 5 5 5 5 5 5 5 5 5 5 5 5 5 5 5 5 5 5 3 5 5 5 3 5 5 5 5 5 5 5 5 5 5 5 5 5 3 5 5 5 3 5 5 3 5 5 5 3 3 5 5 5 3 5 5 5 3 5 3 3 5 3 3 3 5 5 5 5 5 5 3 5 5 3 5 5 3 5 5 5 5 5 5 5 5 5 3 5 3 5 5 5 5 5 5 5 5 5 5 5 5 5 5 3 5 5 5 5 3 5 5 5 5 3 5 3 5 5 5 5 5 3 5 5 3 5 5 5 3 5 5 5 5 5 3 5 3 3 5 5 5 3 5 5 3 3 5 5 5 5 3 5 3 5 5 5 5 5 5 3 5 5 5 5 5 5 5 5 5 5 5 5 5 5 5 3 5 5 5 3 5 3 3 5 3 5 3 5 5 3 5 5 5 3 5 5 5 5 3 5 5 5 5 5 5 3 3 5 5 5 3 3 5 5 3 5 3 5 3 3 5 5 5 5 5 5 5 5 5 5 5 5 5 3 5 5 5 5 5 5 5 5 5 5 5 5 5 3 5 5 5 3 3 5 5 5 5 5 5 5 5 5 5 5 5 5 3 5 5 5 5 5 3 5 5 5 5 5 5 5 3 5 5 3 5 5 5 5 5 5 5 5 5 5 3 5 5 5 3 5 3 5 5 5 5 5 5 5 5 5 5 5 5 5 5 5 5 5 3 3 5 5 5 5 3 5 5 5 5 5 5 3 5 5 5 5 3 3 5 5 5 3 5 5 3 5 5 5 5 5 5 5 3 5 5 3 5 3 3 5 5 3 3 5 3 5 5 5 5 5 5 5 5 5 5 3 5 5 5 3 3 5 3 5 5 5 5 5 5 3 5 3 5 5 5 5 5 5 5 5 5 5 5 3 5 5 5 5 5 5 5 5 5 5 5 5 5 5 5 5 5 5 3 5 5 5 5 3 5 5 3 3 5 5 5 5 3 5 5 5 5 5 5 5 3 5 5 5 3 5 5 5 5 5 3 5 5 5 5 5 3 5 5 5 5 5 3 5 5 5 5 5 5 5 5 5 3 5 5 5 5 3 5 3 5 3 5 5 5 3 5 3 5 5 3 5 5 5 5 5 5 3 5 5 3 5 3 5 5 5 5 5 5 5 5 3 5 5 5 5 5 5 5 5 5 3 5 5 5 5 5 3 5 3 5 5 5 5 5 5 5 5 5 5 5 5 5 5 5 5 5 5 5 5 5 5 5 5 3 5 5 5 3 5 5 3 5 5 5 5 5 5 3 5 5 5 5 5 5 5 5 5 5 5 5 3 3 5 5 5 3 5 3 5 5 5 3 5 5 5 5 3 5 3 5 5 5 5 5 5 3 5 5 5 5 5 5 3 5 3 5 5 5 5 3 5 5 5 5 5 5 5 5 5 3 5 3 5 5 5 5 5 5 5 5 5 5 5 5 5 5 5 5 5 5 5 5 5 5 5 5 5 5 3 5 5 3 5 5 5 5 5 5 5 5 5 5 5 5 5 5 5 5 5 5 5 5 5 5 5 5 5 5 5 5 5 5 3 5 5 5 5 5 5 5 5 5 5 5 5 5 5 5 5 3 5 5 5 5 5 5 5 5 5 5 5 5 5 5 3 5 5 5 5 5 5 5 5 5 5 5 5 5 5 5 5 5 5 5 5 5 5 5 5 5 5 3 5 5 5 5 5 5 5 5 5 5 5 5 5 5 5 3 5 5 5 3 5 5 5 5 5 5 5 5 5 5 5 5 5 5 5 5 5 3 5 5 5 3 5 5 5 5 3 5 5 3 5 5 5 5 5 5 5 5 5 5 5 3 5 5 5 3 5 3 5 5 5 5 5 5 5 3 5 5 5 5 5 3 5 5 5 5 5 3 5 5 5 5 5 3 5 5 5 5 5 5 5 5 5 5 5 5 5 5 3 5 5 5 5 3 5 3 5 5 5 5 5 3 5 5 5 5 3 5 5 5 5 5 5 3 5 5 3 5 5 5 5 5 5 3 5 5 5 5 3 5 5 5 3 5 5 5 5 5 5 3 5 5 5 5 5 5 5 5 5 5 5 5 5 5 5 5 5 5 5 5 5 5 3 5 3 5 5 5 5 5 5 5 5 5 5 5 5 5 5 5 5 5 5 5 3 3 5 5 5 5 5 5 5 5 3 5 5 5 5 5 5 5 5 5 5 5 3 5 5 5 3 5 5 3 5 5 5 5 5 5 5 5 5 5 5 5 5 5 5 3 5 5 5 5 3 5 5 5 3 5 5 5 5 5 5 5 5 5 3 5 5 5 5 5 5 5 5 5 5 5 5 5 5 5 5 5 5 5 5 3 5 5 5 3 5 5 5 3 5 5 5 5 5 3 5 5 3 5 5 3 3 5 5 3 5 5 5 5 5 5 3 5 5 3 5 5 3 5 5 5 5 5 5 3 5 5 5 5 5 5 5 5 5 5 5 5 5 5 5 5 5 5 3 5 5 5 5 3 5 5 5 5 5 5 5 5 5 5 5 5 5 5 5 5 5 5 5 5 5 5 5 5 5 5 5 5 5 5 5 5 5 5 3 5 5 3 5 5 5 5 3 5 5 5 5 5 5 3 5 5 5 5 5 5 5 5 5 5 5 5 5 5 5 5 5 5 5 3 5 5 3 5 3 5 5 3 5 5 5 5 5 5 5 5 5 5 5 5 3 5 5 5 5 5 3 5 5 5 5 5 5 5 5 5 5 5 5 5 5 5 5 5 5 5 5 5 3 3 5 5 5 5 5 5 5 5 5 3 5 3 5 5 3 5 3 5 5 5 5 5 5 3 3 5 5 5 5 3 5 5 5 5 5 3 5 3 5 5 5 5 5 5 5 5 5 5 5 5 5 5 3 5 5 5 5 5 5 3 5 5 5 5 5 3 5 5 5 5 5 5 5 5 5 5 5 5 5 5 5 5 5 5 5 5 5 5 5 5 5 3 5 5 5 5 5 5 5 5 5 5 5 5 5 5 5 5 5 5 5 5 5 5 5 5 5 5 5 5 5 5 5 5 5 5 5 5 5 5 5 5 5 5 5 5 5 5 5 5 5 5 3 5 5 5 5 3 5 5 5 5 5 5 5 5 5 5 5 5 5 5 5 5 5 5 5 5 3 5 5 3 5 5 5 5 3 5 5 5 5 5 5 3 5 5 5 5 5 5 5 5 5 5 5 5 3 5 3 5 5 5 5 5 5 5 5 5 5 5 5 3 5 5 5 5 5 3 5 5 5 3 3 5 5 5 5 3 5 5 5 5 5 5 5 3 5 5 5 5 5 5 5 5 5 5 3 5 5 5 5 5 5 5 5 5 5 5 5 3 3 5 5 5 5 3 3 5 5 5 5 5 5 5 3 5 5 3 5 5 5 5 3 5 5 5 5 5 5 5 3 5 5 3 3 5 5 5 5 5 5 5 5 3 3 5 3 3 5 5 5 3 5 3 5 5 5 5 5 5 5 5 5 5 5 5 5 5 5 5 5 5 5 5 5 5 5 5 5 5 5 5 5 5 5 5 5 5 3 3 5 5 5 5 5 5 5 5 5 5 5 5 3 5 5 5 5 5 5 5 3 5 5 5 5 5 5 5 3 5 5 5 5 5 5 5 5 5 3 5 5 5 5 3 3 5 5 5 5 5 5 5 5 5 5 5 5 5 3 5 5 5 5 5 5 5 5 5 5 5 5 5 5 5 5 5 5 5 5 5 5 5 5 5 5 5 5 5 3 5 3 5 5 5 3 5 3 5 5 5 5 5 5 5 5 5 5 5 5 5 5 5 5 3 5 5 5 5 5 5 5 5 5 5 5 5 5 5 5 5 5 5 5 5 5 3 5 3 5 5 5 5 5 5 5 5 5 3 5 5 3 5 5 3 5 5 3 5 5 5 5 5 5 5 5 5 5 5 5 5 5 5 5 5 5 5 3 5 5 5 3 5 5 5 5 5 5 5 5 5 5 5 5 5 5 5 5 5 5 5 5 5 5 5 5 5 5 5 5 5 5 5 5 5 5 5 5 5 5 5 5 5 5 5 5 5 5 5 5 5 5 5 5 5 5 5 5 5 5 5 3 5 5 5 5 5 5 5 5 5 5 5 5 5 5 5 5 5 5 5 5 5 5 3 5 5 5 5 5 5 5 5 5 5 5 5 3 5 5 5 5 3 5 5 5 5 5 5 5 5 5 3 5 5 5 5 5 5 5 5 5 5 5 5 5 5 5 5 5 5 5 5 3 5 5 5 5 5 5 5 5 5 5 5 5 5 5 5 5 3 5 3 5 5 5 5 5 5 5 5 5 5 5 5 5 5 5 5 5 5 5 5 5 5 5 5 5 5 5 5 5 5 5 5 5 5 5 5 5 5 5 5 5 5 5 5 5 5 5 5 5 5 5 5 5 5 5 5 5 5 5 5 5 5 5 5 5 5 5 5 5 3 5 5 5 5 5 3 5 5 5 5 5 5 5 5 5 5 5 5 5 3 5 5 5 5 5 5 5 5 3 5 5 5 5 3 3 5 5 3 5 3 5 5 5 5 5 5 3 5 5 3 5 5 5 5 5 5 3 5 5 5 5 5 5 5 5 5 5 5 5 5 5 5 5 5 5 3 5 5 5 5 5 5 5 5 3 5 5 5 5 3 5 5 5 5 5 5 5 5 5 5 5 5 5 3 5 5 5 5 3 5 5 5 5 5 5 5 3 5 5 5 5 3 5 5 5 5 5 5 3 5 5 5 5 3 5 5 5 5 5 5 5 5 5 5 5 3 5 5 5 5 5 5 5 5 5 3 5 5 5 3 5 5 5 3 5 5 5 5 5 5 5 3 5 5 5 3 5 5 5 5 5 5 5 3 5 5 3 5 5 5 5 5 5 5 5 3 5 5 5 5 5 5 5 3 5 5 3 5 5 5 5 5 5 5 5 5 3 5 5 5 5 3 5 5 3 5 5 5 5 3 5 5 5 5 5 3 5 5 5 5 5 5 5 5 5 5 5 5 5 5 3 5 5 5 5 5 5 5 5 5 3 5 5 5 5 5 5 3 5 5 5 5 5 5 5 5 5 5 5 5 5 5 5 5 5 5 5 5 5 5 5 5 5 5 5 5 5 5 5 5 5 5 5 5 5 5 5 5 5 5 5 3 5 5 5 5 5 3 5 5 5 5 5 3 5 5 5 5 5 5 5 5 5 5 5 5 5 5 5 5 5 5 5 5 5 3 5 3 5 5 5 3 5 3 5 5 5 3 5 5 5 5 5 5 5 5 5 5 5 3 3 5 5 5 5 5 5 5 5 5 3 3 5 5 5 5 5 5 5 5 5 5 3 5 5 5 5 5 5 5 5 3 3 5 5 5 5 5 3 5 5 5 5 5 3 5 3 5 5 5 5 5 3 5 5 5 5 5 5 3 5 5 5 5 5 5 5 5 5 5 3 5 3 5 3 5 5 5 5 5 5 5 5 5 5 5 5 3 5 5 5 3 5 5 3 5 5 5 5 5 3 5 5 5 5 5 5 5 5 5 5 5 5 5 5 5 5 5 5 5 5 3 5 5 5 5 5 5 5 5 5 5 5 5 5 5 5 5 5 5 5 5 5 5 5 5 5 5 5 3 5 5 5 5 5 5 5 5 5 3 5 5 5 5 5 3 5 5 5 5 5 5 5 5 5 5 5 5 5 5 5 5 5 5 5 5 5 5 5 3 5 3 5 5 5 5 5 5 5 5 3 5 5 5 3 5 5 3 5 3 5 5 5 5 5 5 3 3 3 5 5 5 3 5 5 5 5 5 5 5 5 5 3 5 5 5 3 5 5 5 5 3 5 5 5 5 5 5 5 5 5 5 5 5 5 5 5 5 5 3 5 5 5 5 5 3 5 5 3 3 5 5 3 5 5 5 5 5 5 5 5 5 3 5 3 5 3 5 5 5 5 3 5 5 3 5 5 5 3 5 5 5 5 5 3 5 5 5 3 5 5 5 5 5 3 5 5 5 5 5 5 5 5 5 3 5 5 5 3 5 5 5 5 5 5 5 5 5 5 5 3 5 5 5 5 3 5 3 5 5 5 5 5 3 3 5 5 5 5 5 5 5 5 5 3 5 5 5 5 5 3 5 5 5 5 5 5 5 5 3 5 3 5 5 3 5 5 5 5 5 5 5 5 3 5 5 3 5 5 5 5 3 5 5 5 5 5 5 5 5 5 5 5 5 5 5 5 5 5 3 5 5 5 5 5 5 5 5 5 5 5 5 3 5 5 3 3 3 5 3 5 5 5 5 5 5 3 5 3 5 5 5 5 5 5 5 5 5 5 3 5 5 5 5 5 5 3 5 5 5 3 5 5 3 3 5 5 5 5 5 3 5 5 5 3 5 5 5 5 5 5 5 5 5 5 5 5 3 5 5 5 5 5 5 5 3 5 5 5 5 5 5 5 5 5 5 3 5 5 5 5 3 5 3 5 5 5 3 5 5 5 3 5 5 5 5 5 5 5 5 5 5 5 5 5 3 5 5 5 5 3 5 5 5 5 5 5 5 5 5 5 5 5 3 5 5 3 5 5 5 5 5 5 5 5 5 5 5 3 3 5 5 5 5 5 5 5 5 5 5 5 5 5 5 5 5 5 5 5 5 5 5 3 5 5 5 5 5 5 5 5 5 5 5 5 5 5 5 5 5 5 5 5 5 5 5 5 5 3 5 5 5 5 5 5 5 5 5 5 5 5 5 3 3 5 5 5 5 5 5 3 5 5 5 3 3 5 5 5 5 5 5 3 5 5 5 5 3 5 5 5 3 5 3 5 5 5 5 5 5 5 5 5 5 5 5 3 5 5 3 5 5 5 5 5 5 5 5 5 3 5 5 5 3 3 5 5 5 5 5 5 5 5 5 5 5 3 5 3 5 5 5 5 5 5 3 5 5 3 5 5 5 5 5 5 5 3 5 5 5 5 5 5 5 5 3 5 5 5 5 5 5 5 5 5 5 5 5 3 3 5 5 5 5 3 5 5 3 5 5 5 5 5 5 5 5 5 3 5 5 5 5 3 5 5 5 5 5 5 5 5 5 5 3 5 5 5 3 5 5 5 5 5 3 5 5 5 5 5 5 5 5 5 3 5 5 5 5 5 5 5 5 5 5 5 5 5 5 5 5 5 5 5 5 5 5 5 5 5 5 5 5 5 3 3 5 5 5 5 5 5 5 5 5 5 5 5 3 5 5 5 5 5 5 5 5 5 5 5 5 5 5 5 5 5 5 5 5 3 5 5 5 5 5 5 5 5 5 5 5 5 5 5 5 3 5 5 5 5 5 5 5 5 5 5 5 5 5 3 3 5 5 5 5 5 5 5 5 5 5 5 5 5 5 5 5 5 5 5 5 5 5 5 5 5 5 5 5 5 5 5 5 5 5 5 5 5 5 5 3 5 5 5 5 3 5 5 5 5 5 5 5 5 5 5 5 5 5 5 5 5 5 5 3 5 3 5 3 5 5 5 5 5 5 5 5 5 5 5 5 5 5 3 5 5 5 5 5 5 5 5 5 5 5 3 3 5 5 5 5 5 5 5 5 5 5 5 5 5 5 5 5 5 5 5 5 5 5 5 3 5 5 5 5 5 5 3 5 5 5 5 5 5 5 5 3 5 5 5 5 3 5 5 5 5 5 5 5 5 5 5 5 5 5 3 5 5 3 5 5 5 5 5 5 3 5 5 5 5 5 5 5 5 5 5 3 5 5 5 5 3 5 5 5 5 5 5 5 5 5 5 5 5 5 5 3 5 5 3 5 5 5 5 5 5 5 3 5 5 5 3 5 3 5 5 5 5 3 5 5 5 3 5 5 5 3 5 5 5 5 5 5 5 5 5 5 3 3 5 5 3 3 5 5 5 5 5 3 5 3 3 5 5 5 5 5 5 5 5 3 5 3 5 5 5 5 5 5 5 5 5 5 5 5 5 5 5 5 5 5 5 5 5 5 5 5 5 5 5 5 5 5 5 5 5 5 5 5 5 5 5 5 5 5 5 5 5 5 5 5 5 5 5 5 5 5 5 5 5 5 5 5 5 5 5 5 5 3 5 3 5 5 5 5 5 5 5 3 5 5 5 3 5 5 5 5 5 5 5 5 5 5 5 5 3 5 5 5 5 5 5 5 3 3 5 5 5 5 5 5 5 5 3 5 5 5 5 5 3 5 5 3 5 5 5 5 5 5 5 5 5 5 5 5 5 5 5 5 5 5 5 5 5 5 5 5 3 3 3 5 5 5 5 5 5 3 5 3 5 5 5 5 5 5 5 5 5 3 5 5 3 5 5 3 3 5 5 5 3 5 3 5 5 3 3 5 5 5 5 5 3 5 3 5 5 3 5 5 3 5 3 5 3 3 5 3 5 3 3 5 5 5 5 5 3 5 3 3 5 5 3 5 3 5 3 5 3 5 5 5 3 5 5 5 5 3 5 5 5 5 5 3 5 5 5 3 3 5 5 5 5 5 5 5 5 5 5 5 3 5 3 3 3 5 5 5 5 5 5 5 5 3 5 5 5 3 5 5 5 5 5 5 5 5 5 5 5 3 3 5 5 5 5 3 3 3 5 3 5 5 3 5 5 5 5 5 5 5 3 5 5 5 3 5 5 5 5 5 5 5 5 5 5 5 5 3 5 5 5 3 5 5 5 5 5 5 3 5 5 5 5 5 5 3 5 3 5 5 5 5 5 5 5 5 5 5 5 5 5 5 5 5 5 5 5 5 5 5 5 5 5 5 5 5 5 5 5 5 5 5 5 5 5 5 5 5 5 3 3 5 5 5 5 5 5 5 3 5 5 3 5 5 5 5 5 3 5 5 5 5 5 5 5 5 5 3 5 3 5 3 5 5 5 5 5 5 5 5 5 5 5 5 5 5 5 5 5 5 5 5 3 5 5 5 3 5 5 5 3 3 5 3 3 5 5 3 5 3 5 5 3 5 5 5 5 5 5 5 5 5 5 3 5 5 5 5 3 5 5 5 5 5 5 5 5 5 5 5 5 5 5 3 5 5 5 5 5 5 3 5 5 5 5 5 5 5 5 5 5 5 3 5 3 5 3 5 5 3 5 5 3 3 5 3 5 5 5 5 5 5 5 3 3 5 5 5 5 5 5 3 5 3 5 5 3 5 5 5 5 3 5 5 5 5 5 5 5 5 5 3 5 5 5 5 3 5 5 5 5 3 5 5 5 3 5 5 5 5 5 3 5 5 5 5 5 5 3 5 5 5 5 5 3 5 5 5 5 5 5 5 5 5 5 3 5 5 5 5 5 5 5 5 5 5 5 3 5 5 5 5 5 5 5 5 5 5 5 5 5 5 5 5 5 5 3 5 5 5 5 5 5 5 5 5 5 5 5 5 5 5 3 5 5 5 5 3 5 5 3 5 5 5 5 5 3 5 5 5 5 3 3 5 5 5 5 5 5 5 3 3 5 5 5 5 5 3 5 3 5 5 3 5 5 5 5 5 5 5 5 3 5 5 5 5 5 5 5 3 5 5 5 5 5 5 3 5 5 5 5 3 5 5 5 5 5 5 5 5 5 5 5 5 3 5 5 5 5 5 5 5 5 5 5 5 5 5 5 5 5 5 5 5 5 5 5 5 5 5 5 5 5 3 5 5 5 5 5 5 5 5 5 5 5 5 5 5 5 5 5 3 5 5 5 5 5 5 5 5 3 3 5 5 5 5 5 5 5 5 5 5 5 5 3 5 5 5 5 5 5 5 5 5 5 5 5 5 5 5 5 5 5 5 5 5 5 5 5 5 5 5 5 3 3 5 5 5 5 5 3 5 5 5 3 3 5 5 5 5 5 5 5 5 5 5 5 5 5 5 3 3 5 5 3 5 5 5 3 3 3 5 5 5 5 5 5 5 5 5 3 5 5 3 5 5 5 3 3 5 3 5 5 5 5 5 5 5 5 5 5 3 5 3 5 5 5 5 5 3 5 3 5 5 3 5 5 5 5 5 5 5 5 5 5 5 5 3 5 5 5 5 5 5 5 5 5 5 5 5 5 5 5 3 5 5 5 5 5 5 5 5 5 5 5 5 5 5 5 5 5 5 3 5 5 3 3 5 3 5 5 5 5 5 5 5 5 5 5 5 5 3 5 5 5 5 3 5 5 5 5 5 5 5 5 5 5 5 5 3 5 5 5 5 5 5 5 5 5 5 5 5 5 5 5 5 5 5 5 5 5 5 5 5 5 3 5 5 5 5 5 5 5 5 5 5 5 5 5 5 5 5 5 5 5 5 5 5 5 5 5 5 5 5 5 3 5 5 3 5 5 5 5 5 5 5 5 5 5 3 5 5 5 5 5 5 5 5 5 5 5 5 5 5 5 5 5 5 5 5 5 5 5 5 5 5 5 5 5 5 5 5 5 5 5 5 5 5 5 5 5 5 5 5 5 5 5 3 5 5 5 3 5 5 5 5 5 5 5 5 5 5 5 5 5 5 5 5 5 5 5 5 5 5 5 5 5 5 5 5 5 5 3 5 5 5 5 3 5 5 5 5 5 5 5 5 5 5 5 5 5 5 5 3 5 5 5 5 5 5 5 5 5 5 5 5 5 5 5 5 5 5 5 3 5 5 5 3 5 5 5 5 5 5 5 5 5 5 5 5 5 5 5 5 5 5 3 5 5 5 5 5 3 5 5 5 3 5 5 5 5 5 5 5 5 5 5 3 5 5 5 5 5 5 5 5 5 5 5 5 5 5 5 3 5 5 5 5 3 5 5 5 5 5 5 5 5 5 5 5 5 3 5 5 3 5 5 5 5 5 5 3 5 5 5 5 5 5 3 5 3 5 5 3 5 3 5 5 5 3 5 5 5 3 5 5 5 3 5 5 5 5 5 5 5 5 3 5 5 3 5 5 5 5 5 5 5 5 5 5 5 5 
</DataArray>
</Cells>
<PointData Scalars="" Vectors="displacement," Tensors="">
<DataArray type="Float64" Name="displacement" NumberOfComponents="3" format="ascii">
-0.0048690227375647564 2.3382214631430912e-05 0 -0.0047597313916860904 9.4911641198746239e-05 0 -0.0048819116045718354 4.5148943149856293e-07 0 -0.0045563302132191957 0.00020164763922361268 0 -0.0046475402650340818 5.5608484210440244e-05 0 -0.004999657781460139 -7.0871295215436052e-08 0 -0.0048832621206314538 1.0788517590223319e-07 0 -0.0049928047211920262 1.4599354539032577e-06 0 -0.004999657781460139 -7.0871295215436052e-08 0 -0.0049928047211920262 1.4599354539032577e-06 0 -0.0050001347882200307 3.562814517121336e-08 0 -0.0045563302132191957 0.00020164763922361268 0 -0.0045423964842974986 6.6899353756273716e-05 0 -0.0044420498787541606 0.00014722131254123251 0 -0.0045563302132191957 0.00020164763922361268 0 -0.0045423964842974986 6.6899353756273716e-05 0 -0.0046475402650340818 5.5608484210440244e-05 0 -0.0045423964842974986 6.6899353756273716e-05 0 -0.0046475402650340818 5.5608484210440244e-05 0 -0.0046141276088502462 -7.4575186975550892e-06 0 -0.0045423964842974986 6.6899353756273716e-05 0 -0.0044392380185893461 7.5016413575320693e-05 0 -0.0044420498787541606 0.00014722131254123251 0 -0.0045423964842974986 6.6899353756273716e-05 0 -0.0045192600400251253 -7.292247423990078e-07 0 -0.0044392380185893461 7.5016413575320693e-05 0 -0.0048819116045718354 4.5148943149856293e-07 0 -0.0046475402650340818 5.5608484210440244e-05 0 -0.0046141276088502462 -7.4575186975550892e-06 0 -0.0048819116045718354 4.5148943149856293e-07 0 -0.0046141276088502462 -7.4575186975550892e-06 0 -0.0043620638969537658 -3.1787578512327828e-07 0 -0.0045192600400251253 -7.292247423990078e-07 0 -0.0045301984969528392 -4.1560509697607541e-05 0 -0.0043950169687314352 1.8364709653005338e-05 0 -0.0045192600400251253 -7.292247423990078e-07 0 -0.0045240292741902995 -2.403017797548326e-05 0 -0.0045301984969528392 -4.1560509697607541e-05 0 -0.0045423964842974986 6.6899353756273716e-05 0 -0.0046141276088502462 -7.4575186975550892e-06 0 -0.0045192600400251253 -7.292247423990078e-07 0 -0.0046141276088502462 -7.4575186975550892e-06 0 -0.0045192600400251253 -7.292247423990078e-07 0 -0.0045240292741902995 -2.403017797548326e-05 0 -0.0043516252508090606 -5.5085320483681889e-05 0 -0.0043017961903697218 -0.00010872172517913916 0 -0.0043499601497238166 -5.0981704245999474e-05 0 -0.0043516252508090606 -5.5085320483681889e-05 0 -0.004360688433554913 -1.1352455720573967e-07 0 -0.0043499601497238166 -5.0981704245999474e-05 0 -0.0045240292741902995 -2.403017797548326e-05 0 -0.0045301984969528392 -4.1560509697607541e-05 0 -0.0043620638969537658 -3.1787578512327828e-07 0 -0.0044329140711852743 -4.8945750917956681e-05 0 -0.0043614058755879941 -2.1884620523007586e-08 0 -0.0046141276088502462 -7.4575186975550892e-06 0 -0.0045240292741902995 -2.403017797548326e-05 0 -0.0043620638969537658 -3.1787578512327828e-07 0 -0.0043017961903697218 -0.00010872172517913916 0 -0.0042907810292990116 -3.7413891698289638e-05 0 -0.0040730118898096501 -0.00012537007998418467 0 -0.0037619494211526732 0.00011569018320099462 0 -0.0036843444809852321 6.9339118130095883e-05 0 -0.0036846288256059813 5.525448211995384e-05 0 -0.0040297511490972335 3.1772181324420055e-06 0 -0.0038798230065835251 -1.9246062336452466e-05 0 -0.0043516252508090606 -5.5085320483681889e-05 0 -0.0043017961903697218 -0.00010872172517913916 0 -0.0042907810292990116 -3.7413891698289638e-05 0 -0.0044329140711852743 -4.8945750917956681e-05 0 -0.0042988519606014797 -3.128422268484703e-05 0 -0.0045301984969528392 -4.1560509697607541e-05 0 -0.0043950169687314352 1.8364709653005338e-05 0 -0.0042907810292990116 -3.7413891698289638e-05 0 -0.0045192600400251253 -7.292247423990078e-07 0 -0.0043950169687314352 1.8364709653005338e-05 0 -0.0044392380185893461 7.5016413575320693e-05 0 -0.0043950169687314352 1.8364709653005338e-05 0 -0.0041992506271897618 7.1567481874725372e-05 0 -0.0043290249816784407 0.00012969610217772201 0 -0.0043950169687314352 1.8364709653005338e-05 0 -0.0041992506271897618 7.1567481874725372e-05 0 -0.0042907810292990116 -3.7413891698289638e-05 0 -0.0041992506271897618 7.1567481874725372e-05 0 -0.0042907810292990116 -3.7413891698289638e-05 0 -0.0040730118898096501 -0.00012537007998418467 0 -0.0047227413606109794 0.00010381999536109584 0 -0.0042484327623646834 0.00014001161033348481 0 -0.0043290249816784407 0.00012969610217772201 0 -0.0043492281573302982 0.00026479421331849232 0 -0.0041156685740296583 0.00019822194834147875 0 -0.0041992506271897618 7.1567481874725372e-05 0 -0.0043290249816784407 0.00012969610217772201 0 -0.0041156685740296583 0.00019822194834147875 0 -0.0043290249816784407 0.00012969610217772201 0 -0.0044420498787541606 0.00014722131254123251 0 -0.0043492281573302982 0.00026479421331849232 0 -0.0044392380185893461 7.5016413575320693e-05 0 -0.0043290249816784407 0.00012969610217772201 0 -0.0044420498787541606 0.00014722131254123251 0 -0.0043950169687314352 1.8364709653005338e-05 0 -0.0044392380185893461 7.5016413575320693e-05 0 -0.0043290249816784407 0.00012969610217772201 0 -0.004999126604398006 3.8844876702197155e-07 0 -0.0049999996638665891 1.5598823585316196e-10 0 -0.004999994096845835 1.7642778606411173e-09 0 -0.0047597313916860904 9.4911641198746239e-05 0 -0.0047227413606109794 0.00010381999536109584 0 -0.0049928047211920262 1.4599354539032577e-06 0 -0.005000931678758324 3.227590371753643e-06 0 -0.0050001347882200307 3.562814517121336e-08 0 -0.0045563302132191957 0.00020164763922361268 0 -0.0044420498787541606 0.00014722131254123251 0 -0.0043492281573302982 0.00026479421331849232 0 -0.0047227413606109794 0.00010381999536109584 0 -0.005027749327322497 4.6017704609939714e-05 0 -0.0047227413606109794 0.00010381999536109584 0 -0.0047447841118109912 0.00010169601082903011 0 -0.0046479800210873605 0.00019183110079440443 0 -0.0044510297903351138 0.00020585296810790335 0 -0.0044664769460838229 7.4054155793263767e-05 0 -0.004999126604398006 3.8844876702197155e-07 0 -0.004999994096845835 1.7642778606411173e-09 0 -0.0049991471668832709 3.4510937863720951e-07 0 -0.004999994096845835 1.7642778606411173e-09 0 -0.0049991378967245122 3.3510196224288394e-07 0 -0.0049993246482235281 2.3115783015027117e-07 0 -0.004999994096845835 1.7642778606411173e-09 0 -0.0049993246482235281 2.3115783015027117e-07 0 -0.0049999834175984258 1.4972132791421268e-09 0 -0.004999994096845835 1.7642778606411173e-09 0 -0.0049991471668832709 3.4510937863720951e-07 0 -0.0049991378967245122 3.3510196224288394e-07 0 -0.0043754269770494621 0.00014634063918733778 0 -0.0044510297903351138 0.00020585296810790335 0 -0.0042562692620292863 0.0002186011430384507 0 -0.0043754269770494621 0.00014634063918733778 0 -0.0044510297903351138 0.00020585296810790335 0 -0.0044664769460838229 7.4054155793263767e-05 0 -0.0047447841118109912 0.00010169601082903011 0 -0.0046311160899900859 0.0001082902799671242 0 -0.0043754269770494621 0.00014634063918733778 0 -0.0042562692620292863 0.0002186011430384507 0 -0.0043287195002089844 8.6089154358525075e-05 0 -0.0042562692620292863 0.0002186011430384507 0 -0.0043287195002089844 8.6089154358525075e-05 0 -0.0042273830073210825 6.1483493794311492e-05 0 -0.0043287195002089844 8.6089154358525075e-05 0 -0.0042273830073210825 6.1483493794311492e-05 0 -0.0042856040223479986 -4.1657222396858983e-05 0 -0.0043754269770494621 0.00014634063918733778 0 -0.0043287195002089844 8.6089154358525075e-05 0 -0.0044664769460838229 7.4054155793263767e-05 0 -0.0042484327623646834 0.00014001161033348481 0 -0.0040463861143256825 2.7491466158377092e-05 0 -0.0043287195002089844 8.6089154358525075e-05 0 -0.0044664769460838229 7.4054155793263767e-05 0 -0.0042856040223479986 -4.1657222396858983e-05 0 -0.0040636556276698278 0.00023095542142588478 0 -0.0041494684172274521 0.00012348463700601156 0 -0.0040530979903989229 8.4451182199872494e-05 0 -0.0040636556276698278 0.00023095542142588478 0 -0.0040530979903989229 8.4451182199872494e-05 0 -0.0039352464670722896 0.00010470738055653983 0 -0.0042562692620292863 0.0002186011430384507 0 -0.0040636556276698278 0.00023095542142588478 0 -0.0041494684172274521 0.00012348463700601156 0 -0.0046311160899900859 0.0001082902799671242 0 -0.004495765681549275 0.00012856461737594552 0 -0.0042562692620292863 0.0002186011430384507 0 -0.0042273830073210825 6.1483493794311492e-05 0 -0.0041494684172274521 0.00012348463700601156 0 -0.0042273830073210825 6.1483493794311492e-05 0 -0.0041328073069808327 3.7462398615221948e-05 0 -0.0041494684172274521 0.00012348463700601156 0 -0.0042273830073210825 6.1483493794311492e-05 0 -0.0041328073069808327 3.7462398615221948e-05 0 -0.0041825318329793077 -1.450197012821333e-05 0 -0.0041328073069808327 3.7462398615221948e-05 0 -0.0041494684172274521 0.00012348463700601156 0 -0.0040530979903989229 8.4451182199872494e-05 0 -0.0041328073069808327 3.7462398615221948e-05 0 -0.0040530979903989229 8.4451182199872494e-05 0 -0.0040619133069889875 -5.3303659654514668e-06 0 -0.0040530979903989229 8.4451182199872494e-05 0 -0.0039767762956953064 1.2665303103119087e-05 0 -0.0040619133069889875 -5.3303659654514668e-06 0 -0.0040530979903989229 8.4451182199872494e-05 0 -0.0039767762956953064 1.2665303103119087e-05 0 -0.0039352464670722896 0.00010470738055653983 0 -0.0040121055706819316 -6.1346999843068018e-05 0 -0.003994088203374371 -0.00012464421794027171 0 -0.0039416215831415075 -6.6771796092211048e-05 0 -0.0040121055706819316 -6.1346999843068018e-05 0 -0.0040416690575383173 -9.988536362620091e-05 0 -0.003994088203374371 -0.00012464421794027171 0 -0.0039767762956953064 1.2665303103119087e-05 0 -0.0040121055706819316 -6.1346999843068018e-05 0 -0.0040619133069889875 -5.3303659654514668e-06 0 -0.0039767762956953064 1.2665303103119087e-05 0 -0.0040121055706819316 -6.1346999843068018e-05 0 -0.0039416215831415075 -6.6771796092211048e-05 0 -0.0040121055706819316 -6.1346999843068018e-05 0 -0.0040619133069889875 -5.3303659654514668e-06 0 -0.004079207514202543 -6.9456897881442543e-05 0 -0.0040619133069889875 -5.3303659654514668e-06 0 -0.004079207514202543 -6.9456897881442543e-05 0 -0.0041229691264755364 -2.4728670868242802e-05 0 -0.0040121055706819316 -6.1346999843068018e-05 0 -0.004079207514202543 -6.9456897881442543e-05 0 -0.0040416690575383173 -9.988536362620091e-05 0 -0.0040416690575383173 -9.988536362620091e-05 0 -0.0040823336527108477 -0.00010791384125320155 0 -0.004048334826509398 -0.0001439020045525395 0 -0.004079207514202543 -6.9456897881442543e-05 0 -0.0040823336527108477 -0.00010791384125320155 0 -0.0041035859853127384 -9.4003155941454778e-05 0 -0.004079207514202543 -6.9456897881442543e-05 0 -0.0040416690575383173 -9.988536362620091e-05 0 -0.0040823336527108477 -0.00010791384125320155 0 -0.0038599789904139813 -7.6721397174450175e-05 0 -0.0040463861143256825 2.7491466158377092e-05 0 -0.0041431930169039295 -6.8693524117426435e-05 0 -0.0041825318329793077 -1.450197012821333e-05 0 -0.0042856040223479986 -4.1657222396858983e-05 0 -0.0041431930169039295 -6.8693524117426435e-05 0 -0.0041096693783973584 -0.00012990545352445807 0 -0.0042856040223479986 -4.1657222396858983e-05 0 -0.0036313932439419765 2.5575584078718061e-05 0 -0.0037875430958470855 9.7166557063053385e-05 0 -0.0037237932147401983 2.3887701747705647e-05 0 -0.0041058451603649742 -0.00015549408258109401 0 -0.0041096693783973584 -0.00012990545352445807 0 -0.0042856040223479986 -4.1657222396858983e-05 0 -0.0041035859853127384 -9.4003155941454778e-05 0 -0.0041431930169039295 -6.8693524117426435e-05 0 -0.0041096693783973584 -0.00012990545352445807 0 -0.0040823336527108477 -0.00010791384125320155 0 -0.0041035859853127384 -9.4003155941454778e-05 0 -0.0041096693783973584 -0.00012990545352445807 0 -0.004079207514202543 -6.9456897881442543e-05 0 -0.0041035859853127384 -9.4003155941454778e-05 0 -0.0041431930169039295 -6.8693524117426435e-05 0 -0.004079207514202543 -6.9456897881442543e-05 0 -0.0041431930169039295 -6.8693524117426435e-05 0 -0.0041229691264755364 -2.4728670868242802e-05 0 -0.0041328073069808327 3.7462398615221948e-05 0 -0.0040619133069889875 -5.3303659654514668e-06 0 -0.0041229691264755364 -2.4728670868242802e-05 0 -0.0041328073069808327 3.7462398615221948e-05 0 -0.0041229691264755364 -2.4728670868242802e-05 0 -0.0041825318329793077 -1.450197012821333e-05 0 -0.0041431930169039295 -6.8693524117426435e-05 0 -0.0041229691264755364 -2.4728670868242802e-05 0 -0.0041825318329793077 -1.450197012821333e-05 0 -0.0036313932439419765 2.5575584078718061e-05 0 -0.0037237932147401983 2.3887701747705647e-05 0 -0.0036557650030067078 2.1067192440594449e-05 0 -0.0038599789904139813 -7.6721397174450175e-05 0 -0.0038822112082021365 -8.8777294229071575e-05 0 -0.0041058633511943032 -0.00015479276685348019 0 -0.0041096693783973584 -0.00012990545352445807 0 -0.0040865657695390977 -0.00013415352470867568 0 -0.0041058633511943032 -0.00015479276685348019 0 -0.004048334826509398 -0.0001439020045525395 0 -0.0039795002869844739 -0.00023687296896405044 0 -0.0041058633511943032 -0.00015479276685348019 0 -0.0040865657695390977 -0.00013415352470867568 0 -0.004048334826509398 -0.0001439020045525395 0 -0.0040823336527108477 -0.00010791384125320155 0 -0.0040865657695390977 -0.00013415352470867568 0 -0.004048334826509398 -0.0001439020045525395 0 -0.0040823336527108477 -0.00010791384125320155 0 -0.0041096693783973584 -0.00012990545352445807 0 -0.0040865657695390977 -0.00013415352470867568 0 -0.0038599789904139813 -7.6721397174450175e-05 0 -0.0038669411607927945 -0.00016031292545712824 0 -0.004048334826509398 -0.0001439020045525395 0 -0.0039795002869844739 -0.00023687296896405044 0 -0.003994088203374371 -0.00012464421794027171 0 -0.0039795002869844739 -0.00023687296896405044 0 -0.003994088203374371 -0.00012464421794027171 0 -0.003930510644962258 -0.0001456920026970543 0 -0.0040416690575383173 -9.988536362620091e-05 0 -0.004048334826509398 -0.0001439020045525395 0 -0.003994088203374371 -0.00012464421794027171 0 -0.0041992506271897618 7.1567481874725372e-05 0 -0.0040044061530420975 5.3245840185741248e-05 0 -0.0040730118898096501 -0.00012537007998418467 0 -0.0040044061530420975 5.3245840185741248e-05 0 -0.0037237932147401983 2.3887701747705647e-05 0 -0.0040730118898096501 -0.00012537007998418467 0 -0.0041156685740296583 0.00019822194834147875 0 -0.0040044061530420975 5.3245840185741248e-05 0 -0.0037875430958470855 9.7166557063053385e-05 0 -0.0041992506271897618 7.1567481874725372e-05 0 -0.0041156685740296583 0.00019822194834147875 0 -0.0040044061530420975 5.3245840185741248e-05 0 -0.0040044061530420975 5.3245840185741248e-05 0 -0.0037875430958470855 9.7166557063053385e-05 0 -0.0037237932147401983 2.3887701747705647e-05 0 -0.0042273830073210825 6.1483493794311492e-05 0 -0.0041825318329793077 -1.450197012821333e-05 0 -0.0042856040223479986 -4.1657222396858983e-05 0 -0.0037388616115300102 1.6387875302155363e-05 0 -0.0038798230065835251 -1.9246062336452466e-05 0 -0.0037237932147401983 2.3887701747705647e-05 0 -0.0036814724867759475 4.5805455723023499e-05 0 -0.0036557650030067078 2.1067192440594449e-05 0 -0.0037237932147401983 2.3887701747705647e-05 0 -0.0036814724867759475 4.5805455723023499e-05 0 -0.0036843444809852321 6.9339118130095883e-05 0 -0.0036814724867759475 4.5805455723023499e-05 0 -0.0036843444809852321 6.9339118130095883e-05 0 -0.0036846288256059813 5.525448211995384e-05 0 -0.0036846288256059813 5.525448211995384e-05 0 -0.0036566950872652078 2.8223206204640193e-05 0 -0.0036624729602388129 2.5724226537321423e-05 0 -0.0036846288256059813 5.525448211995384e-05 0 -0.0036624729602388129 2.5724226537321423e-05 0 -0.0037239630852728151 3.79380410809877e-05 0 -0.0036814724867759475 4.5805455723023499e-05 0 -0.0036846288256059813 5.525448211995384e-05 0 -0.0036566950872652078 2.8223206204640193e-05 0 -0.0036566950872652078 2.8223206204640193e-05 0 -0.0036251976207615469 8.3091838019868391e-06 0 -0.0036557650030067078 2.1067192440594449e-05 0 -0.0036814724867759475 4.5805455723023499e-05 0 -0.0036566950872652078 2.8223206204640193e-05 0 -0.0036557650030067078 2.1067192440594449e-05 0 -0.0036566950872652078 2.8223206204640193e-05 0 -0.0036251976207615469 8.3091838019868391e-06 0 -0.0036624729602388129 2.5724226537321423e-05 0 -0.0036251976207615469 8.3091838019868391e-06 0 -0.0035713125118682493 -2.3201532317201485e-05 0 -0.003625151069564844 -3.4009021855186452e-06 0 -0.0036251976207615469 8.3091838019868391e-06 0 -0.0036624729602388129 2.5724226537321423e-05 0 -0.003625151069564844 -3.4009021855186452e-06 0 -0.0036624729602388129 2.5724226537321423e-05 0 -0.003625151069564844 -3.4009021855186452e-06 0 -0.0036911217021307658 -9.1416144601206025e-07 0 -0.0036624729602388129 2.5724226537321423e-05 0 -0.0036911217021307658 -9.1416144601206025e-07 0 -0.0037239630852728151 3.79380410809877e-05 0 -0.0037288101624876522 -9.415199743664577e-05 0 -0.0037493785299876833 -8.0279130532400422e-05 0 -0.0037311142438712611 -5.9920758009295078e-05 0 -0.0037493785299876833 -8.0279130532400422e-05 0 -0.0037311142438712611 -5.9920758009295078e-05 0 -0.0037547897728940787 -6.5384680614065916e-05 0 -0.0038599789904139813 -7.6721397174450175e-05 0 -0.0036547068436021189 -2.1697261664671724e-05 0 -0.0037311142438712611 -5.9920758009295078e-05 0 -0.0037495921452451062 -5.2211895801679734e-05 0 -0.0037547897728940787 -6.5384680614065916e-05 0 -0.0036251976207615469 8.3091838019868391e-06 0 -0.003614312744855983 5.8446284496439391e-06 0 -0.0036557650030067078 2.1067192440594449e-05 0 -0.0036313932439419765 2.5575584078718061e-05 0 -0.003614312744855983 5.8446284496439391e-06 0 -0.0036557650030067078 2.1067192440594449e-05 0 -0.0036251976207615469 8.3091838019868391e-06 0 -0.003614312744855983 5.8446284496439391e-06 0 -0.003601485767965232 -8.2719570735016639e-06 0 -0.0036251976207615469 8.3091838019868391e-06 0 -0.003601485767965232 -8.2719570735016639e-06 0 -0.0035713125118682493 -2.3201532317201485e-05 0 -0.003614312744855983 5.8446284496439391e-06 0 -0.003601485767965232 -8.2719570735016639e-06 0 -0.0035983279908664055 -1.5344833904372375e-05 0 -0.0037311142438712611 -5.9920758009295078e-05 0 -0.003744972028558319 -4.0410554539322794e-05 0 -0.0037337393804373893 -2.3073317712210189e-05 0 -0.0036547068436021189 -2.1697261664671724e-05 0 -0.0036677794552937774 -1.8950010748424675e-05 0 -0.003744972028558319 -4.0410554539322794e-05 0 -0.0037495921452451062 -5.2211895801679734e-05 0 -0.0037529877517515999 -4.3833578125703497e-05 0 -0.0037311142438712611 -5.9920758009295078e-05 0 -0.003744972028558319 -4.0410554539322794e-05 0 -0.0037495921452451062 -5.2211895801679734e-05 0 -0.0037337393804373893 -2.3073317712210189e-05 0 -0.0037375325732773627 1.5184099714168858e-05 0 -0.0037558497365202353 -2.7121767365335347e-05 0 -0.003744972028558319 -4.0410554539322794e-05 0 -0.0037337393804373893 -2.3073317712210189e-05 0 -0.0037558497365202353 -2.7121767365335347e-05 0 -0.0035983279908664055 -1.5344833904372375e-05 0 -0.0035713125118682493 -2.3201532317201485e-05 0 -0.003591369105389308 -1.4435988165623831e-06 0 -0.003601485767965232 -8.2719570735016639e-06 0 -0.0035983279908664055 -1.5344833904372375e-05 0 -0.0035713125118682493 -2.3201532317201485e-05 0 -0.0035713125118682493 -2.3201532317201485e-05 0 -0.0035236957947005192 -8.6136705264864457e-05 0 -0.0034877255975912613 -0.0001046493741399712 0 -0.0035550608523584612 -2.3465182533915693e-05 0 -0.0035623784972195014 -4.1232833647619619e-05 0 -0.0035713125118682493 -2.3201532317201485e-05 0 -0.0035830895511063917 9.1141195032815341e-06 0 -0.0035677025087636786 3.8873091741236846e-05 0 -0.0035830895511063917 9.1141195032815341e-06 0 -0.003592940607402902 1.4291241676213083e-05 0 -0.0035856924131320929 2.5898507564073651e-05 0 -0.0035830895511063917 9.1141195032815341e-06 0 -0.0035856924131320929 2.5898507564073651e-05 0 -0.0035677025087636786 3.8873091741236846e-05 0 -0.0035713125118682493 -2.3201532317201485e-05 0 -0.0035830895511063917 9.1141195032815341e-06 0 -0.003591369105389308 -1.4435988165623831e-06 0 -0.0035830895511063917 9.1141195032815341e-06 0 -0.003591369105389308 -1.4435988165623831e-06 0 -0.003592940607402902 1.4291241676213083e-05 0 -0.0036822639064776111 1.5270445252687304e-05 0 -0.0036943814479679263 -1.7965125423573713e-05 0 -0.0036314184213241799 1.5781376326440041e-06 0 -0.0036068117997612959 2.188160341237929e-05 0 -0.0036532670821868497 -3.7671752521344099e-05 0 -0.0035983279908664055 -1.5344833904372375e-05 0 -0.003591369105389308 -1.4435988165623831e-06 0 -0.0036068117997612959 2.188160341237929e-05 0 -0.0036677794552937774 -1.8950010748424675e-05 0 -0.0036822639064776111 1.5270445252687304e-05 0 -0.003591369105389308 -1.4435988165623831e-06 0 -0.003592940607402902 1.4291241676213083e-05 0 -0.0036068117997612959 2.188160341237929e-05 0 -0.003592940607402902 1.4291241676213083e-05 0 -0.0036068117997612959 2.188160341237929e-05 0 -0.003594656049347941 2.4611625088674983e-05 0 -0.003592940607402902 1.4291241676213083e-05 0 -0.003594656049347941 2.4611625088674983e-05 0 -0.0035856924131320929 2.5898507564073651e-05 0 -0.0036280634245585133 -2.9299546029791137e-05 0 -0.0037238668048815184 -5.3144435351804423e-05 0 -0.0036911217021307658 -9.1416144601206025e-07 0 -0.0036280634245585133 -2.9299546029791137e-05 0 -0.003625151069564844 -3.4009021855186452e-06 0 -0.0036911217021307658 -9.1416144601206025e-07 0 -0.0035713125118682493 -2.3201532317201485e-05 0 -0.0036280634245585133 -2.9299546029791137e-05 0 -0.003625151069564844 -3.4009021855186452e-06 0 -0.0035713125118682493 -2.3201532317201485e-05 0 -0.0036280634245585133 -2.9299546029791137e-05 0 -0.0035644324512713096 -5.9313106322097542e-05 0 -0.0035713125118682493 -2.3201532317201485e-05 0 -0.0035644324512713096 -5.9313106322097542e-05 0 -0.0035236957947005192 -8.6136705264864457e-05 0 -0.0035644324512713096 -5.9313106322097542e-05 0 -0.0035236957947005192 -8.6136705264864457e-05 0 -0.0034855942602537715 -9.9014350375328263e-05 0 -0.0035644324512713096 -5.9313106322097542e-05 0 -0.0036427775347235582 -6.6385426182633965e-05 0 -0.0034855942602537715 -9.9014350375328263e-05 0 -0.0036280634245585133 -2.9299546029791137e-05 0 -0.0036427775347235582 -6.6385426182633965e-05 0 -0.0037238668048815184 -5.3144435351804423e-05 0 -0.0036280634245585133 -2.9299546029791137e-05 0 -0.0035644324512713096 -5.9313106322097542e-05 0 -0.0036427775347235582 -6.6385426182633965e-05 0 -0.0037238668048815184 -5.3144435351804423e-05 0 -0.0037853831683081016 -6.8683312292232987e-05 0 -0.0037304689317043953 -0.00012277232284840569 0 -0.0036427775347235582 -6.6385426182633965e-05 0 -0.0037238668048815184 -5.3144435351804423e-05 0 -0.0037304689317043953 -0.00012277232284840569 0 -0.0037238668048815184 -5.3144435351804423e-05 0 -0.0036911217021307658 -9.1416144601206025e-07 0 -0.0037746331566024085 -2.1272027651252242e-05 0 -0.0037746331566024085 -2.1272027651252242e-05 0 -0.0038356935926126511 -5.3042645155081984e-05 0 -0.0038477313541712506 -1.1509095942804614e-05 0 -0.0037746331566024085 -2.1272027651252242e-05 0 -0.0037853831683081016 -6.8683312292232987e-05 0 -0.0038356935926126511 -5.3042645155081984e-05 0 -0.0037238668048815184 -5.3144435351804423e-05 0 -0.0037746331566024085 -2.1272027651252242e-05 0 -0.0037853831683081016 -6.8683312292232987e-05 0 -0.0037853831683081016 -6.8683312292232987e-05 0 -0.0038356935926126511 -5.3042645155081984e-05 0 -0.0037472672049919452 -4.5806318142003554e-05 0 -0.0038356935926126511 -5.3042645155081984e-05 0 -0.0040001995839679984 -1.7616623503699906e-07 0 -0.003740057183052873 -9.3335334074763379e-08 0 -0.0038356935926126511 -5.3042645155081984e-05 0 -0.003740057183052873 -9.3335334074763379e-08 0 -0.0037472672049919452 -4.5806318142003554e-05 0 -0.0038356935926126511 -5.3042645155081984e-05 0 -0.0040001995839679984 -1.7616623503699906e-07 0 -0.0039795628951730094 -1.1399384336379349e-05 0 -0.0038356935926126511 -5.3042645155081984e-05 0 -0.0038477313541712506 -1.1509095942804614e-05 0 -0.0039795628951730094 -1.1399384336379349e-05 0 -0.0038477313541712506 -1.1509095942804614e-05 0 -0.0039795628951730094 -1.1399384336379349e-05 0 -0.0038832251984675797 3.7173906598377545e-05 0 -0.0039795628951730094 -1.1399384336379349e-05 0 -0.0038832251984675797 3.7173906598377545e-05 0 -0.0039178806639589298 0.0001356614344497816 0 -0.0040001995839679984 -1.7616623503699906e-07 0 -0.0039795628951730094 -1.1399384336379349e-05 0 -0.004259890085146636 3.5673646030027644e-07 0 -0.0042603434453991141 1.6756114664780065e-08 0 -0.0041313402844036272 3.5419897790733345e-05 0 -0.0042610577875308395 6.301811560466275e-08 0 -0.004360688433554913 -1.1352455720573967e-07 0 -0.0043499601497238166 -5.0981704245999474e-05 0 -0.0039795628951730094 -1.1399384336379349e-05 0 -0.004259890085146636 3.5673646030027644e-07 0 -0.0039178806639589298 0.0001356614344497816 0 -0.0038832251984675797 3.7173906598377545e-05 0 -0.0039178806639589298 0.0001356614344497816 0 -0.0038041004550488141 4.5252014958225698e-05 0 -0.0040297511490972335 3.1772181324420055e-06 0 -0.0041313402844036272 3.5419897790733345e-05 0 -0.0037619494211526732 0.00011569018320099462 0 -0.0039178806639589298 0.0001356614344497816 0 -0.0038041004550488141 4.5252014958225698e-05 0 -0.0037619494211526732 0.00011569018320099462 0 -0.0037239630852728151 3.79380410809877e-05 0 -0.0038041004550488141 4.5252014958225698e-05 0 -0.0037619494211526732 0.00011569018320099462 0 -0.0036846288256059813 5.525448211995384e-05 0 -0.0037239630852728151 3.79380410809877e-05 0 -0.0036911217021307658 -9.1416144601206025e-07 0 -0.0037746331566024085 -2.1272027651252242e-05 0 -0.0037239630852728151 3.79380410809877e-05 0 -0.0037746331566024085 -2.1272027651252242e-05 0 -0.0038477313541712506 -1.1509095942804614e-05 0 -0.0038041004550488141 4.5252014958225698e-05 0 -0.0037746331566024085 -2.1272027651252242e-05 0 -0.0037239630852728151 3.79380410809877e-05 0 -0.0038041004550488141 4.5252014958225698e-05 0 -0.0038477313541712506 -1.1509095942804614e-05 0 -0.0038832251984675797 3.7173906598377545e-05 0 -0.0038041004550488141 4.5252014958225698e-05 0 -0.0049763224524282139 2.9148414742718114e-05 0 -0.0049734002657008331 5.8248495510448396e-05 0 -0.0049984302721117315 2.287048913599976e-05 0 -0.0049763224524282139 2.9148414742718114e-05 0 -0.0049888237087172558 1.0688035154462261e-05 0 -0.0049984302721117315 2.287048913599976e-05 0 -0.0045954391143112451 9.3765912211670937e-06 0 -0.0045261895426106577 0.00011857245196702468 0 -0.0049763224524282139 2.9148414742718114e-05 0 -0.0049272156934292034 3.590175619651481e-05 0 -0.0049693020224585637 5.6598381595538292e-05 0 -0.0049763224524282139 2.9148414742718114e-05 0 -0.0049797812770007704 -4.8568389503258365e-06 0 -0.0049272156934292034 3.590175619651481e-05 0 -0.0042027565554696687 -3.1015594253279384e-05 0 -0.0042239371331128771 4.3956613372006632e-05 0 -0.0044017864224064696 0.00013636923184024289 0 -0.0049763224524282139 2.9148414742718114e-05 0 -0.0049797812770007704 -4.8568389503258365e-06 0 -0.0049888237087172558 1.0688035154462261e-05 0 -0.0049797812770007704 -4.8568389503258365e-06 0 -0.0049888237087172558 1.0688035154462261e-05 0 -0.0049953902980943718 6.2842120002761097e-07 0 -0.0049797812770007704 -4.8568389503258365e-06 0 -0.0049919139848822423 -8.8842975277443626e-07 0 -0.0049953902980943718 6.2842120002761097e-07 0 -0.0049999826832318479 -4.2475048128098608e-09 0 -0.0049919139848822423 -8.8842975277443626e-07 0 -0.0049953902980943718 6.2842120002761097e-07 0 -0.0049999826832318479 -4.2475048128098608e-09 0 -0.0049919139848822423 -8.8842975277443626e-07 0 -0.0049999977654194153 2.8776301825703708e-09 0 -0.004979296390797079 -7.5066767833004297e-06 0 -0.0049545082289633689 -2.5092219860955698e-05 0 -0.0049797812770007704 -4.8568389503258365e-06 0 -0.0049919139848822423 -8.8842975277443626e-07 0 -0.004996236619877934 -3.3913039416165915e-06 0 -0.0049919139848822423 -8.8842975277443626e-07 0 -0.004996236619877934 -3.3913039416165915e-06 0 -0.0049999977654194153 2.8776301825703708e-09 0 -0.004996236619877934 -3.3913039416165915e-06 0 -0.0049999977654194153 2.8776301825703708e-09 0 -0.0049995693115535223 -1.5902345333027648e-06 0 -0.0049999977654194153 2.8776301825703708e-09 0 -0.0049995693115535223 -1.5902345333027648e-06 0 -0.0050000000125094285 -3.7281003998312759e-09 0 -0.0049545082289633689 -2.5092219860955698e-05 0 -0.0049334319652668719 -4.1161533802116707e-05 0 -0.0049185478475447146 -4.5963355030963802e-05 0 -0.0048453656834952655 -8.7958442522414654e-05 0 -0.0048436426088871755 -2.0093043894018464e-05 0 -0.0040323200172858549 -0.00016922405688691263 0 -0.0042027565554696687 -3.1015594253279384e-05 0 -0.0040642653832480124 -4.7051021011498924e-05 0 -0.0040323200172858549 -0.00016922405688691263 0 -0.0040642653832480124 -4.7051021011498924e-05 0 -0.0039270497790377277 -7.8279484656279885e-05 0 -0.0044257204291872484 -0.00011639141296651276 0 -0.0045954391143112451 9.3765912211670937e-06 0 -0.0049185478475447146 -4.5963355030963802e-05 0 -0.0048436426088871755 -2.0093043894018464e-05 0 -0.0049272156934292034 3.590175619651481e-05 0 -0.0049797812770007704 -4.8568389503258365e-06 0 -0.0049185478475447146 -4.5963355030963802e-05 0 -0.0049272156934292034 3.590175619651481e-05 0 -0.0041696965629164535 1.9008835570424942e-05 0 -0.0040863211544004754 -3.5093361059446702e-05 0 -0.0041801845297586735 1.925306285530604e-05 0 -0.0040642653832480124 -4.7051021011498924e-05 0 -0.0040807711295667622 5.3071476067511368e-05 0 -0.0042027565554696687 -3.1015594253279384e-05 0 -0.0042239371331128771 4.3956613372006632e-05 0 -0.0040642653832480124 -4.7051021011498924e-05 0 -0.0040642653832480124 -4.7051021011498924e-05 0 -0.0039814780233990319 3.8441304828872031e-05 0 -0.0040807711295667622 5.3071476067511368e-05 0 -0.0039270497790377277 -7.8279484656279885e-05 0 -0.0038529439222703067 7.632982889617073e-05 0 -0.0039814780233990319 3.8441304828872031e-05 0 -0.0040642653832480124 -4.7051021011498924e-05 0 -0.0039270497790377277 -7.8279484656279885e-05 0 -0.0039814780233990319 3.8441304828872031e-05 0 -0.0035711690139881339 -0.00010128480087021735 0 -0.0032475744165343669 5.5295410690911534e-06 0 -0.0039270497790377277 -7.8279484656279885e-05 0 -0.0037911886688846304 -7.8397648216231832e-05 0 -0.0038529439222703067 7.632982889617073e-05 0 -0.0040255162566790043 -0.00015680136059437487 0 -0.0035711690139881339 -0.00010128480087021735 0 -0.0039270497790377277 -7.8279484656279885e-05 0 -0.0039243518711242192 -0.00018144877745700133 0 -0.0038432575396338637 -0.00018591340833544955 0 -0.0039270497790377277 -7.8279484656279885e-05 0 -0.0038432575396338637 -0.00018591340833544955 0 -0.0037911886688846304 -7.8397648216231832e-05 0 -0.0040323200172858549 -0.00016922405688691263 0 -0.0039270497790377277 -7.8279484656279885e-05 0 -0.0039243518711242192 -0.00018144877745700133 0 -0.0048453656834952655 -8.7958442522414654e-05 0 -0.0048436426088871755 -2.0093043894018464e-05 0 -0.0047487895435423489 -9.7346414754973719e-05 0 -0.0044257204291872484 -0.00011639141296651276 0 -0.0043356812638528893 -8.7108577808309777e-05 0 -0.0040323200172858549 -0.00016922405688691263 0 -0.0039243518711242192 -0.00018144877745700133 0 -0.0038947268947781516 -0.00028945548574666071 0 -0.0049334319652668719 -4.1161533802116707e-05 0 -0.0048132987935383042 -6.0615485026909263e-05 0 -0.0049995693115535223 -1.5902345333027648e-06 0 -0.0049997306181530192 -6.2383538689926968e-07 0 -0.0050000000125094285 -3.7281003998312759e-09 0 -0.0048453656834952655 -8.7958442522414654e-05 0 -0.0047626616924080298 -0.00012732621716601453 0 -0.0047487895435423489 -9.7346414754973719e-05 0 -0.0050002253707588191 2.2479419753717141e-06 0 -0.0050000055996932448 1.2604867395303248e-09 0 -0.0049999919876840809 -1.6189032131399634e-09 0 -0.0048132987935383042 -6.0615485026909263e-05 0 -0.0049998185653985696 -7.8257390867958641e-08 0 -0.0049999994065300594 1.9889054234535454e-10 0 -0.0049999762138797105 -4.975188202144691e-09 0 -0.004999999991935857 -2.6765718479428045e-10 0 -0.0046746969714974362 1.7832094664211892e-05 0 -0.0045912743075122563 -9.1485344452480166e-05 0 -0.0047099327376441177 1.5461123185253017e-05 0 -0.0043356812638528893 -8.7108577808309777e-05 0 -0.0046192382427589782 -1.7023757434138904e-05 0 -0.0049005983188810135 -1.9147427882008973e-05 0 -0.0046192382427589782 -1.7023757434138904e-05 0 -0.0049999969402968287 -5.6704314515197176e-09 0 -0.0050057025140338111 3.6791139950357186e-06 0 -0.004989356762295236 4.9038443495644336e-09 0 -0.0049996984048876862 1.5248446869883787e-08 0 -0.0049005983188810135 -1.9147427882008973e-05 0 -0.0049005983188810135 -1.9147427882008973e-05 0 -0.005000025010716903 -1.5533860722481822e-08 0 -0.0050002253707588191 2.2479419753717141e-06 0 -0.0049940632203255746 4.390664571824746e-07 0 -0.0049999919876840809 -1.6189032131399634e-09 0 -0.0045664455271838813 -3.4759296573491619e-05 0 -0.0046746969714974362 1.7832094664211892e-05 0 -0.0045912743075122563 -9.1485344452480166e-05 0 -0.0048132987935383042 -6.0615485026909263e-05 0 -0.0049005983188810135 -1.9147427882008973e-05 0 -0.0048132987935383042 -6.0615485026909263e-05 0 -0.0043356812638528893 -8.7108577808309777e-05 0 -0.0041616939898209563 -2.2089782150789433e-05 0 -0.0042186570225015802 -2.5095780889426268e-05 0 -0.0042234840427354823 3.3194268763282416e-05 0 -0.0039243518711242192 -0.00018144877745700133 0 -0.0038947268947781516 -0.00028945548574666071 0 -0.0038432575396338637 -0.00018591340833544955 0 -0.0041616939898209563 -2.2089782150789433e-05 0 -0.0042186570225015802 -2.5095780889426268e-05 0 -0.0041890297964726998 -8.8942605922089849e-05 0 -0.0043356812638528893 -8.7108577808309777e-05 0 -0.0040255162566790043 -0.00015680136059437487 0 -0.0042186570225015802 -2.5095780889426268e-05 0 -0.0041890297964726998 -8.8942605922089849e-05 0 -0.0042587615355415345 -6.4878199102705729e-05 0 -0.0046192382427589782 -1.7023757434138904e-05 0 -0.0046053165287843348 -7.7127524831986392e-06 0 -0.0042186570225015802 -2.5095780889426268e-05 0 -0.0042234840427354823 3.3194268763282416e-05 0 -0.0043030073603779351 2.7852185875204653e-05 0 -0.0040172946016009698 1.5028888337849476e-05 0 -0.0046053165287843348 -7.7127524831986392e-06 0 -0.0049893518799046391 -2.1704713492368951e-10 0 -0.004999996470515823 3.4072775268326785e-10 0 -0.004999090659626281 -1.208898030039156e-06 0 -0.0042186570225015802 -2.5095780889426268e-05 0 -0.0042587615355415345 -6.4878199102705729e-05 0 -0.0043030073603779351 2.7852185875204653e-05 0 -0.0049993246482235281 2.3115783015027117e-07 0 -0.0049999834175984258 1.4972132791421268e-09 0 -0.0049995577637257337 1.1947744054717493e-08 0 -0.0037889312865658368 5.8721092381166426e-05 0 -0.0038723198147325466 0.00024353057840693706 0 -0.0039352464670722896 0.00010470738055653983 0 -0.0040636556276698278 0.00023095542142588478 0 -0.0038723198147325466 0.00024353057840693706 0 -0.0039352464670722896 0.00010470738055653983 0 -0.004495765681549275 0.00012856461737594552 0 -0.0046053165287843348 -7.7127524831986392e-06 0 -0.0049986137212962457 2.6948539818235751e-07 0 -0.0046053165287843348 -7.7127524831986392e-06 0 -0.0037889312865658368 5.8721092381166426e-05 0 -0.0039352464670722896 0.00010470738055653983 0 -0.0038840961718753604 -6.7032862444714885e-06 0 -0.0039767762956953064 1.2665303103119087e-05 0 -0.0039352464670722896 0.00010470738055653983 0 -0.0038840961718753604 -6.7032862444714885e-06 0 -0.0039767762956953064 1.2665303103119087e-05 0 -0.0039416215831415075 -6.6771796092211048e-05 0 -0.0038840961718753604 -6.7032862444714885e-06 0 -0.003994088203374371 -0.00012464421794027171 0 -0.0039416215831415075 -6.6771796092211048e-05 0 -0.003930510644962258 -0.0001456920026970543 0 -0.0039416215831415075 -6.6771796092211048e-05 0 -0.0038575002240925473 -9.9544175346356122e-05 0 -0.003930510644962258 -0.0001456920026970543 0 -0.0039416215831415075 -6.6771796092211048e-05 0 -0.0038575002240925473 -9.9544175346356122e-05 0 -0.0038840961718753604 -6.7032862444714885e-06 0 -0.0038575002240925473 -9.9544175346356122e-05 0 -0.0038840961718753604 -6.7032862444714885e-06 0 -0.0037993593573700129 -5.0182844961575902e-05 0 -0.0037889312865658368 5.8721092381166426e-05 0 -0.0037993593573700129 -5.0182844961575902e-05 0 -0.0037372553759058768 -0.00010327435876383783 0 -0.0041890297964726998 -8.8942605922089849e-05 0 -0.0042587615355415345 -6.4878199102705729e-05 0 -0.0042138487661669043 -0.00015471163769876123 0 -0.0037889312865658368 5.8721092381166426e-05 0 -0.0038840961718753604 -6.7032862444714885e-06 0 -0.0037993593573700129 -5.0182844961575902e-05 0 -0.0040172946016009698 1.5028888337849476e-05 0 -0.0035711690139881339 -0.00010128480087021735 0 -0.0037993593573700129 -5.0182844961575902e-05 0 -0.0037372553759058768 -0.00010327435876383783 0 -0.003761962868653935 -9.770512560303527e-05 0 -0.0038575002240925473 -9.9544175346356122e-05 0 -0.0037993593573700129 -5.0182844961575902e-05 0 -0.003761962868653935 -9.770512560303527e-05 0 -0.003761962868653935 -9.770512560303527e-05 0 -0.0038391437464805039 -0.0001769886645355715 0 -0.003850255209032127 -0.00032361916019663973 0 -0.0038575002240925473 -9.9544175346356122e-05 0 -0.003761962868653935 -9.770512560303527e-05 0 -0.0038391437464805039 -0.0001769886645355715 0 -0.003761962868653935 -9.770512560303527e-05 0 -0.0037077875310162563 -9.7338801806915983e-05 0 -0.0037244251800962629 -9.9503452414069152e-05 0 -0.0027037829304978685 -0.00012232599572645255 0 -0.0026543339759347918 -3.5984660645093969e-05 0 -0.0027307225368089134 -3.3642710611680929e-05 0 -0.0037372553759058768 -0.00010327435876383783 0 -0.003761962868653935 -9.770512560303527e-05 0 -0.0037244251800962629 -9.9503452414069152e-05 0 -0.0035711690139881339 -0.00010128480087021735 0 -0.0031459320574504248 -5.5394913266560146e-05 0 -0.0037604940138641573 -0.00013124408591753343 0 -0.0037888722672715096 -0.00013505891958655493 0 -0.0038860536931426479 -0.00018948849604810594 0 -0.0038391437464805039 -0.0001769886645355715 0 -0.003850255209032127 -0.00032361916019663973 0 -0.0039795002869844739 -0.00023687296896405044 0 -0.0038860536931426479 -0.00018948849604810594 0 -0.003930510644962258 -0.0001456920026970543 0 -0.0038575002240925473 -9.9544175346356122e-05 0 -0.0038860536931426479 -0.00018948849604810594 0 -0.0038391437464805039 -0.0001769886645355715 0 -0.0038575002240925473 -9.9544175346356122e-05 0 -0.0038860536931426479 -0.00018948849604810594 0 -0.003930510644962258 -0.0001456920026970543 0 -0.0039795002869844739 -0.00023687296896405044 0 -0.0038860536931426479 -0.00018948849604810594 0 -0.003850255209032127 -0.00032361916019663973 0 -0.0037077875310162563 -9.7338801806915983e-05 0 -0.0037244251800962629 -9.9503452414069152e-05 0 -0.0036779344608269212 -4.9324271410389454e-05 0 -0.0037715702446820781 -6.6195877815090201e-05 0 -0.0037547897728940787 -6.5384680614065916e-05 0 -0.0037615443787833375 -5.5507770327180999e-05 0 -0.0037495921452451062 -5.2211895801679734e-05 0 -0.0037547897728940787 -6.5384680614065916e-05 0 -0.0037615443787833375 -5.5507770327180999e-05 0 -0.0038669411607927945 -0.00016031292545712824 0 -0.0037888722672715096 -0.00013505891958655493 0 -0.0037493785299876833 -8.0279130532400422e-05 0 -0.0037715702446820781 -6.6195877815090201e-05 0 -0.0037547897728940787 -6.5384680614065916e-05 0 -0.0026543339759347918 -3.5984660645093969e-05 0 -0.0026828897692673043 2.6165162479410041e-05 0 -0.0027307225368089134 -3.3642710611680929e-05 0 -0.0026543339759347918 -3.5984660645093969e-05 0 -0.0026828897692673043 2.6165162479410041e-05 0 -0.0026115255374125133 5.2375143026711662e-05 0 -0.0037715702446820781 -6.6195877815090201e-05 0 -0.0037615443787833375 -5.5507770327180999e-05 0 -0.0037558497365202353 -2.7121767365335347e-05 0 -0.0031459320574504248 -5.5394913266560146e-05 0 -0.0031508277430073242 -2.6041709874208651e-06 0 -0.0037077875310162563 -9.7338801806915983e-05 0 -0.0036779344608269212 -4.9324271410389454e-05 0 -0.0036532670821868497 -3.7671752521344099e-05 0 -0.0037615443787833375 -5.5507770327180999e-05 0 -0.0037529877517515999 -4.3833578125703497e-05 0 -0.0037558497365202353 -2.7121767365335347e-05 0 -0.0037888722672715096 -0.00013505891958655493 0 -0.0036943814479679263 -1.7965125423573713e-05 0 -0.0037495921452451062 -5.2211895801679734e-05 0 -0.0037615443787833375 -5.5507770327180999e-05 0 -0.0037529877517515999 -4.3833578125703497e-05 0 -0.003744972028558319 -4.0410554539322794e-05 0 -0.0037529877517515999 -4.3833578125703497e-05 0 -0.0037558497365202353 -2.7121767365335347e-05 0 -0.0036314184213241799 1.5781376326440041e-06 0 -0.0036779344608269212 -4.9324271410389454e-05 0 -0.0036532670821868497 -3.7671752521344099e-05 0 -0.0031139927315102481 5.7581815280435708e-05 0 -0.0031508277430073242 -2.6041709874208651e-06 0 -0.0025856557279638854 0.00012689329354508829 0 -0.0026115255374125133 5.2375143026711662e-05 0 -0.002632972859556445 0.00011524693201052608 0 -0.0025856557279638854 0.00012689329354508829 0 -0.002632972859556445 0.00011524693201052608 0 -0.0026207653451887918 0.00016104812820680228 0 -0.002632972859556445 0.00011524693201052608 0 -0.0027004185183789864 0.00013132509154075957 0 -0.0026207653451887918 0.00016104812820680228 0 -0.0026828897692673043 2.6165162479410041e-05 0 -0.0026115255374125133 5.2375143026711662e-05 0 -0.0026851906972830252 9.7118887581831371e-05 0 -0.0026115255374125133 5.2375143026711662e-05 0 -0.002632972859556445 0.00011524693201052608 0 -0.0026851906972830252 9.7118887581831371e-05 0 -0.0026828897692673043 2.6165162479410041e-05 0 -0.0026851906972830252 9.7118887581831371e-05 0 -0.0027662106860512361 5.290552864775652e-05 0 -0.0026851906972830252 9.7118887581831371e-05 0 -0.0027004185183789864 0.00013132509154075957 0 -0.0027424681191950706 0.00012935181517001099 0 -0.002632972859556445 0.00011524693201052608 0 -0.0026851906972830252 9.7118887581831371e-05 0 -0.0027004185183789864 0.00013132509154075957 0 -0.0025202686930970359 3.8605249236627458e-05 0 -0.003181330166516623 0.00026574846010966706 0 -0.0027004185183789864 0.00013132509154075957 0 -0.0027424681191950706 0.00012935181517001099 0 -0.0026833968455494393 0.00017234859747148782 0 -0.003181330166516623 0.00026574846010966706 0 -0.0033733194078877076 0.00015627762926976975 0 -0.0039721140845362483 0.00038389254820705873 0 -0.0039134174056071518 0.00022912079392001551 0 -0.0039934416985731459 0.00028623317118922143 0 -0.0026851906972830252 9.7118887581831371e-05 0 -0.0028211075012339309 0.00016944794161408893 0 -0.0027662106860512361 5.290552864775652e-05 0 -0.0039134174056071518 0.00022912079392001551 0 -0.0040237162957605455 0.00014390916654251088 0 -0.0039934416985731459 0.00028623317118922143 0 -0.0039134174056071518 0.00022912079392001551 0 -0.0038529439222703067 7.632982889617073e-05 0 -0.0039429751326402682 0.00012191987500696571 0 -0.0039134174056071518 0.00022912079392001551 0 -0.0039429751326402682 0.00012191987500696571 0 -0.0040237162957605455 0.00014390916654251088 0 -0.0033733194078877076 0.00015627762926976975 0 -0.0032475744165343669 5.5295410690911534e-06 0 -0.0026828897692673043 2.6165162479410041e-05 0 -0.0027662106860512361 5.290552864775652e-05 0 -0.0027307225368089134 -3.3642710611680929e-05 0 -0.0039814780233990319 3.8441304828872031e-05 0 -0.0039429751326402682 0.00012191987500696571 0 -0.0040237162957605455 0.00014390916654251088 0 -0.0038529439222703067 7.632982889617073e-05 0 -0.0039814780233990319 3.8441304828872031e-05 0 -0.0039429751326402682 0.00012191987500696571 0 -0.0040807711295667622 5.3071476067511368e-05 0 -0.0041458949424255428 0.00011389436825084807 0 -0.0040237162957605455 0.00014390916654251088 0 -0.0039814780233990319 3.8441304828872031e-05 0 -0.0040807711295667622 5.3071476067511368e-05 0 -0.0040237162957605455 0.00014390916654251088 0 -0.0041801845297586735 1.925306285530604e-05 0 -0.0040807711295667622 5.3071476067511368e-05 0 -0.0041458949424255428 0.00011389436825084807 0 -0.0041801845297586735 1.925306285530604e-05 0 -0.0041458949424255428 0.00011389436825084807 0 -0.0042108887379710067 0.00010374573016287373 0 -0.0041458949424255428 0.00011389436825084807 0 -0.0040963212965070559 0.00019808639683867031 0 -0.004211093727531136 0.00019436974118727267 0 -0.0040963212965070559 0.00019808639683867031 0 -0.0040954096853324205 0.00028993790190309543 0 -0.004211093727531136 0.00019436974118727267 0 -0.0041458949424255428 0.00011389436825084807 0 -0.004211093727531136 0.00019436974118727267 0 -0.0042108887379710067 0.00010374573016287373 0 -0.0040963212965070559 0.00019808639683867031 0 -0.0040237162957605455 0.00014390916654251088 0 -0.0039934416985731459 0.00028623317118922143 0 -0.0041458949424255428 0.00011389436825084807 0 -0.0040963212965070559 0.00019808639683867031 0 -0.0040237162957605455 0.00014390916654251088 0 -0.0039721140845362483 0.00038389254820705873 0 -0.0040954096853324205 0.00028993790190309543 0 -0.0039934416985731459 0.00028623317118922143 0 -0.0040963212965070559 0.00019808639683867031 0 -0.0040954096853324205 0.00028993790190309543 0 -0.0039934416985731459 0.00028623317118922143 0 -0.0038989158505774793 0.00043306656202851023 0 -0.0040653742917630079 0.00030907128095209585 0 -0.0040536509110984933 0.00050696196593750381 0 -0.003181330166516623 0.00026574846010966706 0 -0.0041947807591152016 0.00026931762479629178 0 -0.0032556459275989162 0.00026018206943637594 0 -0.0033402808956897656 0.00030103563495548956 0 -0.0032853075795934183 0.00033053903994871114 0 -0.003181330166516623 0.00026574846010966706 0 -0.0039257124777350421 0.00039325630010165357 0 -0.003181330166516623 0.00026574846010966706 0 -0.0029082004188133817 0.00024495368312439268 0 -0.0040653742917630079 0.00030907128095209585 0 -0.0041026173125276412 0.00032668036034708326 0 -0.0040536509110984933 0.00050696196593750381 0 -0.0041143664787547602 0.00036225348415141838 0 -0.0039257124777350421 0.00039325630010165357 0 -0.0041741863292548177 0.00041289325199157323 0 -0.0041026173125276412 0.00032668036034708326 0 -0.0040751885846123338 0.00045684148531332104 0 -0.0041741863292548177 0.00041289325199157323 0 -0.0041026173125276412 0.00032668036034708326 0 -0.0042046114214358719 0.00031682907636018795 0 -0.0041947807591152016 0.00026931762479629178 0 -0.0041498415357169513 0.00022819539508280135 0 -0.0040653742917630079 0.00030907128095209585 0 -0.0041026173125276412 0.00032668036034708326 0 -0.0041879222639543048 0.00021886637854520312 0 -0.0041026173125276412 0.00032668036034708326 0 -0.0042046114214358719 0.00031682907636018795 0 -0.0041879222639543048 0.00021886637854520312 0 -0.0042046114214358719 0.00031682907636018795 0 -0.0043037429770130201 0.00026332268147828095 0 -0.0041879222639543048 0.00021886637854520312 0 -0.0042046114214358719 0.00031682907636018795 0 -0.0042795967525428883 0.00038838269111945691 0 -0.0043037429770130201 0.00026332268147828095 0 -0.0041741863292548177 0.00041289325199157323 0 -0.0042046114214358719 0.00031682907636018795 0 -0.0042795967525428883 0.00038838269111945691 0 -0.0041741863292548177 0.00041289325199157323 0 -0.0042795967525428883 0.00038838269111945691 0 -0.00421415234359047 0.00051823765432528781 0 -0.0042795967525428883 0.00038838269111945691 0 -0.0043651219061227233 0.00046555334995067619 0 -0.0044288399877559373 0.00035302791991338245 0 -0.0043037429770130201 0.00026332268147828095 0 -0.0044252715405582116 0.00019652698550120872 0 -0.0044288399877559373 0.00035302791991338245 0 -0.0042795967525428883 0.00038838269111945691 0 -0.0043037429770130201 0.00026332268147828095 0 -0.0044288399877559373 0.00035302791991338245 0 -0.0045218772561018087 0.00012190821744948984 0 -0.0044504879621226501 0.00021735992426952881 0 -0.0043037429770130201 0.00026332268147828095 0 -0.0043005806074572833 0.00012540244942885401 0 -0.0044252715405582116 0.00019652698550120872 0 -0.0043037429770130201 0.00026332268147828095 0 -0.0041879222639543048 0.00021886637854520312 0 -0.0043005806074572833 0.00012540244942885401 0 -0.0041498415357169513 0.00022819539508280135 0 -0.0045218772561018087 0.00012190821744948984 0 -0.0041696965629164535 1.9008835570424942e-05 0 -0.0045261895426106577 0.00011857245196702468 0 -0.004211093727531136 0.00019436974118727267 0 -0.0043068237841830843 8.7998687519580946e-05 0 -0.0043257631552590927 9.8513554131828202e-05 0 -0.004211093727531136 0.00019436974118727267 0 -0.0043068237841830843 8.7998687519580946e-05 0 -0.0042108887379710067 0.00010374573016287373 0 -0.0041801845297586735 1.925306285530604e-05 0 -0.0043068237841830843 8.7998687519580946e-05 0 -0.0042108887379710067 0.00010374573016287373 0 -0.0049763224524282139 2.9148414742718114e-05 0 -0.0049693020224585637 5.6598381595538292e-05 0 -0.0049734002657008331 5.8248495510448396e-05 0 -0.0045218772561018087 0.00012190821744948984 0 -0.004804732789225147 6.7020447565201228e-05 0 -0.0045261895426106577 0.00011857245196702468 0 -0.0045218772561018087 0.00012190821744948984 0 -0.0042909217819653393 0.00081276775082051529 0 -0.0041554060274500461 0.00064882347219908363 0 -0.004328481003701889 0.00056668907893653721 0 -0.0036881077878306583 0.00029569988057645996 0 -0.0031227746864450996 0.00026984722730770085 0 -0.0042909217819653393 0.00081276775082051529 0 -0.0041282641735377462 0.0007846350983381653 0 -0.0040676241236458615 0.00092759789979165205 0 -0.0041282641735377462 0.0007846350983381653 0 -0.0041554060274500461 0.00064882347219908363 0 -0.0039891385369107439 0.00073810112383207655 0 -0.0042909217819653393 0.00081276775082051529 0 -0.0041282641735377462 0.0007846350983381653 0 -0.0041554060274500461 0.00064882347219908363 0 -0.0043106951439941784 0.00055765316235306477 0 -0.0041921609204470635 0.00049484979909084461 0 -0.0042795967525428883 0.00038838269111945691 0 -0.0043651219061227233 0.00046555334995067619 0 -0.00421415234359047 0.00051823765432528781 0 -0.004328481003701889 0.00056668907893653721 0 -0.0043651219061227233 0.00046555334995067619 0 -0.00421415234359047 0.00051823765432528781 0 -0.0041554060274500461 0.00064882347219908363 0 -0.004328481003701889 0.00056668907893653721 0 -0.004133538321837822 0.00045699850192233363 0 -0.0041554060274500461 0.00064882347219908363 0 -0.004133538321837822 0.00045699850192233363 0 -0.0038987732666968546 0.00053703666641642135 0 -0.0041921609204470635 0.00049484979909084461 0 -0.0039257124777350421 0.00039325630010165357 0 -0.004133538321837822 0.00045699850192233363 0 -0.0039430629749076978 0.00036206245030035529 0 -0.0038987732666968546 0.00053703666641642135 0 -0.0041741863292548177 0.00041289325199157323 0 -0.00421415234359047 0.00051823765432528781 0 -0.0040751885846123338 0.00045684148531332104 0 -0.0033402808956897656 0.00030103563495548956 0 -0.0032853075795934183 0.00033053903994871114 0 -0.0033123509690232162 0.00039796596887683105 0 -0.0039257124777350421 0.00039325630010165357 0 -0.0030493933519702954 0.00034809004061956718 0 -0.0025324315780139803 0.00022829528095745538 0 -0.0025235413196933406 0.00021210697900122172 0 -0.0025386676064074747 0.00021695394736571841 0 -0.0029082004188133817 0.00024495368312439268 0 -0.0030493933519702954 0.00034809004061956718 0 -0.0030493933519702954 0.00034809004061956718 0 -0.0025103559046588675 0.00019474361957821012 0 -0.0025235413196933406 0.00021210697900122172 0 -0.0025250704593185809 0.00018999610289710132 0 -0.0025410613845623388 0.00020087379182286773 0 -0.0025271064768935189 0.00023758242857780231 0 -0.0025286114865517191 0.00020424991247783452 0 -0.0025065840706009397 0.00019474877240590444 0 -0.0030493933519702954 0.00034809004061956718 0 -0.0033003520692336131 0.00053934241240531492 0 -0.0041554060274500461 0.00064882347219908363 0 -0.0038987732666968546 0.00053703666641642135 0 -0.0039891385369107439 0.00073810112383207655 0 -0.0025065840706009397 0.00019474877240590444 0 -0.002508528723957946 0.00016979573827860807 0 -0.0024964364852083196 0.00016395573744131699 0 -0.0033003520692336131 0.00053934241240531492 0 -0.0031227746864450996 0.00026984722730770085 0 -0.0041282641735377462 0.0007846350983381653 0 -0.0039891385369107439 0.00073810112383207655 0 -0.0040676241236458615 0.00092759789979165205 0 -0.0025286114865517191 0.00020424991247783452 0 -0.0025065840706009397 0.00019474877240590444 0 -0.0025246526723390673 0.00017390186993711991 0 -0.0025103559046588675 0.00019474361957821012 0 -0.0025273198546470681 0.0001767103929156432 0 -0.0025065840706009397 0.00019474877240590444 0 -0.0025246526723390673 0.00017390186993711991 0 -0.002508528723957946 0.00016979573827860807 0 -0.0025250704593185809 0.00018999610289710132 0 -0.0025246526723390673 0.00017390186993711991 0 -0.0025347649000988827 0.00018292554053777937 0 -0.0025246526723390673 0.00017390186993711991 0 -0.0025347649000988827 0.00018292554053777937 0 -0.0025373234987857742 0.00016594574965802039 0 -0.0025508926828286516 0.00018455579647390873 0 -0.0025568029864701993 0.00017614158018656 0 -0.0025373234987857742 0.00016594574965802039 0 -0.0025568029864701993 0.00017614158018656 0 -0.0025549094752012002 0.00016819745687388679 0 -0.0025373234987857742 0.00016594574965802039 0 -0.0025508926828286516 0.00018455579647390873 0 -0.0025347649000988827 0.00018292554053777937 0 -0.0025373234987857742 0.00016594574965802039 0 -0.0025508926828286516 0.00018455579647390873 0 -0.0025410613845623388 0.00020087379182286773 0 -0.0025623724244863955 0.00019748431021124761 0 -0.0025508926828286516 0.00018455579647390873 0 -0.0025691417089347395 0.00018634905951497925 0 -0.0025568029864701993 0.00017614158018656 0 -0.0025508926828286516 0.00018455579647390873 0 -0.0025623724244863955 0.00019748431021124761 0 -0.0025691417089347395 0.00018634905951497925 0 -0.0025508926828286516 0.00018455579647390873 0 -0.0025347649000988827 0.00018292554053777937 0 -0.0025410613845623388 0.00020087379182286773 0 -0.0025250704593185809 0.00018999610289710132 0 -0.0025347649000988827 0.00018292554053777937 0 -0.0025410613845623388 0.00020087379182286773 0 -0.0025235413196933406 0.00021210697900122172 0 -0.0025410613845623388 0.00020087379182286773 0 -0.0025386676064074747 0.00021695394736571841 0 -0.0025410613845623388 0.00020087379182286773 0 -0.0025386676064074747 0.00021695394736571841 0 -0.0025582363020132228 0.00022658672399224276 0 -0.0025419397409080827 0.00024338512833599221 0 -0.0025324315780139803 0.00022829528095745538 0 -0.0025582363020132228 0.00022658672399224276 0 -0.003181330166516623 0.00026574846010966706 0 -0.0025265574605381298 0.00021426515278908623 0 -0.0025324315780139803 0.00022829528095745538 0 -0.0025386676064074747 0.00021695394736571841 0 -0.0025582363020132228 0.00022658672399224276 0 -0.0027004185183789864 0.00013132509154075957 0 -0.0026833968455494393 0.00017234859747148782 0 -0.0026207653451887918 0.00016104812820680228 0 -0.0025410613845623388 0.00020087379182286773 0 -0.0025582363020132228 0.00022658672399224276 0 -0.0025623724244863955 0.00019748431021124761 0 -0.0025582363020132228 0.00022658672399224276 0 -0.0025623724244863955 0.00019748431021124761 0 -0.0025967009159910286 0.00019769476442567296 0 -0.0025265574605381298 0.00021426515278908623 0 -0.0026350301321659644 0.0001841591007322281 0 -0.0026833968455494393 0.00017234859747148782 0 -0.0025967009159910286 0.00019769476442567296 0 -0.0026207653451887918 0.00016104812820680228 0 -0.0026207653451887918 0.00016104812820680228 0 -0.0025926942938470183 0.00016743282115470857 0 -0.0025888235360063522 0.00018644616920092332 0 -0.0025856557279638854 0.00012689329354508829 0 -0.0026207653451887918 0.00016104812820680228 0 -0.0025926942938470183 0.00016743282115470857 0 -0.0025926942938470183 0.00016743282115470857 0 -0.0025888235360063522 0.00018644616920092332 0 -0.0025846066084395576 0.00018220707080926789 0 -0.0025967009159910286 0.00019769476442567296 0 -0.0026207653451887918 0.00016104812820680228 0 -0.0025888235360063522 0.00018644616920092332 0 -0.0025967009159910286 0.00019769476442567296 0 -0.0025888235360063522 0.00018644616920092332 0 -0.00258388639309202 0.00018842411159774303 0 -0.0025949434915647517 0.00017639896011010036 0 -0.0025616849186517426 0.00020892487634381317 0 -0.0025967009159910286 0.00019769476442567296 0 -0.00258388639309202 0.00018842411159774303 0 -0.0025760080636849222 0.00018404737894423719 0 -0.0025888235360063522 0.00018644616920092332 0 -0.00258388639309202 0.00018842411159774303 0 -0.0025820252833180066 0.00018695340306767986 0 -0.00258388639309202 0.00018842411159774303 0 -0.0025777336913799403 0.00018152761264295087 0 -0.0025820252833180066 0.00018695340306767986 0 -0.00258388639309202 0.00018842411159774303 0 -0.0025760080636849222 0.00018404737894423719 0 -0.0025777336913799403 0.00018152761264295087 0 -0.0025623724244863955 0.00019748431021124761 0 -0.0025967009159910286 0.00019769476442567296 0 -0.0025691417089347395 0.00018634905951497925 0 -0.0025967009159910286 0.00019769476442567296 0 -0.0025760080636849222 0.00018404737894423719 0 -0.0025691417089347395 0.00018634905951497925 0 -0.0025760080636849222 0.00018404737894423719 0 -0.0025691417089347395 0.00018634905951497925 0 -0.0025568029864701993 0.00017614158018656 0 -0.0025568029864701993 0.00017614158018656 0 -0.0025680303002569454 0.00017488256835368669 0 -0.0025549094752012002 0.00016819745687388679 0 -0.0025760080636849222 0.00018404737894423719 0 -0.0025568029864701993 0.00017614158018656 0 -0.0025680303002569454 0.00017488256835368669 0 -0.0025680303002569454 0.00017488256835368669 0 -0.0025777336913799403 0.00018152761264295087 0 -0.0025739775953390704 0.00017117440354161539 0 -0.0025760080636849222 0.00018404737894423719 0 -0.0025680303002569454 0.00017488256835368669 0 -0.0025777336913799403 0.00018152761264295087 0 -0.0025604314408625003 0.00016389627301380844 0 -0.0025739775953390704 0.00017117440354161539 0 -0.0025672236129005879 0.00015833818271048728 0 -0.0025680303002569454 0.00017488256835368669 0 -0.0025604314408625003 0.00016389627301380844 0 -0.0025739775953390704 0.00017117440354161539 0 -0.0025680303002569454 0.00017488256835368669 0 -0.0025604314408625003 0.00016389627301380844 0 -0.0025549094752012002 0.00016819745687388679 0 -0.0025549094752012002 0.00016819745687388679 0 -0.0025438801250328362 0.00015546086489839033 0 -0.0025373234987857742 0.00016594574965802039 0 -0.0025604314408625003 0.00016389627301380844 0 -0.0025549094752012002 0.00016819745687388679 0 -0.0025438801250328362 0.00015546086489839033 0 -0.0025438801250328362 0.00015546086489839033 0 -0.0025292175473241919 0.00014121106155747347 0 -0.0025264719752296728 0.0001486381706504372 0 -0.0025438801250328362 0.00015546086489839033 0 -0.0025292175473241919 0.00014121106155747347 0 -0.0025509800570808023 0.00014918530691450258 0 -0.0025604314408625003 0.00016389627301380844 0 -0.0025509800570808023 0.00014918530691450258 0 -0.0025672236129005879 0.00015833818271048728 0 -0.0025604314408625003 0.00016389627301380844 0 -0.0025438801250328362 0.00015546086489839033 0 -0.0025509800570808023 0.00014918530691450258 0 -0.0025509800570808023 0.00014918530691450258 0 -0.0025508297053953937 0.00012861160004015362 0 -0.0025711678133723747 0.00014042374914227426 0 -0.0025509800570808023 0.00014918530691450258 0 -0.0025508297053953937 0.00012861160004015362 0 -0.0025270417699913414 0.00013028708821578858 0 -0.0025508297053953937 0.00012861160004015362 0 -0.0025252694597719103 0.00011087111108836964 0 -0.0025677832069000259 0.00010006962626962334 0 -0.0025508297053953937 0.00012861160004015362 0 -0.0025252694597719103 0.00011087111108836964 0 -0.0025270417699913414 0.00013028708821578858 0 -0.0025252694597719103 0.00011087111108836964 0 -0.002497496349717829 0.00011243429614347006 0 -0.0025270417699913414 0.00013028708821578858 0 -0.002497496349717829 0.00011243429614347006 0 -0.0025270417699913414 0.00013028708821578858 0 -0.0025077910610032577 0.00012451860503757145 0 -0.0025292175473241919 0.00014121106155747347 0 -0.0025509800570808023 0.00014918530691450258 0 -0.0025270417699913414 0.00013028708821578858 0 -0.0025292175473241919 0.00014121106155747347 0 -0.0025270417699913414 0.00013028708821578858 0 -0.0025077910610032577 0.00012451860503757145 0 -0.0025292175473241919 0.00014121106155747347 0 -0.002514881306504623 0.0001357880519406746 0 -0.0025077910610032577 0.00012451860503757145 0 -0.002514881306504623 0.0001357880519406746 0 -0.0025077910610032577 0.00012451860503757145 0 -0.0025029233716446853 0.00012654584646058187 0 -0.0025077910610032577 0.00012451860503757145 0 -0.0024960648722881572 0.00011593702215711608 0 -0.0025029233716446853 0.00012654584646058187 0 -0.002497496349717829 0.00011243429614347006 0 -0.0025077910610032577 0.00012451860503757145 0 -0.0024960648722881572 0.00011593702215711608 0 -0.0024960648722881572 0.00011593702215711608 0 -0.0024930923118903362 0.00012096754690985494 0 -0.0025029233716446853 0.00012654584646058187 0 -0.0024930923118903362 0.00012096754690985494 0 -0.0025029233716446853 0.00012654584646058187 0 -0.0024993244840089252 0.00012979918971104201 0 -0.0025029233716446853 0.00012654584646058187 0 -0.0025113345400880828 0.00014022469680586099 0 -0.0024993244840089252 0.00012979918971104201 0 -0.002514881306504623 0.0001357880519406746 0 -0.0025029233716446853 0.00012654584646058187 0 -0.0025113345400880828 0.00014022469680586099 0 -0.0025113345400880828 0.00014022469680586099 0 -0.0025215416413635395 0.00015518723174775666 0 -0.0025067288884881599 0.00014985615816819092 0 -0.0025113345400880828 0.00014022469680586099 0 -0.0025264719752296728 0.0001486381706504372 0 -0.0025215416413635395 0.00015518723174775666 0 -0.002514881306504623 0.0001357880519406746 0 -0.0025113345400880828 0.00014022469680586099 0 -0.0025264719752296728 0.0001486381706504372 0 -0.0025292175473241919 0.00014121106155747347 0 -0.002514881306504623 0.0001357880519406746 0 -0.0025264719752296728 0.0001486381706504372 0 -0.0025264719752296728 0.0001486381706504372 0 -0.0025373234987857742 0.00016594574965802039 0 -0.0025215416413635395 0.00015518723174775666 0 -0.0025438801250328362 0.00015546086489839033 0 -0.0025264719752296728 0.0001486381706504372 0 -0.0025373234987857742 0.00016594574965802039 0 -0.0025246526723390673 0.00017390186993711991 0 -0.0025373234987857742 0.00016594574965802039 0 -0.0025215416413635395 0.00015518723174775666 0 -0.0025246526723390673 0.00017390186993711991 0 -0.0025215416413635395 0.00015518723174775666 0 -0.0025067288884881599 0.00014985615816819092 0 -0.0025246526723390673 0.00017390186993711991 0 -0.002508528723957946 0.00016979573827860807 0 -0.0025067288884881599 0.00014985615816819092 0 -0.002508528723957946 0.00016979573827860807 0 -0.0024964364852083196 0.00016395573744131699 0 -0.0025067288884881599 0.00014985615816819092 0 -0.002496587723458218 0.00015545774119171541 0 -0.0025067288884881599 0.00014985615816819092 0 -0.0024890078596596791 0.00014212223955390485 0 -0.0031227746864450996 0.00026984722730770085 0 -0.0023035988093974549 0.00019031018810456151 0 -0.0025067288884881599 0.00014985615816819092 0 -0.0024940834124707453 0.00013363690935032732 0 -0.0024890078596596791 0.00014212223955390485 0 -0.0025113345400880828 0.00014022469680586099 0 -0.0025067288884881599 0.00014985615816819092 0 -0.0024993244840089252 0.00012979918971104201 0 -0.0025067288884881599 0.00014985615816819092 0 -0.0024993244840089252 0.00012979918971104201 0 -0.0024940834124707453 0.00013363690935032732 0 -0.0024930923118903362 0.00012096754690985494 0 -0.0024993244840089252 0.00012979918971104201 0 -0.0024920976936353249 0.00012281197280546516 0 -0.0024993244840089252 0.00012979918971104201 0 -0.0024920976936353249 0.00012281197280546516 0 -0.0024940834124707453 0.00013363690935032732 0 -0.0024920976936353249 0.00012281197280546516 0 -0.0024940834124707453 0.00013363690935032732 0 -0.0024855685925561349 0.00013145401029353076 0 -0.0026833630045538593 4.7319584717564389e-06 0 -0.0026602580237472038 -8.35843414162954e-05 0 -0.0024940834124707453 0.00013363690935032732 0 -0.0024855685925561349 0.00013145401029353076 0 -0.0024890078596596791 0.00014212223955390485 0 -0.002425939221184835 0.00016719902647490361 0 -0.0026833630045538593 4.7319584717564389e-06 0 -0.0024586103215658655 0.0001392738625193355 0 -0.00244449224778119 0.00015092649430045163 0 -0.0024365865510268558 0.00013832741473956199 0 -0.0029253404115001588 -0.00016354862191202295 0 -0.0029298724734510193 -0.00015710938713409185 0 -0.0029360321192282946 -0.0001602556688576912 0 -0.0026833630045538593 4.7319584717564389e-06 0 -0.0026802907939954177 -1.3628083600374615e-05 0 -0.0029253404115001588 -0.00016354862191202295 0 -0.0029369926135790203 -0.00016634643673289439 0 -0.0029360321192282946 -0.0001602556688576912 0 -0.0029253404115001588 -0.00016354862191202295 0 -0.0029369926135790203 -0.00016634643673289439 0 -0.0029434948430011594 -0.00017730230801835269 0 -0.0029109478332259597 -0.00014378634323785689 0 -0.0029200566798351034 -0.00017161587212681284 0 -0.0029434948430011594 -0.00017730230801835269 0 -0.0026833630045538593 4.7319584717564389e-06 0 -0.0030372797783039195 -0.00025012225809918089 0 -0.0029200566798351034 -0.00017161587212681284 0 -0.0029247981027662371 -0.00019336237484549843 0 -0.0029434948430011594 -0.00017730230801835269 0 -0.0029109478332259597 -0.00014378634323785689 0 -0.0029200566798351034 -0.00017161587212681284 0 -0.002900668719870248 -0.00017185237800181963 0 -0.0029200566798351034 -0.00017161587212681284 0 -0.002900668719870248 -0.00017185237800181963 0 -0.0029247981027662371 -0.00019336237484549843 0 -0.0029359739848793449 -0.00022742882948586184 0 -0.0028913310256554543 -0.00019717284846039733 0 -0.0029247981027662371 -0.00019336237484549843 0 -0.0031227746864450996 0.00026984722730770085 0 -0.0026602580237472038 -8.35843414162954e-05 0 -0.0028913310256554543 -0.00019717284846039733 0 -0.002900668719870248 -0.00017185237800181963 0 -0.0029247981027662371 -0.00019336237484549843 0 -0.0029359739848793449 -0.00022742882948586184 0 -0.0029247981027662371 -0.00019336237484549843 0 -0.0029639168845036739 -0.00021166232227366017 0 -0.0029247981027662371 -0.00019336237484549843 0 -0.0029639168845036739 -0.00021166232227366017 0 -0.0029434948430011594 -0.00017730230801835269 0 -0.0032002409141218789 -2.9718522446619033e-05 0 -0.0032491044355344627 -3.7804086567650949e-05 0 -0.0032213618115423432 6.7955381803772299e-06 0 -0.0032002409141218789 -2.9718522446619033e-05 0 -0.0032060845635049195 -3.0206267468234256e-05 0 -0.0032593334819264286 -3.1356455803117312e-05 0 -0.0032002409141218789 -2.9718522446619033e-05 0 -0.0032060845635049195 -3.0206267468234256e-05 0 -0.0031580398015449529 -3.5568413477150958e-05 0 -0.0032060845635049195 -3.0206267468234256e-05 0 -0.0031580398015449529 -3.5568413477150958e-05 0 -0.003163544491945633 -2.8769978010690417e-05 0 -0.0032060845635049195 -3.0206267468234256e-05 0 -0.0032097830588647181 -2.5166826858313304e-05 0 -0.003163544491945633 -2.8769978010690417e-05 0 -0.0032002409141218789 -2.9718522446619033e-05 0 -0.0031580398015449529 -3.5568413477150958e-05 0 -0.0031589560389456346 -4.0707150137350599e-05 0 -0.0031589560389456346 -4.0707150137350599e-05 0 -0.0032195989700260275 -1.5020107667129679e-07 0 -0.0032491044355344627 -3.7804086567650949e-05 0 -0.0031589560389456346 -4.0707150137350599e-05 0 -0.0032195989700260275 -1.5020107667129679e-07 0 -0.0030573878615411123 -3.7943792098231453e-05 0 -0.0032195989700260275 -1.5020107667129679e-07 0 -0.0033607358538025305 -2.4077066920197113e-05 0 -0.0032491044355344627 -3.7804086567650949e-05 0 -0.0032195989700260275 -1.5020107667129679e-07 0 -0.0033607358538025305 -2.4077066920197113e-05 0 -0.0034797961686433062 1.149192502051293e-07 0 -0.0032002409141218789 -2.9718522446619033e-05 0 -0.0031589560389456346 -4.0707150137350599e-05 0 -0.0032491044355344627 -3.7804086567650949e-05 0 -0.0035046087541647842 -1.5799391508260441e-05 0 -0.0035169920266325846 8.4862234419056281e-06 0 -0.0033607358538025305 -2.4077066920197113e-05 0 -0.0032491044355344627 -3.7804086567650949e-05 0 -0.0032213618115423432 6.7955381803772299e-06 0 -0.0033607358538025305 -2.4077066920197113e-05 0 -0.0032213618115423432 6.7955381803772299e-06 0 -0.003511321985911869 1.2195512865751816e-05 0 -0.0034797961686433062 1.149192502051293e-07 0 -0.003511321985911869 1.2195512865751816e-05 0 -0.003740057183052873 -9.3335334074763379e-08 0 -0.0033607358538025305 -2.4077066920197113e-05 0 -0.0034797961686433062 1.149192502051293e-07 0 -0.003511321985911869 1.2195512865751816e-05 0 -0.003511321985911869 1.2195512865751816e-05 0 -0.003740057183052873 -9.3335334074763379e-08 0 -0.0037472672049919452 -4.5806318142003554e-05 0 -0.0037870324305807747 -2.5781396792770264e-05 0 -0.003511321985911869 1.2195512865751816e-05 0 -0.0037472672049919452 -4.5806318142003554e-05 0 -0.0037853831683081016 -6.8683312292232987e-05 0 -0.0037870324305807747 -2.5781396792770264e-05 0 -0.0037472672049919452 -4.5806318142003554e-05 0 -0.0035046087541647842 -1.5799391508260441e-05 0 -0.0034879184444217286 -8.8310422765578079e-05 0 -0.0037853831683081016 -6.8683312292232987e-05 0 -0.0037870324305807747 -2.5781396792770264e-05 0 -0.0037304689317043953 -0.00012277232284840569 0 -0.0032002409141218789 -2.9718522446619033e-05 0 -0.0032213618115423432 6.7955381803772299e-06 0 -0.0032485410782876417 -7.0847157734526756e-05 0 -0.0032002409141218789 -2.9718522446619033e-05 0 -0.0032485410782876417 -7.0847157734526756e-05 0 -0.0032593334819264286 -3.1356455803117312e-05 0 -0.0034879184444217286 -8.8310422765578079e-05 0 -0.0034822740744751882 -9.9690771599130647e-05 0 -0.0036427775347235582 -6.6385426182633965e-05 0 -0.0037304689317043953 -0.00012277232284840569 0 -0.0034855942602537715 -9.9014350375328263e-05 0 -0.0032485410782876417 -7.0847157734526756e-05 0 -0.0034855942602537715 -9.9014350375328263e-05 0 -0.0033430538469338402 -5.0485129582881143e-05 0 -0.0035236957947005192 -8.6136705264864457e-05 0 -0.0034741381513336859 -0.0001007354631442459 0 -0.0034877255975912613 -0.0001046493741399712 0 -0.0035236957947005192 -8.6136705264864457e-05 0 -0.0034855942602537715 -9.9014350375328263e-05 0 -0.0033748916336964019 -5.0443633583100343e-05 0 -0.0034855942602537715 -9.9014350375328263e-05 0 -0.0033748916336964019 -5.0443633583100343e-05 0 -0.0033430538469338402 -5.0485129582881143e-05 0 -0.0035071209537004058 -9.191329681693896e-05 0 -0.0034262705434524236 -7.6595676149388887e-05 0 -0.0033748916336964019 -5.0443633583100343e-05 0 -0.0033430538469338402 -5.0485129582881143e-05 0 -0.0032998700026479122 -3.4008342943253572e-05 0 -0.0033430538469338402 -5.0485129582881143e-05 0 -0.0032593334819264286 -3.1356455803117312e-05 0 -0.0032998700026479122 -3.4008342943253572e-05 0 -0.0032485410782876417 -7.0847157734526756e-05 0 -0.0033430538469338402 -5.0485129582881143e-05 0 -0.0032593334819264286 -3.1356455803117312e-05 0 -0.0025856557279638854 0.00012689329354508829 0 -0.0025926942938470183 0.00016743282115470857 0 -0.0025796064716501975 0.0001730760641806248 0 -0.0036314184213241799 1.5781376326440041e-06 0 -0.0036068117997612959 2.188160341237929e-05 0 -0.003595474634981223 5.1629019284217347e-05 0 -0.0031139927315102481 5.7581815280435708e-05 0 -0.0030570084890982766 0.00013631506992489798 0 -0.0036068117997612959 2.188160341237929e-05 0 -0.0035921719251246122 3.5298839578510555e-05 0 -0.003595474634981223 5.1629019284217347e-05 0 -0.0036068117997612959 2.188160341237929e-05 0 -0.003594656049347941 2.4611625088674983e-05 0 -0.0035921719251246122 3.5298839578510555e-05 0 -0.003594656049347941 2.4611625088674983e-05 0 -0.0035921719251246122 3.5298839578510555e-05 0 -0.0035856924131320929 2.5898507564073651e-05 0 -0.0035921719251246122 3.5298839578510555e-05 0 -0.003595474634981223 5.1629019284217347e-05 0 -0.0035677025087636786 3.8873091741236846e-05 0 -0.0035921719251246122 3.5298839578510555e-05 0 -0.0035856924131320929 2.5898507564073651e-05 0 -0.0035677025087636786 3.8873091741236846e-05 0 -0.003595474634981223 5.1629019284217347e-05 0 -0.0035677025087636786 3.8873091741236846e-05 0 -0.0035714484856821222 9.5055591829367744e-05 0 -0.0034741381513336859 -0.0001007354631442459 0 -0.0034877255975912613 -0.0001046493741399712 0 -0.0034854760518374271 -8.2058139204105849e-05 0 -0.0035623784972195014 -4.1232833647619619e-05 0 -0.0033081971789307198 5.6860402008596464e-05 0 -0.0030570084890982766 0.00013631506992489798 0 -0.0033081971789307198 5.6860402008596464e-05 0 -0.0025796064716501975 0.0001730760641806248 0 -0.0025846066084395576 0.00018220707080926789 0 -0.0025899985106509335 0.00018286199306099767 0 -0.0025926942938470183 0.00016743282115470857 0 -0.0025796064716501975 0.0001730760641806248 0 -0.0025846066084395576 0.00018220707080926789 0 -0.0025888235360063522 0.00018644616920092332 0 -0.0025846066084395576 0.00018220707080926789 0 -0.0025851599105294579 0.00018180978213328629 0 -0.0025851599105294579 0.00018180978213328629 0 -0.0025899985106509335 0.00018286199306099767 0 -0.0025914995284013658 0.00017491989938135544 0 -0.0025777336913799403 0.00018152761264295087 0 -0.0025820252833180066 0.00018695340306767986 0 -0.0025871417946619389 0.00017788317481896935 0 -0.0025846066084395576 0.00018220707080926789 0 -0.0025851599105294579 0.00018180978213328629 0 -0.0025899985106509335 0.00018286199306099767 0 -0.0025616849186517426 0.00020892487634381317 0 -0.0027682866130573232 9.5955595786603062e-05 0 -0.0034824493971139054 -8.1835434965355676e-05 0 -0.0034761281156697557 -6.5175948953735265e-05 0 -0.003489273048339024 -4.4315434470365824e-05 0 -0.0033081971789307198 5.6860402008596464e-05 0 -0.0027682866130573232 9.5955595786603062e-05 0 -0.0034741381513336859 -0.0001007354631442459 0 -0.0034854760518374271 -8.2058139204105849e-05 0 -0.0034761281156697557 -6.5175948953735265e-05 0 -0.0033081971789307198 5.6860402008596464e-05 0 -0.0034409094021237009 -9.8665383333132494e-05 0 -0.0034761281156697557 -6.5175948953735265e-05 0 -0.0034701615892613826 -4.4042614610423302e-05 0 -0.0034496261572331899 -5.1221243546962196e-05 0 -0.0034701615892613826 -4.4042614610423302e-05 0 -0.0034496261572331899 -5.1221243546962196e-05 0 -0.0034666430794684767 -1.2976507475104625e-05 0 -0.0034701615892613826 -4.4042614610423302e-05 0 -0.003489273048339024 -4.4315434470365824e-05 0 -0.0034666430794684767 -1.2976507475104625e-05 0 -0.0027682866130573232 9.5955595786603062e-05 0 -0.00303888219418954 6.7993749512906801e-05 0 -0.0034761281156697557 -6.5175948953735265e-05 0 -0.0034701615892613826 -4.4042614610423302e-05 0 -0.003489273048339024 -4.4315434470365824e-05 0 -0.0025777336913799403 0.00018152761264295087 0 -0.0025871417946619389 0.00017788317481896935 0 -0.0025739775953390704 0.00017117440354161539 0 -0.0032593334819264286 -3.1356455803117312e-05 0 -0.0032998700026479122 -3.4008342943253572e-05 0 -0.0032472154203516388 -2.6791444350398763e-05 0 -0.0032060845635049195 -3.0206267468234256e-05 0 -0.0032593334819264286 -3.1356455803117312e-05 0 -0.0032472154203516388 -2.6791444350398763e-05 0 -0.0034262705434524236 -7.6595676149388887e-05 0 -0.0033858426854316975 -5.1277428119797159e-05 0 -0.0033748916336964019 -5.0443633583100343e-05 0 -0.0032998700026479122 -3.4008342943253572e-05 0 -0.0032691300392980031 -2.4837579261352887e-05 0 -0.0034741381513336859 -0.0001007354631442459 0 -0.0034761281156697557 -6.5175948953735265e-05 0 -0.0034496261572331899 -5.1221243546962196e-05 0 -0.0032998700026479122 -3.4008342943253572e-05 0 -0.0032691300392980031 -2.4837579261352887e-05 0 -0.0032472154203516388 -2.6791444350398763e-05 0 -0.0032691300392980031 -2.4837579261352887e-05 0 -0.0032472154203516388 -2.6791444350398763e-05 0 -0.0032288322111795795 -2.1863496083427491e-05 0 -0.0032472154203516388 -2.6791444350398763e-05 0 -0.0032097830588647181 -2.5166826858313304e-05 0 -0.0032288322111795795 -2.1863496083427491e-05 0 -0.0032060845635049195 -3.0206267468234256e-05 0 -0.0032472154203516388 -2.6791444350398763e-05 0 -0.0032097830588647181 -2.5166826858313304e-05 0 -0.0032097830588647181 -2.5166826858313304e-05 0 -0.0031925021366502838 -1.5627354570930157e-05 0 -0.003163544491945633 -2.8769978010690417e-05 0 -0.0032097830588647181 -2.5166826858313304e-05 0 -0.0031925021366502838 -1.5627354570930157e-05 0 -0.0032288322111795795 -2.1863496083427491e-05 0 -0.0032691300392980031 -2.4837579261352887e-05 0 -0.0032288322111795795 -2.1863496083427491e-05 0 -0.0032262512814102699 -1.0806428835021156e-05 0 -0.0033858426854316975 -5.1277428119797159e-05 0 -0.0031468878502524081 4.8237356397852642e-05 0 -0.0031925021366502838 -1.5627354570930157e-05 0 -0.0032288322111795795 -2.1863496083427491e-05 0 -0.0032262512814102699 -1.0806428835021156e-05 0 -0.0034496261572331899 -5.1221243546962196e-05 0 -0.0034373401601682486 1.9667166222733531e-05 0 -0.0034666430794684767 -1.2976507475104625e-05 0 -0.0031468878502524081 4.8237356397852642e-05 0 -0.00303888219418954 6.7993749512906801e-05 0 -0.0031925021366502838 -1.5627354570930157e-05 0 -0.0032262512814102699 -1.0806428835021156e-05 0 -0.0031952570367466647 7.1493453009382142e-06 0 -0.0026128323378723163 0.00016034946082382463 0 -0.0025941108813719656 0.00015009065524383483 0 -0.0026130802310064113 0.00013163314524256481 0 -0.0031468878502524081 4.8237356397852642e-05 0 -0.0032001276651886833 -1.7423461999275973e-05 0 -0.0032193797162062307 -5.7985363032539043e-05 0 -0.0031833580159028592 -1.1839114200532624e-05 0 -0.0032200377697810026 3.1196296597957102e-05 0 -0.0031468878502524081 4.8237356397852642e-05 0 -0.002886587951770346 8.1500657167128253e-05 0 -0.0031925021366502838 -1.5627354570930157e-05 0 -0.0031952570367466647 7.1493453009382142e-06 0 -0.0031512314432599422 3.8114682124978908e-06 0 -0.0031925021366502838 -1.5627354570930157e-05 0 -0.0031512314432599422 3.8114682124978908e-06 0 -0.0031318501514715183 -1.707528441230364e-05 0 -0.0027682866130573232 9.5955595786603062e-05 0 -0.0025696066041889878 0.00017597205248238014 0 -0.0025871417946619389 0.00017788317481896935 0 -0.0025739775953390704 0.00017117440354161539 0 -0.0025806485541003941 0.00016149017340562742 0 -0.0025739775953390704 0.00017117440354161539 0 -0.0025806485541003941 0.00016149017340562742 0 -0.0025672236129005879 0.00015833818271048728 0 -0.0025841699410636861 0.00016445573964859206 0 -0.0026013464069993379 0.00017328164224852136 0 -0.0025941108813719656 0.00015009065524383483 0 -0.0026128323378723163 0.00016034946082382463 0 -0.0026013464069993379 0.00017328164224852136 0 -0.0025941108813719656 0.00015009065524383483 0 -0.0025924200546438778 0.00018480355722816954 0 -0.0025841699410636861 0.00016445573964859206 0 -0.0026013464069993379 0.00017328164224852136 0 -0.0025841699410636861 0.00016445573964859206 0 -0.0025941108813719656 0.00015009065524383483 0 -0.0025711678133723747 0.00014042374914227426 0 -0.0025509800570808023 0.00014918530691450258 0 -0.0025672236129005879 0.00015833818271048728 0 -0.0025711678133723747 0.00014042374914227426 0 -0.0025806485541003941 0.00016149017340562742 0 -0.0025672236129005879 0.00015833818271048728 0 -0.0025711678133723747 0.00014042374914227426 0 -0.0025696066041889878 0.00017597205248238014 0 -0.0025745159959267645 0.00013711582899226323 0 -0.0025508297053953937 0.00012861160004015362 0 -0.0025711678133723747 0.00014042374914227426 0 -0.0025853160739775648 0.00012526662486708607 0 -0.0025941108813719656 0.00015009065524383483 0 -0.0025711678133723747 0.00014042374914227426 0 -0.0025853160739775648 0.00012526662486708607 0 -0.0025941108813719656 0.00015009065524383483 0 -0.0025853160739775648 0.00012526662486708607 0 -0.0026130802310064113 0.00013163314524256481 0 -0.0025853160739775648 0.00012526662486708607 0 -0.0026138451028359833 9.5558643947413698e-05 0 -0.0025677832069000259 0.00010006962626962334 0 -0.0025508297053953937 0.00012861160004015362 0 -0.0025853160739775648 0.00012526662486708607 0 -0.0025677832069000259 0.00010006962626962334 0 -0.0031833580159028592 -1.1839114200532624e-05 0 -0.0031438964720416295 3.6385829978864389e-05 0 -0.003182667662922533 6.4370673282200549e-05 0 -0.0031952570367466647 7.1493453009382142e-06 0 -0.0031512314432599422 3.8114682124978908e-06 0 -0.0031438964720416295 3.6385829978864389e-05 0 -0.0032001276651886833 -1.7423461999275973e-05 0 -0.0031488759895562527 3.6463273342158491e-05 0 -0.0031833580159028592 -1.1839114200532624e-05 0 -0.0032200377697810026 3.1196296597957102e-05 0 -0.003182667662922533 6.4370673282200549e-05 0 -0.0032200377697810026 3.1196296597957102e-05 0 -0.003182667662922533 6.4370673282200549e-05 0 -0.0032239242725177857 0.00014159789678520218 0 -0.0025853160739775648 0.00012526662486708607 0 -0.0026130802310064113 0.00013163314524256481 0 -0.0026138451028359833 9.5558643947413698e-05 0 -0.002886587951770346 8.1500657167128253e-05 0 -0.0029820521830783604 0.00012919181543969457 0 -0.0031391830637620128 0.00010855661021950556 0 -0.003182667662922533 6.4370673282200549e-05 0 -0.0032239242725177857 0.00014159789678520218 0 -0.0031438964720416295 3.6385829978864389e-05 0 -0.0031391830637620128 0.00010855661021950556 0 -0.003182667662922533 6.4370673282200549e-05 0 -0.0031438964720416295 3.6385829978864389e-05 0 -0.0031391830637620128 0.00010855661021950556 0 -0.0030566911993342785 6.6161090004054318e-05 0 -0.0031391830637620128 0.00010855661021950556 0 -0.0030566911993342785 6.6161090004054318e-05 0 -0.0030751863118809279 0.00015823261796838719 0 -0.0030566911993342785 6.6161090004054318e-05 0 -0.0029248985442962569 6.4041930251270294e-05 0 -0.0030173390808478687 -1.3698025776718601e-05 0 -0.0030566911993342785 6.6161090004054318e-05 0 -0.0029248985442962569 6.4041930251270294e-05 0 -0.002969603502575126 0.00017712151085181154 0 -0.0030566911993342785 6.6161090004054318e-05 0 -0.0030173390808478687 -1.3698025776718601e-05 0 -0.0030965503843379885 1.3051366812260307e-05 0 -0.0031438964720416295 3.6385829978864389e-05 0 -0.0030566911993342785 6.6161090004054318e-05 0 -0.0030965503843379885 1.3051366812260307e-05 0 -0.0031512314432599422 3.8114682124978908e-06 0 -0.0031438964720416295 3.6385829978864389e-05 0 -0.0030965503843379885 1.3051366812260307e-05 0 -0.0030173390808478687 -1.3698025776718601e-05 0 -0.0030965503843379885 1.3051366812260307e-05 0 -0.0031318501514715183 -1.707528441230364e-05 0 -0.0031512314432599422 3.8114682124978908e-06 0 -0.0030965503843379885 1.3051366812260307e-05 0 -0.0031318501514715183 -1.707528441230364e-05 0 -0.0030173390808478687 -1.3698025776718601e-05 0 -0.0030959625282194199 -3.2441631718807957e-05 0 -0.0030573878615411123 -3.7943792098231453e-05 0 -0.0030173390808478687 -1.3698025776718601e-05 0 -0.0031318501514715183 -1.707528441230364e-05 0 -0.0030959625282194199 -3.2441631718807957e-05 0 -0.0031580398015449529 -3.5568413477150958e-05 0 -0.0030959625282194199 -3.2441631718807957e-05 0 -0.003163544491945633 -2.8769978010690417e-05 0 -0.0031580398015449529 -3.5568413477150958e-05 0 -0.0031589560389456346 -4.0707150137350599e-05 0 -0.0030959625282194199 -3.2441631718807957e-05 0 -0.0031925021366502838 -1.5627354570930157e-05 0 -0.0031318501514715183 -1.707528441230364e-05 0 -0.003163544491945633 -2.8769978010690417e-05 0 -0.0031318501514715183 -1.707528441230364e-05 0 -0.0030959625282194199 -3.2441631718807957e-05 0 -0.003163544491945633 -2.8769978010690417e-05 0 -0.0032195989700260275 -1.5020107667129679e-07 0 -0.0030573878615411123 -3.7943792098231453e-05 0 -0.002959572426108145 -2.540569510907167e-09 0 -0.0031589560389456346 -4.0707150137350599e-05 0 -0.0030959625282194199 -3.2441631718807957e-05 0 -0.0030573878615411123 -3.7943792098231453e-05 0 -0.0030173390808478687 -1.3698025776718601e-05 0 -0.0030573878615411123 -3.7943792098231453e-05 0 -0.0029243352314526384 -2.0238186028318585e-05 0 -0.0029243352314526384 -2.0238186028318585e-05 0 -0.002959572426108145 -2.540569510907167e-09 0 -0.002699313780015773 -1.7347862476910242e-07 0 -0.0030573878615411123 -3.7943792098231453e-05 0 -0.0029243352314526384 -2.0238186028318585e-05 0 -0.002959572426108145 -2.540569510907167e-09 0 -0.0029243352314526384 -2.0238186028318585e-05 0 -0.002699313780015773 -1.7347862476910242e-07 0 -0.0028611792934844218 7.7847320495807233e-07 0 -0.0029248985442962569 6.4041930251270294e-05 0 -0.0030173390808478687 -1.3698025776718601e-05 0 -0.0028611792934844218 7.7847320495807233e-07 0 -0.0030173390808478687 -1.3698025776718601e-05 0 -0.0029243352314526384 -2.0238186028318585e-05 0 -0.0028611792934844218 7.7847320495807233e-07 0 -0.0029248985442962569 6.4041930251270294e-05 0 -0.0028611792934844218 7.7847320495807233e-07 0 -0.0027272739379854472 2.026673377415713e-05 0 -0.002699313780015773 -1.7347862476910242e-07 0 -0.0028611792934844218 7.7847320495807233e-07 0 -0.0027272739379854472 2.026673377415713e-05 0 -0.002699313780015773 -1.7347862476910242e-07 0 -0.0027272739379854472 2.026673377415713e-05 0 -0.0024396601760898438 5.2766731516182571e-07 0 -0.0024388070583741921 8.9065369302469403e-08 0 -0.0021810985272265795 7.7220454467523218e-06 0 -0.0022277228129072104 -1.0694205786939634e-05 0 -0.0024391175611144906 4.4900551364038653e-08 0 -0.0024680737494771139 9.6878344437255169e-05 0 -0.0027272739379854472 2.026673377415713e-05 0 -0.0024396601760898438 5.2766731516182571e-07 0 -0.0027668868934602213 0.0002242937676531457 0 -0.0029248985442962569 6.4041930251270294e-05 0 -0.0027272739379854472 2.026673377415713e-05 0 -0.0027668868934602213 0.0002242937676531457 0 -0.0029248985442962569 6.4041930251270294e-05 0 -0.0027668868934602213 0.0002242937676531457 0 -0.002969603502575126 0.00017712151085181154 0 -0.0027668868934602213 0.0002242937676531457 0 -0.002969603502575126 0.00017712151085181154 0 -0.0029287454581850029 0.00029263683380364487 0 -0.0024680737494771139 9.6878344437255169e-05 0 -0.0026125089806336033 0.00016355592311237331 0 -0.0021810985272265795 7.7220454467523218e-06 0 -0.0021931411853918785 -1.0505015852336857e-05 0 -0.0021458725531394648 -1.5341552170351571e-05 0 -0.0021810985272265795 7.7220454467523218e-06 0 -0.0022277228129072104 -1.0694205786939634e-05 0 -0.0021458725531394648 -1.5341552170351571e-05 0 -0.0024388070583741921 8.9065369302469403e-08 0 -0.0022277228129072104 -1.0694205786939634e-05 0 -0.0021492568104321689 -6.8121467953562077e-09 0 -0.0022277228129072104 -1.0694205786939634e-05 0 -0.0021492568104321689 -6.8121467953562077e-09 0 -0.0021458725531394648 -1.5341552170351571e-05 0 -0.0030751863118809279 0.00015823261796838719 0 -0.0030539804198751776 0.00024602207922744495 0 -0.0031469755070385377 0.0002052026100505379 0 -0.0030566911993342785 6.6161090004054318e-05 0 -0.0030751863118809279 0.00015823261796838719 0 -0.002969603502575126 0.00017712151085181154 0 -0.0030751863118809279 0.00015823261796838719 0 -0.002969603502575126 0.00017712151085181154 0 -0.0030539804198751776 0.00024602207922744495 0 -0.002969603502575126 0.00017712151085181154 0 -0.0029287454581850029 0.00029263683380364487 0 -0.0030539804198751776 0.00024602207922744495 0 -0.0026125089806336033 0.00016355592311237331 0 -0.0023081431069400145 0.00017481115016896275 0 -0.0030539804198751776 0.00024602207922744495 0 -0.0030416084539657963 0.00033887837208651381 0 -0.0031329968156276968 0.00030525078795087563 0 -0.0029287454581850029 0.00029263683380364487 0 -0.0030539804198751776 0.00024602207922744495 0 -0.0030416084539657963 0.00033887837208651381 0 -0.0023081431069400145 0.00017481115016896275 0 -0.0023584349031408685 0.00019477603072192288 0 -0.0016003570307217344 9.0032887835078806e-05 0 -0.0015755951483906331 5.4291951907104104e-05 0 -0.0015740146034895709 8.6891441773022602e-05 0 -0.0016003570307217344 9.0032887835078806e-05 0 -0.0016000902184044583 5.4656456254377425e-05 0 -0.0015755951483906331 5.4291951907104104e-05 0 -0.0016003570307217344 9.0032887835078806e-05 0 -0.0016000902184044583 5.4656456254377425e-05 0 -0.0016789737186174941 0.00011700021980747128 0 -0.0021931411853918785 -1.0505015852336857e-05 0 -0.0022325126174952896 1.1934420942433284e-05 0 -0.0021891914481384825 2.3794403248629847e-05 0 -0.0023081431069400145 0.00017481115016896275 0 -0.0018572049327435704 6.2440129873181943e-05 0 -0.0016234760431257577 2.6517825135985262e-05 0 -0.0016000902184044583 5.4656456254377425e-05 0 -0.0016789737186174941 0.00011700021980747128 0 -0.0016234760431257577 2.6517825135985262e-05 0 -0.0016000902184044583 5.4656456254377425e-05 0 -0.0015742597979425601 1.2298259459649275e-05 0 -0.0016000902184044583 5.4656456254377425e-05 0 -0.0015742597979425601 1.2298259459649275e-05 0 -0.0015755951483906331 5.4291951907104104e-05 0 -0.0021492568104321689 -6.8121467953562077e-09 0 -0.0021458725531394648 -1.5341552170351571e-05 0 -0.0019940379102727805 2.8425202009216886e-05 0 -0.0021458725531394648 -1.5341552170351571e-05 0 -0.0021891914481384825 2.3794403248629847e-05 0 -0.0019940379102727805 2.8425202009216886e-05 0 -0.0018572049327435704 6.2440129873181943e-05 0 -0.0020239801656695916 3.1278831825409769e-05 0 -0.0021931411853918785 -1.0505015852336857e-05 0 -0.0021458725531394648 -1.5341552170351571e-05 0 -0.0021891914481384825 2.3794403248629847e-05 0 -0.0016234760431257577 2.6517825135985262e-05 0 -0.0016789737186174941 0.00011700021980747128 0 -0.0017503845766405934 2.4847724730728319e-05 0 -0.0016234760431257577 2.6517825135985262e-05 0 -0.0017503845766405934 2.4847724730728319e-05 0 -0.0017065608465230255 -9.5444597896794852e-06 0 -0.0016789737186174941 0.00011700021980747128 0 -0.0017503845766405934 2.4847724730728319e-05 0 -0.0019940379102727805 2.8425202009216886e-05 0 -0.0017503845766405934 2.4847724730728319e-05 0 -0.001813593324138142 -4.8206958069678941e-06 0 -0.0017065608465230255 -9.5444597896794852e-06 0 -0.0017503845766405934 2.4847724730728319e-05 0 -0.0019940379102727805 2.8425202009216886e-05 0 -0.001813593324138142 -4.8206958069678941e-06 0 -0.0019940379102727805 2.8425202009216886e-05 0 -0.001813593324138142 -4.8206958069678941e-06 0 -0.0018593253118310115 3.2622158329784552e-08 0 -0.0021492568104321689 -6.8121467953562077e-09 0 -0.0019940379102727805 2.8425202009216886e-05 0 -0.0018593253118310115 3.2622158329784552e-08 0 -0.0018593253118310115 3.2622158329784552e-08 0 -0.0017068221722938443 -2.4025552741285425e-05 0 -0.0015695367641285381 -1.2474277998801556e-07 0 -0.001813593324138142 -4.8206958069678941e-06 0 -0.0018593253118310115 3.2622158329784552e-08 0 -0.0017068221722938443 -2.4025552741285425e-05 0 -0.0017068221722938443 -2.4025552741285425e-05 0 -0.0015695367641285381 -1.2474277998801556e-07 0 -0.00159379912101963 -3.0998433184034606e-05 0 -0.00159379912101963 -3.0998433184034606e-05 0 -0.0015860908034001382 -3.2775084082017367e-05 0 -0.0015465334816831958 -3.4774744533526129e-05 0 -0.0017068221722938443 -2.4025552741285425e-05 0 -0.00159379912101963 -3.0998433184034606e-05 0 -0.0016376635223922305 -2.8059194756885021e-05 0 -0.00159379912101963 -3.0998433184034606e-05 0 -0.0016376635223922305 -2.8059194756885021e-05 0 -0.0015860908034001382 -3.2775084082017367e-05 0 -0.0017068221722938443 -2.4025552741285425e-05 0 -0.0016376635223922305 -2.8059194756885021e-05 0 -0.0017065608465230255 -9.5444597896794852e-06 0 -0.001813593324138142 -4.8206958069678941e-06 0 -0.0017068221722938443 -2.4025552741285425e-05 0 -0.0017065608465230255 -9.5444597896794852e-06 0 -0.0016376635223922305 -2.8059194756885021e-05 0 -0.0017065608465230255 -9.5444597896794852e-06 0 -0.0016297758848024585 -1.3646556025137384e-05 0 -0.0016234760431257577 2.6517825135985262e-05 0 -0.0017065608465230255 -9.5444597896794852e-06 0 -0.0016297758848024585 -1.3646556025137384e-05 0 -0.0016234760431257577 2.6517825135985262e-05 0 -0.0016297758848024585 -1.3646556025137384e-05 0 -0.001596202835981259 -9.7973780679508484e-06 0 -0.0016297758848024585 -1.3646556025137384e-05 0 -0.0016026956059456425 -2.3773448134044553e-05 0 -0.001596202835981259 -9.7973780679508484e-06 0 -0.0016376635223922305 -2.8059194756885021e-05 0 -0.0016297758848024585 -1.3646556025137384e-05 0 -0.0016026956059456425 -2.3773448134044553e-05 0 -0.0016234760431257577 2.6517825135985262e-05 0 -0.001596202835981259 -9.7973780679508484e-06 0 -0.0015742597979425601 1.2298259459649275e-05 0 -0.001596202835981259 -9.7973780679508484e-06 0 -0.0015753729617527738 -1.6724925720932921e-05 0 -0.0015742597979425601 1.2298259459649275e-05 0 -0.0015753729617527738 -1.6724925720932921e-05 0 -0.0015736195440768808 -2.2767668182108402e-05 0 -0.001570420377908567 -2.157662760056454e-05 0 -0.0015753729617527738 -1.6724925720932921e-05 0 -0.0015798020013053 -2.5599751030920712e-05 0 -0.0015736195440768808 -2.2767668182108402e-05 0 -0.0015753729617527738 -1.6724925720932921e-05 0 -0.001570420377908567 -2.157662760056454e-05 0 -0.0015699594331995976 -1.703803323200153e-05 0 -0.001596202835981259 -9.7973780679508484e-06 0 -0.0015753729617527738 -1.6724925720932921e-05 0 -0.0015798020013053 -2.5599751030920712e-05 0 -0.0015798020013053 -2.5599751030920712e-05 0 -0.0015695890604304659 -2.5207842873953976e-05 0 -0.0015634245800043895 -3.0609505176534059e-05 0 -0.0015798020013053 -2.5599751030920712e-05 0 -0.0015695890604304659 -2.5207842873953976e-05 0 -0.0015736195440768808 -2.2767668182108402e-05 0 -0.0015695890604304659 -2.5207842873953976e-05 0 -0.0015736195440768808 -2.2767668182108402e-05 0 -0.001570420377908567 -2.157662760056454e-05 0 -0.0015695890604304659 -2.5207842873953976e-05 0 -0.001570420377908567 -2.157662760056454e-05 0 -0.0015674142906755867 -2.2025050988130158e-05 0 -0.0016376635223922305 -2.8059194756885021e-05 0 -0.0016026956059456425 -2.3773448134044553e-05 0 -0.0015860908034001382 -3.2775084082017367e-05 0 -0.0016026956059456425 -2.3773448134044553e-05 0 -0.0015798020013053 -2.5599751030920712e-05 0 -0.0015860908034001382 -3.2775084082017367e-05 0 -0.0016026956059456425 -2.3773448134044553e-05 0 -0.001596202835981259 -9.7973780679508484e-06 0 -0.0015798020013053 -2.5599751030920712e-05 0 -0.0015798020013053 -2.5599751030920712e-05 0 -0.0015860908034001382 -3.2775084082017367e-05 0 -0.0015634245800043895 -3.0609505176534059e-05 0 -0.0015860908034001382 -3.2775084082017367e-05 0 -0.0015634245800043895 -3.0609505176534059e-05 0 -0.0015465334816831958 -3.4774744533526129e-05 0 -0.0015634245800043895 -3.0609505176534059e-05 0 -0.0015322595690946622 -2.226798307474846e-05 0 -0.0015465334816831958 -3.4774744533526129e-05 0 -0.0015634245800043895 -3.0609505176534059e-05 0 -0.0015322595690946622 -2.226798307474846e-05 0 -0.0015509670920449989 -2.1331330160541264e-05 0 -0.0015322595690946622 -2.226798307474846e-05 0 -0.0015509670920449989 -2.1331330160541264e-05 0 -0.0015470499156091735 -7.1701071016894429e-06 0 -0.0015322595690946622 -2.226798307474846e-05 0 -0.0014813971039928952 -2.5184617957189436e-05 0 -0.0015465334816831958 -3.4774744533526129e-05 0 -0.0015695890604304659 -2.5207842873953976e-05 0 -0.0015674142906755867 -2.2025050988130158e-05 0 -0.0015617972523084044 -2.1316012673883146e-05 0 -0.0015674142906755867 -2.2025050988130158e-05 0 -0.0015652293484749958 -1.7136564807867468e-05 0 -0.0015688110770684359 -1.9025976443770104e-05 0 -0.001570420377908567 -2.157662760056454e-05 0 -0.0015674142906755867 -2.2025050988130158e-05 0 -0.0015688110770684359 -1.9025976443770104e-05 0 -0.0015674142906755867 -2.2025050988130158e-05 0 -0.0015617972523084044 -2.1316012673883146e-05 0 -0.0015652293484749958 -1.7136564807867468e-05 0 -0.0015634245800043895 -3.0609505176534059e-05 0 -0.0015617972523084044 -2.1316012673883146e-05 0 -0.0015509670920449989 -2.1331330160541264e-05 0 -0.0015695890604304659 -2.5207842873953976e-05 0 -0.0015634245800043895 -3.0609505176534059e-05 0 -0.0015617972523084044 -2.1316012673883146e-05 0 -0.0015509670920449989 -2.1331330160541264e-05 0 -0.001554869283047066 -1.5592186498488337e-05 0 -0.0015470499156091735 -7.1701071016894429e-06 0 -0.001554869283047066 -1.5592186498488337e-05 0 -0.0015591578164860025 -1.075961783638717e-05 0 -0.0015470499156091735 -7.1701071016894429e-06 0 -0.0015617972523084044 -2.1316012673883146e-05 0 -0.0015509670920449989 -2.1331330160541264e-05 0 -0.001554869283047066 -1.5592186498488337e-05 0 -0.0015617972523084044 -2.1316012673883146e-05 0 -0.001554869283047066 -1.5592186498488337e-05 0 -0.0015591578164860025 -1.075961783638717e-05 0 -0.0015617972523084044 -2.1316012673883146e-05 0 -0.0015591578164860025 -1.075961783638717e-05 0 -0.0015652293484749958 -1.7136564807867468e-05 0 -0.0015591578164860025 -1.075961783638717e-05 0 -0.0015650641026475072 -1.1358062862079295e-05 0 -0.0015655476409780855 -1.3494954659469105e-06 0 -0.0015591578164860025 -1.075961783638717e-05 0 -0.0015650641026475072 -1.1358062862079295e-05 0 -0.0015652293484749958 -1.7136564807867468e-05 0 -0.0015546891679470551 3.2919887445903691e-06 0 -0.0015650374193116119 2.3483820300527644e-05 0 -0.0015655476409780855 -1.3494954659469105e-06 0 -0.0015591578164860025 -1.075961783638717e-05 0 -0.0015546891679470551 3.2919887445903691e-06 0 -0.0015655476409780855 -1.3494954659469105e-06 0 -0.0015591578164860025 -1.075961783638717e-05 0 -0.0015546891679470551 3.2919887445903691e-06 0 -0.0015470499156091735 -7.1701071016894429e-06 0 -0.0015546891679470551 3.2919887445903691e-06 0 -0.0015470499156091735 -7.1701071016894429e-06 0 -0.0015444818954943173 2.0347406929051758e-05 0 -0.0015444818954943173 2.0347406929051758e-05 0 -0.0015247238007604343 8.9614453401216585e-06 0 -0.0015203262268987153 4.8024605030800152e-05 0 -0.0015470499156091735 -7.1701071016894429e-06 0 -0.0015444818954943173 2.0347406929051758e-05 0 -0.0015247238007604343 8.9614453401216585e-06 0 -0.0015546891679470551 3.2919887445903691e-06 0 -0.0015444818954943173 2.0347406929051758e-05 0 -0.0015650374193116119 2.3483820300527644e-05 0 -0.0015322595690946622 -2.226798307474846e-05 0 -0.0014933516274912716 -4.0370439516385802e-06 0 -0.0014813971039928952 -2.5184617957189436e-05 0 -0.0015322595690946622 -2.226798307474846e-05 0 -0.0015470499156091735 -7.1701071016894429e-06 0 -0.0015247238007604343 8.9614453401216585e-06 0 -0.0015322595690946622 -2.226798307474846e-05 0 -0.0015247238007604343 8.9614453401216585e-06 0 -0.0014933516274912716 -4.0370439516385802e-06 0 -0.0015247238007604343 8.9614453401216585e-06 0 -0.0014933516274912716 -4.0370439516385802e-06 0 -0.0014896662784005875 3.9596706705809539e-05 0 -0.0014933516274912716 -4.0370439516385802e-06 0 -0.0014283394974214513 2.5798658296134091e-06 0 -0.0014896662784005875 3.9596706705809539e-05 0 -0.0014933516274912716 -4.0370439516385802e-06 0 -0.0014283394974214513 2.5798658296134091e-06 0 -0.0014813971039928952 -2.5184617957189436e-05 0 -0.0014813971039928952 -2.5184617957189436e-05 0 -0.0013793659338090126 -1.1893642638799151e-05 0 -0.001492656185653764 -2.4786020223081361e-05 0 -0.0014283394974214513 2.5798658296134091e-06 0 -0.0014813971039928952 -2.5184617957189436e-05 0 -0.0013793659338090126 -1.1893642638799151e-05 0 -0.0014283394974214513 2.5798658296134091e-06 0 -0.0013793659338090126 -1.1893642638799151e-05 0 -0.0012234397751876157 3.0269043583173767e-05 0 -0.0013793659338090126 -1.1893642638799151e-05 0 -0.0012797399303416514 7.29865339539853e-08 0 -0.0012234397751876157 3.0269043583173767e-05 0 -0.0013793659338090126 -1.1893642638799151e-05 0 -0.0012797399303416514 7.29865339539853e-08 0 -0.001492656185653764 -2.4786020223081361e-05 0 -0.0015695367641285381 -1.2474277998801556e-07 0 -0.0012797399303416514 7.29865339539853e-08 0 -0.001492656185653764 -2.4786020223081361e-05 0 -0.0015695367641285381 -1.2474277998801556e-07 0 -0.00159379912101963 -3.0998433184034606e-05 0 -0.001492656185653764 -2.4786020223081361e-05 0 -0.00159379912101963 -3.0998433184034606e-05 0 -0.001492656185653764 -2.4786020223081361e-05 0 -0.0015465334816831958 -3.4774744533526129e-05 0 -0.0014813971039928952 -2.5184617957189436e-05 0 -0.001492656185653764 -2.4786020223081361e-05 0 -0.0015465334816831958 -3.4774744533526129e-05 0 -0.0021291736995369369 0.00038790545675114924 0 -0.0021449148175839007 0.0003718191752257082 0 -0.0021366621231302349 0.00032038586500740508 0 -0.0021291736995369369 0.00038790545675114924 0 -0.0021449148175839007 0.0003718191752257082 0 -0.002146534508856907 0.00039965861973955617 0 -0.0021449148175839007 0.0003718191752257082 0 -0.002146534508856907 0.00039965861973955617 0 -0.0021650981405959258 0.00038305699262382683 0 -0.002146534508856907 0.00039965861973955617 0 -0.0021650981405959258 0.00038305699262382683 0 -0.0021332927030367479 0.00041280949273387078 0 -0.002146534508856907 0.00039965861973955617 0 -0.0021361391090553425 0.00041470000532411582 0 -0.0021332927030367479 0.00041280949273387078 0 -0.002146534508856907 0.00039965861973955617 0 -0.0021361391090553425 0.00041470000532411582 0 -0.002134835795092516 0.00042132719118322267 0 -0.0021291736995369369 0.00038790545675114924 0 -0.002134835795092516 0.00042132719118322267 0 -0.0021271507574110613 0.00043269396515329631 0 -0.0021291736995369369 0.00038790545675114924 0 -0.002146534508856907 0.00039965861973955617 0 -0.002134835795092516 0.00042132719118322267 0 -0.0021291736995369369 0.00038790545675114924 0 -0.0020896729771551995 0.0004041960270973445 0 -0.0021271507574110613 0.00043269396515329631 0 -0.0020896729771551995 0.0004041960270973445 0 -0.0020798523603123061 0.00032528663515191982 0 -0.002016435562366544 0.00034913368068929882 0 -0.0021291736995369369 0.00038790545675114924 0 -0.0020896729771551995 0.0004041960270973445 0 -0.0020798523603123061 0.00032528663515191982 0 -0.0021291736995369369 0.00038790545675114924 0 -0.0020798523603123061 0.00032528663515191982 0 -0.0021366621231302349 0.00032038586500740508 0 -0.0020798523603123061 0.00032528663515191982 0 -0.0020749529399788423 0.00025019112898571439 0 -0.0019675133947760835 0.0002528855305064201 0 -0.0017346150354242273 0.00012988359163552249 0 -0.0018887604466654576 0.00031551497143343052 0 -0.0014491370135640467 0.00019209511046952508 0 -0.0015824697523825519 0.00027017643892388889 0 -0.0015233077260966791 0.00016261604783673883 0 -0.0020798523603123061 0.00032528663515191982 0 -0.0020749529399788423 0.00025019112898571439 0 -0.0021366621231302349 0.00032038586500740508 0 -0.0013035446707261589 0.0004122181249046733 0 -0.0012398240684525564 8.5792630246161393e-05 0 -0.0010406869031334195 0.00016562944240004193 0 -0.001708787064635602 0.00036345206287160658 0 -0.0011049250723566984 0.00018064749686459564 0 -0.0015824697523825519 0.00027017643892388889 0 -0.0017162064323797679 0.00034856628814851354 0 -0.0015233077260966791 0.00016261604783673883 0 -0.001708787064635602 0.00036345206287160658 0 -0.00071628032084480918 0.00011043970527055281 0 -0.0018887604466654576 0.00031551497143343052 0 -0.001708787064635602 0.00036345206287160658 0 -0.0021449148175839007 0.0003718191752257082 0 -0.0021366621231302349 0.00032038586500740508 0 -0.0021650981405959258 0.00038305699262382683 0 -0.0014296932266530638 9.9393276747811803e-05 0 -0.0016242384201394396 0.0002780203539069855 0 -0.0015971028015066824 1.9814941608744234e-05 0 -0.0015787594965483186 -6.6773812690026583e-06 0 -0.0015819210346628477 -1.483055640708278e-05 0 -0.0012519585580071503 0.00021767780560061017 0 -0.0011742863351363324 0.00031113583002158964 0 -0.001251844678931039 0.00035363572807759706 0 -0.0012519585580071503 0.00021767780560061017 0 -0.0011742863351363324 0.00031113583002158964 0 -0.0011357679866196391 0.00012976135160544633 0 -0.0015971028015066824 1.9814941608744234e-05 0 -0.0015650374193116119 2.3483820300527644e-05 0 -0.0015749483744608437 6.7029839390918475e-06 0 -0.0015971028015066824 1.9814941608744234e-05 0 -0.0015749483744608437 6.7029839390918475e-06 0 -0.0015787594965483186 -6.6773812690026583e-06 0 -0.0015749483744608437 6.7029839390918475e-06 0 -0.0015718185632095159 -2.9273976490891366e-06 0 -0.0015787594965483186 -6.6773812690026583e-06 0 -0.0015650374193116119 2.3483820300527644e-05 0 -0.0015749483744608437 6.7029839390918475e-06 0 -0.0015655476409780855 -1.3494954659469105e-06 0 -0.0015718185632095159 -2.9273976490891366e-06 0 -0.0015655476409780855 -1.3494954659469105e-06 0 -0.0015691057153304439 -9.9202530034377072e-06 0 -0.0015749483744608437 6.7029839390918475e-06 0 -0.0015718185632095159 -2.9273976490891366e-06 0 -0.0015655476409780855 -1.3494954659469105e-06 0 -0.0015650641026475072 -1.1358062862079295e-05 0 -0.0015652293484749958 -1.7136564807867468e-05 0 -0.0015680718172331686 -1.5509131331682756e-05 0 -0.0015650641026475072 -1.1358062862079295e-05 0 -0.0015680718172331686 -1.5509131331682756e-05 0 -0.0015691057153304439 -9.9202530034377072e-06 0 -0.0015650641026475072 -1.1358062862079295e-05 0 -0.0015655476409780855 -1.3494954659469105e-06 0 -0.0015691057153304439 -9.9202530034377072e-06 0 -0.0015718185632095159 -2.9273976490891366e-06 0 -0.0015691057153304439 -9.9202530034377072e-06 0 -0.0015724017814100761 -1.088297413290203e-05 0 -0.0015724017814100761 -1.088297413290203e-05 0 -0.0015729105161862026 -1.436965969639382e-05 0 -0.0015708545156129451 -1.5461018637637572e-05 0 -0.0015691057153304439 -9.9202530034377072e-06 0 -0.0015724017814100761 -1.088297413290203e-05 0 -0.0015708545156129451 -1.5461018637637572e-05 0 -0.0015680718172331686 -1.5509131331682756e-05 0 -0.0015691057153304439 -9.9202530034377072e-06 0 -0.0015708545156129451 -1.5461018637637572e-05 0 -0.0015724017814100761 -1.088297413290203e-05 0 -0.0015749598413411523 -1.2430219556841977e-05 0 -0.0015787594965483186 -6.6773812690026583e-06 0 -0.0015724017814100761 -1.088297413290203e-05 0 -0.0015749598413411523 -1.2430219556841977e-05 0 -0.0015729105161862026 -1.436965969639382e-05 0 -0.0015718185632095159 -2.9273976490891366e-06 0 -0.0015724017814100761 -1.088297413290203e-05 0 -0.0015787594965483186 -6.6773812690026583e-06 0 -0.0015749598413411523 -1.2430219556841977e-05 0 -0.0015787594965483186 -6.6773812690026583e-06 0 -0.0015775891923990827 -1.446939744585107e-05 0 -0.0015749598413411523 -1.2430219556841977e-05 0 -0.0015754190751291846 -1.4825341393077683e-05 0 -0.0015775891923990827 -1.446939744585107e-05 0 -0.0015754190751291846 -1.4825341393077683e-05 0 -0.0015730863113936212 -1.5700336083362616e-05 0 -0.0015775891923990827 -1.446939744585107e-05 0 -0.0015754190751291846 -1.4825341393077683e-05 0 -0.0015730863113936212 -1.5700336083362616e-05 0 -0.0015734087496622349 -1.5702507208714681e-05 0 -0.0015749598413411523 -1.2430219556841977e-05 0 -0.0015754190751291846 -1.4825341393077683e-05 0 -0.0015734087496622349 -1.5702507208714681e-05 0 -0.0015730863113936212 -1.5700336083362616e-05 0 -0.0015712305379635783 -1.7221217283227913e-05 0 -0.0015734087496622349 -1.5702507208714681e-05 0 -0.0015712305379635783 -1.7221217283227913e-05 0 -0.0015717499667020135 -1.6381976505975044e-05 0 -0.0015705075645429389 -1.7831254392543244e-05 0 -0.0015712305379635783 -1.7221217283227913e-05 0 -0.0015717499667020135 -1.6381976505975044e-05 0 -0.0015734087496622349 -1.5702507208714681e-05 0 -0.0015749598413411523 -1.2430219556841977e-05 0 -0.0015734087496622349 -1.5702507208714681e-05 0 -0.0015729105161862026 -1.436965969639382e-05 0 -0.0015717499667020135 -1.6381976505975044e-05 0 -0.0015729105161862026 -1.436965969639382e-05 0 -0.0015708545156129451 -1.5461018637637572e-05 0 -0.0015717499667020135 -1.6381976505975044e-05 0 -0.0015734087496622349 -1.5702507208714681e-05 0 -0.0015729105161862026 -1.436965969639382e-05 0 -0.0015708545156129451 -1.5461018637637572e-05 0 -0.0015705075645429389 -1.7831254392543244e-05 0 -0.0015688110770684359 -1.9025976443770104e-05 0 -0.0015717499667020135 -1.6381976505975044e-05 0 -0.0015708545156129451 -1.5461018637637572e-05 0 -0.0015705075645429389 -1.7831254392543244e-05 0 -0.0015705075645429389 -1.7831254392543244e-05 0 -0.0015688110770684359 -1.9025976443770104e-05 0 -0.0015699104480606681 -1.9164283776052608e-05 0 -0.0015712305379635783 -1.7221217283227913e-05 0 -0.0015705075645429389 -1.7831254392543244e-05 0 -0.0015699104480606681 -1.9164283776052608e-05 0 -0.0015652293484749958 -1.7136564807867468e-05 0 -0.0015680718172331686 -1.5509131331682756e-05 0 -0.0015688110770684359 -1.9025976443770104e-05 0 -0.0015680718172331686 -1.5509131331682756e-05 0 -0.0015708545156129451 -1.5461018637637572e-05 0 -0.0015688110770684359 -1.9025976443770104e-05 0 -0.0021650981405959258 0.00038305699262382683 0 -0.0021332927030367479 0.00041280949273387078 0 -0.0021051345824162869 0.00042862728495583291 0 -0.0020978792750325579 0.00042585691658676526 0 -0.0021020612380292401 0.00042720780462028346 0 -0.0021051345824162869 0.00042862728495583291 0 -0.001708787064635602 0.00036345206287160658 0 -0.0022197306638246125 0.00045831056362612008 0 -0.001708787064635602 0.00036345206287160658 0 -0.0016242384201394396 0.0002780203539069855 0 -0.0015787594965483186 -6.6773812690026583e-06 0 -0.0015819210346628477 -1.483055640708278e-05 0 -0.0015775891923990827 -1.446939744585107e-05 0 -0.0015730863113936212 -1.5700336083362616e-05 0 -0.0015819210346628477 -1.483055640708278e-05 0 -0.0015775891923990827 -1.446939744585107e-05 0 -0.0021020612380292401 0.00042720780462028346 0 -0.0021051345824162869 0.00042862728495583291 0 -0.0020992908611060057 0.00042709110590564249 0 -0.0021332927030367479 0.00041280949273387078 0 -0.0021051345824162869 0.00042862728495583291 0 -0.0021190706110899584 0.00042697045932459413 0 -0.0016242384201394396 0.0002780203539069855 0 -0.0018543792764763901 0.0001896870232169945 0 -0.0015730863113936212 -1.5700336083362616e-05 0 -0.0015819210346628477 -1.483055640708278e-05 0 -0.0015525820031226307 -8.7691262214601284e-06 0 -0.0021332927030367479 0.00041280949273387078 0 -0.0021190706110899584 0.00042697045932459413 0 -0.002129197951579332 0.0004235817748069383 0 -0.0021051345824162869 0.00042862728495583291 0 -0.0021190706110899584 0.00042697045932459413 0 -0.0021093900565042453 0.00041465437648049059 0 -0.0015730863113936212 -1.5700336083362616e-05 0 -0.0015676790046813189 -1.6134745921790753e-05 0 -0.0015525820031226307 -8.7691262214601284e-06 0 -0.001570420377908567 -2.157662760056454e-05 0 -0.0015699104480606681 -1.9164283776052608e-05 0 -0.0015699594331995976 -1.703803323200153e-05 0 -0.001570420377908567 -2.157662760056454e-05 0 -0.0015688110770684359 -1.9025976443770104e-05 0 -0.0015699104480606681 -1.9164283776052608e-05 0 -0.0015699104480606681 -1.9164283776052608e-05 0 -0.0015676790046813189 -1.6134745921790753e-05 0 -0.0015699594331995976 -1.703803323200153e-05 0 -0.0015730863113936212 -1.5700336083362616e-05 0 -0.0015712305379635783 -1.7221217283227913e-05 0 -0.0015676790046813189 -1.6134745921790753e-05 0 -0.0015712305379635783 -1.7221217283227913e-05 0 -0.0015699104480606681 -1.9164283776052608e-05 0 -0.0015676790046813189 -1.6134745921790753e-05 0 -0.0015676790046813189 -1.6134745921790753e-05 0 -0.0015680113957277186 -9.9876556426443879e-06 0 -0.0015525820031226307 -8.7691262214601284e-06 0 -0.0015753729617527738 -1.6724925720932921e-05 0 -0.0015680113957277186 -9.9876556426443879e-06 0 -0.0015699594331995976 -1.703803323200153e-05 0 -0.0015676790046813189 -1.6134745921790753e-05 0 -0.0015680113957277186 -9.9876556426443879e-06 0 -0.0015699594331995976 -1.703803323200153e-05 0 -0.0015742597979425601 1.2298259459649275e-05 0 -0.0015525820031226307 -8.7691262214601284e-06 0 -0.0015427288881924408 4.2655641834957094e-05 0 -0.0015680113957277186 -9.9876556426443879e-06 0 -0.0015742597979425601 1.2298259459649275e-05 0 -0.0015525820031226307 -8.7691262214601284e-06 0 -0.0015753729617527738 -1.6724925720932921e-05 0 -0.0015680113957277186 -9.9876556426443879e-06 0 -0.0015742597979425601 1.2298259459649275e-05 0 -0.0021093900565042453 0.00041465437648049059 0 -0.0020992908611060057 0.00042709110590564249 0 -0.0020543666763074594 0.00033768156716379379 0 -0.0018543792764763901 0.0001896870232169945 0 -0.0017419482379099833 0.00020212436057533785 0 -0.0021051345824162869 0.00042862728495583291 0 -0.0021093900565042453 0.00041465437648049059 0 -0.0020992908611060057 0.00042709110590564249 0 -0.0021093900565042453 0.00041465437648049059 0 -0.0021283739853343166 0.0004185106532521977 0 -0.0021185889947391034 0.00036984982964794578 0 -0.0021283739853343166 0.0004185106532521977 0 -0.002165557148724402 0.00038223624435466665 0 -0.0021185889947391034 0.00036984982964794578 0 -0.0021093900565042453 0.00041465437648049059 0 -0.0021283739853343166 0.0004185106532521977 0 -0.0021228385718911895 0.00042807999838315191 0 -0.0021228385718911895 0.00042807999838315191 0 -0.0021311983557582331 0.00044017724478435141 0 -0.002129197951579332 0.0004235817748069383 0 -0.0021190706110899584 0.00042697045932459413 0 -0.0021093900565042453 0.00041465437648049059 0 -0.0021228385718911895 0.00042807999838315191 0 -0.0021190706110899584 0.00042697045932459413 0 -0.0021228385718911895 0.00042807999838315191 0 -0.002129197951579332 0.0004235817748069383 0 -0.0021283739853343166 0.0004185106532521977 0 -0.0021228385718911895 0.00042807999838315191 0 -0.0021311983557582331 0.00044017724478435141 0 -0.0021311983557582331 0.00044017724478435141 0 -0.002134835795092516 0.00042132719118322267 0 -0.0021271507574110613 0.00043269396515329631 0 -0.0021311983557582331 0.00044017724478435141 0 -0.002134835795092516 0.00042132719118322267 0 -0.002129197951579332 0.0004235817748069383 0 -0.0021361391090553425 0.00041470000532411582 0 -0.002134835795092516 0.00042132719118322267 0 -0.002129197951579332 0.0004235817748069383 0 -0.0021361391090553425 0.00041470000532411582 0 -0.0021332927030367479 0.00041280949273387078 0 -0.002129197951579332 0.0004235817748069383 0 -0.0021283739853343166 0.0004185106532521977 0 -0.0021311983557582331 0.00044017724478435141 0 -0.0021365556462458061 0.00048901134971301291 0 -0.0021311983557582331 0.00044017724478435141 0 -0.0021271507574110613 0.00043269396515329631 0 -0.0021365556462458061 0.00048901134971301291 0 -0.0020896729771551995 0.0004041960270973445 0 -0.0021271507574110613 0.00043269396515329631 0 -0.0021365556462458061 0.00048901134971301291 0 -0.0020896729771551995 0.0004041960270973445 0 -0.0021365556462458061 0.00048901134971301291 0 -0.0019967668790746855 0.00042400928059332547 0 -0.0021283739853343166 0.0004185106532521977 0 -0.0021365556462458061 0.00048901134971301291 0 -0.002165557148724402 0.00038223624435466665 0 -0.0021365556462458061 0.00048901134971301291 0 -0.002165557148724402 0.00038223624435466665 0 -0.0022250547004672833 0.00041508948571878968 0 -0.002165557148724402 0.00038223624435466665 0 -0.0021450444107117923 0.00029179932089905123 0 -0.0022405951930408704 0.00033754863396157168 0 -0.002165557148724402 0.00038223624435466665 0 -0.0022405951930408704 0.00033754863396157168 0 -0.0022250547004672833 0.00041508948571878968 0 -0.002165557148724402 0.00038223624435466665 0 -0.0021185889947391034 0.00036984982964794578 0 -0.0021450444107117923 0.00029179932089905123 0 -0.0021185889947391034 0.00036984982964794578 0 -0.0021450444107117923 0.00029179932089905123 0 -0.0020543666763074594 0.00033768156716379379 0 -0.0021450444107117923 0.00029179932089905123 0 -0.0021539828005657743 0.00016573189005651714 0 -0.0022638584163990672 0.00023539887531571162 0 -0.0021450444107117923 0.00029179932089905123 0 -0.0022405951930408704 0.00033754863396157168 0 -0.0022638584163990672 0.00023539887531571162 0 -0.0015742597979425601 1.2298259459649275e-05 0 -0.0015755951483906331 5.4291951907104104e-05 0 -0.0015427288881924408 4.2655641834957094e-05 0 -0.0021093900565042453 0.00041465437648049059 0 -0.0021185889947391034 0.00036984982964794578 0 -0.0020543666763074594 0.00033768156716379379 0 -0.0017419482379099833 0.00020212436057533785 0 -0.0023220936608030849 0.00010745962627558577 0 -0.0021450444107117923 0.00029179932089905123 0 -0.0020543666763074594 0.00033768156716379379 0 -0.0020476669339057501 0.00020438522111373929 0 -0.0015427288881924408 4.2655641834957094e-05 0 -0.0015740146034895709 8.6891441773022602e-05 0 -0.0015481765301807483 9.348665302675205e-05 0 -0.0015755951483906331 5.4291951907104104e-05 0 -0.0015427288881924408 4.2655641834957094e-05 0 -0.0015740146034895709 8.6891441773022602e-05 0 -0.0023584349031408685 0.00019477603072192288 0 -0.0023220936608030849 0.00010745962627558577 0 -0.0031329968156276968 0.00030525078795087563 0 -0.0032179823467774057 0.00027690927564870377 0 -0.0031469755070385377 0.0002052026100505379 0 -0.0030539804198751776 0.00024602207922744495 0 -0.0031329968156276968 0.00030525078795087563 0 -0.0031469755070385377 0.0002052026100505379 0 -0.0026121327480282059 5.5759622268747759e-05 0 -0.0026138451028359833 9.5558643947413698e-05 0 -0.0025787009988863714 6.3597512605990771e-05 0 -0.0032179823467774057 0.00027690927564870377 0 -0.0032239242725177857 0.00014159789678520218 0 -0.0031469755070385377 0.0002052026100505379 0 -0.0023220936608030849 0.00010745962627558577 0 -0.0029820521830783604 0.00012919181543969457 0 -0.0031391830637620128 0.00010855661021950556 0 -0.0030751863118809279 0.00015823261796838719 0 -0.0031469755070385377 0.0002052026100505379 0 -0.0031391830637620128 0.00010855661021950556 0 -0.0032239242725177857 0.00014159789678520218 0 -0.0031469755070385377 0.0002052026100505379 0 -0.0023678757912356427 0.00011557791398429068 0 -0.0024125109747859686 9.6541509482345956e-05 0 -0.0021539828005657743 0.00016573189005651714 0 -0.0022826693402409701 0.00011861635508745536 0 -0.0022638584163990672 0.00023539887531571162 0 -0.0021450444107117923 0.00029179932089905123 0 -0.0020476669339057501 0.00020438522111373929 0 -0.0021539828005657743 0.00016573189005651714 0 -0.0023220936608030849 0.00010745962627558577 0 -0.0023678757912356427 0.00011557791398429068 0 -0.0026138451028359833 9.5558643947413698e-05 0 -0.0025787009988863714 6.3597512605990771e-05 0 -0.0025677832069000259 0.00010006962626962334 0 -0.0025787009988863714 6.3597512605990771e-05 0 -0.0025677832069000259 0.00010006962626962334 0 -0.0025396317646201815 6.996135915020078e-05 0 -0.0025252694597719103 0.00011087111108836964 0 -0.0025396317646201815 6.996135915020078e-05 0 -0.0024678773319337065 9.180748347431154e-05 0 -0.0024125109747859686 9.6541509482345956e-05 0 -0.002461558168001273 9.0161506665093093e-05 0 -0.0025252694597719103 0.00011087111108836964 0 -0.0025677832069000259 0.00010006962626962334 0 -0.0025396317646201815 6.996135915020078e-05 0 -0.0022826693402409701 0.00011861635508745536 0 -0.0024080996972656978 0.00017590973928476096 0 -0.0022638584163990672 0.00023539887531571162 0 -0.0024080996972656978 0.00017590973928476096 0 -0.0024889159595947929 0.00011917846232984161 0 -0.0024526341293232804 0.00024068416335336161 0 -0.0022826693402409701 0.00011861635508745536 0 -0.0024080996972656978 0.00017590973928476096 0 -0.0024678773319337065 9.180748347431154e-05 0 -0.0024080996972656978 0.00017590973928476096 0 -0.0024678773319337065 9.180748347431154e-05 0 -0.0024889159595947929 0.00011917846232984161 0 -0.0025252694597719103 0.00011087111108836964 0 -0.002497496349717829 0.00011243429614347006 0 -0.0024678773319337065 9.180748347431154e-05 0 -0.0024678773319337065 9.180748347431154e-05 0 -0.0024894037677389322 0.0001074001752178088 0 -0.0024889159595947929 0.00011917846232984161 0 -0.002497496349717829 0.00011243429614347006 0 -0.0024678773319337065 9.180748347431154e-05 0 -0.0024894037677389322 0.0001074001752178088 0 -0.002497496349717829 0.00011243429614347006 0 -0.0024960648722881572 0.00011593702215711608 0 -0.0024894037677389322 0.0001074001752178088 0 -0.0024960648722881572 0.00011593702215711608 0 -0.0024894037677389322 0.0001074001752178088 0 -0.0024904168253557621 0.00011663080012863568 0 -0.0024894037677389322 0.0001074001752178088 0 -0.0024904168253557621 0.00011663080012863568 0 -0.0024889159595947929 0.00011917846232984161 0 -0.0024930923118903362 0.00012096754690985494 0 -0.0024904168253557621 0.00011663080012863568 0 -0.0024821667087977428 0.00011939166940612151 0 -0.0024960648722881572 0.00011593702215711608 0 -0.0024930923118903362 0.00012096754690985494 0 -0.0024904168253557621 0.00011663080012863568 0 -0.0024904168253557621 0.00011663080012863568 0 -0.002482970144811678 0.00011455403193965607 0 -0.0024821667087977428 0.00011939166940612151 0 -0.002482970144811678 0.00011455403193965607 0 -0.0024742196678798857 0.00010817359130267997 0 -0.0024821667087977428 0.00011939166940612151 0 -0.0024904168253557621 0.00011663080012863568 0 -0.002482970144811678 0.00011455403193965607 0 -0.0024889159595947929 0.00011917846232984161 0 -0.002482970144811678 0.00011455403193965607 0 -0.0024889159595947929 0.00011917846232984161 0 -0.0024825922601106566 0.00011199446168435828 0 -0.002485098979402646 0.00011996393522269089 0 -0.0024657071362913243 0.00018290630466527593 0 -0.002482970144811678 0.00011455403193965607 0 -0.0024770585617859922 0.00010858864886364159 0 -0.0024825922601106566 0.00011199446168435828 0 -0.002482970144811678 0.00011455403193965607 0 -0.0024742196678798857 0.00010817359130267997 0 -0.0024770585617859922 0.00010858864886364159 0 -0.0024742196678798857 0.00010817359130267997 0 -0.0024724306815702922 0.00010569749968130091 0 -0.0024770585617859922 0.00010858864886364159 0 -0.0024742196678798857 0.00010817359130267997 0 -0.0024724306815702922 0.00010569749968130091 0 -0.0024675631817815441 0.00010208441481775647 0 -0.0024724306815702922 0.00010569749968130091 0 -0.0024770585617859922 0.00010858864886364159 0 -0.0024731539489410768 0.00010699770810050817 0 -0.0024724306815702922 0.00010569749968130091 0 -0.0024731539489410768 0.00010699770810050817 0 -0.0024693057416065606 0.00010455933387420851 0 -0.0024724306815702922 0.00010569749968130091 0 -0.0024675631817815441 0.00010208441481775647 0 -0.0024693057416065606 0.00010455933387420851 0 -0.0024770585617859922 0.00010858864886364159 0 -0.0024738843507287993 0.00010848492204116841 0 -0.0024825922601106566 0.00011199446168435828 0 -0.0024770585617859922 0.00010858864886364159 0 -0.0024731539489410768 0.00010699770810050817 0 -0.0024738843507287993 0.00010848492204116841 0 -0.0024655749415938492 0.00018818133933343146 0 -0.0024657071362913243 0.00018290630466527593 0 -0.0024127693543496364 0.00035283192794679548 0 -0.0023507068115153165 0.00029184175868901123 0 -0.0023263244694691847 0.00040137496742428019 0 -0.0022405951930408704 0.00033754863396157168 0 -0.0023507068115153165 0.00029184175868901123 0 -0.0023263244694691847 0.00040137496742428019 0 -0.0024080996972656978 0.00017590973928476096 0 -0.0022638584163990672 0.00023539887531571162 0 -0.0023507068115153165 0.00029184175868901123 0 -0.0022405951930408704 0.00033754863396157168 0 -0.0022638584163990672 0.00023539887531571162 0 -0.0023507068115153165 0.00029184175868901123 0 -0.0024127693543496364 0.00035283192794679548 0 -0.0024526341293232804 0.00024068416335336161 0 -0.0023507068115153165 0.00029184175868901123 0 -0.0024080996972656978 0.00017590973928476096 0 -0.0024526341293232804 0.00024068416335336161 0 -0.0023507068115153165 0.00029184175868901123 0 -0.0024268729419417968 0.00012396063524283793 0 -0.0024343866585385078 0.00011634609075522973 0 -0.0024173067659447583 0.00010906674308212627 0 -0.0024268729419417968 0.00012396063524283793 0 -0.0024343866585385078 0.00011634609075522973 0 -0.0024423690036438142 0.00012686942435121643 0 -0.0024365865510268558 0.00013832741473956199 0 -0.0024268729419417968 0.00012396063524283793 0 -0.0024423690036438142 0.00012686942435121643 0 -0.0026802907939954177 -1.3628083600374615e-05 0 -0.0026994410056159655 -9.7885485108840944e-06 0 -0.0024586103215658655 0.0001392738625193355 0 -0.0024365865510268558 0.00013832741473956199 0 -0.0024423690036438142 0.00012686942435121643 0 -0.0024343866585385078 0.00011634609075522973 0 -0.0024423690036438142 0.00012686942435121643 0 -0.0024535967370713369 0.0001143846917043373 0 -0.0024586103215658655 0.0001392738625193355 0 -0.0024423690036438142 0.00012686942435121643 0 -0.0024535967370713369 0.0001143846917043373 0 -0.0024586103215658655 0.0001392738625193355 0 -0.0024535967370713369 0.0001143846917043373 0 -0.0024821667087977428 0.00011939166940612151 0 -0.002425939221184835 0.00016719902647490361 0 -0.002503443937878182 0.00010294404934415898 0 -0.0024930923118903362 0.00012096754690985494 0 -0.0024920976936353249 0.00012281197280546516 0 -0.0024821667087977428 0.00011939166940612151 0 -0.0024535967370713369 0.0001143846917043373 0 -0.0024821667087977428 0.00011939166940612151 0 -0.0024646246341059278 0.00010682695693370861 0 -0.0024742196678798857 0.00010817359130267997 0 -0.0024646246341059278 0.00010682695693370861 0 -0.0024666508576798177 0.00010327581548379905 0 -0.0024742196678798857 0.00010817359130267997 0 -0.0024821667087977428 0.00011939166940612151 0 -0.0024646246341059278 0.00010682695693370861 0 -0.0024675631817815441 0.00010208441481775647 0 -0.0024618354712972971 9.7514417038721985e-05 0 -0.0024661814687992681 0.00010055338917663293 0 -0.0024646246341059278 0.00010682695693370861 0 -0.0024666508576798177 0.00010327581548379905 0 -0.0024618354712972971 9.7514417038721985e-05 0 -0.0024742196678798857 0.00010817359130267997 0 -0.0024675631817815441 0.00010208441481775647 0 -0.0024666508576798177 0.00010327581548379905 0 -0.0024675631817815441 0.00010208441481775647 0 -0.0024666508576798177 0.00010327581548379905 0 -0.0024618354712972971 9.7514417038721985e-05 0 -0.0024517024444023865 0.00010025205881538511 0 -0.0024618354712972971 9.7514417038721985e-05 0 -0.0024545484992213218 8.6759843794534109e-05 0 -0.0024646246341059278 0.00010682695693370861 0 -0.0024517024444023865 0.00010025205881538511 0 -0.0024618354712972971 9.7514417038721985e-05 0 -0.0024323590112278718 0.0001666782978732026 0 -0.0021409428598012218 4.9715996452779679e-05 0 -0.0024535967370713369 0.0001143846917043373 0 -0.0024646246341059278 0.00010682695693370861 0 -0.0024517024444023865 0.00010025205881538511 0 -0.0024535967370713369 0.0001143846917043373 0 -0.0024517024444023865 0.00010025205881538511 0 -0.002439314857817761 0.00010556074895613755 0 -0.0024343866585385078 0.00011634609075522973 0 -0.0024535967370713369 0.0001143846917043373 0 -0.002439314857817761 0.00010556074895613755 0 -0.0024517024444023865 0.00010025205881538511 0 -0.0024288649849007445 8.2311563738860204e-05 0 -0.0024545484992213218 8.6759843794534109e-05 0 -0.0024517024444023865 0.00010025205881538511 0 -0.002439314857817761 0.00010556074895613755 0 -0.0024288649849007445 8.2311563738860204e-05 0 -0.002439314857817761 0.00010556074895613755 0 -0.0024288649849007445 8.2311563738860204e-05 0 -0.0024248788942051068 0.00010548632407802697 0 -0.0024288649849007445 8.2311563738860204e-05 0 -0.002406630141631629 9.600175809730324e-05 0 -0.0024248788942051068 0.00010548632407802697 0 -0.002406630141631629 9.600175809730324e-05 0 -0.0024248788942051068 0.00010548632407802697 0 -0.002392897669484645 0.000119785810048962 0 -0.0024343866585385078 0.00011634609075522973 0 -0.0024248788942051068 0.00010548632407802697 0 -0.0024173067659447583 0.00010906674308212627 0 -0.0024168083010273587 0.00010199930161415467 0 -0.0023773619854728562 2.2964358411410108e-05 0 -0.0024343866585385078 0.00011634609075522973 0 -0.002439314857817761 0.00010556074895613755 0 -0.0024248788942051068 0.00010548632407802697 0 -0.0016527271194050174 -0.00027320485778462922 0 -0.0015028138990403437 -0.00011829173956726813 0 -0.0014111267137559467 -0.00036001431860305407 0 -0.0014113003244085472 -0.00035770017409781355 0 -0.0014167792371935896 -0.00035805807037295759 0 -0.0014111267137559467 -0.00036001431860305407 0 -0.0014167792371935896 -0.00035805807037295759 0 -0.0014130420216980414 -0.00036338140113692904 0 -0.0014111267137559467 -0.00036001431860305407 0 -0.0014130420216980414 -0.00036338140113692904 0 -0.0014077991968722903 -0.00036388465873358697 0 -0.0015028138990403437 -0.00011829173956726813 0 -0.0011927085213102695 -0.00016718769978190599 0 -0.0018754180638197967 -6.5825290257245865e-05 0 -0.0018133002466864481 -0.00013853341605256982 0 -0.0019061333712608699 -0.00019914010253294689 0 -0.0018754180638197967 -6.5825290257245865e-05 0 -0.0018133002466864481 -0.00013853341605256982 0 -0.0017359686315290841 -4.1062694508375059e-05 0 -0.0015028138990403437 -0.00011829173956726813 0 -0.0021409428598012218 4.9715996452779679e-05 0 -0.0018754180638197967 -6.5825290257245865e-05 0 -0.0019061333712608699 -0.00019914010253294689 0 -0.0020155135635280437 -9.1277909970218738e-05 0 -0.0022282883322819365 1.7042920500436048e-05 0 -0.0021409428598012218 4.9715996452779679e-05 0 -0.0014308275697407309 7.0903460748276333e-05 0 -0.001538437513067177 7.2776246687714269e-07 0 -0.0016428740458271766 0.00028093341603687897 0 -0.0010999454876395034 0.00015993363052041061 0 -0.0012001887045956564 9.466362884819594e-05 0 -0.0010537376164793046 -4.097929576438176e-06 0 -0.0015028138990403437 -0.00011829173956726813 0 -0.0010670477628020401 0.00028990867798388053 0 -0.00069833087981052146 0.00053427777752109969 0 -0.00090778935676005736 0.00056267676219312406 0 -0.0009406623658402744 0.00070995258910801879 0 -0.0010670477628020401 0.00028990867798388053 0 -0.0012935760645212187 0.00041170427351749635 0 -0.001538437513067177 7.2776246687714269e-07 0 -0.0017131838373130588 0.0001172847593117405 0 -0.0016428740458271766 0.00028093341603687897 0 -0.00069833087981052146 0.00053427777752109969 0 -0.00090778935676005736 0.00056267676219312406 0 -0.00078952760101439704 0.00047413080348137243 0 -0.0009406623658402744 0.00070995258910801879 0 -0.0011959840671420629 0.00088768405015541478 0 -0.0011415041856127604 0.00068157331355901923 0 -0.0024618354712972971 9.7514417038721985e-05 0 -0.0024579964640102574 9.5431538032336337e-05 0 -0.0024661814687992681 0.00010055338917663293 0 -0.0017131838373130588 0.0001172847593117405 0 -0.0016428740458271766 0.00028093341603687897 0 -0.0018874536934674869 0.00023396847695615774 0 -0.0021409428598012218 4.9715996452779679e-05 0 -0.0019476407953423528 0.00029888683795941534 0 -0.0012935760645212187 0.00041170427351749635 0 -0.0019476407953423528 0.00029888683795941534 0 -0.00090778935676005736 0.00056267676219312406 0 -0.0009406623658402744 0.00070995258910801879 0 -0.0010827909201852825 0.00051966066818818363 0 -0.0009406623658402744 0.00070995258910801879 0 -0.0011415041856127604 0.00068157331355901923 0 -0.0010827909201852825 0.00051966066818818363 0 -0.0011415041856127604 0.00068157331355901923 0 -0.0010827909201852825 0.00051966066818818363 0 -0.0012251695616464532 0.00052249341591817117 0 -0.0010827909201852825 0.00051966066818818363 0 -0.001022341666379815 0.00042000842830879038 0 -0.0011435953201937863 0.00034342528292874766 0 -0.0010827909201852825 0.00051966066818818363 0 -0.0011435953201937863 0.00034342528292874766 0 -0.0012251695616464532 0.00052249341591817117 0 -0.00090778935676005736 0.00056267676219312406 0 -0.0010827909201852825 0.00051966066818818363 0 -0.001022341666379815 0.00042000842830879038 0 -0.001022341666379815 0.00042000842830879038 0 -0.0010024785745732397 0.00031593301593698162 0 -0.0011435953201937863 0.00034342528292874766 0 -0.001022341666379815 0.00042000842830879038 0 -0.0010024785745732397 0.00031593301593698162 0 -0.00091356302978596205 0.0004179704931419558 0 -0.0011435953201937863 0.00034342528292874766 0 -0.00099090881814146233 0.00018652123339175079 0 -0.001200765017244814 0.00013311164138471654 0 -0.00099090881814146233 0.00018652123339175079 0 -0.001200765017244814 0.00013311164138471654 0 -0.0009597332507828378 3.6236810775040818e-05 0 -0.00099090881814146233 0.00018652123339175079 0 -0.00088857539063080663 7.927407450634978e-05 0 -0.0009597332507828378 3.6236810775040818e-05 0 -0.0010024785745732397 0.00031593301593698162 0 -0.00099090881814146233 0.00018652123339175079 0 -0.00091294538185481423 0.00027175950750474564 0 -0.0010024785745732397 0.00031593301593698162 0 -0.0011435953201937863 0.00034342528292874766 0 -0.00099090881814146233 0.00018652123339175079 0 -0.00099090881814146233 0.00018652123339175079 0 -0.00091294538185481423 0.00027175950750474564 0 -0.0008853596309557983 0.00017329157054147724 0 -0.00091294538185481423 0.00027175950750474564 0 -0.0008853596309557983 0.00017329157054147724 0 -0.00082250271650636825 0.00029783853235548134 0 -0.00099090881814146233 0.00018652123339175079 0 -0.0008853596309557983 0.00017329157054147724 0 -0.00088857539063080663 7.927407450634978e-05 0 -0.0008853596309557983 0.00017329157054147724 0 -0.00080771548623075735 6.448874086731892e-05 0 -0.00088857539063080663 7.927407450634978e-05 0 -0.0008853596309557983 0.00017329157054147724 0 -0.0007318110581537847 0.00018350057301476681 0 -0.00080771548623075735 6.448874086731892e-05 0 -0.00082250271650636825 0.00029783853235548134 0 -0.00071932823454695714 0.0003571622301922824 0 -0.0007318110581537847 0.00018350057301476681 0 -0.0008853596309557983 0.00017329157054147724 0 -0.00082250271650636825 0.00029783853235548134 0 -0.0007318110581537847 0.00018350057301476681 0 -0.00082250271650636825 0.00029783853235548134 0 -0.00081854118176644315 0.000391742835104848 0 -0.00071932823454695714 0.0003571622301922824 0 -0.00091294538185481423 0.00027175950750474564 0 -0.00082250271650636825 0.00029783853235548134 0 -0.00091356302978596205 0.0004179704931419558 0 -0.00082250271650636825 0.00029783853235548134 0 -0.00081854118176644315 0.000391742835104848 0 -0.00091356302978596205 0.0004179704931419558 0 -0.0010024785745732397 0.00031593301593698162 0 -0.00091294538185481423 0.00027175950750474564 0 -0.00091356302978596205 0.0004179704931419558 0 -0.00090778935676005736 0.00056267676219312406 0 -0.00091356302978596205 0.0004179704931419558 0 -0.00078952760101439704 0.00047413080348137243 0 -0.00081854118176644315 0.000391742835104848 0 -0.00091356302978596205 0.0004179704931419558 0 -0.00078952760101439704 0.00047413080348137243 0 -0.00090778935676005736 0.00056267676219312406 0 -0.001022341666379815 0.00042000842830879038 0 -0.00091356302978596205 0.0004179704931419558 0 -0.00071421991668456993 0.00051945736952041294 0 -0.00078952760101439704 0.00047413080348137243 0 -0.00071932823454695714 0.0003571622301922824 0 -0.00081854118176644315 0.000391742835104848 0 -0.00078952760101439704 0.00047413080348137243 0 -0.00071932823454695714 0.0003571622301922824 0 -0.0010670477628020401 0.00028990867798388053 0 -0.00079776055128084975 0.00046699334706440566 0 -0.00071421991668456993 0.00051945736952041294 0 -0.00071932823454695714 0.0003571622301922824 0 -0.00053115720870327275 0.00038342830324793046 0 -0.0010670477628020401 0.00028990867798388053 0 -0.0007758451390962979 0.00018150972499554231 0 -0.00071932823454695714 0.0003571622301922824 0 -0.0006162408289084035 0.00025618165716174659 0 -0.00053115720870327275 0.00038342830324793046 0 -0.00071932823454695714 0.0003571622301922824 0 -0.0007318110581537847 0.00018350057301476681 0 -0.0006162408289084035 0.00025618165716174659 0 -0.0007318110581537847 0.00018350057301476681 0 -0.00057974855698473323 0.00012294492200658891 0 -0.0006162408289084035 0.00025618165716174659 0 -0.0007318110581537847 0.00018350057301476681 0 -0.00057974855698473323 0.00012294492200658891 0 -0.00066228861563378237 2.1658275018641271e-05 0 -0.00057974855698473323 0.00012294492200658891 0 -0.0006162408289084035 0.00025618165716174659 0 -0.00050232861554107126 0.00022416622900222062 0 -0.0006162408289084035 0.00025618165716174659 0 -0.00050232861554107126 0.00022416622900222062 0 -0.00053115720870327275 0.00038342830324793046 0 -0.00042783385089117498 -3.4537235080433443e-05 0 -0.00070609946872264519 1.842730098408366e-05 0 -0.00050232861554107126 0.00022416622900222062 0 -0.00044044876847382556 4.5024713971455933e-05 0 -0.00035327709854312373 0.00025683121763830929 0 -0.00050232861554107126 0.00022416622900222062 0 -0.00053115720870327275 0.00038342830324793046 0 -0.00035327709854312373 0.00025683121763830929 0 -0.00057974855698473323 0.00012294492200658891 0 -0.00050232861554107126 0.00022416622900222062 0 -0.00044044876847382556 4.5024713971455933e-05 0 -0.0010537376164793046 -4.097929576438176e-06 0 -0.00099286071899553686 5.4091477525484799e-05 0 -0.00088584446384945624 -5.2546595272208501e-05 0 -0.0010537376164793046 -4.097929576438176e-06 0 -0.00088584446384945624 -5.2546595272208501e-05 0 -0.00090597337973216132 -0.0001028869361663697 0 -0.0010999454876395034 0.00015993363052041061 0 -0.0010537376164793046 -4.097929576438176e-06 0 -0.00099286071899553686 5.4091477525484799e-05 0 -0.0007758451390962979 0.00018150972499554231 0 -0.00070609946872264519 1.842730098408366e-05 0 -0.0011927085213102695 -0.00016718769978190599 0 -0.00099705326636274059 -0.00013842519739751835 0 -0.0014130420216980414 -0.00036338140113692904 0 -0.0014077991968722903 -0.00036388465873358697 0 -0.0014061117789952117 -0.00037243110789829143 0 -0.0018993492285620615 0.00050507751374310019 0 -0.0018305778907064662 0.00059166802288740524 0 -0.0018240427187109745 0.0004286708913785765 0 -0.002084553171607956 0.00048369260416760676 0 -0.0017802891375081895 0.00053364212641028412 0 -0.0017772853768350985 0.00078690821669329884 0 -0.0016651202845241121 0.00055630105983320332 0 -0.0018240427187109745 0.0004286708913785765 0 -0.0018993492285620615 0.00050507751374310019 0 -0.0019599684045234047 0.00056540771500213311 0 -0.0018305778907064662 0.00059166802288740524 0 -0.0021232419191575366 0.0005196694868552066 0 -0.002084553171607956 0.00048369260416760676 0 -0.0021365556462458061 0.00048901134971301291 0 -0.0019599684045234047 0.00056540771500213311 0 -0.0019967668790746855 0.00042400928059332547 0 -0.0018993492285620615 0.00050507751374310019 0 -0.0019599684045234047 0.00056540771500213311 0 -0.0019967668790746855 0.00042400928059332547 0 -0.0021343095700530256 0.00050315740293500671 0 -0.0021232419191575366 0.0005196694868552066 0 -0.0022838304467964728 0.00049193798420470343 0 -0.0022250547004672833 0.00041508948571878968 0 -0.0023263244694691847 0.00040137496742428019 0 -0.0021365556462458061 0.00048901134971301291 0 -0.0022838304467964728 0.00049193798420470343 0 -0.0022250547004672833 0.00041508948571878968 0 -0.0022405951930408704 0.00033754863396157168 0 -0.0022250547004672833 0.00041508948571878968 0 -0.0023263244694691847 0.00040137496742428019 0 -0.0024127693543496364 0.00035283192794679548 0 -0.0023263244694691847 0.00040137496742428019 0 -0.0023875710360180807 0.00047460677939238774 0 -0.0024655749415938492 0.00018818133933343146 0 -0.002084553171607956 0.00048369260416760676 0 -0.0022838304467964728 0.00049193798420470343 0 -0.0023263244694691847 0.00040137496742428019 0 -0.0023875710360180807 0.00047460677939238774 0 -0.0024731539489410768 0.00010699770810050817 0 -0.0024738843507287993 0.00010848492204116841 0 -0.0024701174495401507 0.00010892516272364123 0 -0.0017772853768350985 0.00078690821669329884 0 -0.0014809232298029188 0.00083823100835362372 0 -0.0015865937064441329 0.0006828964885231835 0 -0.0024738843507287993 0.00010848492204116841 0 -0.0024670594051869558 0.00011336478900357685 0 -0.0024701174495401507 0.00010892516272364123 0 -0.002084553171607956 0.00048369260416760676 0 -0.0019576713935419215 0.00048033663147528812 0 -0.0011959840671420629 0.00088768405015541478 0 -0.0014809232298029188 0.00083823100835362372 0 -0.0013066653900461289 0.00069528667967047825 0 -0.0024668984060026763 0.00010429482572921713 0 -0.0024701174495401507 0.00010892516272364123 0 -0.0024693057416065606 0.00010455933387420851 0 -0.0019476407953423528 0.00029888683795941534 0 -0.0019576713935419215 0.00048033663147528812 0 -0.0024675631817815441 0.00010208441481775647 0 -0.0024661814687992681 0.00010055338917663293 0 -0.0024693057416065606 0.00010455933387420851 0 -0.0019476407953423528 0.00029888683795941534 0 -0.0022938700616519786 0.00030692501571682302 0 -0.0024731539489410768 0.00010699770810050817 0 -0.0024701174495401507 0.00010892516272364123 0 -0.0024693057416065606 0.00010455933387420851 0 -0.0011959840671420629 0.00088768405015541478 0 -0.0011415041856127604 0.00068157331355901923 0 -0.0013066653900461289 0.00069528667967047825 0 -0.0014809232298029188 0.00083823100835362372 0 -0.0013066653900461289 0.00069528667967047825 0 -0.0014519746478519589 0.00066386562355994503 0 -0.0013066653900461289 0.00069528667967047825 0 -0.0013737218059254707 0.00052952346018227266 0 -0.0014519746478519589 0.00066386562355994503 0 -0.0011415041856127604 0.00068157331355901923 0 -0.0013066653900461289 0.00069528667967047825 0 -0.0012251695616464532 0.00052249341591817117 0 -0.0013066653900461289 0.00069528667967047825 0 -0.0013737218059254707 0.00052952346018227266 0 -0.0012251695616464532 0.00052249341591817117 0 -0.0017772853768350985 0.00078690821669329884 0 -0.0015865937064441329 0.0006828964885231835 0 -0.0016651202845241121 0.00055630105983320332 0 -0.0014809232298029188 0.00083823100835362372 0 -0.0015865937064441329 0.0006828964885231835 0 -0.0014519746478519589 0.00066386562355994503 0 -0.0013737218059254707 0.00052952346018227266 0 -0.0014519746478519589 0.00066386562355994503 0 -0.0015276696849660075 0.00053523361711788346 0 -0.0015865937064441329 0.0006828964885231835 0 -0.0014519746478519589 0.00066386562355994503 0 -0.0015276696849660075 0.00053523361711788346 0 -0.0015865937064441329 0.0006828964885231835 0 -0.0015276696849660075 0.00053523361711788346 0 -0.0016651202845241121 0.00055630105983320332 0 -0.0015276696849660075 0.00053523361711788346 0 -0.0016651202845241121 0.00055630105983320332 0 -0.0016188387994085993 0.00036358063357380964 0 -0.0015276696849660075 0.00053523361711788346 0 -0.001437748168526131 0.00038163055038525651 0 -0.0016188387994085993 0.00036358063357380964 0 -0.0013737218059254707 0.00052952346018227266 0 -0.0015276696849660075 0.00053523361711788346 0 -0.001437748168526131 0.00038163055038525651 0 -0.001437748168526131 0.00038163055038525651 0 -0.0016188387994085993 0.00036358063357380964 0 -0.0014823670573298393 0.00020862094826565775 0 -0.0013737218059254707 0.00052952346018227266 0 -0.0012251695616464532 0.00052249341591817117 0 -0.0013018468985963657 0.000395648976212315 0 -0.0011435953201937863 0.00034342528292874766 0 -0.0012251695616464532 0.00052249341591817117 0 -0.0013018468985963657 0.000395648976212315 0 -0.0013737218059254707 0.00052952346018227266 0 -0.001437748168526131 0.00038163055038525651 0 -0.0013018468985963657 0.000395648976212315 0 -0.001437748168526131 0.00038163055038525651 0 -0.0013018468985963657 0.000395648976212315 0 -0.0013244658228202032 0.00025793053829023527 0 -0.0011435953201937863 0.00034342528292874766 0 -0.0013018468985963657 0.000395648976212315 0 -0.0013244658228202032 0.00025793053829023527 0 -0.0011435953201937863 0.00034342528292874766 0 -0.0013244658228202032 0.00025793053829023527 0 -0.001200765017244814 0.00013311164138471654 0 -0.001437748168526131 0.00038163055038525651 0 -0.0013244658228202032 0.00025793053829023527 0 -0.0014823670573298393 0.00020862094826565775 0 -0.0013244658228202032 0.00025793053829023527 0 -0.0013768137966426283 9.8924837703175372e-05 0 -0.0014823670573298393 0.00020862094826565775 0 -0.0013244658228202032 0.00025793053829023527 0 -0.0013768137966426283 9.8924837703175372e-05 0 -0.001200765017244814 0.00013311164138471654 0 -0.0013768137966426283 9.8924837703175372e-05 0 -0.0014823670573298393 0.00020862094826565775 0 -0.0016447336643010547 2.8278807548255668e-05 0 -0.0016188387994085993 0.00036358063357380964 0 -0.0016477840461157876 0.00017747426819525247 0 -0.0017668517367027878 0.00026571904417948156 0 -0.0016188387994085993 0.00036358063357380964 0 -0.0016477840461157876 0.00017747426819525247 0 -0.0014823670573298393 0.00020862094826565775 0 -0.0016477840461157876 0.00017747426819525247 0 -0.0014823670573298393 0.00020862094826565775 0 -0.0016447336643010547 2.8278807548255668e-05 0 -0.0016477840461157876 0.00017747426819525247 0 -0.001823289191862748 5.6103792002265659e-05 0 -0.0016447336643010547 2.8278807548255668e-05 0 -0.0017688220941800385 0.00027323301584004852 0 -0.0020285183339916629 0.00018510297900972708 0 -0.0016477840461157876 0.00017747426819525247 0 -0.001823289191862748 5.6103792002265659e-05 0 -0.0017668517367027878 0.00026571904417948156 0 -0.001823289191862748 5.6103792002265659e-05 0 -0.0017668517367027878 0.00026571904417948156 0 -0.0019911932485209534 0.00015883224487312132 0 -0.0017668517367027878 0.00026571904417948156 0 -0.0019256474440353874 0.00034428075451540347 0 -0.0019675133947760835 0.0002528855305064201 0 -0.0018993492285620615 0.00050507751374310019 0 -0.0018240427187109745 0.0004286708913785765 0 -0.0019967668790746855 0.00042400928059332547 0 -0.0016188387994085993 0.00036358063357380964 0 -0.0017668517367027878 0.00026571904417948156 0 -0.0018240427187109745 0.0004286708913785765 0 -0.0017668517367027878 0.00026571904417948156 0 -0.0018240427187109745 0.0004286708913785765 0 -0.0019256474440353874 0.00034428075451540347 0 -0.0016651202845241121 0.00055630105983320332 0 -0.0016188387994085993 0.00036358063357380964 0 -0.0018240427187109745 0.0004286708913785765 0 -0.0018240427187109745 0.0004286708913785765 0 -0.0019967668790746855 0.00042400928059332547 0 -0.0019256474440353874 0.00034428075451540347 0 -0.0020896729771551995 0.0004041960270973445 0 -0.0019967668790746855 0.00042400928059332547 0 -0.002016435562366544 0.00034913368068929882 0 -0.0019967668790746855 0.00042400928059332547 0 -0.0019256474440353874 0.00034428075451540347 0 -0.002016435562366544 0.00034913368068929882 0 -0.0020798523603123061 0.00032528663515191982 0 -0.002016435562366544 0.00034913368068929882 0 -0.0019675133947760835 0.0002528855305064201 0 -0.0017346150354242273 0.00012988359163552249 0 -0.0020285183339916629 0.00018510297900972708 0 -0.0022134601114003681 6.6051698307280471e-05 0 -0.0019911932485209534 0.00015883224487312132 0 -0.002010100488807013 -5.4655758536913658e-05 0 -0.0019256474440353874 0.00034428075451540347 0 -0.002016435562366544 0.00034913368068929882 0 -0.0019675133947760835 0.0002528855305064201 0 -0.001823289191862748 5.6103792002265659e-05 0 -0.0019911932485209534 0.00015883224487312132 0 -0.002010100488807013 -5.4655758536913658e-05 0 -0.0017346150354242273 0.00012988359163552249 0 -0.0015698902331003645 4.5407731858208328e-05 0 -0.0010730535822204474 0.0001106159703135757 0 -0.0010959255971142083 2.6281003819585714e-06 0 -0.00095007521328324988 3.9639649654333595e-05 0 -0.0011979551383872352 0.00018185674100623162 0 -0.0010730535822204474 0.0001106159703135757 0 -0.0010959255971142083 2.6281003819585714e-06 0 -0.00039964286450069387 0.00011621240956820112 0 -0.0010745862344788346 -3.2558372313692221e-05 0 -0.00039964286450069387 0.00011621240956820112 0 2.5827869579102344e-05 2.5781981850405642e-05 0 -0.00044475698620872144 8.9068410307616681e-05 0 -0.00030492365531118403 0.00012412174782106943 0 -0.00026872277056510488 -7.094475426525063e-05 0 -0.001823289191862748 5.6103792002265659e-05 0 -0.0017941809399952924 -0.00018675405055335417 0 -0.0016447336643010547 2.8278807548255668e-05 0 -0.001823289191862748 5.6103792002265659e-05 0 -0.002010100488807013 -5.4655758536913658e-05 0 -0.0017941809399952924 -0.00018675405055335417 0 -0.0015698902331003645 4.5407731858208328e-05 0 -0.0010745862344788346 -3.2558372313692221e-05 0 -0.0013768137966426283 9.8924837703175372e-05 0 -0.0016447336643010547 2.8278807548255668e-05 0 -0.0014000497591489241 -9.9522611886607355e-05 0 -0.0017941809399952924 -0.00018675405055335417 0 -0.0016447336643010547 2.8278807548255668e-05 0 -0.0014000497591489241 -9.9522611886607355e-05 0 -0.0010745862344788346 -3.2558372313692221e-05 0 -0.0012972819758661292 -6.6378821837928583e-05 0 -0.0012972819758661292 -6.6378821837928583e-05 0 -0.00093728038042158711 3.6532269711687346e-05 0 -0.001200765017244814 0.00013311164138471654 0 -0.0014000497591489241 -9.9522611886607355e-05 0 -0.0009597332507828378 3.6236810775040818e-05 0 -0.0010257348153757972 -1.9514017146367025e-06 0 -0.00096082418767115855 -4.8946132903371973e-06 0 -0.00096442648457840377 -3.6872949659297715e-05 0 -0.0013768137966426283 9.8924837703175372e-05 0 -0.001200765017244814 0.00013311164138471654 0 -0.0014000497591489241 -9.9522611886607355e-05 0 -0.00099966594194021794 -5.1813558779789929e-05 0 -0.001034478716871031 -7.7557335589185391e-05 0 -0.00096559235033822049 -7.8233661052754807e-05 0 -0.0010257348153757972 -1.9514017146367025e-06 0 -0.00099966594194021794 -5.1813558779789929e-05 0 -0.00096442648457840377 -3.6872949659297715e-05 0 -0.0010257348153757972 -1.9514017146367025e-06 0 -0.00099966594194021794 -5.1813558779789929e-05 0 -0.001034478716871031 -7.7557335589185391e-05 0 -0.00099966594194021794 -5.1813558779789929e-05 0 -0.00096442648457840377 -3.6872949659297715e-05 0 -0.00096559235033822049 -7.8233661052754807e-05 0 -0.0010745862344788346 -3.2558372313692221e-05 0 -0.00050949941681415617 -3.4779320091627188e-05 0 -0.0011200105671226948 -2.683375885607382e-05 0 -0.0010257348153757972 -1.9514017146367025e-06 0 -0.001034478716871031 -7.7557335589185391e-05 0 -0.00030492365531118403 0.00012412174782106943 0 -0.00012008468607424018 1.7946770905722817e-05 0 -0.00026872277056510488 -7.094475426525063e-05 0 -0.00012008468607424018 1.7946770905722817e-05 0 -9.178012710233623e-05 -9.7750564867859943e-05 0 -0.00026872277056510488 -7.094475426525063e-05 0 -0.00012008468607424018 1.7946770905722817e-05 0 -9.178012710233623e-05 -9.7750564867859943e-05 0 4.0725966840413611e-05 -9.2884160312032801e-05 0 -0.001034478716871031 -7.7557335589185391e-05 0 -0.00096559235033822049 -7.8233661052754807e-05 0 -0.00092605248727650941 -0.00014806252736514883 0 -0.00050949941681415617 -3.4779320091627188e-05 0 -0.00045703776705278949 -0.00011558038785346842 0 -9.178012710233623e-05 -9.7750564867859943e-05 0 -9.3547068487101221e-05 -0.00021288426233805727 0 9.9874555098286618e-05 -0.00020417106376712386 0 -8.0970316821529046e-05 -0.00010522006125927647 0 7.979583969062811e-05 -0.00021956197151867051 0 -9.178012710233623e-05 -9.7750564867859943e-05 0 -9.3547068487101221e-05 -0.00021288426233805727 0 -0.00026872277056510488 -7.094475426525063e-05 0 8.610589911975062e-05 -5.789999368821212e-05 0 2.5827869579102344e-05 2.5781981850405642e-05 0 0.00027418541279519492 9.1781565990917268e-05 0 0.0002248075076066283 0.00013624462328773134 0 0.00020549405409981542 7.0127647484668205e-05 0 0.00017719975740228941 0.0001180299388458392 0 0.0002248075076066283 0.00013624462328773134 0 0.00020549405409981542 7.0127647484668205e-05 0 0.00017304221441971466 0.00018156742994424152 0 0.00017719975740228941 0.0001180299388458392 0 0.00014631712647887292 0.0001445330982893955 0 0.00017304221441971466 0.00018156742994424152 0 0.00017719975740228941 0.0001180299388458392 0 0.0002248075076066283 0.00013624462328773134 0 -0.00038556277043425003 -0.00025729765343506281 0 -0.00034874202515393701 -0.00017015573562665458 0 -0.00031090317001926143 -0.00023808608020979991 0 -0.00038556277043425003 -0.00025729765343506281 0 -0.00028456700724039448 -0.00031076551867543117 0 -0.00031090317001926143 -0.00023808608020979991 0 -0.00051215894755376177 -9.8519819066127093e-05 0 -0.00042783385089117498 -3.4537235080433443e-05 0 -0.00054534400050492056 -0.00020260224017002723 0 -0.00044286897289280111 4.4198908641310366e-05 0 -0.00051697702504197951 -1.0916582502257865e-05 0 -0.00057974855698473323 0.00012294492200658891 0 -0.00044044876847382556 4.5024713971455933e-05 0 -0.00051697702504197951 -1.0916582502257865e-05 0 -0.00042783385089117498 -3.4537235080433443e-05 0 -0.00046557394738219 -2.4038239907474399e-05 0 -0.00051697702504197951 -1.0916582502257865e-05 0 -0.00061364201615018109 -7.4290353586911685e-05 0 -0.00066228861563378237 2.1658275018641271e-05 0 -0.00057974855698473323 0.00012294492200658891 0 -0.00051697702504197951 -1.0916582502257865e-05 0 -0.00066228861563378237 2.1658275018641271e-05 0 -0.0007318110581537847 0.00018350057301476681 0 -0.00066228861563378237 2.1658275018641271e-05 0 -0.00080771548623075735 6.448874086731892e-05 0 -0.00066228861563378237 2.1658275018641271e-05 0 -0.00072904113406595348 -0.00010604045350709553 0 -0.00080771548623075735 6.448874086731892e-05 0 -0.00061364201615018109 -7.4290353586911685e-05 0 -0.00066228861563378237 2.1658275018641271e-05 0 -0.00072904113406595348 -0.00010604045350709553 0 -0.00054534400050492056 -0.00020260224017002723 0 -0.00051697702504197951 -1.0916582502257865e-05 0 -0.00061364201615018109 -7.4290353586911685e-05 0 -0.0006983769298129454 -5.9604925063290184e-05 0 -0.00078955017707730603 -1.9512383752132775e-05 0 -0.00079056816651020467 -8.9178909850149004e-05 0 -0.00051215894755376177 -9.8519819066127093e-05 0 -0.00077378534580339366 -5.6989103336952764e-05 0 -0.00054534400050492056 -0.00020260224017002723 0 -0.00061364201615018109 -7.4290353586911685e-05 0 -0.00072904113406595348 -0.00010604045350709553 0 -0.00079056816651020467 -8.9178909850149004e-05 0 -0.00085639997051626608 -3.7500386657802737e-05 0 -0.00089059201537800687 -7.7383424504674997e-05 0 -0.00085639997051626608 -3.7500386657802737e-05 0 -0.00091073103359264464 -3.0582689228330007e-05 0 -0.00089059201537800687 -7.7383424504674997e-05 0 -0.00078955017707730603 -1.9512383752132775e-05 0 -0.00079056816651020467 -8.9178909850149004e-05 0 -0.00085639997051626608 -3.7500386657802737e-05 0 -0.00078955017707730603 -1.9512383752132775e-05 0 -0.00085639997051626608 -3.7500386657802737e-05 0 -0.00090265133066902501 -2.8129121264526408e-06 0 -0.00077378534580339366 -5.6989103336952764e-05 0 -0.00087647315232163773 -1.1543889601993808e-05 0 -0.00072904113406595348 -0.00010604045350709553 0 -0.00080771548623075735 6.448874086731892e-05 0 -0.00090265133066902501 -2.8129121264526408e-06 0 -0.00080771548623075735 6.448874086731892e-05 0 -0.00088857539063080663 7.927407450634978e-05 0 -0.00090265133066902501 -2.8129121264526408e-06 0 -0.00085639997051626608 -3.7500386657802737e-05 0 -0.00090265133066902501 -2.8129121264526408e-06 0 -0.00091073103359264464 -3.0582689228330007e-05 0 -0.00090265133066902501 -2.8129121264526408e-06 0 -0.00096082418767115855 -4.8946132903371973e-06 0 -0.00091073103359264464 -3.0582689228330007e-05 0 -0.00090265133066902501 -2.8129121264526408e-06 0 -0.0009597332507828378 3.6236810775040818e-05 0 -0.00096082418767115855 -4.8946132903371973e-06 0 -0.0010257348153757972 -1.9514017146367025e-06 0 -0.0009597332507828378 3.6236810775040818e-05 0 -0.00096082418767115855 -4.8946132903371973e-06 0 -0.00088857539063080663 7.927407450634978e-05 0 -0.00090265133066902501 -2.8129121264526408e-06 0 -0.0009597332507828378 3.6236810775040818e-05 0 -0.00096082418767115855 -4.8946132903371973e-06 0 -0.00096442648457840377 -3.6872949659297715e-05 0 -0.00091073103359264464 -3.0582689228330007e-05 0 -0.00096442648457840377 -3.6872949659297715e-05 0 -0.00091073103359264464 -3.0582689228330007e-05 0 -0.00089059201537800687 -7.7383424504674997e-05 0 -0.00096442648457840377 -3.6872949659297715e-05 0 -0.00089059201537800687 -7.7383424504674997e-05 0 -0.00096559235033822049 -7.8233661052754807e-05 0 -0.00089059201537800687 -7.7383424504674997e-05 0 -0.00092605248727650941 -0.00014806252736514883 0 -0.00082362033300930498 -0.00013198673752822508 0 -0.00089059201537800687 -7.7383424504674997e-05 0 -0.00096559235033822049 -7.8233661052754807e-05 0 -0.00092605248727650941 -0.00014806252736514883 0 -9.178012710233623e-05 -9.7750564867859943e-05 0 4.0725966840413611e-05 -9.2884160312032801e-05 0 6.1661398264140326e-05 -0.00023648851973584689 0 4.0725966840413611e-05 -9.2884160312032801e-05 0 6.1661398264140326e-05 -0.00023648851973584689 0 0.00019263065064732313 -0.00020885568614198018 0 -0.00045703776705278949 -0.00011558038785346842 0 -0.00028419710063314253 -0.00021194833861744994 0 -0.00092605248727650941 -0.00014806252736514883 0 -0.0007667289374843582 -0.00021548164102893979 0 -0.00082362033300930498 -0.00013198673752822508 0 -0.0007667289374843582 -0.00021548164102893979 0 -0.00082362033300930498 -0.00013198673752822508 0 -0.00075836761742717408 -0.00015564539128827914 0 -0.00079056816651020467 -8.9178909850149004e-05 0 -0.00089059201537800687 -7.7383424504674997e-05 0 -0.00082362033300930498 -0.00013198673752822508 0 -0.00079056816651020467 -8.9178909850149004e-05 0 -0.00082362033300930498 -0.00013198673752822508 0 -0.00075836761742717408 -0.00015564539128827914 0 -0.0006983769298129454 -5.9604925063290184e-05 0 -0.00079056816651020467 -8.9178909850149004e-05 0 -0.00072431312471625824 -0.00013263631527025591 0 -0.00079056816651020467 -8.9178909850149004e-05 0 -0.00072431312471625824 -0.00013263631527025591 0 -0.00075836761742717408 -0.00015564539128827914 0 -0.00051215894755376177 -9.8519819066127093e-05 0 -0.00064155518647778301 -3.9239453755364271e-05 0 -0.00072431312471625824 -0.00013263631527025591 0 -0.00075836761742717408 -0.00015564539128827914 0 -0.00069715137103675592 -0.00020371260605774551 0 -0.0007667289374843582 -0.00021548164102893979 0 -0.00075836761742717408 -0.00015564539128827914 0 -0.00069715137103675592 -0.00020371260605774551 0 -0.00058619661765373294 3.0826448291251721e-05 0 -0.00069715137103675592 -0.00020371260605774551 0 -0.0003732821319836921 -0.00014162180670766966 0 -0.00064155518647778301 -3.9239453755364271e-05 0 -0.00069984460769077328 -0.00019285479852075739 0 -0.00028419710063314253 -0.00021194833861744994 0 -4.5691652573649564e-05 -0.00033584068624068739 0 -0.0007667289374843582 -0.00021548164102893979 0 -0.00069715137103675592 -0.00020371260605774551 0 -0.00037972514544412677 -0.00036187606958797993 0 -0.00069715137103675592 -0.00020371260605774551 0 -0.0003732821319836921 -0.00014162180670766966 0 -0.00037972514544412677 -0.00036187606958797993 0 -0.0003732821319836921 -0.00014162180670766966 0 -0.00037972514544412677 -0.00036187606958797993 0 -0.00011144104371688725 -0.00022881076855246662 0 -0.00049828864412280712 0.00023926464090587041 0 -0.00058619661765373294 3.0826448291251721e-05 0 -0.0001523534917767526 5.3522655292634269e-05 0 -0.00051215894755376177 -9.8519819066127093e-05 0 -0.00020795111172061136 -0.00010450308048106258 0 -0.00058619661765373294 3.0826448291251721e-05 0 -0.0003732821319836921 -0.00014162180670766966 0 -0.0001523534917767526 5.3522655292634269e-05 0 0.00030264954176706377 -0.00031797683951202417 0 0.00021397471705939886 -0.00034635218093461312 0 0.00031788434326429193 -0.00038656125671202198 0 0.00030264954176706377 -0.00031797683951202417 0 0.00031788434326429193 -0.00038656125671202198 0 0.00032645612637916633 -0.00040068282524442718 0 0.00019263065064732313 -0.00020885568614198018 0 0.00030264954176706377 -0.00031797683951202417 0 0.00021397471705939886 -0.00034635218093461312 0 0.00025892862506031428 -0.00031260251696334945 0 0.00027150618322326086 -0.00038198003313453518 0 0.00031788434326429193 -0.00038656125671202198 0 0.00023496305630881669 -0.00032850729125799788 0 0.00031199603646673543 -0.00038256751616820215 0 0.00017623032137975436 -0.00014035332758390276 0 0.00045884621617220086 -0.00020117516788803439 0 0.00027150618322326086 -0.00038198003313453518 0 8.8606773453264325e-05 -0.00033808680164241258 0 0.00023389012698896727 -0.00043446234605778078 0 0.00025892862506031428 -0.00031260251696334945 0 0.00027150618322326086 -0.00038198003313453518 0 8.8606773453264325e-05 -0.00033808680164241258 0 9.9874555098286618e-05 -0.00020417106376712386 0 0.00025892862506031428 -0.00031260251696334945 0 8.8606773453264325e-05 -0.00033808680164241258 0 7.979583969062811e-05 -0.00021956197151867051 0 0.00023496305630881669 -0.00032850729125799788 0 6.1661398264140326e-05 -0.00023648851973584689 0 0.00019263065064732313 -0.00020885568614198018 0 0.00021397471705939886 -0.00034635218093461312 0 -9.3547068487101221e-05 -0.00021288426233805727 0 9.9874555098286618e-05 -0.00020417106376712386 0 8.8606773453264325e-05 -0.00033808680164241258 0 0.00032205930873203438 4.7997411941475954e-05 0 0.00031569764015339713 3.0421797039544164e-06 0 0.00028608441804012517 3.1778343552364603e-05 0 0.00032205930873203438 4.7997411941475954e-05 0 0.00031569764015339713 3.0421797039544164e-06 0 0.00036842063791923317 4.777841503405526e-06 0 0.00031569764015339713 3.0421797039544164e-06 0 0.00033901066614005896 -3.3523193090132822e-05 0 0.00030192323335735699 -3.0242233994573578e-05 0 0.00088569100186930373 -8.529251582372558e-05 0 0.00081358457400413481 -0.00018150870864447579 0 0.00073598799537384684 -0.00010573293669833313 0 0.00063505461715109078 -3.3295655916539736e-05 0 0.00045884621617220086 -0.00020117516788803439 0 0.00031569764015339713 3.0421797039544164e-06 0 0.00033901066614005896 -3.3523193090132822e-05 0 0.00036842063791923317 4.777841503405526e-06 0 0.00045884621617220086 -0.00020117516788803439 0 0.00051310234027159799 -0.00024902763546488349 0 0.00027150618322326086 -0.00038198003313453518 0 0.00030763028013136562 -0.00038745221148984998 0 0.00031788434326429193 -0.00038656125671202198 0 0.00027150618322326086 -0.00038198003313453518 0 0.00027364258079438925 -0.00038499382570066889 0 0.00030763028013136562 -0.00038745221148984998 0 0.00026169835822266436 -0.00042485254430773596 0 0.00045884621617220086 -0.00020117516788803439 0 0.00030763028013136562 -0.00038745221148984998 0 0.00032860738125399985 -0.00037288446402047745 0 0.00033087229158501298 -0.00039373640225138861 0 0.00051310234027159799 -0.00024902763546488349 0 0.00065102708715215267 -0.0002425209785395937 0 0.00030763028013136562 -0.00038745221148984998 0 0.00032860738125399985 -0.00037288446402047745 0 0.00031788434326429193 -0.00038656125671202198 0 0.00020549405409981542 7.0127647484668205e-05 0 0.00024587289340626445 3.8752792615942008e-05 0 0.00020379475951697479 1.1624335596042493e-05 0 0.00017177466659237505 3.5226764686327854e-05 0 0.00020549405409981542 7.0127647484668205e-05 0 0.00020379475951697479 1.1624335596042493e-05 0 0.00017177466659237505 3.5226764686327854e-05 0 0.00020549405409981542 7.0127647484668205e-05 0 0.00014369888429442582 6.2701895940938431e-05 0 0.00017719975740228941 0.0001180299388458392 0 0.00020549405409981542 7.0127647484668205e-05 0 0.00014369888429442582 6.2701895940938431e-05 0 0.00027418541279519492 9.1781565990917268e-05 0 0.00020549405409981542 7.0127647484668205e-05 0 0.00024587289340626445 3.8752792615942008e-05 0 8.610589911975062e-05 -5.789999368821212e-05 0 0.00017623032137975436 -0.00014035332758390276 0 0.00027418541279519492 9.1781565990917268e-05 0 0.00032205930873203438 4.7997411941475954e-05 0 0.00028608441804012517 3.1778343552364603e-05 0 0.00027418541279519492 9.1781565990917268e-05 0 0.00028608441804012517 3.1778343552364603e-05 0 0.00024587289340626445 3.8752792615942008e-05 0 0.00024587289340626445 3.8752792615942008e-05 0 0.00027512556855579894 -4.0443454790609981e-06 0 0.00023689005349365467 -1.4956747340709805e-05 0 0.00028608441804012517 3.1778343552364603e-05 0 0.00024587289340626445 3.8752792615942008e-05 0 0.00027512556855579894 -4.0443454790609981e-06 0 0.00031569764015339713 3.0421797039544164e-06 0 0.00028608441804012517 3.1778343552364603e-05 0 0.00027512556855579894 -4.0443454790609981e-06 0 0.00031569764015339713 3.0421797039544164e-06 0 0.00027512556855579894 -4.0443454790609981e-06 0 0.00030192323335735699 -3.0242233994573578e-05 0 0.00027512556855579894 -4.0443454790609981e-06 0 0.00030192323335735699 -3.0242233994573578e-05 0 0.00026891702002326449 -4.4194775217623402e-05 0 0.00027512556855579894 -4.0443454790609981e-06 0 0.00023689005349365467 -1.4956747340709805e-05 0 0.00026891702002326449 -4.4194775217623402e-05 0 0.00023689005349365467 -1.4956747340709805e-05 0 0.00023510569003703936 -5.7477978870823339e-05 0 0.00026891702002326449 -4.4194775217623402e-05 0 0.00023689005349365467 -1.4956747340709805e-05 0 0.00019212769376315445 -3.2864398172239729e-05 0 0.00023510569003703936 -5.7477978870823339e-05 0 0.00023689005349365467 -1.4956747340709805e-05 0 0.00020379475951697479 1.1624335596042493e-05 0 0.00019212769376315445 -3.2864398172239729e-05 0 0.00024587289340626445 3.8752792615942008e-05 0 0.00023689005349365467 -1.4956747340709805e-05 0 0.00020379475951697479 1.1624335596042493e-05 0 0.00017177466659237505 3.5226764686327854e-05 0 0.00020379475951697479 1.1624335596042493e-05 0 0.00016601964274763848 -1.9936590527243722e-06 0 0.00020379475951697479 1.1624335596042493e-05 0 0.00019212769376315445 -3.2864398172239729e-05 0 0.00016601964274763848 -1.9936590527243722e-06 0 0.00019212769376315445 -3.2864398172239729e-05 0 0.00014285727160793903 -3.3031028732308947e-05 0 0.00016601964274763848 -1.9936590527243722e-06 0 0.00012451189279376811 -9.180490417555424e-06 0 0.0001087428253783423 -9.0132763711751178e-06 0 0.00012106252707115673 -1.2551215481619561e-05 0 0.00012451189279376811 -9.180490417555424e-06 0 0.00011374300093063147 1.3591138181506999e-05 0 0.0001087428253783423 -9.0132763711751178e-06 0 0.00012088173798914305 -4.7559883134219945e-05 0 0.00011286040598972391 2.0796101953856262e-05 0 0.00014285727160793903 -3.3031028732308947e-05 0 0.00011232435258164886 1.5918830703743426e-05 0 0.00016601964274763848 -1.9936590527243722e-06 0 0.00017177466659237505 3.5226764686327854e-05 0 0.00011232435258164886 1.5918830703743426e-05 0 0.00016601964274763848 -1.9936590527243722e-06 0 0.00017177466659237505 3.5226764686327854e-05 0 0.00011232435258164886 1.5918830703743426e-05 0 0.00014369888429442582 6.2701895940938431e-05 0 0.00011232435258164886 1.5918830703743426e-05 0 0.00014369888429442582 6.2701895940938431e-05 0 8.0868128236483307e-05 6.4272209713444226e-05 0 0.00014369888429442582 6.2701895940938431e-05 0 8.0868128236483307e-05 6.4272209713444226e-05 0 9.9982587688506616e-05 9.707801378288699e-05 0 0.00013799108159409272 6.9765051579834744e-05 0 0.00015251627433678173 0.00011282124982169244 0 8.0868128236483307e-05 6.4272209713444226e-05 0 2.4513409304636724e-05 5.4956895904209679e-05 0 4.2503816917551803e-05 0.00011602032728804208 0 0.00011374300093063147 1.3591138181506999e-05 0 8.0868128236483307e-05 6.4272209713444226e-05 0 6.9601623231700785e-05 1.9163933604108097e-05 0 0.00011286040598972391 2.0796101953856262e-05 0 8.3442420005420652e-05 5.9865472271166791e-05 0 6.9601623231700785e-05 1.9163933604108097e-05 0 2.9673309368611304e-05 3.174896219056058e-05 0 2.4513409304636724e-05 5.4956895904209679e-05 0 8.0868128236483307e-05 6.4272209713444226e-05 0 6.9601623231700785e-05 1.9163933604108097e-05 0 2.4513409304636724e-05 5.4956895904209679e-05 0 6.9601623231700785e-05 1.9163933604108097e-05 0 9.4182576652721668e-05 1.1868186319889613e-06 0 8.3577668101253916e-05 -1.3982261450709748e-05 0 6.9601623231700785e-05 1.9163933604108097e-05 0 8.3577668101253916e-05 -1.3982261450709748e-05 0 5.0613024626019754e-05 1.6112675549862487e-06 0 0.00011374300093063147 1.3591138181506999e-05 0 9.4182576652721668e-05 1.1868186319889613e-06 0 0.0001087428253783423 -9.0132763711751178e-06 0 0.00011374300093063147 1.3591138181506999e-05 0 6.9601623231700785e-05 1.9163933604108097e-05 0 9.4182576652721668e-05 1.1868186319889613e-06 0 9.4182576652721668e-05 1.1868186319889613e-06 0 0.0001087428253783423 -9.0132763711751178e-06 0 8.3577668101253916e-05 -1.3982261450709748e-05 0 0.0001087428253783423 -9.0132763711751178e-06 0 8.3577668101253916e-05 -1.3982261450709748e-05 0 0.00010148125641442265 -2.2724655676594871e-05 0 8.3577668101253916e-05 -1.3982261450709748e-05 0 4.5647168922911166e-05 -2.9316323196786007e-05 0 8.2452167356584187e-05 -2.7338248986396826e-05 0 8.3577668101253916e-05 -1.3982261450709748e-05 0 4.5647168922911166e-05 -2.9316323196786007e-05 0 5.0613024626019754e-05 1.6112675549862487e-06 0 4.5647168922911166e-05 -2.9316323196786007e-05 0 -4.6962117150492691e-05 -3.1948853959499718e-05 0 6.94211930805397e-05 -4.408603789624596e-05 0 4.5647168922911166e-05 -2.9316323196786007e-05 0 4.2085648363223229e-06 1.3668953974485816e-05 0 -7.4242464167519265e-05 -7.6890223688502434e-06 0 4.5647168922911166e-05 -2.9316323196786007e-05 0 -4.6962117150492691e-05 -3.1948853959499718e-05 0 -7.4242464167519265e-05 -7.6890223688502434e-06 0 4.2085648363223229e-06 1.3668953974485816e-05 0 5.0613024626019754e-05 1.6112675549862487e-06 0 2.9673309368611304e-05 3.174896219056058e-05 0 4.5647168922911166e-05 -2.9316323196786007e-05 0 4.2085648363223229e-06 1.3668953974485816e-05 0 5.0613024626019754e-05 1.6112675549862487e-06 0 6.9601623231700785e-05 1.9163933604108097e-05 0 5.0613024626019754e-05 1.6112675549862487e-06 0 2.9673309368611304e-05 3.174896219056058e-05 0 -4.6962117150492691e-05 -3.1948853959499718e-05 0 -0.00027619438160211764 -1.2585009800453405e-07 0 2.1767675727321967e-05 -3.6418953756071368e-08 0 -4.6962117150492691e-05 -3.1948853959499718e-05 0 -7.4242464167519265e-05 -7.6890223688502434e-06 0 -0.00018094894252615608 1.0998094290684409e-06 0 -4.6962117150492691e-05 -3.1948853959499718e-05 0 -0.00018094894252615608 1.0998094290684409e-06 0 -0.00027619438160211764 -1.2585009800453405e-07 0 -0.00018094894252615608 1.0998094290684409e-06 0 -0.00027619438160211764 -1.2585009800453405e-07 0 -0.00032158564647743923 1.7219168827555942e-05 0 -0.00027619438160211764 -1.2585009800453405e-07 0 -0.00032158564647743923 1.7219168827555942e-05 0 -0.00057389764476663589 3.5692865385746897e-07 0 4.2085648363223229e-06 1.3668953974485816e-05 0 -7.4242464167519265e-05 -7.6890223688502434e-06 0 -0.00017851133993698805 3.1345773863971662e-05 0 4.2085648363223229e-06 1.3668953974485816e-05 0 -0.00017851133993698805 3.1345773863971662e-05 0 -0.00017566452855491182 9.4013540632042588e-05 0 -0.00032158564647743923 1.7219168827555942e-05 0 -0.00017851133993698805 3.1345773863971662e-05 0 -0.00021576776562953463 6.2522347303604653e-05 0 -0.00020197742499465524 4.4866168291887391e-05 0 -0.00022642422650157878 2.9340744243938105e-05 0 -7.4242464167519265e-05 -7.6890223688502434e-06 0 -0.00018094894252615608 1.0998094290684409e-06 0 -0.00017851133993698805 3.1345773863971662e-05 0 -0.00018094894252615608 1.0998094290684409e-06 0 -0.00032158564647743923 1.7219168827555942e-05 0 -0.00017851133993698805 3.1345773863971662e-05 0 -3.9816935773447628e-05 6.4392200611054843e-05 0 -4.0567433589010127e-05 5.0646075885015451e-05 0 1.5618665085205698e-06 6.0302610065504095e-05 0 -0.00034571302446781047 3.9897568756697773e-05 0 -0.000541620053438727 6.8966670608531965e-05 0 -0.00091019221724415397 0.00012022518801982766 0 -0.00085345883516291558 0.00012477429250831531 0 -0.00086290916784190121 1.0469134540394248e-05 0 -0.00032899619956125025 7.3737429311949301e-05 0 -0.00033632990301747271 -6.4926778791593671e-06 0 -0.00042967833480106097 8.2714492254722357e-05 0 -0.00032158564647743923 1.7219168827555942e-05 0 -0.00021576776562953463 6.2522347303604653e-05 0 -0.00031049906030346247 0.00010204788406671145 0 -0.00022642422650157878 2.9340744243938105e-05 0 -0.000541620053438727 6.8966670608531965e-05 0 -0.00034571302446781047 3.9897568756697773e-05 0 -0.00022642422650157878 2.9340744243938105e-05 0 -0.00032158564647743923 1.7219168827555942e-05 0 -0.00031049906030346247 0.00010204788406671145 0 -0.00057389764476663589 3.5692865385746897e-07 0 -0.000541620053438727 6.8966670608531965e-05 0 -0.00057416130864771265 3.2889882925504231e-08 0 -0.00056196621768538708 4.0324409882277482e-07 0 -0.00057473519500117964 8.707671251452434e-10 0 -0.00069952734880959235 -3.5337862165414381e-10 0 4.2085648363223229e-06 1.3668953974485816e-05 0 -4.0567433589010127e-05 5.0646075885015451e-05 0 1.5618665085205698e-06 6.0302610065504095e-05 0 3.6478774106723057e-05 1.5035051707531858e-05 0 -0.00022642422650157878 2.9340744243938105e-05 0 4.2085648363223229e-06 1.3668953974485816e-05 0 2.9673309368611304e-05 3.174896219056058e-05 0 1.5618665085205698e-06 6.0302610065504095e-05 0 -0.0001698403893878459 5.0994763863227113e-05 0 -7.6392332370589394e-05 4.6262006506942627e-05 0 -0.00011291735182561599 0.00010059132954469669 0 -0.00034571302446781047 3.9897568756697773e-05 0 8.5785064202430206e-06 5.1332933207341619e-05 0 2.9673309368611304e-05 3.174896219056058e-05 0 1.5618665085205698e-06 6.0302610065504095e-05 0 2.4513409304636724e-05 5.4956895904209679e-05 0 -7.6392332370589394e-05 4.6262006506942627e-05 0 2.4513409304636724e-05 5.4956895904209679e-05 0 -4.3676259097855164e-05 0.00011532052197541606 0 8.5785064202430206e-06 5.1332933207341619e-05 0 2.5197248915540691e-07 5.4892760716582692e-05 0 2.4513409304636724e-05 5.4956895904209679e-05 0 6.894289746585249e-06 0.00011681607340828359 0 -4.3676259097855164e-05 0.00011532052197541606 0 6.894289746585249e-06 0.00011681607340828359 0 -4.3676259097855164e-05 0.00011532052197541606 0 -3.6499669547747869e-06 0.00017407795720820673 0 -4.3676259097855164e-05 0.00011532052197541606 0 -9.6896943719571119e-05 0.00014716905181467156 0 -5.8486112187375399e-05 0.00018424460737106281 0 -7.6392332370589394e-05 4.6262006506942627e-05 0 -4.3676259097855164e-05 0.00011532052197541606 0 -0.00011291735182561599 0.00010059132954469669 0 -0.00011291735182561599 0.00010059132954469669 0 -9.6896943719571119e-05 0.00014716905181467156 0 -0.0001626269321451172 0.00016992968376140175 0 -4.3676259097855164e-05 0.00011532052197541606 0 -0.00011291735182561599 0.00010059132954469669 0 -9.6896943719571119e-05 0.00014716905181467156 0 -9.6896943719571119e-05 0.00014716905181467156 0 -5.8486112187375399e-05 0.00018424460737106281 0 -0.00011223153502088341 0.00019616621715059978 0 -9.6896943719571119e-05 0.00014716905181467156 0 -0.00011223153502088341 0.00019616621715059978 0 -0.0001626269321451172 0.00016992968376140175 0 -5.8486112187375399e-05 0.00018424460737106281 0 -0.00011223153502088341 0.00019616621715059978 0 -8.3492672651290468e-05 0.00021413310530139207 0 -5.8486112187375399e-05 0.00018424460737106281 0 -8.3492672651290468e-05 0.00021413310530139207 0 -8.0761901714924484e-05 0.0002383950362794055 0 -0.00011223153502088341 0.00019616621715059978 0 -8.3492672651290468e-05 0.00021413310530139207 0 -8.0761901714924484e-05 0.0002383950362794055 0 -4.3676259097855164e-05 0.00011532052197541606 0 -5.8486112187375399e-05 0.00018424460737106281 0 -3.6499669547747869e-06 0.00017407795720820673 0 -1.2342220545589851e-05 0.00015431684769645249 0 -1.6082366423976254e-05 0.00015251552488250631 0 -1.4533192419416544e-05 0.0001563054113228365 0 6.7317304004516594e-05 0.000122129078626842 0 -0.00061706425407673856 0.00016590962709873215 0 -5.8486112187375399e-05 0.00018424460737106281 0 -3.6499669547747869e-06 0.00017407795720820673 0 -8.0761901714924484e-05 0.0002383950362794055 0 -1.2342220545589851e-05 0.00015431684769645249 0 -1.6082366423976254e-05 0.00015251552488250631 0 -2.3076855334660886e-06 0.00016640341337466154 0 -0.000541620053438727 6.8966670608531965e-05 0 -0.00070003329088487345 7.5387737268540863e-08 0 -0.00085345883516291558 0.00012477429250831531 0 -0.00070046473465953257 2.2940724079613808e-07 0 -0.00086290916784190121 1.0469134540394248e-05 0 -0.00091019221724415397 0.00012022518801982766 0 -0.00086290916784190121 1.0469134540394248e-05 0 -0.00095221958847908992 -2.0881601639736263e-05 0 -0.00034571302446781047 3.9897568756697773e-05 0 -0.00054383920830527901 8.1183670819303235e-05 0 -0.0001698403893878459 5.0994763863227113e-05 0 -0.00011291735182561599 0.00010059132954469669 0 -0.0001626269321451172 0.00016992968376140175 0 -0.00011223153502088341 0.00019616621715059978 0 -0.0001626269321451172 0.00016992968376140175 0 -0.00016087302033353576 0.00029484073669960544 0 -0.00070046473465953257 2.2940724079613808e-07 0 -0.00086290916784190121 1.0469134540394248e-05 0 -0.00098974942546424137 -1.2079423181084032e-07 0 -0.00086290916784190121 1.0469134540394248e-05 0 -0.00095221958847908992 -2.0881601639736263e-05 0 -0.00098974942546424137 -1.2079423181084032e-07 0 -0.00098974942546424137 -1.2079423181084032e-07 0 -0.0010525636189041355 -4.8627640964246596e-06 0 -0.0012234397751876157 3.0269043583173767e-05 0 -0.00095221958847908992 -2.0881601639736263e-05 0 -0.00098974942546424137 -1.2079423181084032e-07 0 -0.0010525636189041355 -4.8627640964246596e-06 0 -0.00095221958847908992 -2.0881601639736263e-05 0 -0.0010525636189041355 -4.8627640964246596e-06 0 -0.0010274189674061873 8.7542284078358676e-06 0 -0.0010525636189041355 -4.8627640964246596e-06 0 -0.0010274189674061873 8.7542284078358676e-06 0 -0.0012234397751876157 3.0269043583173767e-05 0 -0.00054383920830527901 8.1183670819303235e-05 0 -0.00092691975408431952 0.00016868949449961194 0 -0.00092691975408431952 0.00016868949449961194 0 -0.0011606538678249978 8.4088551959916831e-05 0 -0.0014283394974214513 2.5798658296134091e-06 0 -0.0014417893444902171 8.2645508447841317e-05 0 -0.0014896662784005875 3.9596706705809539e-05 0 -0.0014283394974214513 2.5798658296134091e-06 0 -0.0014417893444902171 8.2645508447841317e-05 0 -0.0012234397751876157 3.0269043583173767e-05 0 -0.00092691975408431952 0.00016868949449961194 0 -0.0012702337086743516 7.6011765500242704e-05 0 -0.0014294933946132839 0.00019656654649624421 0 -0.0014417893444902171 8.2645508447841317e-05 0 -0.0012234397751876157 3.0269043583173767e-05 0 -0.0012797399303416514 7.29865339539853e-08 0 -0.00098974942546424137 -1.2079423181084032e-07 0 -0.0012234397751876157 3.0269043583173767e-05 0 -1.2342220545589851e-05 0.00015431684769645249 0 -1.080406170980151e-05 0.00014123845327678662 0 -1.4533192419416544e-05 0.0001563054113228365 0 -0.00081870901958838596 0.00010740067170227968 0 -0.00061706425407673856 0.00016590962709873215 0 -0.0015213628766903708 8.2938308612258291e-05 0 -0.0015537053141597428 9.5113369034145157e-05 0 -0.0014942256719867877 0.00013019237062745302 0 -1.2342220545589851e-05 0.00015431684769645249 0 -1.080406170980151e-05 0.00014123845327678662 0 -2.3076855334660886e-06 0.00016640341337466154 0 -0.00011223153502088341 0.00019616621715059978 0 -0.00016087302033353576 0.00029484073669960544 0 -8.0761901714924484e-05 0.0002383950362794055 0 -0.00092691975408431952 0.00016868949449961194 0 -0.00061706425407673856 0.00016590962709873215 0 -0.0014427314750128253 0.00010075101339456004 0 -0.0014942256719867877 0.00013019237062745302 0 -0.0014868500476390297 8.5296989356836017e-05 0 -0.0015213628766903708 8.2938308612258291e-05 0 -0.0014942256719867877 0.00013019237062745302 0 -0.0014868500476390297 8.5296989356836017e-05 0 -0.0015213628766903708 8.2938308612258291e-05 0 -0.0014868500476390297 8.5296989356836017e-05 0 -0.0015203262268987153 4.8024605030800152e-05 0 -0.0014417893444902171 8.2645508447841317e-05 0 -0.0014868500476390297 8.5296989356836017e-05 0 -0.0014896662784005875 3.9596706705809539e-05 0 -0.0014427314750128253 0.00010075101339456004 0 -0.0014417893444902171 8.2645508447841317e-05 0 -0.0014868500476390297 8.5296989356836017e-05 0 -0.0015247238007604343 8.9614453401216585e-06 0 -0.0014896662784005875 3.9596706705809539e-05 0 -0.0015203262268987153 4.8024605030800152e-05 0 -0.0014868500476390297 8.5296989356836017e-05 0 -0.0014896662784005875 3.9596706705809539e-05 0 -0.0015203262268987153 4.8024605030800152e-05 0 -0.0015444818954943173 2.0347406929051758e-05 0 -0.0015203262268987153 4.8024605030800152e-05 0 -0.0015480240025640549 5.4015983476272904e-05 0 -0.0015213628766903708 8.2938308612258291e-05 0 -0.0015203262268987153 4.8024605030800152e-05 0 -0.0015480240025640549 5.4015983476272904e-05 0 -0.0015213628766903708 8.2938308612258291e-05 0 -0.0015537053141597428 9.5113369034145157e-05 0 -0.0015480240025640549 5.4015983476272904e-05 0 -0.0015444818954943173 2.0347406929051758e-05 0 -0.0015650374193116119 2.3483820300527644e-05 0 -0.0015480240025640549 5.4015983476272904e-05 0 -0.0015971028015066824 1.9814941608744234e-05 0 -0.0015736826485342722 5.1799544267547023e-05 0 -0.0015981451026009189 6.6665606333844718e-05 0 -0.0015537053141597428 9.5113369034145157e-05 0 -0.0015736826485342722 5.1799544267547023e-05 0 -0.0015981451026009189 6.6665606333844718e-05 0 -0.0015971028015066824 1.9814941608744234e-05 0 -0.0015650374193116119 2.3483820300527644e-05 0 -0.0015736826485342722 5.1799544267547023e-05 0 -0.0015650374193116119 2.3483820300527644e-05 0 -0.0015480240025640549 5.4015983476272904e-05 0 -0.0015736826485342722 5.1799544267547023e-05 0 -0.0015537053141597428 9.5113369034145157e-05 0 -0.0015480240025640549 5.4015983476272904e-05 0 -0.0015736826485342722 5.1799544267547023e-05 0 -0.00081870901958838596 0.00010740067170227968 0 -0.0007701971580752903 7.4392800036696195e-05 0 -1.080406170980151e-05 0.00014123845327678662 0 -3.3293280139235812e-05 0.00014236144258494715 0 -6.7003541702050453e-05 9.9960499948303336e-05 0 -1.080406170980151e-05 0.00014123845327678662 0 -3.3293280139235812e-05 0.00014236144258494715 0 -2.3076855334660886e-06 0.00016640341337466154 0 -0.00010066781155186342 0.00017341724674809817 0 2.5293684996801722e-06 0.00017798782337826217 0 -0.0001214273947256499 0.00011124923498024319 0 -0.00017976333069570746 0.00015267060448968071 0 -8.4498764054418627e-05 0.00017142704800114593 0 -3.3293280139235812e-05 0.00014236144258494715 0 -6.8107832760512976e-05 0.00012977034074788355 0 -8.4498764054418627e-05 0.00017142704800114593 0 -6.8107832760512976e-05 0.00012977034074788355 0 -0.0001214273947256499 0.00011124923498024319 0 -8.4498764054418627e-05 0.00017142704800114593 0 -3.3293280139235812e-05 0.00014236144258494715 0 -6.8107832760512976e-05 0.00012977034074788355 0 -6.7003541702050453e-05 9.9960499948303336e-05 0 -6.8107832760512976e-05 0.00012977034074788355 0 -0.0001214273947256499 0.00011124923498024319 0 -7.2335215433883126e-05 7.9493724267022867e-05 0 -0.00040582528146608575 0.00012952378504550895 0 -0.0007701971580752903 7.4392800036696195e-05 0 -0.0001214273947256499 0.00011124923498024319 0 -7.2335215433883126e-05 7.9493724267022867e-05 0 -0.00015902614456147042 4.5399771529314622e-05 0 -0.0014296932266530638 9.9393276747811803e-05 0 -0.0007701971580752903 7.4392800036696195e-05 0 -0.0012519585580071503 0.00021767780560061017 0 -0.0012517603607321338 8.307883903475642e-05 0 -0.0011357679866196391 0.00012976135160544633 0 -0.0007701971580752903 7.4392800036696195e-05 0 -0.00071628032084480918 0.00011043970527055281 0 -0.00071628032084480918 0.00011043970527055281 0 -0.0011049250723566984 0.00018064749686459564 0 -0.00057134673872067364 0.00015854809069592641 0 -0.00055329280077215533 0.00016651557530923718 0 -0.00055373983109813511 0.00014978279419577197 0 -0.00039964286450069387 0.00011621240956820112 0 -0.0011049250723566984 0.00018064749686459564 0 -0.00052534107202855296 0.00014253001855686525 0 -0.00055329280077215533 0.00016651557530923718 0 -0.00055373983109813511 0.00014978279419577197 0 -0.0011979551383872352 0.00018185674100623162 0 -0.0010959255971142083 2.6281003819585714e-06 0 -0.0012605376959396266 0.00015680386464891094 0 -0.0017346150354242273 0.00012988359163552249 0 -0.0011049250723566984 0.00018064749686459564 0 0.00017304221441971466 0.00018156742994424152 0 0.00010943690238961282 0.00016501431798995395 0 0.00014631712647887292 0.0001445330982893955 0 -0.00039964286450069387 0.00011621240956820112 0 -0.00010066781155186342 0.00017341724674809817 0 -0.00052534107202855296 0.00014253001855686525 0 -0.00055373983109813511 0.00014978279419577197 0 -0.00056242624258474525 0.00013322015865084366 0 -0.00071628032084480918 0.00011043970527055281 0 -0.00010066781155186342 0.00017341724674809817 0 -0.0001214273947256499 0.00011124923498024319 0 -0.00015902614456147042 4.5399771529314622e-05 0 -0.00017976333069570746 0.00015267060448968071 0 -0.00057134673872067364 0.00015854809069592641 0 -0.00055373983109813511 0.00014978279419577197 0 -0.00056242624258474525 0.00013322015865084366 0 0.00012042967563967662 0.00019362916685119723 0 0.00010358350094544173 0.00015674500182372636 0 0.00013534024714958659 0.00012152146635977868 0 0.00010943690238961282 0.00016501431798995395 0 0.00014631712647887292 0.0001445330982893955 0 0.0001257012495581142 0.00011355151441882847 0 0.00010358350094544173 0.00015674500182372636 0 0.00013534024714958659 0.00012152146635977868 0 8.7084264028009601e-05 0.00012979098167181444 0 0.00012042967563967662 0.00019362916685119723 0 0.00010358350094544173 0.00015674500182372636 0 6.9642653062651044e-05 0.00018311489329534059 0 -0.00010066781155186342 0.00017341724674809817 0 0.00015251627433678173 0.00011282124982169244 0 0.00017719975740228941 0.0001180299388458392 0 0.00014631712647887292 0.0001445330982893955 0 0.0001257012495581142 0.00011355151441882847 0 0.00017719975740228941 0.0001180299388458392 0 0.00014369888429442582 6.2701895940938431e-05 0 0.0001257012495581142 0.00011355151441882847 0 0.00013534024714958659 0.00012152146635977868 0 9.9982587688506616e-05 9.707801378288699e-05 0 8.7084264028009601e-05 0.00012979098167181444 0 0.00014369888429442582 6.2701895940938431e-05 0 0.00013534024714958659 0.00012152146635977868 0 9.9982587688506616e-05 9.707801378288699e-05 0 8.7084264028009601e-05 0.00012979098167181444 0 4.2503816917551803e-05 0.00011602032728804208 0 5.0145870341156521e-05 0.00014690970900798755 0 8.0868128236483307e-05 6.4272209713444226e-05 0 9.9982587688506616e-05 9.707801378288699e-05 0 4.2503816917551803e-05 0.00011602032728804208 0 9.9982587688506616e-05 9.707801378288699e-05 0 8.7084264028009601e-05 0.00012979098167181444 0 4.2503816917551803e-05 0.00011602032728804208 0 2.4513409304636724e-05 5.4956895904209679e-05 0 6.894289746585249e-06 0.00011681607340828359 0 4.2503816917551803e-05 0.00011602032728804208 0 6.894289746585249e-06 0.00011681607340828359 0 -3.6499669547747869e-06 0.00017407795720820673 0 4.2503816917551803e-05 0.00011602032728804208 0 6.7317304004516594e-05 0.000122129078626842 0 1.1049863403429815e-05 0.00014078517545610951 0 -2.3076855334660886e-06 0.00016640341337466154 0 6.9642653062651044e-05 0.00018311489329534059 0 5.0145870341156521e-05 0.00014690970900798755 0 -9.1839278118270282e-06 0.00016866965990181603 0 2.5293684996801722e-06 0.00017798782337826217 0 -3.3293280139235812e-05 0.00014236144258494715 0 -2.3076855334660886e-06 0.00016640341337466154 0 -8.4498764054418627e-05 0.00017142704800114593 0 4.2503816917551803e-05 0.00011602032728804208 0 -2.3076855334660886e-06 0.00016640341337466154 0 5.0145870341156521e-05 0.00014690970900798755 0 -1.6082366423976254e-05 0.00015251552488250631 0 4.2503816917551803e-05 0.00011602032728804208 0 -2.3076855334660886e-06 0.00016640341337466154 0 8.7084264028009601e-05 0.00012979098167181444 0 6.9642653062651044e-05 0.00018311489329534059 0 5.0145870341156521e-05 0.00014690970900798755 0 0.00010358350094544173 0.00015674500182372636 0 8.7084264028009601e-05 0.00012979098167181444 0 6.9642653062651044e-05 0.00018311489329534059 0 -0.00045817255659910049 -0.00038080691285586964 0 -0.00044130507889546841 -0.00041512052138320906 0 -0.00048122316253573565 -0.00043120586628977558 0 -0.00045817255659910049 -0.00038080691285586964 0 -0.00051142509172719456 -0.00040473302003542726 0 -0.00048122316253573565 -0.00043120586628977558 0 -0.00045817255659910049 -0.00038080691285586964 0 -0.00051142509172719456 -0.00040473302003542726 0 -0.00051279687905377946 -0.00035581922998606606 0 -0.00045817255659910049 -0.00038080691285586964 0 -0.00051279687905377946 -0.00035581922998606606 0 -0.00046958510294704776 -0.00034135605971377246 0 -0.00051279687905377946 -0.00035581922998606606 0 -0.00046958510294704776 -0.00034135605971377246 0 -0.00051504792288803545 -0.00031346749492172887 0 -0.00045817255659910049 -0.00038080691285586964 0 -0.00046958510294704776 -0.00034135605971377246 0 -0.00041387572941748216 -0.00033090911572156688 0 -0.00040054767652936683 -0.00035852041474872498 0 -0.00041387572941748216 -0.00033090911572156688 0 -0.0003920101487925836 -0.00032747118672750902 0 -0.00045817255659910049 -0.00038080691285586964 0 -0.00040054767652936683 -0.00035852041474872498 0 -0.00041387572941748216 -0.00033090911572156688 0 -0.00040054767652936683 -0.00035852041474872498 0 -0.0003920101487925836 -0.00032747118672750902 0 -0.00036430011186368316 -0.00034159816704687913 0 -0.00040054767652936683 -0.00035852041474872498 0 -0.00039182953030731423 -0.00039662809176653377 0 -0.00036430011186368316 -0.00034159816704687913 0 -0.00046280834528020101 -0.00044797627185379544 0 -0.00041791195308977304 -0.00038977323992054133 0 -0.00053356222615666437 -0.00049874768374277639 0 -0.00049055671732483761 -0.0004978831079484068 0 -0.00047715614594783261 -0.00043576910046052723 0 -0.00045817255659910049 -0.00038080691285586964 0 -0.00040054767652936683 -0.00035852041474872498 0 -0.00044130507889546841 -0.00041512052138320906 0 -0.00040054767652936683 -0.00035852041474872498 0 -0.00039182953030731423 -0.00039662809176653377 0 -0.00044130507889546841 -0.00041512052138320906 0 -0.00046280834528020101 -0.00044797627185379544 0 -0.00049476091627347692 -0.00049239833332447003 0 -0.00039182953030731423 -0.00039662809176653377 0 -0.00044130507889546841 -0.00041512052138320906 0 -0.00044592440058530434 -0.00046371110013957139 0 -0.00053356222615666437 -0.00049874768374277639 0 -0.00052837262829891749 -0.00052707226777853238 0 -0.00054316672204593095 -0.00052650286688983117 0 -0.00053356222615666437 -0.00049874768374277639 0 -0.00052837262829891749 -0.00052707226777853238 0 -0.00049055671732483761 -0.0004978831079484068 0 -0.00052837262829891749 -0.00052707226777853238 0 -0.00054316672204593095 -0.00052650286688983117 0 -0.00054236818863030365 -0.00052352678816449977 0 -0.00052837262829891749 -0.00052707226777853238 0 -0.00054493803178364551 -0.00052301250418295211 0 -0.00054236818863030365 -0.00052352678816449977 0 -0.00044592440058530434 -0.00046371110013957139 0 -0.00050024834670498093 -0.00046413346207941736 0 -0.000515101037929193 -0.00048859748231968843 0 -0.00044592440058530434 -0.00046371110013957139 0 -0.00048122316253573565 -0.00043120586628977558 0 -0.00050024834670498093 -0.00046413346207941736 0 -0.00044130507889546841 -0.00041512052138320906 0 -0.00044592440058530434 -0.00046371110013957139 0 -0.00048122316253573565 -0.00043120586628977558 0 -0.00051142509172719456 -0.00040473302003542726 0 -0.00048122316253573565 -0.00043120586628977558 0 -0.00051969114200418063 -0.00045239752221270266 0 -0.00048122316253573565 -0.00043120586628977558 0 -0.00051969114200418063 -0.00045239752221270266 0 -0.00050024834670498093 -0.00046413346207941736 0 -0.00051969114200418063 -0.00045239752221270266 0 -0.00050024834670498093 -0.00046413346207941736 0 -0.00052323641300850105 -0.00047787253071144019 0 -0.00051969114200418063 -0.00045239752221270266 0 -0.00052323641300850105 -0.00047787253071144019 0 -0.00052093434952653155 -0.00047739603368258303 0 -0.00050024834670498093 -0.00046413346207941736 0 -0.00052323641300850105 -0.00047787253071144019 0 -0.000515101037929193 -0.00048859748231968843 0 -0.00051969114200418063 -0.00045239752221270266 0 -0.00054159284723750414 -0.00043691465515147306 0 -0.00052093434952653155 -0.00047739603368258303 0 -0.00050805517714955521 -0.00048079923099370698 0 -0.00050393561319373868 -0.00048640059621844246 0 -0.00052093434952653155 -0.00047739603368258303 0 -0.00050805517714955521 -0.00048079923099370698 0 -0.00052093434952653155 -0.00047739603368258303 0 -0.0005119850034196752 -0.00047481224840712687 0 -0.00054976794995841743 -0.00047462915311454845 0 -0.00051582793108303593 -0.00047150616847621297 0 -0.00050805517714955521 -0.00048079923099370698 0 -0.00050124775235138249 -0.00048590336545429127 0 -0.00050393561319373868 -0.00048640059621844246 0 -0.00050805517714955521 -0.00048079923099370698 0 -0.0005119850034196752 -0.00047481224840712687 0 -0.00050450671201451923 -0.00047329910016219218 0 -0.00050805517714955521 -0.00048079923099370698 0 -0.00050124775235138249 -0.00048590336545429127 0 -0.00050450671201451923 -0.00047329910016219218 0 -0.00030075854654453292 -0.00038026601169992053 0 -0.00030096574622898387 -0.00039703891653981209 0 -0.00050124775235138249 -0.00048590336545429127 0 -0.00049078819549896557 -0.00046523178582351979 0 -0.00050450671201451923 -0.00047329910016219218 0 -0.00030075854654453292 -0.00038026601169992053 0 -0.0002647688988606191 -0.00032060590789095335 0 -0.00050124775235138249 -0.00048590336545429127 0 -0.00050393561319373868 -0.00048640059621844246 0 -0.00050000460780978868 -0.0004833316811427585 0 -0.00051142509172719456 -0.00040473302003542726 0 -0.00051969114200418063 -0.00045239752221270266 0 -0.00054159284723750414 -0.00043691465515147306 0 -9.3697609713458752e-05 -0.00026655877694918789 0 -0.00017019658599023101 -0.00026744573597298611 0 -0.00015330400246880012 -0.00031333494949599172 0 -9.3697609713458752e-05 -0.00026655877694918789 0 -0.00017019658599023101 -0.00026744573597298611 0 -0.00012475379794608561 -0.00020475052415767808 0 -9.3697609713458752e-05 -0.00026655877694918789 0 -0.00015330400246880012 -0.00031333494949599172 0 -0.00011394284952277662 -0.00033303863670999524 0 -0.00017019658599023101 -0.00026744573597298611 0 -0.00016969371003185403 -0.00022029391697551796 0 -0.00021318963090676013 -0.00020794354683366294 0 -0.00017019658599023101 -0.00026744573597298611 0 -0.00016969371003185403 -0.00022029391697551796 0 -0.00012475379794608561 -0.00020475052415767808 0 -0.00016969371003185403 -0.00022029391697551796 0 -0.00012475379794608561 -0.00020475052415767808 0 -0.00015969010382898934 -0.0001670502595518319 0 -0.00016969371003185403 -0.00022029391697551796 0 -0.00015969010382898934 -0.0001670502595518319 0 -0.00021318963090676013 -0.00020794354683366294 0 -0.00012475379794608561 -0.00020475052415767808 0 -0.00011660173649482723 -0.00016755050224740196 0 -0.00015969010382898934 -0.0001670502595518319 0 -0.00051142509172719456 -0.00040473302003542726 0 -0.00051279687905377946 -0.00035581922998606606 0 -0.00055839524925191863 -0.00037482435461414865 0 -0.00051142509172719456 -0.00040473302003542726 0 -0.00054159284723750414 -0.00043691465515147306 0 -0.00055839524925191863 -0.00037482435461414865 0 -0.00054976794995841743 -0.00047462915311454845 0 -0.0002647688988606191 -0.00032060590789095335 0 -9.3697609713458752e-05 -0.00026655877694918789 0 -0.00012475379794608561 -0.00020475052415767808 0 -7.3725066603389175e-05 -0.00019560104081639302 0 -0.00012475379794608561 -0.00020475052415767808 0 -0.00011660173649482723 -0.00016755050224740196 0 -7.9647317974870967e-05 -0.00017377001553972664 0 -7.3725066603389175e-05 -0.00019560104081639302 0 -7.8696823064469505e-05 -0.00015989092309156899 0 -7.9647317974870967e-05 -0.00017377001553972664 0 9.3999113275304073e-05 -0.00019137254307541156 0 0.0001052223447690991 -0.00021275412477705894 0 9.2152150898279421e-05 -0.00022343038509632686 0 -0.00011660173649482723 -0.00016755050224740196 0 -7.9647317974870967e-05 -0.00017377001553972664 0 -0.00010163902966655317 -0.0001238635977996407 0 -0.0002647688988606191 -0.00032060590789095335 0 1.0083270430735927e-05 -0.00016926389781668659 0 -0.00012475379794608561 -0.00020475052415767808 0 -7.3725066603389175e-05 -0.00019560104081639302 0 -7.9647317974870967e-05 -0.00017377001553972664 0 -0.0002647688988606191 -0.00032060590789095335 0 -0.00022161506754431442 -0.00021778655115162586 0 -0.00051279687905377946 -0.00035581922998606606 0 -0.00055839524925191863 -0.00037482435461414865 0 -0.0005446782553952961 -0.00031467628759957123 0 -0.00057500958342313567 -0.00033110326957471104 0 -0.00022161506754431442 -0.00021778655115162586 0 -0.00051279687905377946 -0.00035581922998606606 0 -0.00055339328618267641 -0.00030414057981444754 0 -0.00051504792288803545 -0.00031346749492172887 0 -0.00054754795147254724 -0.00027484358211274709 0 -0.00055339328618267641 -0.00030414057981444754 0 -0.00051504792288803545 -0.00031346749492172887 0 -0.00014290131909355612 -0.00020685312258039991 0 -0.00022161506754431442 -0.00021778655115162586 0 4.2456612322566235e-05 -0.00024314097301529841 0 8.8664546595747983e-05 5.9007302888758277e-06 0 0.0003470346787391869 -0.0003119669976537844 0 -7.8696823064469505e-05 -0.00015989092309156899 0 -7.9647317974870967e-05 -0.00017377001553972664 0 -8.8334180644013147e-05 -0.00013210084845203916 0 0.0001052223447690991 -0.00021275412477705894 0 9.2152150898279421e-05 -0.00022343038509632686 0 0.00011780182818464306 -0.00023582376905494657 0 -0.0001308832839438474 -0.00015860230310828791 0 0.00024754496113546184 -5.2210933763938889e-05 0 1.0083270430735927e-05 -0.00016926389781668659 0 0.00040282837949029811 -0.00013435973397470219 0 0.00060267634120531445 -5.8581126887327692e-05 0 0.00053352499811590531 -0.00011045888473664924 0 0.00056533918426177119 -0.00020660571689325475 0 -7.8696823064469505e-05 -0.00015989092309156899 0 -8.8334180644013147e-05 -0.00013210084845203916 0 -8.0425099298893235e-05 -0.00012675043555205489 0 0.00024754496113546184 -5.2210933763938889e-05 0 0.00040282837949029811 -0.00013435973397470219 0 9.2152150898279421e-05 -0.00022343038509632686 0 0.00011780182818464306 -0.00023582376905494657 0 0.00011061044438865572 -0.00024165835389834965 0 -0.00022161506754431442 -0.00021778655115162586 0 0.00077504029621657542 -0.0001558151740705741 0 -0.00014290131909355612 -0.00020685312258039991 0 0.00077504029621657542 -0.0001558151740705741 0 0.00077504029621657542 -0.0001558151740705741 0 0.0014788204359060216 -0.00033095865552171879 0 0.00060267634120531445 -5.8581126887327692e-05 0 0.00056533918426177119 -0.00020660571689325475 0 0.00069483131250907496 -0.00023631779360544877 0 0.00085287836176815325 -0.00016235463802410195 0 0.0014788204359060216 -0.00033095865552171879 0 0.00088741927882107091 -5.9066051305674471e-05 0 0.0011097553790678388 -0.00011001233860710155 0 0.0012011986323113332 -0.00038837660145662415 0 0.00040282837949029811 -0.00013435973397470219 0 0.00085287836176815325 -0.00016235463802410195 0 0.00064279700347803098 -0.00012059072657331854 0 0.00065184829800940547 -0.00011406042364214581 0 0.00064034189740339736 -0.0001116451251712667 0 0.00040282837949029811 -0.00013435973397470219 0 0.00077504029621657542 -0.0001558151740705741 0 0.00077504029621657542 -0.0001558151740705741 0 0.00085287836176815325 -0.00016235463802410195 0 0.0017575231242876884 -0.00013325116892882538 0 0.0017886005319921478 -0.00016102654994647902 0 0.0017595106908755746 -0.00015831576503105881 0 0.0017886005319921478 -0.00016102654994647902 0 0.0017595106908755746 -0.00015831576503105881 0 0.00176409602350577 -0.00019024100334473983 0 0.0017595106908755746 -0.00015831576503105881 0 0.0017207959059115214 -0.00016232130978887277 0 0.00176409602350577 -0.00019024100334473983 0 0.0017575231242876884 -0.00013325116892882538 0 0.0017595106908755746 -0.00015831576503105881 0 0.0017207959059115214 -0.00016232130978887277 0 -0.00056372296599330055 -0.00025769433714573553 0 -0.00055325308228103666 -0.00020541406999659715 0 -0.00051596722282306056 -0.00024275244794494483 0 -0.00014290131909355612 -0.00020685312258039991 0 0.0006754472013620783 -0.0001855091875746001 0 0.00077504029621657542 -0.0001558151740705741 0 0.0006754472013620783 -0.0001855091875746001 0 0.00043899056055530329 -0.00018323212364562892 0 0.00049428696167537662 -0.00019570754863385039 0 0.00042881987815110526 -0.00024361489225183561 0 0.00036662313737020912 9.5884206030532308e-05 0 0.00037251466682945049 0.00013742514758858756 0 0.00034060331907148384 0.00011898993679740383 0 0.00036662313737020912 9.5884206030532308e-05 0 0.00037251466682945049 0.00013742514758858756 0 0.00038853838201919889 0.00012793553696326254 0 0.00037251466682945049 0.00013742514758858756 0 0.00034060331907148384 0.00011898993679740383 0 0.00034161278988670881 0.00014289071312969612 0 -0.00011660173649482723 -0.00016755050224740196 0 -0.00015969010382898934 -0.0001670502595518319 0 -0.00010163902966655317 -0.0001238635977996407 0 8.9115473638884043e-05 -3.0274259388450641e-05 0 0.00024754496113546184 -5.2210933763938889e-05 0 0.00036662313737020912 9.5884206030532308e-05 0 0.000411723671535136 0.00012931183633450773 0 0.00038853838201919889 0.00012793553696326254 0 0.00037251466682945049 0.00013742514758858756 0 0.00038853838201919889 0.00012793553696326254 0 0.00040285379131260594 0.00014705388460579906 0 0.000411723671535136 0.00012931183633450773 0 0.00038853838201919889 0.00012793553696326254 0 0.00040285379131260594 0.00014705388460579906 0 0.00093519548537499171 -0.00019387160681055051 0 0.00064548474655539247 -3.7219787406941438e-05 0 0.0015100966131070548 -0.00046688208053936365 0 0.0014281970384126426 -0.00044025125630634053 0 0.0012334309023140535 -0.00043503902976559561 0 0.00024754496113546184 -5.2210933763938889e-05 0 0.00093519548537499171 -0.00019387160681055051 0 0.0012101478650236716 -0.00015362642306286056 0 0.0012453988804819274 -0.00025722087767577641 0 0.0012976509699387515 -0.00017377158353721581 0 0.00085287836176815325 -0.00016235463802410195 0 0.00093519548537499171 -0.00019387160681055051 0 0.00093519548537499171 -0.00019387160681055051 0 0.0014562826931436314 -0.00040640725527675591 0 0.0012453988804819274 -0.00025722087767577641 0 0.0012976509699387515 -0.00017377158353721581 0 0.0013904223875779182 -0.00034876948478761578 0 0.0015100966131070548 -0.00046688208053936365 0 0.0014281970384126426 -0.00044025125630634053 0 0.0014807860875092104 -0.00037692134397211089 0 0.00037251466682945049 0.00013742514758858756 0 0.00040285379131260594 0.00014705388460579906 0 0.00036341436615385078 0.00015508217140919236 0 0.00035241371680491142 0.00021920672809493631 0 0.00064548474655539247 -3.7219787406941438e-05 0 0.00037251466682945049 0.00013742514758858756 0 0.0003513662665198995 0.0001594949721927817 0 0.00034161278988670881 0.00014289071312969612 0 0.0014381020716224731 -0.00043669117068772173 0 0.0013991373574354132 -0.00025485006904189973 0 0.0014281970384126426 -0.00044025125630634053 0 0.0012334309023140535 -0.00043503902976559561 0 0.001222749200243856 -0.00018804236132675289 0 0.0012334309023140535 -0.00043503902976559561 0 0.001222749200243856 -0.00018804236132675289 0 0.0010131848420960104 -0.00017340325527645059 0 0.0014807860875092104 -0.00037692134397211089 0 0.0015531775365580573 -0.00030780766775002899 0 0.0015656665520030863 -0.00029542070396484476 0 0.0014788204359060216 -0.00033095865552171879 0 0.0016096450686260897 -0.00034723318869317172 0 0.0014281970384126426 -0.00044025125630634053 0 0.0014807860875092104 -0.00037692134397211089 0 0.0015656665520030863 -0.00029542070396484476 0 0.0012453988804819274 -0.00025722087767577641 0 0.0013904223875779182 -0.00034876948478761578 0 0.0014831530072274195 -0.00052289757881814514 0 0.0018443453512352866 -0.00037011577720406647 0 0.0018292401913813099 -0.00031832547636350675 0 0.0017808936864633399 -0.0002981837117399255 0 0.0014562826931436314 -0.00040640725527675591 0 0.0016096450686260897 -0.00034723318869317172 0 0.0014788204359060216 -0.00033095865552171879 0 0.0018104522508529278 -0.00027067533690187977 0 0.0018176217214452082 -0.00025389579188877452 0 0.0017808936864633399 -0.0002981837117399255 0 0.0018035670044050296 -0.0002331486029771148 0 0.0018078697735195355 -0.0002055042328558369 0 0.0018176217214452082 -0.00025389579188877452 0 0.0017902954242355791 -0.0002335472873852564 0 0.0018104522508529278 -0.00027067533690187977 0 0.0018157821778707279 -0.00025213040302980461 0 0.0018176217214452082 -0.00025389579188877452 0 0.0017902954242355791 -0.0002335472873852564 0 0.0018272230835045724 -0.000246897872444824 0 0.0018176217214452082 -0.00025389579188877452 0 0.0018035670044050296 -0.0002331486029771148 0 0.0018272230835045724 -0.000246897872444824 0 0.0018292401913813099 -0.00031832547636350675 0 0.0018176217214452082 -0.00025389579188877452 0 0.0017808936864633399 -0.0002981837117399255 0 0.0017808936864633399 -0.0002981837117399255 0 0.0016886430859575988 -0.0001936214759201346 0 0.0017665102804329982 -0.00022190620308505085 0 0.0016096450686260897 -0.00034723318869317172 0 0.0016962348175576327 -0.00017751940869320304 0 0.0016271568709283325 -0.00024226972541058792 0 0.0015656665520030863 -0.00029542070396484476 0 0.001676810256258301 -0.0001921827763622521 0 0.0013991373574354132 -0.00025485006904189973 0 0.0013485986591361095 -6.7543047419052409e-05 0 0.0017808936864633399 -0.0002981837117399255 0 0.0017665102804329982 -0.00022190620308505085 0 0.0018035670044050296 -0.0002331486029771148 0 0.0015878877495877331 -0.00029893065238737322 0 0.0016271568709283325 -0.00024226972541058792 0 0.0016886430859575988 -0.0001936214759201346 0 0.0016096450686260897 -0.00034723318869317172 0 0.0015921752653145333 -0.00024383165179032591 0 0.0015531775365580573 -0.00030780766775002899 0 0.0016271568709283325 -0.00024226972541058792 0 0.0015656665520030863 -0.00029542070396484476 0 0.0006754472013620783 -0.0001855091875746001 0 0.001310104697144742 -0.0001579415239872155 0 0.0017207959059115214 -0.00016232130978887277 0 0.00176409602350577 -0.00019024100334473983 0 0.0017160703563348575 -0.00021996642197999932 0 0.00085161469637712122 -0.00024379267554371214 0 0.0008817010234442816 -0.00010859546872876927 0 0.00093071272732203581 -0.00018530674869312374 0 0.0006754472013620783 -0.0001855091875746001 0 0.00016505537688792253 -0.00022290050698740236 0 0.00176409602350577 -0.00019024100334473983 0 0.0017902954242355791 -0.0002335472873852564 0 0.0017160703563348575 -0.00021996642197999932 0 0.0018078697735195355 -0.0002055042328558369 0 0.00176409602350577 -0.00019024100334473983 0 0.0017902954242355791 -0.0002335472873852564 0 0.0017886005319921478 -0.00016102654994647902 0 0.0018078697735195355 -0.0002055042328558369 0 0.00176409602350577 -0.00019024100334473983 0 0.0017902954242355791 -0.0002335472873852564 0 0.0018272230835045724 -0.000246897872444824 0 0.0017628169095370329 -0.00027185894618086221 0 0.0017902954242355791 -0.0002335472873852564 0 0.0017160703563348575 -0.00021996642197999932 0 0.0017628169095370329 -0.00027185894618086221 0 0.001310104697144742 -0.0001579415239872155 0 0.0017621127685167035 -0.00015989943458868304 0 0.0017160703563348575 -0.00021996642197999932 0 0.0017628169095370329 -0.00027185894618086221 0 0.0017072760491689779 -0.00028045890249025693 0 0.00094679530230358392 -5.7960576411978661e-05 0 0.0010079786707003044 -0.00012634904781048674 0 0.00098496653906029628 3.7343876332187729e-05 0 0.0008817010234442816 -0.00010859546872876927 0 0.00094679530230358392 -5.7960576411978661e-05 0 0.00091351105997894042 2.5189823380537483e-05 0 0.00025674450950865103 -5.6477684646598639e-05 0 0.0015469688396785647 0.00030300470150945421 0 0.00094679530230358392 -5.7960576411978661e-05 0 0.0010079786707003044 -0.00012634904781048674 0 0.00094197093289292901 -0.00011952598971141381 0 0.0008817010234442816 -0.00010859546872876927 0 0.00094679530230358392 -5.7960576411978661e-05 0 0.00094197093289292901 -0.00011952598971141381 0 -0.00046488860432873413 -8.6152253966028991e-05 0 -0.00035225753544672751 -0.00010656770265802189 0 -0.00030812875467655661 4.1706563342305242e-05 0 0.00025674450950865103 -5.6477684646598639e-05 0 0.00023105950591091753 0.00010487812572755507 0 0.0008731510089914653 0.00017241452256069035 0 0.00088599839477419037 0.00018392144614520512 0 0.00087905452222013984 0.00018719608569054227 0 -0.00044618601790003172 -0.00017206194297217936 0 -0.00030747505554132743 -0.00020492708390407177 0 -0.00035225753544672751 -0.00010656770265802189 0 -0.00046488860432873413 -8.6152253966028991e-05 0 -0.00044618601790003172 -0.00017206194297217936 0 -0.00035225753544672751 -0.00010656770265802189 0 0.00025674450950865103 -5.6477684646598639e-05 0 -0.00028685247031974071 -0.00010739589631879608 0 0.0008817010234442816 -0.00010859546872876927 0 0.00094197093289292901 -0.00011952598971141381 0 0.00093071272732203581 -0.00018530674869312374 0 0.00025674450950865103 -5.6477684646598639e-05 0 0.00016505537688792253 -0.00022290050698740236 0 0.0010079786707003044 -0.00012634904781048674 0 0.00094197093289292901 -0.00011952598971141381 0 0.00093071272732203581 -0.00018530674869312374 0 -0.00045163696223865908 -0.00012317729298572485 0 -0.00044618601790003172 -0.00017206194297217936 0 -0.00050384696570742469 -0.00016345486449771191 0 -0.00044618601790003172 -0.00017206194297217936 0 -0.00050384696570742469 -0.00016345486449771191 0 -0.00048415267923439671 -0.00020628986854121274 0 -0.00051596722282306056 -0.00024275244794494483 0 -0.00048415267923439671 -0.00020628986854121274 0 -0.00048014252046080051 -0.00028857539638067617 0 -0.00055325308228103666 -0.00020541406999659715 0 -0.00050384696570742469 -0.00016345486449771191 0 -0.00048415267923439671 -0.00020628986854121274 0 -0.00048415267923439671 -0.00020628986854121274 0 -0.00042199832696686925 -0.00024910666776134754 0 -0.00048014252046080051 -0.00028857539638067617 0 -0.00055325308228103666 -0.00020541406999659715 0 -0.00051596722282306056 -0.00024275244794494483 0 -0.00048415267923439671 -0.00020628986854121274 0 -0.00044618601790003172 -0.00017206194297217936 0 -0.00042199832696686925 -0.00024910666776134754 0 -0.00030747505554132743 -0.00020492708390407177 0 -0.00044618601790003172 -0.00017206194297217936 0 -0.00048415267923439671 -0.00020628986854121274 0 -0.00042199832696686925 -0.00024910666776134754 0 -0.00042199832696686925 -0.00024910666776134754 0 -0.00041387572941748216 -0.00033090911572156688 0 -0.00048014252046080051 -0.00028857539638067617 0 -0.00046958510294704776 -0.00034135605971377246 0 -0.00041387572941748216 -0.00033090911572156688 0 -0.00048014252046080051 -0.00028857539638067617 0 -0.00046958510294704776 -0.00034135605971377246 0 -0.00051504792288803545 -0.00031346749492172887 0 -0.00048014252046080051 -0.00028857539638067617 0 -0.00014290131909355612 -0.00020685312258039991 0 -0.00063819595312302748 -0.00027375308622034586 0 -0.00056372296599330055 -0.00025769433714573553 0 -0.00051596722282306056 -0.00024275244794494483 0 -0.00048014252046080051 -0.00028857539638067617 0 -0.00054754795147254724 -0.00027484358211274709 0 -0.00051504792288803545 -0.00031346749492172887 0 -0.00048014252046080051 -0.00028857539638067617 0 -0.0003920101487925836 -0.00032747118672750902 0 -0.00036864876775636788 -0.00031320245507275688 0 -0.00036430011186368316 -0.00034159816704687913 0 -0.00041158796992539227 -0.00033032011003961034 0 -0.00034766441315188225 -0.00023686675579743125 0 -0.00041387572941748216 -0.00033090911572156688 0 -0.0003920101487925836 -0.00032747118672750902 0 -0.00040948553354738803 -0.00029410095529660717 0 -0.00042199832696686925 -0.00024910666776134754 0 -0.00041387572941748216 -0.00033090911572156688 0 -0.00030747505554132743 -0.00020492708390407177 0 -0.00040948553354738803 -0.00029410095529660717 0 -0.00036864876775636788 -0.00031320245507275688 0 -0.00037029392871585883 -0.00027470779575795905 0 -0.00036864876775636788 -0.00031320245507275688 0 -0.00037029392871585883 -0.00027470779575795905 0 -0.00035217307458943544 -0.00029387889760331537 0 -0.0003920101487925836 -0.00032747118672750902 0 -0.00040948553354738803 -0.00029410095529660717 0 -0.00036864876775636788 -0.00031320245507275688 0 -0.00037029392871585883 -0.00027470779575795905 0 -0.00039995385420835161 -0.00021190868746440871 0 -0.00034184488310216643 -0.00023120304216862152 0 -0.00040948553354738803 -0.00029410095529660717 0 -0.00037029392871585883 -0.00027470779575795905 0 -0.00039995385420835161 -0.00021190868746440871 0 -0.00034766441315188225 -0.00023686675579743125 0 -0.0003697339507110017 -0.00014959242213232434 0 -0.00030747505554132743 -0.00020492708390407177 0 -0.00035225753544672751 -0.00010656770265802189 0 -0.00020257298910431504 -2.8438873983749614e-05 0 -0.00035225753544672751 -0.00010656770265802189 0 -0.00030812875467655661 4.1706563342305242e-05 0 -0.00020257298910431504 -2.8438873983749614e-05 0 -0.00039995385420835161 -0.00021190868746440871 0 -0.0003339439271583925 -0.00018159978167728045 0 -0.00033911783128348801 -0.00013627817620158534 0 -0.00039995385420835161 -0.00021190868746440871 0 -0.0003339439271583925 -0.00018159978167728045 0 -0.00034184488310216643 -0.00023120304216862152 0 -0.0003339439271583925 -0.00018159978167728045 0 -0.00027969333378264233 -0.00019458985360253303 0 -0.00030354954568540319 -0.0001512944678227056 0 -0.0003339439271583925 -0.00018159978167728045 0 -0.00034184488310216643 -0.00023120304216862152 0 -0.00027969333378264233 -0.00019458985360253303 0 -0.00034184488310216643 -0.00023120304216862152 0 -0.00030218633318465968 -0.0002443750012786275 0 -0.00027969333378264233 -0.00019458985360253303 0 -0.00037029392871585883 -0.00027470779575795905 0 -0.00034184488310216643 -0.00023120304216862152 0 -0.00033468416770986604 -0.00027492541931353802 0 -0.00034184488310216643 -0.00023120304216862152 0 -0.00033468416770986604 -0.00027492541931353802 0 -0.00030218633318465968 -0.0002443750012786275 0 -0.00033468416770986604 -0.00027492541931353802 0 -0.00028209245279846605 -0.00028109780606517051 0 -0.0003339031085799117 -0.00030700481262460052 0 -0.00037029392871585883 -0.00027470779575795905 0 -0.00033468416770986604 -0.00027492541931353802 0 -0.00035217307458943544 -0.00029387889760331537 0 -0.00028209245279846605 -0.00028109780606517051 0 -0.00025137482859815901 -0.00024577622581583035 0 -0.00022410392738106405 -0.00029392946285169806 0 -0.00033468416770986604 -0.00027492541931353802 0 -0.00028209245279846605 -0.00028109780606517051 0 -0.00030218633318465968 -0.0002443750012786275 0 -0.00028209245279846605 -0.00028109780606517051 0 -0.00030218633318465968 -0.0002443750012786275 0 -0.00025137482859815901 -0.00024577622581583035 0 -0.00025137482859815901 -0.00024577622581583035 0 -0.00027969333378264233 -0.00019458985360253303 0 -0.00022420292811428359 -0.00020587784898357122 0 -0.00030218633318465968 -0.0002443750012786275 0 -0.00025137482859815901 -0.00024577622581583035 0 -0.00027969333378264233 -0.00019458985360253303 0 -0.00027969333378264233 -0.00019458985360253303 0 -0.00022420292811428359 -0.00020587784898357122 0 -0.00020601567637288686 -0.00015320918032374879 0 -0.00022420292811428359 -0.00020587784898357122 0 -0.0001503597715906701 -0.00018990572225185067 0 -0.00020601567637288686 -0.00015320918032374879 0 -0.0001503597715906701 -0.00018990572225185067 0 -0.00013616271608135551 -0.00024985703000573442 0 -0.00019224258273876929 -0.00025013827722216619 0 -0.00025137482859815901 -0.00024577622581583035 0 -0.00022420292811428359 -0.00020587784898357122 0 -0.00019224258273876929 -0.00025013827722216619 0 -0.00022420292811428359 -0.00020587784898357122 0 -0.0001503597715906701 -0.00018990572225185067 0 -0.00019224258273876929 -0.00025013827722216619 0 -0.0001503597715906701 -0.00018990572225185067 0 -9.3991601613459044e-05 -0.00022513749895571554 0 -0.00010695422882181464 -0.00015607081571578489 0 -0.0001503597715906701 -0.00018990572225185067 0 -9.3991601613459044e-05 -0.00022513749895571554 0 -0.00013616271608135551 -0.00024985703000573442 0 -9.3991601613459044e-05 -0.00022513749895571554 0 -0.00013616271608135551 -0.00024985703000573442 0 -0.00011392615366900954 -0.00027621373222666258 0 -0.00011392615366900954 -0.00027621373222666258 0 -0.00016316685119899092 -0.00030170079509976176 0 -0.00010931375597311684 -0.00033516905440171253 0 -0.00013616271608135551 -0.00024985703000573442 0 -0.00011392615366900954 -0.00027621373222666258 0 -0.00016316685119899092 -0.00030170079509976176 0 -0.00025137482859815901 -0.00024577622581583035 0 -0.00019224258273876929 -0.00025013827722216619 0 -0.00022410392738106405 -0.00029392946285169806 0 -0.00013616271608135551 -0.00024985703000573442 0 -0.00016316685119899092 -0.00030170079509976176 0 -0.00019224258273876929 -0.00025013827722216619 0 -0.00016316685119899092 -0.00030170079509976176 0 -0.00019224258273876929 -0.00025013827722216619 0 -0.00022410392738106405 -0.00029392946285169806 0 -0.00020688425653541764 -0.00032922291628146975 0 -0.00017782321131524197 -0.00036497873216720329 0 -0.00025711452716394788 -0.0003498653497818119 0 -0.00016316685119899092 -0.00030170079509976176 0 -0.00020688425653541764 -0.00032922291628146975 0 -0.00017782321131524197 -0.00036497873216720329 0 -0.00022410392738106405 -0.00029392946285169806 0 -0.00020688425653541764 -0.00032922291628146975 0 -0.00025711452716394788 -0.0003498653497818119 0 -0.00016316685119899092 -0.00030170079509976176 0 -0.00022410392738106405 -0.00029392946285169806 0 -0.00020688425653541764 -0.00032922291628146975 0 -0.00016316685119899092 -0.00030170079509976176 0 -0.00017782321131524197 -0.00036497873216720329 0 -0.00010931375597311684 -0.00033516905440171253 0 -0.00017782321131524197 -0.00036497873216720329 0 -0.00017291853222993296 -0.00041550176503123024 0 -0.00012843336552933625 -0.00039917758773316852 0 -0.00017782321131524197 -0.00036497873216720329 0 -0.00010931375597311684 -0.00033516905440171253 0 -0.00012843336552933625 -0.00039917758773316852 0 -0.00017782321131524197 -0.00036497873216720329 0 -0.00022540843734540072 -0.0004195835097819286 0 -0.00025711452716394788 -0.0003498653497818119 0 -0.00017782321131524197 -0.00036497873216720329 0 -0.00017291853222993296 -0.00041550176503123024 0 -0.00022540843734540072 -0.0004195835097819286 0 -0.00022540843734540072 -0.0004195835097819286 0 -0.00028161824692192927 -0.00040357862392871423 0 -0.00025711452716394788 -0.0003498653497818119 0 -0.00037280057369563566 -0.00037443453906404063 0 -0.00036052086506964366 -0.00045037783187729222 0 -0.00028161824692192927 -0.00040357862392871423 0 -0.00036802414935372264 -0.00037373311326560312 0 -0.00025711452716394788 -0.0003498653497818119 0 -0.00028161824692192927 -0.00040357862392871423 0 -0.00036802414935372264 -0.00037373311326560312 0 -0.00028454356240717921 -0.00046034942096203935 0 -0.00036802414935372264 -0.00037373311326560312 0 -0.0003339031085799117 -0.00030700481262460052 0 -0.00047715614594783261 -0.00043576910046052723 0 -0.00036802414935372264 -0.00037373311326560312 0 -0.00047715614594783261 -0.00043576910046052723 0 -0.00043148837510104885 -0.00045921769250638849 0 -0.00034337771568218058 -0.00031116202289173698 0 -0.00041791195308977304 -0.00038977323992054133 0 -0.00036864876775636788 -0.00031320245507275688 0 -0.0003339031085799117 -0.00030700481262460052 0 -0.00036430011186368316 -0.00034159816704687913 0 -0.00036864876775636788 -0.00031320245507275688 0 -0.00035217307458943544 -0.00029387889760331537 0 -0.0003339031085799117 -0.00030700481262460052 0 -0.00033468416770986604 -0.00027492541931353802 0 -0.00035217307458943544 -0.00029387889760331537 0 -0.0003339031085799117 -0.00030700481262460052 0 -0.00028209245279846605 -0.00028109780606517051 0 -0.0003339031085799117 -0.00030700481262460052 0 -0.00025711452716394788 -0.0003498653497818119 0 -0.00036802414935372264 -0.00037373311326560312 0 -0.0003339031085799117 -0.00030700481262460052 0 -0.00025711452716394788 -0.0003498653497818119 0 -0.00028209245279846605 -0.00028109780606517051 0 -0.00022410392738106405 -0.00029392946285169806 0 -0.00025711452716394788 -0.0003498653497818119 0 0.00032860738125399985 -0.00037288446402047745 0 0.00034931864455271946 -0.00035106690444808189 0 0.00031145422895658504 -0.00039348917638854365 0 0.00032860738125399985 -0.00037288446402047745 0 0.00031788434326429193 -0.00038656125671202198 0 0.00031145422895658504 -0.00039348917638854365 0 0.00032860738125399985 -0.00037288446402047745 0 0.00034931864455271946 -0.00035106690444808189 0 0.00033087229158501298 -0.00039373640225138861 0 0.00029441795327836439 -0.00038905316420139547 0 0.00065102708715215267 -0.0002425209785395937 0 0.00034931864455271946 -0.00035106690444808189 0 0.00022983548005460792 -0.00031386363627642868 0 0.00037204795650370135 -0.00021703223315711404 0 0.00034931864455271946 -0.00035106690444808189 0 0.00031145422895658504 -0.00039348917638854365 0 0.00022983548005460792 -0.00031386363627642868 0 0.00031145422895658504 -0.00039348917638854365 0 0.00018819761120740256 -0.00044126705638057725 0 0.00022983548005460792 -0.00031386363627642868 0 0.00018819761120740256 -0.00044126705638057725 0 0.00022983548005460792 -0.00031386363627642868 0 0.00012362909467451193 -0.0004198033840940683 0 0.00022983548005460792 -0.00031386363627642868 0 0.00011340661248889195 -0.00026509250940240771 0 0.00012362909467451193 -0.0004198033840940683 0 -9.3991601613459044e-05 -0.00022513749895571554 0 -6.9395111506032986e-05 -0.00027243095521529585 0 -3.1648732692198768e-05 -0.00017619880499446515 0 0.00011340661248889195 -0.00026509250940240771 0 0.00012362909467451193 -0.0004198033840940683 0 -3.1648732692198768e-05 -0.00017619880499446515 0 2.4347871218197397e-05 -0.00033805056683529019 0 -3.121037123905349e-05 -0.00017965735225318282 0 -9.3991601613459044e-05 -0.00022513749895571554 0 -0.00011392615366900954 -0.00027621373222666258 0 -6.9395111506032986e-05 -0.00027243095521529585 0 -0.00011392615366900954 -0.00027621373222666258 0 -6.9395111506032986e-05 -0.00027243095521529585 0 -0.00010931375597311684 -0.00033516905440171253 0 -6.9395111506032986e-05 -0.00027243095521529585 0 -0.00010931375597311684 -0.00033516905440171253 0 -6.043695282176447e-05 -0.00036925877750995423 0 2.4347871218197397e-05 -0.00033805056683529019 0 8.2985675653298927e-05 -0.00037319043958336555 0 -0.00012843336552933625 -0.00039917758773316852 0 -6.043695282176447e-05 -0.00036925877750995423 0 -9.9776729531655817e-05 -0.0004401859414051414 0 -0.00010931375597311684 -0.00033516905440171253 0 -0.00012843336552933625 -0.00039917758773316852 0 -6.043695282176447e-05 -0.00036925877750995423 0 0.0002028017110046616 -0.00040606162276235556 0 4.809192382491261e-05 -0.00030804884432270399 0 0.00012737798292570881 -0.00012172894616518033 0 8.2985675653298927e-05 -0.00037319043958336555 0 -6.3716044433037705e-05 -0.00035931115897780658 0 0.00018819761120740256 -0.00044126705638057725 0 0.0002028017110046616 -0.00040606162276235556 0 -3.5911180354870723e-05 -0.00045604885316832415 0 0.00018819761120740256 -0.00044126705638057725 0 0.00012362909467451193 -0.0004198033840940683 0 0.0002028017110046616 -0.00040606162276235556 0 0.0001767657449097643 -0.0004367390769473851 0 0.00013459865820114166 -0.00042246239350512223 0 0.00031145422895658504 -0.00039348917638854365 0 0.00018819761120740256 -0.00044126705638057725 0 0.00032645612637916633 -0.00040068282524442718 0 0.0002028017110046616 -0.00040606162276235556 0 4.809192382491261e-05 -0.00030804884432270399 0 -3.5911180354870723e-05 -0.00045604885316832415 0 4.809192382491261e-05 -0.00030804884432270399 0 -3.5911180354870723e-05 -0.00045604885316832415 0 -0.00011144104371688725 -0.00022881076855246662 0 -4.5691652573649564e-05 -0.00033584068624068739 0 0.00013459865820114166 -0.00042246239350512223 0 -0.00037972514544412677 -0.00036187606958797993 0 -3.5911180354870723e-05 -0.00045604885316832415 0 -0.00011144104371688725 -0.00022881076855246662 0 0.00031788434326429193 -0.00038656125671202198 0 0.00031145422895658504 -0.00039348917638854365 0 0.00032645612637916633 -0.00040068282524442718 0 -0.0003732821319836921 -0.00014162180670766966 0 -0.0001523534917767526 5.3522655292634269e-05 0 -0.00011144104371688725 -0.00022881076855246662 0 4.809192382491261e-05 -0.00030804884432270399 0 -0.00011144104371688725 -0.00022881076855246662 0 0.00012737798292570881 -0.00012172894616518033 0 -0.0001523534917767526 5.3522655292634269e-05 0 -0.00011144104371688725 -0.00022881076855246662 0 0.00012737798292570881 -0.00012172894616518033 0 -9.2048467315177532e-05 -0.00046891649132648372 0 -0.00011086409332700041 -0.00050132522207007842 0 -0.00010291576680975607 -0.00051035508305575259 0 -0.00020795111172061136 -0.00010450308048106258 0 -6.3716044433037705e-05 -0.00035931115897780658 0 -0.00028456700724039448 -0.00031076551867543117 0 -0.0001809355482151851 -0.00036427143092500455 0 -0.00022930341567942747 -0.00024370166348413211 0 -6.3716044433037705e-05 -0.00035931115897780658 0 -0.00015323266939697174 -0.00039132001912150306 0 -9.2048467315177532e-05 -0.00046891649132648372 0 -0.00011566718878374881 -0.00047984740610610571 0 -0.00011086409332700041 -0.00050132522207007842 0 -0.00011566718878374881 -0.00047984740610610571 0 -0.00012737241951326928 -0.00050515441728346078 0 -0.00011086409332700041 -0.00050132522207007842 0 -6.3716044433037705e-05 -0.00035931115897780658 0 -8.4940665482487784e-05 -0.00046009957504238795 0 -9.2048467315177532e-05 -0.00046891649132648372 0 -9.9776729531655817e-05 -0.0004401859414051414 0 -0.00011566718878374881 -0.00047984740610610571 0 -6.043695282176447e-05 -0.00036925877750995423 0 -3.0088379744250453e-05 -0.00047554562970053533 0 -9.9776729531655817e-05 -0.0004401859414051414 0 -9.9776729531655817e-05 -0.0004401859414051414 0 -0.00013976560065615304 -0.00045445154547075757 0 -0.00011566718878374881 -0.00047984740610610571 0 -0.00012843336552933625 -0.00039917758773316852 0 -9.9776729531655817e-05 -0.0004401859414051414 0 -0.00013976560065615304 -0.00045445154547075757 0 -0.00013976560065615304 -0.00045445154547075757 0 -0.00011566718878374881 -0.00047984740610610571 0 -0.00015144051474281665 -0.00049493357218537018 0 -0.00011566718878374881 -0.00047984740610610571 0 -0.00012737241951326928 -0.00050515441728346078 0 -0.00015144051474281665 -0.00049493357218537018 0 -0.00012737241951326928 -0.00050515441728346078 0 -0.00014765143048324334 -0.00052605292817985226 0 -0.00012094400280409036 -0.00051754071889320715 0 -0.00012737241951326928 -0.00050515441728346078 0 -0.00014765143048324334 -0.00052605292817985226 0 -0.00015144051474281665 -0.00049493357218537018 0 -0.00010935521907391702 -0.00053645203158791412 0 -0.00022900303080895383 -0.00055206036428303478 0 -0.00060951738433736333 -0.00058328830440709616 0 -0.00066735705078568765 -0.00056740543312774113 0 -0.00062604304702655979 -0.00055862484547844341 0 -0.00014765143048324334 -0.00052605292817985226 0 -0.00012094400280409036 -0.00051754071889320715 0 -0.00012021394912977603 -0.00052530318446310806 0 -0.00014765143048324334 -0.00052605292817985226 0 -0.00016118956987868307 -0.00056574369882386667 0 -0.00010584398541982924 -0.00057989349219312409 0 -0.00040339306461309265 -0.00057407590273570851 0 -0.00022900303080895383 -0.00055206036428303478 0 -0.00011806361910797197 -0.00052160556621902801 0 -0.00012094400280409036 -0.00051754071889320715 0 -0.00012021394912977603 -0.00052530318446310806 0 -0.00011806361910797197 -0.00052160556621902801 0 -0.00011828472001718324 -0.00052125465789254054 0 -0.00012354073817760062 -0.00051485155829638783 0 -0.00011806361910797197 -0.00052160556621902801 0 -0.00012354073817760062 -0.00051485155829638783 0 -0.00012021394912977603 -0.00052530318446310806 0 -0.00011806361910797197 -0.00052160556621902801 0 -0.00011362435216871663 -0.00051584245917856504 0 -0.00011828472001718324 -0.00052125465789254054 0 -0.00011806361910797197 -0.00052160556621902801 0 -0.00011362435216871663 -0.00051584245917856504 0 -0.00012094400280409036 -0.00051754071889320715 0 -0.00011362435216871663 -0.00051584245917856504 0 -0.00012094400280409036 -0.00051754071889320715 0 -0.00011086409332700041 -0.00050132522207007842 0 -0.00012737241951326928 -0.00050515441728346078 0 -0.00012094400280409036 -0.00051754071889320715 0 -0.00011086409332700041 -0.00050132522207007842 0 -0.00011362435216871663 -0.00051584245917856504 0 -0.00011086409332700041 -0.00050132522207007842 0 -0.00010291576680975607 -0.00051035508305575259 0 -0.00010291576680975607 -0.00051035508305575259 0 -0.00011828472001718324 -0.00052125465789254054 0 -0.0001130528609564872 -0.00052251062479550582 0 -0.00010291576680975607 -0.00051035508305575259 0 -0.0001130528609564872 -0.00052251062479550582 0 -0.00011187382822012041 -0.00052558050907296682 0 -0.00015323266939697174 -0.00039132001912150306 0 -0.00034155912744345972 -0.0003188069499870346 0 -0.00011362435216871663 -0.00051584245917856504 0 -0.00010291576680975607 -0.00051035508305575259 0 -0.00011828472001718324 -0.00052125465789254054 0 -0.00011828472001718324 -0.00052125465789254054 0 -0.00013224025996426051 -0.00052072392734314884 0 -0.00012354073817760062 -0.00051485155829638783 0 -0.00013394903130384844 -0.00054236967649659345 0 -0.00013511448592986328 -0.0005586297621299704 0 -0.00034874202515393701 -0.00017015573562665458 0 -0.00029132263753827521 -0.00018282111070578127 0 -0.00028356863459338657 -0.00012265973996783435 0 -0.00022930341567942747 -0.00024370166348413211 0 -0.00029132263753827521 -0.00018282111070578127 0 -0.00027686228901922517 -0.00012712113984859202 0 -0.00034874202515393701 -0.00017015573562665458 0 -0.00029132263753827521 -0.00018282111070578127 0 -0.00031090317001926143 -0.00023808608020979991 0 -0.00022930341567942747 -0.00024370166348413211 0 -0.00029132263753827521 -0.00018282111070578127 0 -0.00031090317001926143 -0.00023808608020979991 0 -0.00028456700724039448 -0.00031076551867543117 0 -0.00022930341567942747 -0.00024370166348413211 0 -0.00031090317001926143 -0.00023808608020979991 0 -0.00046046704474551485 -0.00049824757514875669 0 -0.00049055671732483761 -0.0004978831079484068 0 -0.00043148837510104885 -0.00045921769250638849 0 -0.00024110873291316516 -0.00050810379428815325 0 -0.00028454356240717921 -0.00046034942096203935 0 -0.00023077864296229496 -0.0004741063857998289 0 -0.00034008666019334912 -0.00050351052336356362 0 -0.00036052086506964366 -0.00045037783187729222 0 -0.00049055671732483761 -0.0004978831079484068 0 -0.00047715614594783261 -0.00043576910046052723 0 -0.00043148837510104885 -0.00045921769250638849 0 -0.00022540843734540072 -0.0004195835097819286 0 -0.00028161824692192927 -0.00040357862392871423 0 -0.00028454356240717921 -0.00046034942096203935 0 -0.00022540843734540072 -0.0004195835097819286 0 -0.00028454356240717921 -0.00046034942096203935 0 -0.00023077864296229496 -0.0004741063857998289 0 -0.00022540843734540072 -0.0004195835097819286 0 -0.00023077864296229496 -0.0004741063857998289 0 -0.00018271059358341828 -0.00046088372181942128 0 -0.00017291853222993296 -0.00041550176503123024 0 -0.00022540843734540072 -0.0004195835097819286 0 -0.00018271059358341828 -0.00046088372181942128 0 -0.00017291853222993296 -0.00041550176503123024 0 -0.00012843336552933625 -0.00039917758773316852 0 -0.00013976560065615304 -0.00045445154547075757 0 -0.00017291853222993296 -0.00041550176503123024 0 -0.00013976560065615304 -0.00045445154547075757 0 -0.00018271059358341828 -0.00046088372181942128 0 -0.00013976560065615304 -0.00045445154547075757 0 -0.00018271059358341828 -0.00046088372181942128 0 -0.00015144051474281665 -0.00049493357218537018 0 -0.00018271059358341828 -0.00046088372181942128 0 -0.00015144051474281665 -0.00049493357218537018 0 -0.00019396476952085654 -0.00051317736294772501 0 -0.00024110873291316516 -0.00050810379428815325 0 -0.00023077864296229496 -0.0004741063857998289 0 -0.00019396476952085654 -0.00051317736294772501 0 -0.00023077864296229496 -0.0004741063857998289 0 -0.00018271059358341828 -0.00046088372181942128 0 -0.00019396476952085654 -0.00051317736294772501 0 -0.00024110873291316516 -0.00050810379428815325 0 -0.00019396476952085654 -0.00051317736294772501 0 -0.00021708159693014918 -0.00055466394144457665 0 -0.00034008666019334912 -0.00050351052336356362 0 -0.00044099900463139772 -0.00056993475152927547 0 -0.00019396476952085654 -0.00051317736294772501 0 -0.00018063134453213429 -0.00053965672622039048 0 -0.00021708159693014918 -0.00055466394144457665 0 -0.00014765143048324334 -0.00052605292817985226 0 -0.00015144051474281665 -0.00049493357218537018 0 -0.00019396476952085654 -0.00051317736294772501 0 -0.00014765143048324334 -0.00052605292817985226 0 -0.00019396476952085654 -0.00051317736294772501 0 -0.00018063134453213429 -0.00053965672622039048 0 -0.00018063134453213429 -0.00053965672622039048 0 -0.00016118956987868307 -0.00056574369882386667 0 -0.00021708159693014918 -0.00055466394144457665 0 -0.00040339306461309265 -0.00057407590273570851 0 -0.00044099900463139772 -0.00056993475152927547 0 -0.00060951738433736333 -0.00058328830440709616 0 -0.00054844743141405886 -0.00059964422822738326 0 -0.00059271192200882627 -0.00056188846952208373 0 -0.00014765143048324334 -0.00052605292817985226 0 -0.00018063134453213429 -0.00053965672622039048 0 -0.00016118956987868307 -0.00056574369882386667 0 -0.00044099900463139772 -0.00056993475152927547 0 -0.00057924656414608873 -0.00052825187607006435 0 -0.00056962049299990941 -0.00054078978013158831 0 -0.000571791984780566 -0.00052313272512446063 0 -0.00057992465638734714 -0.00051959674797883847 0 -0.00054844743141405886 -0.00059964422822738326 0 -0.00056788954855439366 -0.00055073407322311484 0 -0.00059271192200882627 -0.00056188846952208373 0 -0.00056962049299990941 -0.00054078978013158831 0 -0.000551110372663605 -0.00052687478128972984 0 -0.000571791984780566 -0.00052313272512446063 0 -0.00044099900463139772 -0.00056993475152927547 0 -0.00053977988377073519 -0.00052801441409949877 0 -0.00056962049299990941 -0.00054078978013158831 0 -0.000551110372663605 -0.00052687478128972984 0 -0.00051194906944640917 -0.00053269731194033874 0 -0.000551110372663605 -0.00052687478128972984 0 -0.00053413597491465902 -0.00052767171953228115 0 -0.00055470086476980187 -0.0005208133716855329 0 -0.000551110372663605 -0.00052687478128972984 0 -0.00051194906944640917 -0.00053269731194033874 0 -0.00053413597491465902 -0.00052767171953228115 0 -0.00046046704474551485 -0.00049824757514875669 0 -0.00044591073041363777 -0.00055353974829687794 0 -0.00051194906944640917 -0.00053269731194033874 0 -0.00046046704474551485 -0.00049824757514875669 0 -0.00049055671732483761 -0.0004978831079484068 0 -0.00051194906944640917 -0.00053269731194033874 0 -0.00052837262829891749 -0.00052707226777853238 0 -0.00049055671732483761 -0.0004978831079484068 0 -0.00051194906944640917 -0.00053269731194033874 0 -0.00052837262829891749 -0.00052707226777853238 0 -0.00051194906944640917 -0.00053269731194033874 0 -0.00053413597491465902 -0.00052767171953228115 0 -0.00052837262829891749 -0.00052707226777853238 0 -0.00053413597491465902 -0.00052767171953228115 0 -0.00054493803178364551 -0.00052301250418295211 0 -0.00053413597491465902 -0.00052767171953228115 0 -0.00054493803178364551 -0.00052301250418295211 0 -0.00055470086476980187 -0.0005208133716855329 0 -0.00054493803178364551 -0.00052301250418295211 0 -0.00056060271474374585 -0.00051486389882862943 0 -0.00055470086476980187 -0.0005208133716855329 0 -0.00054493803178364551 -0.00052301250418295211 0 -0.00056060271474374585 -0.00051486389882862943 0 -0.00055215090296852466 -0.00051665705039375277 0 -0.00056060271474374585 -0.00051486389882862943 0 -0.00056445567573944471 -0.00050920098172430983 0 -0.00055215090296852466 -0.00051665705039375277 0 -0.00056060271474374585 -0.00051486389882862943 0 -0.00056445567573944471 -0.00050920098172430983 0 -0.00057886224615563947 -0.00050657884248465586 0 -0.00058189146833770137 -0.00050810265040647376 0 -0.00057111105424362946 -0.00051278069639533149 0 -0.00057886224615563947 -0.00050657884248465586 0 -0.00056060271474374585 -0.00051486389882862943 0 -0.00057111105424362946 -0.00051278069639533149 0 -0.00057886224615563947 -0.00050657884248465586 0 -0.00058189146833770137 -0.00050810265040647376 0 -0.00057111105424362946 -0.00051278069639533149 0 -0.00057992071358820658 -0.00051207583082363891 0 -0.00057111105424362946 -0.00051278069639533149 0 -0.00056744496819989142 -0.00051782455274140176 0 -0.00057992071358820658 -0.00051207583082363891 0 -0.00057111105424362946 -0.00051278069639533149 0 -0.00056744496819989142 -0.00051782455274140176 0 -0.00055470086476980187 -0.0005208133716855329 0 -0.00056060271474374585 -0.00051486389882862943 0 -0.00057111105424362946 -0.00051278069639533149 0 -0.00055470086476980187 -0.0005208133716855329 0 -0.000551110372663605 -0.00052687478128972984 0 -0.00055470086476980187 -0.0005208133716855329 0 -0.00056170326283122736 -0.0005222220441267432 0 -0.000551110372663605 -0.00052687478128972984 0 -0.00056170326283122736 -0.0005222220441267432 0 -0.000571791984780566 -0.00052313272512446063 0 -0.00056744496819989142 -0.00051782455274140176 0 -0.00055470086476980187 -0.0005208133716855329 0 -0.00056170326283122736 -0.0005222220441267432 0 -0.00057924656414608873 -0.00052825187607006435 0 -0.00058645891024219725 -0.00050721877558786404 0 -0.000571791984780566 -0.00052313272512446063 0 -0.00057992465638734714 -0.00051959674797883847 0 -0.00058202924452734766 -0.00049335423126082862 0 -0.00056744496819989142 -0.00051782455274140176 0 -0.00056170326283122736 -0.0005222220441267432 0 -0.000571791984780566 -0.00052313272512446063 0 -0.00056744496819989142 -0.00051782455274140176 0 -0.000571791984780566 -0.00052313272512446063 0 -0.00057992071358820658 -0.00051207583082363891 0 -0.00056788954855439366 -0.00055073407322311484 0 -0.00059208253114121138 -0.0005355840994115817 0 -0.0005897622834136752 -0.00050135037732274793 0 -0.00060951738433736333 -0.00058328830440709616 0 -0.00059271192200882627 -0.00056188846952208373 0 -0.00062604304702655979 -0.00055862484547844341 0 -0.00059271192200882627 -0.00056188846952208373 0 -0.00061423981307084268 -0.00053764381589581432 0 -0.00062604304702655979 -0.00055862484547844341 0 -0.00056788954855439366 -0.00055073407322311484 0 -0.00059271192200882627 -0.00056188846952208373 0 -0.00059208253114121138 -0.0005355840994115817 0 -0.00059271192200882627 -0.00056188846952208373 0 -0.00059208253114121138 -0.0005355840994115817 0 -0.00061423981307084268 -0.00053764381589581432 0 -0.00059208253114121138 -0.0005355840994115817 0 -0.00061423981307084268 -0.00053764381589581432 0 -0.00060403366807752876 -0.00051968160628123173 0 -0.00061423981307084268 -0.00053764381589581432 0 -0.00060403366807752876 -0.00051968160628123173 0 -0.00062810266315187864 -0.00050378779320321438 0 -0.00060403366807752876 -0.00051968160628123173 0 -0.0005897622834136752 -0.00050135037732274793 0 -0.00062810266315187864 -0.00050378779320321438 0 -0.00059208253114121138 -0.0005355840994115817 0 -0.00060403366807752876 -0.00051968160628123173 0 -0.0005897622834136752 -0.00050135037732274793 0 -0.0005897622834136752 -0.00050135037732274793 0 -0.00058202924452734766 -0.00049335423126082862 0 -0.00061179805456025506 -0.00047980450322165165 0 -0.0005897622834136752 -0.00050135037732274793 0 -0.00061179805456025506 -0.00047980450322165165 0 -0.00062810266315187864 -0.00050378779320321438 0 -0.00057992465638734714 -0.00051959674797883847 0 -0.0005897622834136752 -0.00050135037732274793 0 -0.00058202924452734766 -0.00049335423126082862 0 -0.000571791984780566 -0.00052313272512446063 0 -0.00057992071358820658 -0.00051207583082363891 0 -0.00059696834604381732 -0.00050584422618982715 0 -0.0005813137686567502 -0.00051696390938967387 0 -0.00056334219013507488 -0.00050657398325592966 0 -0.00057992071358820658 -0.00051207583082363891 0 -0.00059696834604381732 -0.00050584422618982715 0 -0.00058990491176734178 -0.00050599554224853782 0 -0.00058189146833770137 -0.00050810265040647376 0 -0.00058990491176734178 -0.00050599554224853782 0 -0.0005904732973232809 -0.00050412887517251059 0 -0.00058189146833770137 -0.00050810265040647376 0 -0.00057992071358820658 -0.00051207583082363891 0 -0.00058990491176734178 -0.00050599554224853782 0 -0.00058990491176734178 -0.00050599554224853782 0 -0.0006004988587924062 -0.00050076146994333973 0 -0.0005904732973232809 -0.00050412887517251059 0 -0.00059696834604381732 -0.00050584422618982715 0 -0.0006004988587924062 -0.00050076146994333973 0 -0.00060591625758740341 -0.00049858330736769145 0 -0.00059696834604381732 -0.00050584422618982715 0 -0.00058990491176734178 -0.00050599554224853782 0 -0.0006004988587924062 -0.00050076146994333973 0 -0.0006004988587924062 -0.00050076146994333973 0 -0.0005904732973232809 -0.00050412887517251059 0 -0.00059696164858894353 -0.00050090100196648285 0 -0.00061179805456025506 -0.00047980450322165165 0 -0.00060279123141326429 -0.00042877924510721437 0 -0.0006589553992052636 -0.00046923479464474883 0 -0.00058202924452734766 -0.00049335423126082862 0 -0.00061179805456025506 -0.00047980450322165165 0 -0.00060279123141326429 -0.00042877924510721437 0 -0.00056334219013507488 -0.00050657398325592966 0 -0.00079214291874255872 -0.00045538560024867655 0 -0.00060591625758740341 -0.00049858330736769145 0 -0.00061073821861095182 -0.000497901741228623 0 -0.00063174003976603703 -0.00049334438863769315 0 -0.0006004988587924062 -0.00050076146994333973 0 -0.00060591625758740341 -0.00049858330736769145 0 -0.00061073821861095182 -0.000497901741228623 0 -0.0006004988587924062 -0.00050076146994333973 0 -0.00061073821861095182 -0.000497901741228623 0 -0.00059696164858894353 -0.00050090100196648285 0 -0.00061073821861095182 -0.000497901741228623 0 -0.00060179448080917839 -0.00049659962696931275 0 -0.00063174003976603703 -0.00049334438863769315 0 -0.00061073821861095182 -0.000497901741228623 0 -0.00060179448080917839 -0.00049659962696931275 0 -0.00059696164858894353 -0.00050090100196648285 0 -0.00060179448080917839 -0.00049659962696931275 0 -0.00058883518230305125 -0.00050043941891349687 0 -0.00059696164858894353 -0.00050090100196648285 0 -0.00060179448080917839 -0.00049659962696931275 0 -0.00058329374114881281 -0.00049460669618195169 0 -0.00058883518230305125 -0.00050043941891349687 0 -0.00058329374114881281 -0.00049460669618195169 0 -0.00058883518230305125 -0.00050043941891349687 0 -0.00057566239441188944 -0.0005009567786038152 0 -0.00058883518230305125 -0.00050043941891349687 0 -0.00057566239441188944 -0.0005009567786038152 0 -0.00057886224615563947 -0.00050657884248465586 0 -0.00056445567573944471 -0.00050920098172430983 0 -0.00057566239441188944 -0.0005009567786038152 0 -0.00057886224615563947 -0.00050657884248465586 0 -0.00058189146833770137 -0.00050810265040647376 0 -0.00057886224615563947 -0.00050657884248465586 0 -0.0005904732973232809 -0.00050412887517251059 0 -0.00057886224615563947 -0.00050657884248465586 0 -0.0005904732973232809 -0.00050412887517251059 0 -0.00059696164858894353 -0.00050090100196648285 0 -0.00058883518230305125 -0.00050043941891349687 0 -0.00057886224615563947 -0.00050657884248465586 0 -0.00059696164858894353 -0.00050090100196648285 0 -0.0014077991968722903 -0.00036388465873358697 0 -0.001400092068289762 -0.00036892218851019475 0 -0.0014061117789952117 -0.00037243110789829143 0 -0.0014077991968722903 -0.00036388465873358697 0 -0.001400092068289762 -0.00036892218851019475 0 -0.0014076759368080909 -0.00035952218040572603 0 -0.001400092068289762 -0.00036892218851019475 0 -0.0014061117789952117 -0.00037243110789829143 0 -0.0013958118796226634 -0.00038178506064096251 0 -0.00087896468138176219 -0.00016395783788747176 0 -0.00066878183503506249 -0.00030547519488229898 0 -0.00060585126448668843 -0.00025831420331411201 0 -0.00099705326636274059 -0.00013842519739751835 0 -0.00071030064033142924 -0.0003480465798720329 0 -0.00099705326636274059 -0.00013842519739751835 0 -0.00070609946872264519 1.842730098408366e-05 0 -0.00070609946872264519 1.842730098408366e-05 0 -0.00048427019600567233 -0.00022326350533329406 0 -0.00042783385089117498 -3.4537235080433443e-05 0 -0.00048427019600567233 -0.00022326350533329406 0 -0.00082787546891269247 -3.7778117460446178e-05 0 -0.00087896468138176219 -0.00016395783788747176 0 -0.00060585126448668843 -0.00025831420331411201 0 -0.00049958706751926157 -4.3168573780353875e-05 0 -0.00053368625536832936 -0.00012452265240062382 0 -0.00057297153128360167 -9.828369608774946e-05 0 -0.00029132263753827521 -0.00018282111070578127 0 -0.00028356863459338657 -0.00012265973996783435 0 -0.00027686228901922517 -0.00012712113984859202 0 -0.00016793600491037624 -0.00058318562020768692 0 -0.00054443984244433312 -0.00032927378679389332 0 -0.00051404217884372296 -0.0002351816879936554 0 -0.00048427019600567233 -0.00022326350533329406 0 -0.00034155912744345972 -0.0003188069499870346 0 -0.00059445959063160838 -0.00029543395102703214 0 -0.00054443984244433312 -0.00032927378679389332 0 -0.00051404217884372296 -0.0002351816879936554 0 -0.00048427019600567233 -0.00022326350533329406 0 -0.00071030064033142924 -0.0003480465798720329 0 -0.00013767490279714841 -0.00050816249731415008 0 -0.00012354073817760062 -0.00051485155829638783 0 -0.00013199935106345722 -0.00048784796335281789 0 -0.00015711458733267731 -0.00050554167046275463 0 -0.00013767490279714841 -0.00050816249731415008 0 -0.00013199935106345722 -0.00048784796335281789 0 -0.00071030064033142924 -0.0003480465798720329 0 -0.00088627636786470785 -0.00046525133637732207 0 -0.00013511448592986328 -0.0005586297621299704 0 -0.00034155912744345972 -0.0003188069499870346 0 -0.00013224025996426051 -0.00052072392734314884 0 -0.00015711458733267731 -0.00050554167046275463 0 -0.00013767490279714841 -0.00050816249731415008 0 -0.00013511448592986328 -0.0005586297621299704 0 -0.00071030064033142924 -0.0003480465798720329 0 -0.00013224025996426051 -0.00052072392734314884 0 -0.00013767490279714841 -0.00050816249731415008 0 -0.00012354073817760062 -0.00051485155829638783 0 -0.001400092068289762 -0.00036892218851019475 0 -0.0013958118796226634 -0.00038178506064096251 0 -0.0013815998941390573 -0.00037123317734086286 0 -0.00088627636786470785 -0.00046525133637732207 0 -0.0015582309590132313 -0.00027644338916393114 0 -0.001400092068289762 -0.00036892218851019475 0 -0.0013815998941390573 -0.00037123317734086286 0 -0.0014076759368080909 -0.00035952218040572603 0 -0.001415528004749885 -0.00037413349598628413 0 -0.0014147971240242873 -0.00036341344584162142 0 -0.0014076759368080909 -0.00035952218040572603 0 -0.00088627636786470785 -0.00046525133637732207 0 -0.0010755608065694984 -0.00041269710907244098 0 -0.00071828161075160096 -0.00051233063932944059 0 -0.00066728638694102047 -0.0005195805851515577 0 -0.0006589553992052636 -0.00046923479464474883 0 -0.001415528004749885 -0.00037413349598628413 0 -0.0013772468272892249 -0.00036259227502565683 0 -0.0014147971240242873 -0.00036341344584162142 0 -0.00088627636786470785 -0.00046525133637732207 0 -0.00022900303080895383 -0.00055206036428303478 0 -0.00071828161075160096 -0.00051233063932944059 0 -0.00066728638694102047 -0.0005195805851515577 0 -0.00066735705078568765 -0.00056740543312774113 0 -0.00012354073817760062 -0.00051485155829638783 0 -0.00013199935106345722 -0.00048784796335281789 0 -0.00010279108928251808 -0.00052143448113541979 0 -9.3979674338791867e-05 -0.00052962965937915782 0 -0.00022900303080895383 -0.00055206036428303478 0 -0.00066735705078568765 -0.00056740543312774113 0 -0.00064515982932816026 -0.00054270313489126814 0 -0.00062604304702655979 -0.00055862484547844341 0 -0.00066728638694102047 -0.0005195805851515577 0 -0.00066735705078568765 -0.00056740543312774113 0 -0.00064515982932816026 -0.00054270313489126814 0 -0.00061423981307084268 -0.00053764381589581432 0 -0.00064515982932816026 -0.00054270313489126814 0 -0.00062604304702655979 -0.00055862484547844341 0 -0.00061423981307084268 -0.00053764381589581432 0 -0.00064515982932816026 -0.00054270313489126814 0 -0.00062810266315187864 -0.00050378779320321438 0 -0.00066728638694102047 -0.0005195805851515577 0 -0.00062810266315187864 -0.00050378779320321438 0 -0.0006589553992052636 -0.00046923479464474883 0 -0.00066728638694102047 -0.0005195805851515577 0 -0.00064515982932816026 -0.00054270313489126814 0 -0.00062810266315187864 -0.00050378779320321438 0 -0.00061179805456025506 -0.00047980450322165165 0 -0.00062810266315187864 -0.00050378779320321438 0 -0.0006589553992052636 -0.00046923479464474883 0 -0.00079214291874255872 -0.00045538560024867655 0 -0.0010755608065694984 -0.00041269710907244098 0 -0.0012999745163907136 -0.00032013323213251217 0 -0.0013772468272892249 -0.00036259227502565683 0 -0.0013825618636712426 -0.00031450550723253595 0 -0.0012999745163907136 -0.00032013323213251217 0 -0.0013825618636712426 -0.00031450550723253595 0 -0.0013699836638682789 -0.00027114903663712757 0 -0.0013825618636712426 -0.00031450550723253595 0 -0.0014130315839480159 -0.00030935420164270987 0 -0.0014100253447731465 -0.00033420781274846954 0 -0.0013825618636712426 -0.00031450550723253595 0 -0.0014130315839480159 -0.00030935420164270987 0 -0.0014110577111137786 -0.00028437688192608216 0 -0.0014130315839480159 -0.00030935420164270987 0 -0.0014347528534698584 -0.00028786532844628855 0 -0.0014110577111137786 -0.00028437688192608216 0 -0.0014130315839480159 -0.00030935420164270987 0 -0.0014329556039833092 -0.00030991388227948427 0 -0.0014347528534698584 -0.00028786532844628855 0 -0.0014130315839480159 -0.00030935420164270987 0 -0.0014100253447731465 -0.00033420781274846954 0 -0.0014329556039833092 -0.00030991388227948427 0 -0.0013772468272892249 -0.00036259227502565683 0 -0.0013825618636712426 -0.00031450550723253595 0 -0.0014100253447731465 -0.00033420781274846954 0 -0.0013772468272892249 -0.00036259227502565683 0 -0.0014100253447731465 -0.00033420781274846954 0 -0.0014147971240242873 -0.00036341344584162142 0 -0.0014147971240242873 -0.00036341344584162142 0 -0.0014103634599900094 -0.00036045567373648894 0 -0.0014076759368080909 -0.00035952218040572603 0 -0.0014100253447731465 -0.00033420781274846954 0 -0.0014147971240242873 -0.00036341344584162142 0 -0.0014477362481539028 -0.00033095611282001357 0 -0.0014205543370654973 -0.0003558593480645425 0 -0.0014244789877808355 -0.00035788124143094473 0 -0.0014100253447731465 -0.00033420781274846954 0 -0.0014329556039833092 -0.00030991388227948427 0 -0.0014477362481539028 -0.00033095611282001357 0 -0.0014329556039833092 -0.00030991388227948427 0 -0.001449137800987117 -0.00029543544328889835 0 -0.0014347528534698584 -0.00028786532844628855 0 -0.0014329556039833092 -0.00030991388227948427 0 -0.001449137800987117 -0.00029543544328889835 0 -0.0014477362481539028 -0.00033095611282001357 0 -0.0014244789877808355 -0.00035788124143094473 0 -0.0015076464078676458 -0.00025905246316923464 0 -0.001449137800987117 -0.00029543544328889835 0 -0.0014477362481539028 -0.00033095611282001357 0 -0.0014701866007623913 -0.00029201015993314945 0 -0.0014103634599900094 -0.00036045567373648894 0 -0.0014096300917482631 -0.0003591818446481769 0 -0.0014100593829776251 -0.00035824440304865459 0 -0.0014113003244085472 -0.00035770017409781355 0 -0.0014096300917482631 -0.0003591818446481769 0 -0.0014100593829776251 -0.00035824440304865459 0 -0.0016527271194050174 -0.00027320485778462922 0 -0.0015076464078676458 -0.00025905246316923464 0 -0.0018133002466864481 -0.00013853341605256982 0 -0.0017359686315290841 -4.1062694508375059e-05 0 -0.0017198023154706384 -7.8894779334449033e-05 0 -0.0014113003244085472 -0.00035770017409781355 0 -0.0014096300917482631 -0.0003591818446481769 0 -0.0014076759368080909 -0.00035952218040572603 0 -0.0014111267137559467 -0.00036001431860305407 0 -0.0014113003244085472 -0.00035770017409781355 0 -0.0014076759368080909 -0.00035952218040572603 0 -0.0014103634599900094 -0.00036045567373648894 0 -0.0014096300917482631 -0.0003591818446481769 0 -0.0014076759368080909 -0.00035952218040572603 0 -0.0014111267137559467 -0.00036001431860305407 0 -0.0014077991968722903 -0.00036388465873358697 0 -0.0014076759368080909 -0.00035952218040572603 0 -0.0023773619854728562 2.2964358411410108e-05 0 -0.0017717759546410907 -0.00015653450639036351 0 -0.001589582570312277 -0.000187944215846841 0 -0.0015494523012042356 -0.0002851946467866414 0 -0.0015123253556934572 -0.0002142388443227306 0 -0.002406630141631629 9.600175809730324e-05 0 -0.002392897669484645 0.000119785810048962 0 -0.0023765449856638274 8.1432106796224928e-05 0 -0.0024288649849007445 8.2311563738860204e-05 0 -0.002406630141631629 9.600175809730324e-05 0 -0.0023765449856638274 8.1432106796224928e-05 0 -0.0022282883322819365 1.7042920500436048e-05 0 -0.0017717759546410907 -0.00015653450639036351 0 -0.0017717759546410907 -0.00015653450639036351 0 -0.0015076464078676458 -0.00025905246316923464 0 -0.0015494523012042356 -0.0002851946467866414 0 -0.0015007898306013639 -0.00025308996683011615 0 -0.0014450032068606877 -0.00026144970440596083 0 -0.0015494523012042356 -0.0002851946467866414 0 -0.0015007898306013639 -0.00025308996683011615 0 -0.0015123253556934572 -0.0002142388443227306 0 -0.0014852059026467094 -0.00026970799100785927 0 -0.0014782523734609841 -0.00028629662188455244 0 -0.0014476601346074265 -0.00026718047750260527 0 -0.0017717759546410907 -0.00015653450639036351 0 -0.0013747756188873864 -0.00025320567272124281 0 -0.0014852059026467094 -0.00026970799100785927 0 -0.0014476601346074265 -0.00026718047750260527 0 -0.0014450032068606877 -0.00026144970440596083 0 -0.0015076464078676458 -0.00025905246316923464 0 -0.0014488953332533576 -0.00026575672917334098 0 -0.001449137800987117 -0.00029543544328889835 0 -0.0014701866007623913 -0.00029201015993314945 0 -0.0014476601346074265 -0.00026718047750260527 0 -0.001449137800987117 -0.00029543544328889835 0 -0.0014476601346074265 -0.00026718047750260527 0 -0.0014347528534698584 -0.00028786532844628855 0 -0.0015007898306013639 -0.00025308996683011615 0 -0.0014450032068606877 -0.00026144970440596083 0 -0.0014673099234641771 -0.00023385672317610134 0 -0.0014673099234641771 -0.00023385672317610134 0 -0.0015123253556934572 -0.0002142388443227306 0 -0.0014506408193048161 -0.00020499395485264833 0 -0.001589582570312277 -0.000187944215846841 0 -0.0015123253556934572 -0.0002142388443227306 0 -0.001463401151701357 -0.00014924919445180924 0 -0.0023773619854728562 2.2964358411410108e-05 0 -0.0022422348993386405 -0.00016911600826451643 0 -0.0015007898306013639 -0.00025308996683011615 0 -0.0014673099234641771 -0.00023385672317610134 0 -0.0015123253556934572 -0.0002142388443227306 0 -0.0015123253556934572 -0.0002142388443227306 0 -0.0014506408193048161 -0.00020499395485264833 0 -0.001463401151701357 -0.00014924919445180924 0 -0.0014506408193048161 -0.00020499395485264833 0 -0.0013974443280332931 -0.00021509395183940666 0 -0.001463401151701357 -0.00014924919445180924 0 -0.0013974443280332931 -0.00021509395183940666 0 -0.0014281881283403409 -0.00023360084949073141 0 -0.0014114436593549867 -0.00025669631040359828 0 -0.0014506408193048161 -0.00020499395485264833 0 -0.0013974443280332931 -0.00021509395183940666 0 -0.0014281881283403409 -0.00023360084949073141 0 -0.0014673099234641771 -0.00023385672317610134 0 -0.0014506408193048161 -0.00020499395485264833 0 -0.0014281881283403409 -0.00023360084949073141 0 -0.0014450032068606877 -0.00026144970440596083 0 -0.0014673099234641771 -0.00023385672317610134 0 -0.0014281881283403409 -0.00023360084949073141 0 -0.0014450032068606877 -0.00026144970440596083 0 -0.0014281881283403409 -0.00023360084949073141 0 -0.0014114436593549867 -0.00025669631040359828 0 -0.0014450032068606877 -0.00026144970440596083 0 -0.0014301275582938849 -0.00027262877731641281 0 -0.0014114436593549867 -0.00025669631040359828 0 -0.0014476601346074265 -0.00026718047750260527 0 -0.0014450032068606877 -0.00026144970440596083 0 -0.0014301275582938849 -0.00027262877731641281 0 -0.0014476601346074265 -0.00026718047750260527 0 -0.0014301275582938849 -0.00027262877731641281 0 -0.0014347528534698584 -0.00028786532844628855 0 -0.0014301275582938849 -0.00027262877731641281 0 -0.0014110577111137786 -0.00028437688192608216 0 -0.0014114436593549867 -0.00025669631040359828 0 -0.0014301275582938849 -0.00027262877731641281 0 -0.0014347528534698584 -0.00028786532844628855 0 -0.0014110577111137786 -0.00028437688192608216 0 -0.0013825618636712426 -0.00031450550723253595 0 -0.0014110577111137786 -0.00028437688192608216 0 -0.0013699836638682789 -0.00027114903663712757 0 -0.0014110577111137786 -0.00028437688192608216 0 -0.0014114436593549867 -0.00025669631040359828 0 -0.0013699836638682789 -0.00027114903663712757 0 -0.0013974443280332931 -0.00021509395183940666 0 -0.0014114436593549867 -0.00025669631040359828 0 -0.0013699836638682789 -0.00027114903663712757 0 -0.0012999745163907136 -0.00032013323213251217 0 -0.0013699836638682789 -0.00027114903663712757 0 -0.0013260498365102677 -0.00022608674308832426 0 -0.0013974443280332931 -0.00021509395183940666 0 -0.0013699836638682789 -0.00027114903663712757 0 -0.0013260498365102677 -0.00022608674308832426 0 -0.0013974443280332931 -0.00021509395183940666 0 -0.0013631591966142566 -0.00011386240666170815 0 -0.0013260498365102677 -0.00022608674308832426 0 -0.0017893159202324361 -0.00027821642554402034 0 -0.00098681758438221262 -0.00034173365614047311 0 -0.0022813358238052152 -0.0004984863060803848 0 -0.0022258416924297417 -0.00028928542227007066 0 -0.001914345868462893 -0.00034297880132522538 0 -0.0017893159202324361 -0.00027821642554402034 0 -0.0026988729659680496 -0.00011235134266723288 0 -0.0022813358238052152 -0.0004984863060803848 0 -0.0022258416924297417 -0.00028928542227007066 0 -0.0023959612568485518 -0.0001508015014856589 0 -0.0029189663749801509 -0.00016152460409823801 0 -0.0029304004610061773 -0.00015954470339520866 0 -0.0029282480419651211 -0.00015984858546940644 0 -0.0013974443280332931 -0.00021509395183940666 0 -0.0013631591966142566 -0.00011386240666170815 0 -0.001463401151701357 -0.00014924919445180924 0 -0.0029189663749801509 -0.00016152460409823801 0 -0.0029304004610061773 -0.00015954470339520866 0 -0.002925065883025684 -0.0001588153447320982 0 -0.0017893159202324361 -0.00027821642554402034 0 -0.0022422348993386405 -0.00016911600826451643 0 -0.002923327624193452 -0.00015526562382944857 0 -0.002925065883025684 -0.0001588153447320982 0 -0.0029307447449055828 -0.00015785002520733572 0 -0.0029304004610061773 -0.00015954470339520866 0 -0.0029307447449055828 -0.00015785002520733572 0 -0.0029370327538702232 -0.00016030600803558701 0 -0.0029304004610061773 -0.00015954470339520866 0 -0.002925065883025684 -0.0001588153447320982 0 -0.0029307447449055828 -0.00015785002520733572 0 -0.0029298724734510193 -0.00015710938713409185 0 -0.0029276722751079608 -0.00015641672098932232 0 -0.0029307447449055828 -0.00015785002520733572 0 -0.0026994410056159655 -9.7885485108840944e-06 0 -0.0023773619854728562 2.2964358411410108e-05 0 -0.0029276722751079608 -0.00015641672098932232 0 -0.002923327624193452 -0.00015526562382944857 0 -0.0029307447449055828 -0.00015785002520733572 0 -0.00061003904561171562 -0.00046843253794795329 0 -0.00069027835451446239 -0.0004465759305714226 0 -0.00066009708991555168 -0.000391365604678399 0 -0.00061003904561171562 -0.00046843253794795329 0 -0.00063174003976603703 -0.00049334438863769315 0 -0.00069027835451446239 -0.0004465759305714226 0 -0.00066325093554847646 -0.0004367201021885375 0 -0.0005552986553898397 -0.00044911551451379142 0 -0.00061003904561171562 -0.00046843253794795329 0 -0.00057790594623305163 -0.00044897873557924882 0 -0.00058603697635854204 -0.00048290001853133074 0 -0.00060179448080917839 -0.00049659962696931275 0 -0.00061003904561171562 -0.00046843253794795329 0 -0.00058603697635854204 -0.00048290001853133074 0 -0.00060179448080917839 -0.00049659962696931275 0 -0.00058329374114881281 -0.00049460669618195169 0 -0.00058603697635854204 -0.00048290001853133074 0 -0.00060179448080917839 -0.00049659962696931275 0 -0.00061003904561171562 -0.00046843253794795329 0 -0.00063174003976603703 -0.00049334438863769315 0 -0.00079214291874255872 -0.00045538560024867655 0 -0.00059266729489506698 -0.00051183253158910828 0 -0.00073487499751467291 -0.00057207058242538314 0 -0.00063174003976603703 -0.00049334438863769315 0 -0.00069027835451446239 -0.0004465759305714226 0 -0.00073487499751467291 -0.00057207058242538314 0 -0.00077666312065317476 -0.00046086091277878382 0 -0.00069027835451446239 -0.0004465759305714226 0 -0.00079214291874255872 -0.00045538560024867655 0 -0.00098681758438221262 -0.00034173365614047311 0 -0.00077666312065317476 -0.00046086091277878382 0 -0.00069027835451446239 -0.0004465759305714226 0 -0.00073755790964921534 -0.00039164896533764215 0 -0.0005552986553898397 -0.00044911551451379142 0 -0.0015548074696949494 -0.00035611491050672962 0 -0.00069027835451446239 -0.0004465759305714226 0 -0.00066009708991555168 -0.000391365604678399 0 -0.00073755790964921534 -0.00039164896533764215 0 -0.00066009708991555168 -0.000391365604678399 0 -0.00073755790964921534 -0.00039164896533764215 0 -0.00074092639778936475 -0.00031156588788408546 0 -0.00082739454670561206 -0.00034615184823083258 0 -0.00073755790964921534 -0.00039164896533764215 0 -0.00074092639778936475 -0.00031156588788408546 0 -0.00082739454670561206 -0.00034615184823083258 0 -0.00077666312065317476 -0.00046086091277878382 0 -0.00073755790964921534 -0.00039164896533764215 0 -0.0022258416924297417 -0.00028928542227007066 0 -0.001914345868462893 -0.00034297880132522538 0 -0.0022132227164596043 -7.263015194027468e-05 0 -0.0017893159202324361 -0.00027821642554402034 0 -0.0015548074696949494 -0.00035611491050672962 0 -0.0015548074696949494 -0.00035611491050672962 0 -0.0026576281350701603 -0.00019223122557429043 0 -0.00070934665857498927 -0.00042352859403011031 0 -0.00081268216914554025 -0.00034609618875030976 0 -0.00069536255095923704 -0.00030092686130512989 0 -0.0015548074696949494 -0.00035611491050672962 0 -0.0018738884733700081 -0.00037035964497604822 0 -0.00046919342530154509 -0.00051462198102893641 0 -0.0018738884733700081 -0.00037035964497604822 0 -0.00070934665857498927 -0.00042352859403011031 0 -0.00061668381255909881 -0.00038451625037536497 0 -0.00069536255095923704 -0.00030092686130512989 0 -0.00061003904561171562 -0.00046843253794795329 0 -0.00070934665857498927 -0.00042352859403011031 0 -0.00061668381255909881 -0.00038451625037536497 0 -0.00046919342530154509 -0.00051462198102893641 0 -0.00063424847599428285 -0.00044524879215865809 0 -0.00061003904561171562 -0.00046843253794795329 0 -0.00061668381255909881 -0.00038451625037536497 0 -0.00057790594623305163 -0.00044897873557924882 0 -0.00065432359187864186 -0.00049231552436457943 0 -0.00063351405505054751 -0.0004869926859064298 0 -0.00065188724245233282 -0.00047817042694314196 0 -0.00063351405505054751 -0.0004869926859064298 0 -0.00063004881303146184 -0.00048481620186948164 0 -0.00061439838302028503 -0.00048708627697793892 0 -0.00063351405505054751 -0.0004869926859064298 0 -0.00063004881303146184 -0.00048481620186948164 0 -0.00063797518579667757 -0.00048617522236712188 0 -0.00063004881303146184 -0.00048481620186948164 0 -0.00061439838302028503 -0.00048708627697793892 0 -0.00062013291452486829 -0.00048456210044369011 0 -0.00065432359187864186 -0.00049231552436457943 0 -0.00063351405505054751 -0.0004869926859064298 0 -0.00062695706491063127 -0.0004927946437717763 0 -0.00063351405505054751 -0.0004869926859064298 0 -0.00061439838302028503 -0.00048708627697793892 0 -0.00062695706491063127 -0.0004927946437717763 0 -0.00078308191758646377 -0.00034083633461006531 0 -0.00078925549251732336 -0.00040707619832109769 0 -0.00072331935870115834 -0.00039356568442062647 0 -0.00074239702425497856 -0.00029373665346431164 0 -0.00078308191758646377 -0.00034083633461006531 0 -0.00072331935870115834 -0.00039356568442062647 0 -0.00062013291452486829 -0.00048456210044369011 0 -0.00061087692210964211 -0.00048509474706437628 0 -0.00064724803798818455 -0.00048426749204288802 0 -0.00067829840281533353 -0.00038280279521603691 0 -0.00068505835723060989 -0.00044512538467128771 0 -0.00063004881303146184 -0.00048481620186948164 0 -0.00062013291452486829 -0.00048456210044369011 0 -0.00064724803798818455 -0.00048426749204288802 0 -0.00061439838302028503 -0.00048708627697793892 0 -0.00062013291452486829 -0.00048456210044369011 0 -0.0006021482044705922 -0.00048539719319907744 0 -0.00062013291452486829 -0.00048456210044369011 0 -0.00061087692210964211 -0.00048509474706437628 0 -0.0006021482044705922 -0.00048539719319907744 0 -0.00074239702425497856 -0.00029373665346431164 0 -0.00076295246670970973 -0.00025839466154854777 0 -0.00078057630250781757 -0.00029714717976173251 0 -0.00074239702425497856 -0.00029373665346431164 0 -0.00078057630250781757 -0.00029714717976173251 0 -0.00078308191758646377 -0.00034083633461006531 0 -0.00061087692210964211 -0.00048509474706437628 0 -0.00059843013578174539 -0.00048394734400073678 0 -0.0006021482044705922 -0.00048539719319907744 0 -0.00061087692210964211 -0.00048509474706437628 0 -0.00059843013578174539 -0.00048394734400073678 0 -0.00059041496559337396 -0.00048108746951734752 0 -0.00074239702425497856 -0.00029373665346431164 0 -0.00076295246670970973 -0.00025839466154854777 0 -0.00075112495993189942 -0.00023199046101040005 0 -0.00067829840281533353 -0.00038280279521603691 0 -0.00066164188142421392 -0.00039290432936755576 0 -0.0006021482044705922 -0.00048539719319907744 0 -0.00058660519033324387 -0.00048329518223758897 0 -0.00058801002689756136 -0.00048433732959368047 0 -0.00059843013578174539 -0.00048394734400073678 0 -0.0006021482044705922 -0.00048539719319907744 0 -0.00058660519033324387 -0.00048329518223758897 0 -0.00059843013578174539 -0.00048394734400073678 0 -0.00058660519033324387 -0.00048329518223758897 0 -0.0005886546464321233 -0.00048254752736780015 0 -0.00057430528454344989 -0.00048733248704908963 0 -0.00058660519033324387 -0.00048329518223758897 0 -0.00057592812406401391 -0.00048859282999457647 0 -0.00057430528454344989 -0.00048733248704908963 0 -0.00058660519033324387 -0.00048329518223758897 0 -0.00058019840206567251 -0.00048062111060868414 0 -0.00057430528454344989 -0.00048733248704908963 0 -0.00058019840206567251 -0.00048062111060868414 0 -0.00056422617839228925 -0.00048915003406195035 0 -0.00058660519033324387 -0.00048329518223758897 0 -0.00058019840206567251 -0.00048062111060868414 0 -0.0005886546464321233 -0.00048254752736780015 0 -0.00059843013578174539 -0.00048394734400073678 0 -0.0005886546464321233 -0.00048254752736780015 0 -0.00059041496559337396 -0.00048108746951734752 0 -0.00057101921267685169 -0.0004425881949804027 0 -0.00066164188142421392 -0.00039290432936755576 0 -0.00058019840206567251 -0.00048062111060868414 0 -0.0005886546464321233 -0.00048254752736780015 0 -0.00059041496559337396 -0.00048108746951734752 0 -0.00058019840206567251 -0.00048062111060868414 0 -0.0005632127714297559 -0.00048343395652146774 0 -0.00055414441439256238 -0.00047450274842108072 0 -0.00058019840206567251 -0.00048062111060868414 0 -0.0005632127714297559 -0.00048343395652146774 0 -0.00056422617839228925 -0.00048915003406195035 0 -0.0005632127714297559 -0.00048343395652146774 0 -0.0005538508440954147 -0.00048614337900970293 0 -0.00056422617839228925 -0.00048915003406195035 0 -0.00062883592841448982 -0.00045975842100966663 0 -0.00066164188142421392 -0.00039290432936755576 0 -0.0005632127714297559 -0.00048343395652146774 0 -0.0005538508440954147 -0.00048614337900970293 0 -0.00055414441439256238 -0.00047450274842108072 0 -0.00057790594623305163 -0.00044897873557924882 0 -0.00058801002689756136 -0.00048433732959368047 0 -0.00058603697635854204 -0.00048290001853133074 0 -0.00061439838302028503 -0.00048708627697793892 0 -0.00062695706491063127 -0.0004927946437717763 0 -0.00058801002689756136 -0.00048433732959368047 0 -0.00063424847599428285 -0.00044524879215865809 0 -0.00058088947690524209 -0.0004910608904322391 0 -0.00061439838302028503 -0.00048708627697793892 0 -0.0006021482044705922 -0.00048539719319907744 0 -0.00058801002689756136 -0.00048433732959368047 0 -0.00058660519033324387 -0.00048329518223758897 0 -0.00058801002689756136 -0.00048433732959368047 0 -0.00057592812406401391 -0.00048859282999457647 0 -0.00058801002689756136 -0.00048433732959368047 0 -0.00057527052702376579 -0.00049211754618732175 0 -0.00057592812406401391 -0.00048859282999457647 0 -0.00058801002689756136 -0.00048433732959368047 0 -0.00058603697635854204 -0.00048290001853133074 0 -0.00057527052702376579 -0.00049211754618732175 0 -0.00057566239441188944 -0.0005009567786038152 0 -0.00057527052702376579 -0.00049211754618732175 0 -0.00056470158568311076 -0.00050037993327359796 0 -0.00058329374114881281 -0.00049460669618195169 0 -0.00058603697635854204 -0.00048290001853133074 0 -0.00057527052702376579 -0.00049211754618732175 0 -0.00058329374114881281 -0.00049460669618195169 0 -0.00057566239441188944 -0.0005009567786038152 0 -0.00057527052702376579 -0.00049211754618732175 0 -0.00056445567573944471 -0.00050920098172430983 0 -0.00056470158568311076 -0.00050037993327359796 0 -0.00055553192470531596 -0.00050967704429862753 0 -0.00056445567573944471 -0.00050920098172430983 0 -0.00057566239441188944 -0.0005009567786038152 0 -0.00056470158568311076 -0.00050037993327359796 0 -0.00056470158568311076 -0.00050037993327359796 0 -0.0005627465196764819 -0.00049739329739050822 0 -0.00054848390418549481 -0.00050482136081693896 0 -0.00056470158568311076 -0.00050037993327359796 0 -0.00055553192470531596 -0.00050967704429862753 0 -0.00054848390418549481 -0.00050482136081693896 0 -0.00057527052702376579 -0.00049211754618732175 0 -0.0005627465196764819 -0.00049739329739050822 0 -0.00057592812406401391 -0.00048859282999457647 0 -0.0005627465196764819 -0.00049739329739050822 0 -0.00057592812406401391 -0.00048859282999457647 0 -0.00056627692325536951 -0.0004932047833797632 0 -0.00057527052702376579 -0.00049211754618732175 0 -0.00056470158568311076 -0.00050037993327359796 0 -0.0005627465196764819 -0.00049739329739050822 0 -0.00057430528454344989 -0.00048733248704908963 0 -0.00057592812406401391 -0.00048859282999457647 0 -0.00056627692325536951 -0.0004932047833797632 0 -0.00057430528454344989 -0.00048733248704908963 0 -0.00056151880533692941 -0.00049424933599691312 0 -0.00056422617839228925 -0.00048915003406195035 0 -0.00057430528454344989 -0.00048733248704908963 0 -0.00056151880533692941 -0.00049424933599691312 0 -0.00056627692325536951 -0.0004932047833797632 0 -0.00056151880533692941 -0.00049424933599691312 0 -0.00055240051662651358 -0.00049947897518829885 0 -0.00055303435551598546 -0.00050015639557270944 0 -0.00056151880533692941 -0.00049424933599691312 0 -0.00056627692325536951 -0.0004932047833797632 0 -0.00055303435551598546 -0.00050015639557270944 0 -0.0005627465196764819 -0.00049739329739050822 0 -0.00056627692325536951 -0.0004932047833797632 0 -0.00055303435551598546 -0.00050015639557270944 0 -0.0005538508440954147 -0.00048614337900970293 0 -0.0005507996702830407 -0.0004968846880328958 0 -0.00054120433273522706 -0.00050103126097473486 0 -0.0005538508440954147 -0.00048614337900970293 0 -0.00056422617839228925 -0.00048915003406195035 0 -0.0005507996702830407 -0.0004968846880328958 0 -0.00056151880533692941 -0.00049424933599691312 0 -0.00056422617839228925 -0.00048915003406195035 0 -0.0005507996702830407 -0.0004968846880328958 0 -0.00056151880533692941 -0.00049424933599691312 0 -0.0005507996702830407 -0.0004968846880328958 0 -0.00055240051662651358 -0.00049947897518829885 0 -0.0005507996702830407 -0.0004968846880328958 0 -0.00054359903459872121 -0.00050517637165244621 0 -0.00054120433273522706 -0.00050103126097473486 0 -0.0005507996702830407 -0.0004968846880328958 0 -0.00055240051662651358 -0.00049947897518829885 0 -0.00054359903459872121 -0.00050517637165244621 0 -0.00055240051662651358 -0.00049947897518829885 0 -0.00054359903459872121 -0.00050517637165244621 0 -0.00055303435551598546 -0.00050015639557270944 0 -0.0005627465196764819 -0.00049739329739050822 0 -0.00055303435551598546 -0.00050015639557270944 0 -0.00054848390418549481 -0.00050482136081693896 0 -0.00054359903459872121 -0.00050517637165244621 0 -0.00055303435551598546 -0.00050015639557270944 0 -0.00054149394052632803 -0.00050476426162700283 0 -0.00055303435551598546 -0.00050015639557270944 0 -0.00054149394052632803 -0.00050476426162700283 0 -0.00054848390418549481 -0.00050482136081693896 0 -0.00054359903459872121 -0.00050517637165244621 0 -0.00054149394052632803 -0.00050476426162700283 0 -0.00052368701818694761 -0.00050832429055896902 0 -0.00054149394052632803 -0.00050476426162700283 0 -0.00052368701818694761 -0.00050832429055896902 0 -0.00054848390418549481 -0.00050482136081693896 0 -0.00054359903459872121 -0.00050517637165244621 0 -0.00052368701818694761 -0.00050832429055896902 0 -0.00053937366974043455 -0.00050684367183780261 0 -0.00052323641300850105 -0.00047787253071144019 0 -0.000515101037929193 -0.00048859748231968843 0 -0.00053937366974043455 -0.00050684367183780261 0 -0.00052368701818694761 -0.00050832429055896902 0 -0.000515101037929193 -0.00048859748231968843 0 -0.00053937366974043455 -0.00050684367183780261 0 -0.00052454729134643514 -0.00047887521044580474 0 -0.00052822722381980485 -0.0004800971418165267 0 -0.00044592440058530434 -0.00046371110013957139 0 -0.00052368701818694761 -0.00050832429055896902 0 -0.000515101037929193 -0.00048859748231968843 0 -0.00049476091627347692 -0.00049239833332447003 0 -0.00051918911870450671 -0.00050682840014033804 0 -0.00054316672204593095 -0.00052650286688983117 0 -0.00052368701818694761 -0.00050832429055896902 0 -0.00054608931066040228 -0.00051580606043302019 0 -0.00054316672204593095 -0.00052650286688983117 0 -0.00054608931066040228 -0.00051580606043302019 0 -0.00054236818863030365 -0.00052352678816449977 0 -0.00054608931066040228 -0.00051580606043302019 0 -0.00054236818863030365 -0.00052352678816449977 0 -0.00055215090296852466 -0.00051665705039375277 0 -0.00054493803178364551 -0.00052301250418295211 0 -0.00054236818863030365 -0.00052352678816449977 0 -0.00055215090296852466 -0.00051665705039375277 0 -0.00054608931066040228 -0.00051580606043302019 0 -0.00055215090296852466 -0.00051665705039375277 0 -0.00055553192470531596 -0.00050967704429862753 0 -0.00056445567573944471 -0.00050920098172430983 0 -0.00055215090296852466 -0.00051665705039375277 0 -0.00055553192470531596 -0.00050967704429862753 0 -0.00052368701818694761 -0.00050832429055896902 0 -0.00054608931066040228 -0.00051580606043302019 0 -0.00054848390418549481 -0.00050482136081693896 0 -0.00054608931066040228 -0.00051580606043302019 0 -0.00055553192470531596 -0.00050967704429862753 0 -0.00054848390418549481 -0.00050482136081693896 0 -0.00016716391970085498 -0.00036215682186694877 0 -0.00011394284952277662 -0.00033303863670999524 0 -0.00013398865694395592 -0.00039431878115406971 0 -0.00016716391970085498 -0.00036215682186694877 0 -0.00015330400246880012 -0.00031333494949599172 0 -0.00020329438462785305 -0.00033135974984433055 0 -0.00017019658599023101 -0.00026744573597298611 0 -0.00015330400246880012 -0.00031333494949599172 0 -0.00020329438462785305 -0.00033135974984433055 0 -0.00016716391970085498 -0.00036215682186694877 0 -0.00015330400246880012 -0.00031333494949599172 0 -0.00011394284952277662 -0.00033303863670999524 0 -0.00049078819549896557 -0.00046523178582351979 0 -0.00050450671201451923 -0.00047329910016219218 0 -0.0005147980417800111 -0.00046583653937779315 0 -0.00052323641300850105 -0.00047787253071144019 0 -0.0005147980417800111 -0.00046583653937779315 0 -0.00051834537048772895 -0.00045474981634355082 0 -0.00052323641300850105 -0.00047787253071144019 0 -0.00052093434952653155 -0.00047739603368258303 0 -0.0005147980417800111 -0.00046583653937779315 0 -0.00052093434952653155 -0.00047739603368258303 0 -0.0005119850034196752 -0.00047481224840712687 0 -0.0005147980417800111 -0.00046583653937779315 0 -0.0005119850034196752 -0.00047481224840712687 0 -0.00050450671201451923 -0.00047329910016219218 0 -0.0005147980417800111 -0.00046583653937779315 0 -0.0005147980417800111 -0.00046583653937779315 0 -0.00051834537048772895 -0.00045474981634355082 0 -0.0005013854898386548 -0.00044419903772120701 0 -0.00030096574622898387 -0.00039703891653981209 0 -0.00031212861407900239 -0.00041401203271377549 0 -0.00049078819549896557 -0.00046523178582351979 0 -0.0005147980417800111 -0.00046583653937779315 0 -0.0005013854898386548 -0.00044419903772120701 0 -0.00049078819549896557 -0.00046523178582351979 0 -0.0005013854898386548 -0.00044419903772120701 0 -0.00047965875292407383 -0.000432760700528658 0 -0.0005013854898386548 -0.00044419903772120701 0 -0.00049216667392853032 -0.00041537772907346933 0 -0.00047965875292407383 -0.000432760700528658 0 -0.0005013854898386548 -0.00044419903772120701 0 -0.00051166929181872128 -0.00042686251155605123 0 -0.00049216667392853032 -0.00041537772907346933 0 -0.00054359903459872121 -0.00050517637165244621 0 -0.00053937366974043455 -0.00050684367183780261 0 -0.00054120433273522706 -0.00050103126097473486 0 -0.00052822722381980485 -0.0004800971418165267 0 -0.00052682668216481529 -0.00046591410314729317 0 -0.00051834537048772895 -0.00045474981634355082 0 -0.0005013854898386548 -0.00044419903772120701 0 -0.00051166929181872128 -0.00042686251155605123 0 -0.0005538508440954147 -0.00048614337900970293 0 -0.00054120433273522706 -0.00050103126097473486 0 -0.000537599685401161 -0.00048026888680447805 0 -0.00051166929181872128 -0.00042686251155605123 0 -0.00049216667392853032 -0.00041537772907346933 0 -0.00050462829587299724 -0.00039697096585503681 0 -0.00052682668216481529 -0.00046591410314729317 0 -0.00051894641531717242 -0.00042956611366919893 0 -0.00049216667392853032 -0.00041537772907346933 0 -0.00047965875292407383 -0.000432760700528658 0 -0.00047003041517967701 -0.00039674476081936121 0 -0.00013398865694395592 -0.00039431878115406971 0 -0.00017559340132251985 -0.00041776193625990229 0 -0.00015013921514233969 -0.00045613315920669574 0 -0.00031212861407900239 -0.00041401203271377549 0 -0.00027346474024410582 -0.00042595769181578465 0 -0.00016716391970085498 -0.00036215682186694877 0 -0.00013398865694395592 -0.00039431878115406971 0 -0.00017559340132251985 -0.00041776193625990229 0 -0.00016716391970085498 -0.00036215682186694877 0 -0.00017559340132251985 -0.00041776193625990229 0 -0.00020986877548584515 -0.00039749845276942545 0 -0.00017559340132251985 -0.00041776193625990229 0 -0.00020986877548584515 -0.00039749845276942545 0 -0.00020994407470417635 -0.00045273113308567616 0 -0.00017559340132251985 -0.00041776193625990229 0 -0.00015013921514233969 -0.00045613315920669574 0 -0.00020994407470417635 -0.00045273113308567616 0 -0.00024995080288623783 -0.00046442112265737386 0 -0.00024777432799060319 -0.00045124432854206389 0 -0.00020994407470417635 -0.00045273113308567616 0 -0.00027346474024410582 -0.00042595769181578465 0 -0.00017972254511409584 -0.00046103932006160716 0 -0.00025229509267956572 -0.00047225677625104028 0 -0.00024777432799060319 -0.00045124432854206389 0 -0.00027287890933008557 -0.00045587713884308215 0 -0.00027346474024410582 -0.00042595769181578465 0 -0.00025997006474477729 -0.00045802290290458572 0 -0.00024777432799060319 -0.00045124432854206389 0 -0.00027287890933008557 -0.00045587713884308215 0 -0.00026648601919765532 -0.00043860513773401588 0 -0.00024777432799060319 -0.00045124432854206389 0 -0.00024187636338825631 -0.00043739176421256327 0 -0.00026648601919765532 -0.00043860513773401588 0 -0.00024777432799060319 -0.00045124432854206389 0 -0.00024187636338825631 -0.00043739176421256327 0 -0.00022469855269725234 -0.00044263398929533522 0 -0.00024777432799060319 -0.00045124432854206389 0 -0.00022469855269725234 -0.00044263398929533522 0 -0.00020994407470417635 -0.00045273113308567616 0 -0.0005538508440954147 -0.00048614337900970293 0 -0.00055455151495826887 -0.00048061129053845461 0 -0.000537599685401161 -0.00048026888680447805 0 -0.00066164188142421392 -0.00039290432936755576 0 -0.00051894641531717242 -0.00042956611366919893 0 -0.00076295246670970973 -0.00025839466154854777 0 -0.00075112495993189942 -0.00023199046101040005 0 -0.00078016027598796513 -0.00023758972023966719 0 -0.00025229509267956572 -0.00047225677625104028 0 -0.00030281340559696257 -0.00047254065784737149 0 -0.00027287890933008557 -0.00045587713884308215 0 -0.00049216667392853032 -0.00041537772907346933 0 -0.00047003041517967701 -0.00039674476081936121 0 -0.00050462829587299724 -0.00039697096585503681 0 -0.00027346474024410582 -0.00042595769181578465 0 -0.00051894641531717242 -0.00042956611366919893 0 -0.00027287890933008557 -0.00045587713884308215 0 -0.00026648601919765532 -0.00043860513773401588 0 -0.0002949976871104623 -0.00044523581404179994 0 -0.00026648601919765532 -0.00043860513773401588 0 -0.0002949976871104623 -0.00044523581404179994 0 -0.00028837431175148442 -0.00042152934912943518 0 -0.00053949278338516493 -0.00034324666439615817 0 -0.00062903381088650332 -0.00032752336217487887 0 -0.00030281340559696257 -0.00047254065784737149 0 -0.00027287890933008557 -0.00045587713884308215 0 -0.0002949976871104623 -0.00044523581404179994 0 -0.00082394560942902989 -0.00026692412214854733 0 -0.00062903381088650332 -0.00032752336217487887 0 -0.00076295246670970973 -0.00025839466154854777 0 -0.00078016027598796513 -0.00023758972023966719 0 -0.00078343072434944034 -0.00026076086246518105 0 -0.00076295246670970973 -0.00025839466154854777 0 -0.00078343072434944034 -0.00026076086246518105 0 -0.00078647578820119726 -0.00028095103921924139 0 -0.00051894641531717242 -0.00042956611366919893 0 -0.00053949278338516493 -0.00034324666439615817 0 -0.00076295246670970973 -0.00025839466154854777 0 -0.00078057630250781757 -0.00029714717976173251 0 -0.00083574216582005766 -0.0003005453958105363 0 -0.00078057630250781757 -0.00029714717976173251 0 -0.00083574216582005766 -0.0003005453958105363 0 -0.00078308191758646377 -0.00034083633461006531 0 -0.00026648601919765532 -0.00043860513773401588 0 -0.00028837431175148442 -0.00042152934912943518 0 -0.00025502409514851631 -0.0004227325415791667 0 -0.00062903381088650332 -0.00032752336217487887 0 -0.00075851648911495144 -0.00038358134316059843 0 -0.00062903381088650332 -0.00032752336217487887 0 -0.00054722457575702779 -0.00048203554624552252 0 -0.00065850601040564108 -0.00038096372512281683 0 -0.00066475553715868033 -0.00040899839850676864 0 -0.00069641374125841294 -0.00041546149568447767 0 -0.00066475553715868033 -0.00040899839850676864 0 -0.00069641374125841294 -0.00041546149568447767 0 -0.00067138123143588757 -0.00043659277856080282 0 -0.00083574216582005766 -0.0003005453958105363 0 -0.00085579017588079814 -0.00035413443463054898 0 -0.00081736204679119014 -0.00036700315724005563 0 -0.00075851648911495144 -0.00038358134316059843 0 -0.00083716174401211863 -0.00044689448197866486 0 -0.00085579017588079814 -0.00035413443463054898 0 -0.00081736204679119014 -0.00036700315724005563 0 -0.00084177569782310118 -0.00039961637361695892 0 -0.00085579017588079814 -0.00035413443463054898 0 -0.00084177569782310118 -0.00039961637361695892 0 -0.00087989807248664272 -0.00041228174483911678 0 -0.00081736204679119014 -0.00036700315724005563 0 -0.00078308191758646377 -0.00034083633461006531 0 -0.00078925549251732336 -0.00040707619832109769 0 -0.00083574216582005766 -0.0003005453958105363 0 -0.00081736204679119014 -0.00036700315724005563 0 -0.00078308191758646377 -0.00034083633461006531 0 -0.00024187636338825631 -0.00043739176421256327 0 -0.00022659995996482721 -0.00042018388999728201 0 -0.00025502409514851631 -0.0004227325415791667 0 -0.00024187636338825631 -0.00043739176421256327 0 -0.00022469855269725234 -0.00044263398929533522 0 -0.00022659995996482721 -0.00042018388999728201 0 -0.00022469855269725234 -0.00044263398929533522 0 -0.00022659995996482721 -0.00042018388999728201 0 -0.00021263181495565593 -0.00044658266694608842 0 -0.00028837431175148442 -0.00042152934912943518 0 -0.00025502409514851631 -0.0004227325415791667 0 -0.00025489281533433238 -0.00039549444762627782 0 -0.00022659995996482721 -0.00042018388999728201 0 -0.00025502409514851631 -0.0004227325415791667 0 -0.00025489281533433238 -0.00039549444762627782 0 -0.00024187636338825631 -0.00043739176421256327 0 -0.00026648601919765532 -0.00043860513773401588 0 -0.00025502409514851631 -0.0004227325415791667 0 -0.00054722457575702779 -0.00048203554624552252 0 -0.00083716174401211863 -0.00044689448197866486 0 -0.00072705292664104802 -0.00068972806577740503 0 -0.00027544500963153101 -0.0007077323304629519 0 -0.00050812575353175447 -0.00059910137415573785 0 -0.00046408576621691455 -0.00060386817856065587 0 -0.00045527976304128858 -0.00055314734779179106 0 -0.00045004622531429804 -0.00064565600747600645 0 -0.00050812575353175447 -0.00059910137415573785 0 -0.00046408576621691455 -0.00060386817856065587 0 -0.00031656067360314252 -0.0005422888137390715 0 -0.00054722457575702779 -0.00048203554624552252 0 -0.00046408576621691455 -0.00060386817856065587 0 -0.00045527976304128858 -0.00055314734779179106 0 -0.00042295267111821627 -0.00062207984247453804 0 -0.00045004622531429804 -0.00064565600747600645 0 -0.00046408576621691455 -0.00060386817856065587 0 -0.00042295267111821627 -0.00062207984247453804 0 -0.00054722457575702779 -0.00048203554624552252 0 -0.00072705292664104802 -0.00068972806577740503 0 -0.00090278295071405357 -0.00056293075109922698 0 -0.00088164631022876611 -0.0005443831804913447 0 -0.00090579802123311876 -0.00053356054991961156 0 -0.00090278295071405357 -0.00056293075109922698 0 -0.00090579802123311876 -0.00053356054991961156 0 -0.00092385739308903088 -0.00054657727022510371 0 -0.00090579802123311876 -0.00053356054991961156 0 -0.00092033995255582171 -0.00051297867047392365 0 -0.00092385739308903088 -0.00054657727022510371 0 -0.00090579802123311876 -0.00053356054991961156 0 -0.00089897438897519133 -0.00051125268865884611 0 -0.00092033995255582171 -0.00051297867047392365 0 -0.00088164631022876611 -0.0005443831804913447 0 -0.00090579802123311876 -0.00053356054991961156 0 -0.00089897438897519133 -0.00051125268865884611 0 -0.00072705292664104802 -0.00068972806577740503 0 -0.0011140571700739854 -0.00055782353074162138 0 -0.0011871177559264273 -0.00086860934587074015 0 -0.0012982983476186214 -0.00062154159768107616 0 -0.0010343832942996505 -0.00073421803194364155 0 -0.0012982983476186214 -0.00062154159768107616 0 -0.0014116656745243347 -0.00037031233516669645 0 -0.0011351103463793128 -0.00044214266328894501 0 -0.0012982983476186214 -0.00062154159768107616 0 -0.0011351103463793128 -0.00044214266328894501 0 -0.0010343832942996505 -0.00073421803194364155 0 -0.0013542231613134707 -0.00046164065234421221 0 -0.00088675482399352588 -0.0005400898252008753 0 -0.0011140571700739854 -0.00055782353074162138 0 -0.0013542231613134707 -0.00046164065234421221 0 -0.00089897438897519133 -0.00051125268865884611 0 -0.00091880728123076296 -0.00047717546627955553 0 -0.00092033995255582171 -0.00051297867047392365 0 -0.0014116656745243347 -0.00037031233516669645 0 -0.0014071917250625286 -0.00034751374701705626 0 -0.0011351103463793128 -0.00044214266328894501 0 -0.0014071917250625286 -0.00034751374701705626 0 -0.0013948742824677295 -0.00028489780548402593 0 -0.0011351103463793128 -0.00044214266328894501 0 -0.0021484219030109158 -0.00058691991333629525 0 -0.0021005711338478832 -0.00036077745483988814 0 -0.0023702895708832381 -0.00019661200696104937 0 -0.0016766206422595424 -0.00045632690999888241 0 -0.0028707211806478518 -0.0003296979196187575 0 -0.0013542231613134707 -0.00046164065234421221 0 -0.0016766206422595424 -0.00045632690999888241 0 -0.0016766206422595424 -0.00045632690999888241 0 -0.0019887005482714516 -0.00033293340785869679 0 -0.0023684201430136634 -0.00030052688541320506 0 -0.0017902534816784444 -0.0006327765591883389 0 -0.0019995188980832211 -0.00021365645702297505 0 -0.0019887005482714516 -0.00033293340785869679 0 -0.0014822827438513507 -0.00053020660810669767 0 -0.0017902534816784444 -0.0006327765591883389 0 -0.0019995188980832211 -0.00021365645702297505 0 -0.0016106190350633539 -0.00015378886026421194 0 -0.002795206182084464 -0.00014948513537494539 0 -0.0027076834800067919 -0.00023305659444305545 0 -0.002871632578546775 -0.00023229081200935308 0 -0.0027158423846271418 -0.00011692240131499403 0 -0.0026120049115122162 -0.00010488616847652198 0 -0.0027076834800067919 -0.00023305659444305545 0 -0.002795206182084464 -0.00014948513537494539 0 -0.0027158423846271418 -0.00011692240131499403 0 -0.0027076834800067919 -0.00023305659444305545 0 -0.002795206182084464 -0.00014948513537494539 0 -0.0027158423846271418 -0.00011692240131499403 0 -0.0027997416722769235 -6.0685741637423958e-05 0 -0.0027158423846271418 -0.00011692240131499403 0 -0.0026916201952848569 -2.1467680363874305e-05 0 -0.0027997416722769235 -6.0685741637423958e-05 0 -0.0027158423846271418 -0.00011692240131499403 0 -0.0026120049115122162 -0.00010488616847652198 0 -0.0026916201952848569 -2.1467680363874305e-05 0 -0.0016766206422595424 -0.00045632690999888241 0 -0.0017682161267909525 -0.00040876674733430075 0 -0.0024342651639496331 -0.00012628595355939268 0 -0.0026120049115122162 -0.00010488616847652198 0 -0.0027076834800067919 -0.00023305659444305545 0 -0.00096173365203374177 -0.00065054595924317392 0 -0.0009647437308186634 -0.0006613354837319206 0 -0.0008251387535023238 -0.00060442574120830764 0 -0.0024342651639496331 -0.00012628595355939268 0 -0.0026120049115122162 -0.00010488616847652198 0 -0.0024956811705596107 -2.3047167054635483e-05 0 -0.0008251387535023238 -0.00060442574120830764 0 -0.00092353516524224303 -0.00052613560747694771 0 -0.00084436740408009431 -0.00050324197561547803 0 -0.00096173365203374177 -0.00065054595924317392 0 -0.0008251387535023238 -0.00060442574120830764 0 -0.00092353516524224303 -0.00052613560747694771 0 -0.0008251387535023238 -0.00060442574120830764 0 -0.00079421038613332871 -0.00054081816893038312 0 -0.00069150117316881085 -0.00053942628877848742 0 -0.0008251387535023238 -0.00060442574120830764 0 -0.00079421038613332871 -0.00054081816893038312 0 -0.00084436740408009431 -0.00050324197561547803 0 -0.00079421038613332871 -0.00054081816893038312 0 -0.0008066716520762088 -0.00049075616350169207 0 -0.00075299010033847195 -0.00050858672726104034 0 -0.00079421038613332871 -0.00054081816893038312 0 -0.0008066716520762088 -0.00049075616350169207 0 -0.00084436740408009431 -0.00050324197561547803 0 -0.0008066716520762088 -0.00049075616350169207 0 -0.00084436740408009431 -0.00050324197561547803 0 -0.00083128150677257617 -0.00044586739369003209 0 -0.0008066716520762088 -0.00049075616350169207 0 -0.00079238263938925444 -0.0004508372179109105 0 -0.00083128150677257617 -0.00044586739369003209 0 -0.00077461275705088036 -0.00047718073450543646 0 -0.00079238263938925444 -0.0004508372179109105 0 -0.00075057509812166169 -0.00045815155723626111 0 -0.0008066716520762088 -0.00049075616350169207 0 -0.00077461275705088036 -0.00047718073450543646 0 -0.00079238263938925444 -0.0004508372179109105 0 -0.0008066716520762088 -0.00049075616350169207 0 -0.00077461275705088036 -0.00047718073450543646 0 -0.00075299010033847195 -0.00050858672726104034 0 -0.00088675482399352588 -0.0005400898252008753 0 -0.00083716174401211863 -0.00044689448197866486 0 -0.00092353516524224303 -0.00052613560747694771 0 -0.00084436740408009431 -0.00050324197561547803 0 -0.0008747741757591036 -0.00041717374496893546 0 -0.00084436740408009431 -0.00050324197561547803 0 -0.0008747741757591036 -0.00041717374496893546 0 -0.00083128150677257617 -0.00044586739369003209 0 -0.00092353516524224303 -0.00052613560747694771 0 -0.0008747741757591036 -0.00041717374496893546 0 -0.0008816408516725832 -0.00041128935104426761 0 -0.00084177569782310118 -0.00039961637361695892 0 -0.0008747741757591036 -0.00041717374496893546 0 -0.00083128150677257617 -0.00044586739369003209 0 -0.00084177569782310118 -0.00039961637361695892 0 -0.0008747741757591036 -0.00041717374496893546 0 -0.00087989807248664272 -0.00041228174483911678 0 -0.00084257674626456256 -0.00044249780134559234 0 -0.00083716174401211863 -0.00044689448197866486 0 -0.00079238263938925444 -0.0004508372179109105 0 -0.00078925549251732336 -0.00040707619832109769 0 -0.00075057509812166169 -0.00045815155723626111 0 -0.00079238263938925444 -0.0004508372179109105 0 -0.00083128150677257617 -0.00044586739369003209 0 -0.00078925549251732336 -0.00040707619832109769 0 -0.00081736204679119014 -0.00036700315724005563 0 -0.00084177569782310118 -0.00039961637361695892 0 -0.00078925549251732336 -0.00040707619832109769 0 -0.00084177569782310118 -0.00039961637361695892 0 -0.00083128150677257617 -0.00044586739369003209 0 -0.00078925549251732336 -0.00040707619832109769 0 -0.00068505835723060989 -0.00044512538467128771 0 -0.00069071351691948456 -0.00051701802103296709 0 -0.00072331935870115834 -0.00039356568442062647 0 -0.00069304537903838379 -0.00051923462354959904 0 -0.00075057509812166169 -0.00045815155723626111 0 -0.00078925549251732336 -0.00040707619832109769 0 -0.00072331935870115834 -0.00039356568442062647 0 -0.00075057509812166169 -0.00045815155723626111 0 -0.00063004881303146184 -0.00048481620186948164 0 -0.00064724803798818455 -0.00048426749204288802 0 -0.00064801490042010516 -0.00048974320408313305 0 -0.00064724803798818455 -0.00048426749204288802 0 -0.00064801490042010516 -0.00048974320408313305 0 -0.00069304537903838379 -0.00051923462354959904 0 -0.00064801490042010516 -0.00048974320408313305 0 -0.00069304537903838379 -0.00051923462354959904 0 -0.00064378391307339195 -0.00049949680324421744 0 -0.00069304537903838379 -0.00051923462354959904 0 -0.00064378391307339195 -0.00049949680324421744 0 -0.00069150117316881085 -0.00053942628877848742 0 -0.0018582208839599205 -0.00040777580089066176 0 -0.0018093631756212255 -0.00042165675525267747 0 -0.00069304537903838379 -0.00051923462354959904 0 -0.00075299010033847195 -0.00050858672726104034 0 -0.00069150117316881085 -0.00053942628877848742 0 -0.00069304537903838379 -0.00051923462354959904 0 -0.00075299010033847195 -0.00050858672726104034 0 -0.00075057509812166169 -0.00045815155723626111 0 -0.00077461275705088036 -0.00047718073450543646 0 -0.00075299010033847195 -0.00050858672726104034 0 -0.00075057509812166169 -0.00045815155723626111 0 -0.00063797518579667757 -0.00048617522236712188 0 -0.00064378391307339195 -0.00049949680324421744 0 -0.00065188724245233282 -0.00047817042694314196 0 -0.00063351405505054751 -0.0004869926859064298 0 -0.00063797518579667757 -0.00048617522236712188 0 -0.00065188724245233282 -0.00047817042694314196 0 -0.00064801490042010516 -0.00048974320408313305 0 -0.00063797518579667757 -0.00048617522236712188 0 -0.00064378391307339195 -0.00049949680324421744 0 -0.00063004881303146184 -0.00048481620186948164 0 -0.00064801490042010516 -0.00048974320408313305 0 -0.00063797518579667757 -0.00048617522236712188 0 -0.0030785181137700408 -0.00032092314072231664 0 -0.0031389658856052264 -0.00027811116943827552 0 -0.0031392038194206391 -0.0002787376178820857 0 -0.0018582208839599205 -0.00040777580089066176 0 -0.001899162302337465 -0.00038090020742543657 0 -0.0031389658856052264 -0.00027811116943827552 0 -0.0030394449935310106 -0.0002521926378864413 0 -0.0032022472673998879 -0.00024154702880997415 0 -0.0031389658856052264 -0.00027811116943827552 0 -0.0032022472673998879 -0.00024154702880997415 0 -0.0031585247535390101 -0.00026490992624070791 0 -0.0030785181137700408 -0.00032092314072231664 0 -0.0031389658856052264 -0.00027811116943827552 0 -0.0030394449935310106 -0.0002521926378864413 0 -0.0030394449935310106 -0.0002521926378864413 0 -0.0030069267149911601 -0.00013328012600832619 0 -0.0031628541225719327 -0.00012024117615307576 0 -0.0030394449935310106 -0.0002521926378864413 0 -0.0032022472673998879 -0.00024154702880997415 0 -0.0031628541225719327 -0.00012024117615307576 0 -0.00079421038613332871 -0.00054081816893038312 0 -0.00075299010033847195 -0.00050858672726104034 0 -0.00069150117316881085 -0.00053942628877848742 0 -0.0017682161267909525 -0.00040876674733430075 0 -0.0018093631756212255 -0.00042165675525267747 0 -0.0027076834800067919 -0.00023305659444305545 0 -0.002871632578546775 -0.00023229081200935308 0 -0.002927146602150633 -0.00030395096657229588 0 -0.0030394449935310106 -0.0002521926378864413 0 -0.002871632578546775 -0.00023229081200935308 0 -0.002927146602150633 -0.00030395096657229588 0 -0.0030785181137700408 -0.00032092314072231664 0 -0.0030394449935310106 -0.0002521926378864413 0 -0.002927146602150633 -0.00030395096657229588 0 -0.0030394449935310106 -0.0002521926378864413 0 -0.002871632578546775 -0.00023229081200935308 0 -0.0030069267149911601 -0.00013328012600832619 0 -0.0028810127485849172 -0.00022711749476490378 0 -0.0030477407231530194 -8.6598402615171399e-05 0 -0.002795206182084464 -0.00014948513537494539 0 -0.002871632578546775 -0.00023229081200935308 0 -0.0028847200810103173 -6.1898339536944726e-05 0 -0.002871632578546775 -0.00023229081200935308 0 -0.0028847200810103173 -6.1898339536944726e-05 0 -0.0030973607641299134 -4.0669423108939045e-05 0 -0.002795206182084464 -0.00014948513537494539 0 -0.0028847200810103173 -6.1898339536944726e-05 0 -0.0027997416722769235 -6.0685741637423958e-05 0 -0.0028847200810103173 -6.1898339536944726e-05 0 -0.0028133275672677541 2.2850157881152877e-05 0 -0.0029262061476869436 8.4229831157938179e-05 0 -0.0028133275672677541 2.2850157881152877e-05 0 -0.0029262061476869436 8.4229831157938179e-05 0 -0.0027442448337119535 0.00012278225717046818 0 -0.0028847200810103173 -6.1898339536944726e-05 0 -0.0028133275672677541 2.2850157881152877e-05 0 -0.0027997416722769235 -6.0685741637423958e-05 0 -0.0028847200810103173 -6.1898339536944726e-05 0 -0.0029262061476869436 8.4229831157938179e-05 0 -0.0030973607641299134 -4.0669423108939045e-05 0 -0.0029262061476869436 8.4229831157938179e-05 0 -0.0030973607641299134 -4.0669423108939045e-05 0 -0.0030814630185929171 0.00013854502400232883 0 -0.0029262061476869436 8.4229831157938179e-05 0 -0.0030814630185929171 0.00013854502400232883 0 -0.0029789381044849567 0.00026227369129829491 0 -0.0030814630185929171 0.00013854502400232883 0 -0.0030965513673481028 0.00023912524943971796 0 -0.0029789381044849567 0.00026227369129829491 0 -0.0047644715884666098 -0.0002915068765057847 0 -0.0043933300086196753 -0.00031249502980479419 0 -0.0043315604988469359 -0.0005802425013891236 0 -0.003911789376795735 -1.5911572195949165e-05 0 -0.0035816438121816434 -0.00023570539313270337 0 -0.0029262061476869436 8.4229831157938179e-05 0 -0.0029789381044849567 0.00026227369129829491 0 -0.0027442448337119535 0.00012278225717046818 0 -0.0032022472673998879 -0.00024154702880997415 0 -0.0031628541225719327 -0.00012024117615307576 0 -0.0033446210005686127 -0.00012652880869589605 0 -0.0031628541225719327 -0.00012024117615307576 0 -0.0031520457705961936 3.9151709509536299e-05 0 -0.0033446210005686127 -0.00012652880869589605 0 -0.0030973607641299134 -4.0669423108939045e-05 0 -0.0030814630185929171 0.00013854502400232883 0 -0.0032921749794054857 0.00014827229053087547 0 -0.0030069267149911601 -0.00013328012600832619 0 -0.0031628541225719327 -0.00012024117615307576 0 -0.0031520457705961936 3.9151709509536299e-05 0 -0.0030477407231530194 -8.6598402615171399e-05 0 -0.0032286811696884288 9.6029694221586181e-05 0 -0.0030814630185929171 0.00013854502400232883 0 -0.0030965513673481028 0.00023912524943971796 0 -0.0032921749794054857 0.00014827229053087547 0 -0.0030965513673481028 0.00023912524943971796 0 -0.0032921749794054857 0.00014827229053087547 0 -0.0032279788507635337 0.00027805761717491476 0 -0.0032286811696884288 9.6029694221586181e-05 0 -0.0034571799827533686 0.00029734639216141411 0 -0.0033272074057743056 0.00033690156536063978 0 -0.0032279788507635337 0.00027805761717491476 0 -0.0031950618421824639 0.00038681581577412012 0 -0.0032921749794054857 0.00014827229053087547 0 -0.0033272074057743056 0.00033690156536063978 0 -0.0032279788507635337 0.00027805761717491476 0 -0.0032921749794054857 0.00014827229053087547 0 -0.0033272074057743056 0.00033690156536063978 0 -0.0034708957093516528 0.00030790784169554687 0 -0.0030012470146977498 0.00021813402678590513 0 -0.0038583298048925165 0.00023218852147901425 0 -0.0030965513673481028 0.00023912524943971796 0 -0.0032279788507635337 0.00027805761717491476 0 -0.0031950618421824639 0.00038681581577412012 0 -0.0048700589359244482 0.00021925105121483414 0 -0.0048708447818044658 3.0296482470884768e-06 0 -0.0050581030086830816 -7.2782633735102382e-05 0 -0.0051441830819146106 5.4743782803360261e-05 0 -0.004901350314711039 -5.5307426694791795e-05 0 -0.0049491445486228355 8.235864866251907e-05 0 -0.0047860450261649817 4.133559353909407e-05 0 -0.0048809857554922825 0.00011393026793832948 0 -0.0038583298048925165 0.00023218852147901425 0 -0.0048700589359244482 0.00021925105121483414 0 -0.0038583298048925165 0.00023218852147901425 0 -0.0043574166843046097 0.00037388702532155127 0 -0.0033272074057743056 0.00033690156536063978 0 -0.0031950618421824639 0.00038681581577412012 0 -0.0033432557506732101 0.000495652584617571 0 -0.0033272074057743056 0.00033690156536063978 0 -0.0033432557506732101 0.000495652584617571 0 -0.0034244589090209237 0.00041668782087585557 0 -0.0041382782744279886 0.00017737229073238521 0 -0.0042882065563742289 0.00039464710391853906 0 -0.0045063696388463158 0.00040461086134207884 0 -0.0048700589359244482 0.00021925105121483414 0 -0.0043574166843046097 0.00037388702532155127 0 -0.0045866172773640175 -0.00012436316983451657 0 -0.0047644715884666098 -0.0002915068765057847 0 -0.0043933300086196753 -0.00031249502980479419 0 -0.0045866172773640175 -0.00012436316983451657 0 -0.0047683746417467587 -0.00011534406129279966 0 -0.0047330110013355711 -3.0909268435463045e-05 0 -0.0045866172773640175 -0.00012436316983451657 0 -0.0047644715884666098 -0.0002915068765057847 0 -0.0047683746417467587 -0.00011534406129279966 0 -0.0050581030086830816 -7.2782633735102382e-05 0 -0.0047644715884666098 -0.0002915068765057847 0 -0.004901350314711039 -5.5307426694791795e-05 0 -0.0038583298048925165 0.00023218852147901425 0 -0.003911789376795735 -1.5911572195949165e-05 0 -0.0030965513673481028 0.00023912524943971796 0 -0.0032217419005686667 0.00040582233841277184 0 -0.0029789381044849567 0.00026227369129829491 0 -0.0047644715884666098 -0.0002915068765057847 0 -0.0047683746417467587 -0.00011534406129279966 0 -0.004901350314711039 -5.5307426694791795e-05 0 -0.0051441830819146106 5.4743782803360261e-05 0 -0.004901350314711039 -5.5307426694791795e-05 0 -0.0047860450261649817 4.133559353909407e-05 0 -0.0047683746417467587 -0.00011534406129279966 0 -0.0047977697249761602 -3.9449312033150066e-05 0 -0.004901350314711039 -5.5307426694791795e-05 0 -0.0047683746417467587 -0.00011534406129279966 0 -0.0047977697249761602 -3.9449312033150066e-05 0 -0.0047330110013355711 -3.0909268435463045e-05 0 -0.0047977697249761602 -3.9449312033150066e-05 0 -0.004901350314711039 -5.5307426694791795e-05 0 -0.0047860450261649817 4.133559353909407e-05 0 -0.0047977697249761602 -3.9449312033150066e-05 0 -0.0047860450261649817 4.133559353909407e-05 0 -0.0047330110013355711 -3.0909268435463045e-05 0 -0.0046734729440323511 3.0694192210166045e-05 0 -0.0044260693264566641 0.00012045128576246286 0 -0.0045112017107299647 -1.0614555348806838e-05 0 -0.0047860450261649817 4.133559353909407e-05 0 -0.0046734729440323511 3.0694192210166045e-05 0 -0.0047337616572251965 0.0001533276690236357 0 -0.0047860450261649817 4.133559353909407e-05 0 -0.0046734729440323511 3.0694192210166045e-05 0 -0.0047330110013355711 -3.0909268435463045e-05 0 -0.0045866172773640175 -0.00012436316983451657 0 -0.0046734729440323511 3.0694192210166045e-05 0 -0.0047330110013355711 -3.0909268435463045e-05 0 -0.0045866172773640175 -0.00012436316983451657 0 -0.0046734729440323511 3.0694192210166045e-05 0 -0.0045112017107299647 -1.0614555348806838e-05 0 -0.0044260693264566641 0.00012045128576246286 0 -0.0045112017107299647 -1.0614555348806838e-05 0 -0.0043237666104212159 -0.00013318456450058785 0 -0.0040321015283630492 0.00043524611692803071 0 -0.0038626995052748365 4.3208691103263922e-05 0 -0.0036964988998644762 0.00023648399441817915 0 -0.004285488193639316 0.00011809346238765027 0 -0.003761027476508048 0.00021599768370996703 0 -0.004285488193639316 0.00011809346238765027 0 -0.0039614526967816574 7.2115710418020441e-05 0 -0.0045866172773640175 -0.00012436316983451657 0 -0.0041987692050623002 -0.00010619961635332949 0 -0.0043933300086196753 -0.00031249502980479419 0 -0.0045866172773640175 -0.00012436316983451657 0 -0.0045112017107299647 -1.0614555348806838e-05 0 -0.0043237666104212159 -0.00013318456450058785 0 -0.0041987692050623002 -0.00010619961635332949 0 -0.0043933300086196753 -0.00031249502980479419 0 -0.0040253711688063229 -0.00047973362360027231 0 -0.0047370478928761405 -0.00014634182710328186 0 -0.003761027476508048 0.00021599768370996703 0 -0.0029772468379032362 0.00075688638167825803 0 -0.0024826622421879746 0.00042063924936484387 0 -0.0027630354467718184 0.00027496638116035227 0 -0.003761027476508048 0.00021599768370996703 0 -0.0030606265218420634 0.00029765006375184343 0 -0.0029772468379032362 0.00075688638167825803 0 -0.0024101476015294374 0.00074975578393597403 0 -0.0024826622421879746 0.00042063924936484387 0 -0.003761027476508048 0.00021599768370996703 0 -0.0034025660493409078 -0.00011348779316022648 0 -0.0038626995052748365 4.3208691103263922e-05 0 -0.0036964988998644762 0.00023648399441817915 0 -0.0033590242444962387 3.6387666958465496e-05 0 -0.0039614526967816574 7.2115710418020441e-05 0 -0.0030606265218420634 0.00029765006375184343 0 -0.0042676601514450001 -4.4512523386874236e-05 0 -0.0041523912811104987 -0.00012734828768921815 0 -0.0041638028276733798 -5.1571268286672837e-05 0 -0.0041523912811104987 -0.00012734828768921815 0 -0.0041638028276733798 -5.1571268286672837e-05 0 -0.004019960961382082 -6.910573060195011e-05 0 -0.004019960961382082 -6.910573060195011e-05 0 -0.0038206253666555334 -0.00022183247444627284 0 -0.0039973577144167358 -0.00022175968504512417 0 -0.004218167074869902 -1.8940593787310183e-06 0 -0.003223423779614491 0.00017576197218106308 0 -0.0041965012974167441 4.6831680800581016e-05 0 -0.0041924790564269515 4.4329158650889405e-05 0 -0.0041860372926637692 4.0488382666612335e-05 0 -0.0041965012974167441 4.6831680800581016e-05 0 -0.0041924790564269515 4.4329158650889405e-05 0 -0.0041994515392948474 4.6586501683358746e-05 0 -0.0041523912811104987 -0.00012734828768921815 0 -0.004019960961382082 -6.910573060195011e-05 0 -0.0039973577144167358 -0.00022175968504512417 0 -0.0030328553844000054 9.185272711442008e-05 0 -0.0037948878759224429 2.261304626431198e-05 0 -0.0031419829038383629 -9.8313438409372653e-05 0 -0.0031462797192840304 0.00021853419217648948 0 -0.0029790902937919402 -3.0959168627474005e-06 0 -0.0041924790564269515 4.4329158650889405e-05 0 -0.0041832721846423631 4.0907337698841831e-05 0 -0.004195637819420478 4.682284919033826e-05 0 -0.0041924790564269515 4.4329158650889405e-05 0 -0.0041832721846423631 4.0907337698841831e-05 0 -0.0041860372926637692 4.0488382666612335e-05 0 -0.0030328553844000054 9.185272711442008e-05 0 -0.003223423779614491 0.00017576197218106308 0 -0.0025895962597129994 0.00030898652380318184 0 -0.003223423779614491 0.00017576197218106308 0 -0.0027978230169679996 0.00028219213488252351 0 -0.0027978003330716003 0.0001705765527766027 0 -0.00292824548313234 0.00028440751143103579 0 -0.0030328553844000054 9.185272711442008e-05 0 -0.0025895962597129994 0.00030898652380318184 0 -0.0020178232288037652 0.00074065536652327061 0 -0.0020823937160138199 0.00062480842177437196 0 -0.0022074299457287439 0.00061812005998699941 0 -0.0019286372631815852 0.00066269094616444894 0 -0.0020178232288037652 0.00074065536652327061 0 -0.0020823937160138199 0.00062480842177437196 0 -0.0019286372631815852 0.00066269094616444894 0 -0.0020823937160138199 0.00062480842177437196 0 -0.0021342808227511564 0.00048507861823082488 0 -0.0020823937160138199 0.00062480842177437196 0 -0.0021342808227511564 0.00048507861823082488 0 -0.0022074299457287439 0.00061812005998699941 0 -0.003223423779614491 0.00017576197218106308 0 -0.0030606265218420634 0.00029765006375184343 0 -0.0020178232288037652 0.00074065536652327061 0 -0.002410015772045328 0.00074923162955555433 0 -0.0023355274678259113 0.00070470060525565294 0 -0.0030606265218420634 0.00029765006375184343 0 -0.0028948906587037194 0.00029524712928673968 0 -0.0024101476015294374 0.00074975578393597403 0 -0.0023355274678259113 0.00070470060525565294 0 -0.0023250277942734429 0.00052554498540129449 0 -0.0020178232288037652 0.00074065536652327061 0 -0.0023355274678259113 0.00070470060525565294 0 -0.0022074299457287439 0.00061812005998699941 0 -0.0023355274678259113 0.00070470060525565294 0 -0.0022074299457287439 0.00061812005998699941 0 -0.0023250277942734429 0.00052554498540129449 0 -0.0021342808227511564 0.00048507861823082488 0 -0.0022074299457287439 0.00061812005998699941 0 -0.0023250277942734429 0.00052554498540129449 0 -0.0024101476015294374 0.00074975578393597403 0 -0.0023250277942734429 0.00052554498540129449 0 -0.0024826622421879746 0.00042063924936484387 0 -0.0024826622421879746 0.00042063924936484387 0 -0.002223098369935009 0.00022982251006985579 0 -0.0024590577372449046 0.00016261509379236235 0 -0.0023250277942734429 0.00052554498540129449 0 -0.0024826622421879746 0.00042063924936484387 0 -0.002223098369935009 0.00022982251006985579 0 -0.0021342808227511564 0.00048507861823082488 0 -0.0023250277942734429 0.00052554498540129449 0 -0.002223098369935009 0.00022982251006985579 0 -0.002223098369935009 0.00022982251006985579 0 -0.0024590577372449046 0.00016261509379236235 0 -0.0023190923065168501 -3.9703585894893158e-05 0 -0.002223098369935009 0.00022982251006985579 0 -0.0019100482341449093 6.261309444525807e-05 0 -0.0023190923065168501 -3.9703585894893158e-05 0 -0.0019286372631815852 0.00066269094616444894 0 -0.0021342808227511564 0.00048507861823082488 0 -0.0019100482341449093 6.261309444525807e-05 0 -0.0025895962597129994 0.00030898652380318184 0 -0.001772583189403079 0.0002421121490274056 0 -0.0021342808227511564 0.00048507861823082488 0 -0.002223098369935009 0.00022982251006985579 0 -0.0019100482341449093 6.261309444525807e-05 0 -0.0019122238453114827 0.0006596918666949104 0 -0.0019100482341449093 6.261309444525807e-05 0 -0.0015364415538101175 0.00028516236737095949 0 -0.0019100482341449093 6.261309444525807e-05 0 -0.0019995188980832211 -0.00021365645702297505 0 -0.0016106190350633539 -0.00015378886026421194 0 -0.0019100482341449093 6.261309444525807e-05 0 -0.0019995188980832211 -0.00021365645702297505 0 -0.0023190923065168501 -3.9703585894893158e-05 0 -0.0024590577372449046 0.00016261509379236235 0 -0.0023190923065168501 -3.9703585894893158e-05 0 -0.0025492934883947029 -0.00021044992203074847 0 -0.0023684201430136634 -0.00030052688541320506 0 -0.0019995188980832211 -0.00021365645702297505 0 -0.0023190923065168501 -3.9703585894893158e-05 0 -0.0019887005482714516 -0.00033293340785869679 0 -0.0022139359415903228 -0.00013522723945486793 0 -0.0023779894277046044 -0.00031520703846130393 0 -0.0023190923065168501 -3.9703585894893158e-05 0 -0.0025492934883947029 -0.00021044992203074847 0 -0.0019887005482714516 -0.00033293340785869679 0 -0.0028707211806478518 -0.0003296979196187575 0 -0.0026120049115122162 -0.00010488616847652198 0 -0.0024956811705596107 -2.3047167054635483e-05 0 -0.0026916201952848569 -2.1467680363874305e-05 0 -0.0024590577372449046 0.00016261509379236235 0 -0.0025492934883947029 -0.00021044992203074847 0 -0.0027630354467718184 0.00027496638116035227 0 -0.0028707211806478518 -0.0003296979196187575 0 -0.0035816438121816434 -0.00023570539313270337 0 -0.0024956811705596107 -2.3047167054635483e-05 0 -0.0026916201952848569 -2.1467680363874305e-05 0 -0.0027442448337119535 0.00012278225717046818 0 -0.003845169922235056 -0.00086630124199538162 0 -0.0043315604988469359 -0.0005802425013891236 0 -0.0040253711688063229 -0.00047973362360027231 0 -0.0028707211806478518 -0.0003296979196187575 0 -0.0034025660493409078 -0.00011348779316022648 0 -0.0028133275672677541 2.2850157881152877e-05 0 -0.0026916201952848569 -2.1467680363874305e-05 0 -0.0027997416722769235 -6.0685741637423958e-05 0 -0.0028133275672677541 2.2850157881152877e-05 0 -0.0026916201952848569 -2.1467680363874305e-05 0 -0.0027442448337119535 0.00012278225717046818 0 -0.0043933300086196753 -0.00031249502980479419 0 -0.0043315604988469359 -0.0005802425013891236 0 -0.0040253711688063229 -0.00047973362360027231 0 -0.0024826622421879746 0.00042063924936484387 0 -0.0024590577372449046 0.00016261509379236235 0 -0.0027630354467718184 0.00027496638116035227 0 -0.0029639168845036739 -0.00021166232227366017 0 -0.0029673285284019541 -0.00018574454392432933 0 -0.0029434948430011594 -0.00017730230801835269 0 -0.0029639168845036739 -0.00021166232227366017 0 -0.0030012265688160607 -0.00020849482465930144 0 -0.0029673285284019541 -0.00018574454392432933 0 -0.0030012265688160607 -0.00020849482465930144 0 -0.0029673285284019541 -0.00018574454392432933 0 -0.0030170104778082622 -0.00020240688010458231 0 -0.0029639168845036739 -0.00021166232227366017 0 -0.0030012265688160607 -0.00020849482465930144 0 -0.0030079226311565555 -0.00023195190307124977 0 -0.0029673285284019541 -0.00018574454392432933 0 -0.003000903064305538 -0.00017043362108620517 0 -0.0030170104778082622 -0.00020240688010458231 0 -0.0029605518821573902 -0.00018848980990818142 0 -0.0029865404475835915 -0.00015934028425184272 0 -0.0029673285284019541 -0.00018574454392432933 0 -0.0029485122130479659 -0.00016569059224586774 0 -0.0029540321941154777 -0.00017069116532638544 0 -0.0029673285284019541 -0.00018574454392432933 0 -0.0029540321941154777 -0.00017069116532638544 0 -0.0029434948430011594 -0.00017730230801835269 0 -0.0029540321941154777 -0.00017069116532638544 0 -0.0029434948430011594 -0.00017730230801835269 0 -0.0029435989438647506 -0.0001644791621907588 0 -0.0029369926135790203 -0.00016634643673289439 0 -0.0029434948430011594 -0.00017730230801835269 0 -0.0029435989438647506 -0.0001644791621907588 0 -0.0029369926135790203 -0.00016634643673289439 0 -0.0029435989438647506 -0.0001644791621907588 0 -0.0029360321192282946 -0.0001602556688576912 0 -0.0029307447449055828 -0.00015785002520733572 0 -0.0029360321192282946 -0.0001602556688576912 0 -0.0029370327538702232 -0.00016030600803558701 0 -0.0029435989438647506 -0.0001644791621907588 0 -0.0029360321192282946 -0.0001602556688576912 0 -0.0029370327538702232 -0.00016030600803558701 0 -0.0029298724734510193 -0.00015710938713409185 0 -0.0029307447449055828 -0.00015785002520733572 0 -0.0029360321192282946 -0.0001602556688576912 0 -0.0029304004610061773 -0.00015954470339520866 0 -0.0029370327538702232 -0.00016030600803558701 0 -0.0029358975204590693 -0.00016086123553552006 0 -0.0029370327538702232 -0.00016030600803558701 0 -0.0029432140266323669 -0.00016333545367345952 0 -0.0029358975204590693 -0.00016086123553552006 0 -0.0029435989438647506 -0.0001644791621907588 0 -0.0029370327538702232 -0.00016030600803558701 0 -0.0029432140266323669 -0.00016333545367345952 0 -0.0029540321941154777 -0.00017069116532638544 0 -0.0029435989438647506 -0.0001644791621907588 0 -0.0029432140266323669 -0.00016333545367345952 0 -0.0029485122130479659 -0.00016569059224586774 0 -0.0029540321941154777 -0.00017069116532638544 0 -0.0029432140266323669 -0.00016333545367345952 0 -0.0029485122130479659 -0.00016569059224586774 0 -0.0029432140266323669 -0.00016333545367345952 0 -0.0029374501649898506 -0.00016097269835963794 0 -0.0029432140266323669 -0.00016333545367345952 0 -0.0029374501649898506 -0.00016097269835963794 0 -0.0029358975204590693 -0.00016086123553552006 0 -0.0029865404475835915 -0.00015934028425184272 0 -0.002834001998846192 -0.0001183464494654221 0 -0.002834001998846192 -0.0001183464494654221 0 -0.0026988729659680496 -0.00011235134266723288 0 -0.0029374501649898506 -0.00016097269835963794 0 -0.0029358975204590693 -0.00016086123553552006 0 -0.0029282480419651211 -0.00015984858546940644 0 -0.0029304004610061773 -0.00015954470339520866 0 -0.0029358975204590693 -0.00016086123553552006 0 -0.0029282480419651211 -0.00015984858546940644 0 -0.0025109539554106649 0.00019306715931529465 0 -0.0022132227164596043 -7.263015194027468e-05 0 -0.0023959612568485518 -0.0001508015014856589 0 -0.0022258416924297417 -0.00028928542227007066 0 -0.0022132227164596043 -7.263015194027468e-05 0 -0.0023959612568485518 -0.0001508015014856589 0 -0.002834001998846192 -0.0001183464494654221 0 -0.0026576281350701603 -0.00019223122557429043 0 -0.0030034009349844985 -0.00030814666067659365 0 -0.0029162052863408124 -0.00040448808845355399 0 -0.0029151436292600532 -0.0002888070095537549 0 -0.0030034009349844985 -0.00030814666067659365 0 -0.0029151436292600532 -0.0002888070095537549 0 -0.0029784958500833876 -0.00023941877350702948 0 -0.0029394366999639303 -0.00019839005439516622 0 -0.0029784958500833876 -0.00023941877350702948 0 -0.0030170104778082622 -0.00020240688010458231 0 -0.0029151436292600532 -0.0002888070095537549 0 -0.0029394366999639303 -0.00019839005439516622 0 -0.0029784958500833876 -0.00023941877350702948 0 -0.0029394366999639303 -0.00019839005439516622 0 -0.0030170104778082622 -0.00020240688010458231 0 -0.0030104519441527047 -0.00020454167817599418 0 -0.003000903064305538 -0.00017043362108620517 0 -0.0030342316731008343 -0.00013740174004810694 0 -0.0030170104778082622 -0.00020240688010458231 0 -0.002834001998846192 -0.0001183464494654221 0 -0.0030522521891638444 -0.00023536310362830626 0 -0.0030034009349844985 -0.00030814666067659365 0 -0.0029784958500833876 -0.00023941877350702948 0 -0.0030170104778082622 -0.00020240688010458231 0 -0.0029394366999639303 -0.00019839005439516622 0 -0.0030104519441527047 -0.00020454167817599418 0 -0.0030351891084558586 -0.00021844189958559711 0 -0.0030012265688160607 -0.00020849482465930144 0 -0.0030170104778082622 -0.00020240688010458231 0 -0.0030104519441527047 -0.00020454167817599418 0 -0.0030012265688160607 -0.00020849482465930144 0 -0.0030104519441527047 -0.00020454167817599418 0 -0.0030351891084558586 -0.00021844189958559711 0 -0.002975903520763924 -0.00024025945617829421 0 -0.0030425603046270173 -0.00021139156670097134 0 -0.0030908569678799068 -0.00023345548227382231 0 -0.0030890724359290155 -0.0002502799207370213 0 -0.0030351891084558586 -0.00021844189958559711 0 -0.0030908569678799068 -0.00023345548227382231 0 -0.0031028356630849858 -0.00024760478667606843 0 -0.0030890724359290155 -0.0002502799207370213 0 -0.0030908569678799068 -0.00023345548227382231 0 -0.0031028356630849858 -0.00024760478667606843 0 -0.0031137514972483966 -0.00024907191032368683 0 -0.0031028356630849858 -0.00024760478667606843 0 -0.003116418900355529 -0.00025873621110070535 0 -0.0030890724359290155 -0.0002502799207370213 0 -0.0031137514972483966 -0.00024907191032368683 0 -0.003130698066459207 -0.00026215675363802502 0 -0.003116418900355529 -0.00025873621110070535 0 -0.0031028356630849858 -0.00024760478667606843 0 -0.0031137514972483966 -0.00024907191032368683 0 -0.003116418900355529 -0.00025873621110070535 0 -0.003128808954864051 -0.00027933650800834582 0 -0.0033745421566398802 -0.00019732074973455223 0 -0.0031137514972483966 -0.00024907191032368683 0 -0.0031161255180050993 -0.00024753360190416819 0 -0.0031317845073372788 -0.00025645753848768844 0 -0.0031137514972483966 -0.00024907191032368683 0 -0.0031317845073372788 -0.00025645753848768844 0 -0.003130698066459207 -0.00026215675363802502 0 -0.002975903520763924 -0.00024025945617829421 0 -0.0031279501454966421 -0.00022048756404957447 0 -0.0030908569678799068 -0.00023345548227382231 0 -0.0031137514972483966 -0.00024907191032368683 0 -0.0031161255180050993 -0.00024753360190416819 0 -0.0029151436292600532 -0.0002888070095537549 0 -0.0029394366999639303 -0.00019839005439516622 0 -0.0027850104085900868 -0.00029309070776428807 0 -0.0029162052863408124 -0.00040448808845355399 0 -0.0029151436292600532 -0.0002888070095537549 0 -0.0027850104085900868 -0.00029309070776428807 0 -0.0028016383074095708 -0.00050626696246582655 0 -0.0029162052863408124 -0.00040448808845355399 0 -0.0027850104085900868 -0.00029309070776428807 0 -0.0028016383074095708 -0.00050626696246582655 0 -0.0027850104085900868 -0.00029309070776428807 0 -0.0026294694158915137 -0.00043597630592019399 0 -0.0031279501454966421 -0.00022048756404957447 0 -0.0018738884733700081 -0.00037035964497604822 0 -0.0031161255180050993 -0.00024753360190416819 0 -0.0031317845073372788 -0.00025645753848768844 0 -0.003120711924839406 -0.00025448555859578577 0 -0.0031317845073372788 -0.00025645753848768844 0 -0.003120711924839406 -0.00025448555859578577 0 -0.0031392038194206391 -0.0002787376178820857 0 -0.00065432359187864186 -0.00049231552436457943 0 -0.00068421778808441954 -0.00047950641858715136 0 -0.00065188724245233282 -0.00047817042694314196 0 -0.0018738884733700081 -0.00037035964497604822 0 -0.001899162302337465 -0.00038090020742543657 0 -0.0031389658856052264 -0.00027811116943827552 0 -0.0031392038194206391 -0.0002787376178820857 0 -0.0031585247535390101 -0.00026490992624070791 0 -0.0031317845073372788 -0.00025645753848768844 0 -0.0031392038194206391 -0.0002787376178820857 0 -0.0031585247535390101 -0.00026490992624070791 0 -0.0032022472673998879 -0.00024154702880997415 0 -0.0031585247535390101 -0.00026490992624070791 0 -0.0031775782302530882 -0.0002517959647296219 0 -0.0031317845073372788 -0.00025645753848768844 0 -0.0031585247535390101 -0.00026490992624070791 0 -0.003130698066459207 -0.00026215675363802502 0 -0.0031585247535390101 -0.00026490992624070791 0 -0.0031889402655463622 -0.00025447057085034748 0 -0.0031775782302530882 -0.0002517959647296219 0 -0.003170875351819113 -0.00025297929723045544 0 -0.003128808954864051 -0.00027933650800834582 0 -0.0031889402655463622 -0.00025447057085034748 0 -0.0031809412826807617 -0.00024916885347937856 0 -0.0031775782302530882 -0.0002517959647296219 0 -0.003385943862938869 -0.00024775029044700112 0 -0.0033745421566398802 -0.00019732074973455223 0 -0.0031889402655463622 -0.00025447057085034748 0 -0.0031809412826807617 -0.00024916885347937856 0 -0.0032078344657432882 -0.00023989789851205934 0 -0.0032113274491842219 -0.00025182332867305007 0 -0.003385943862938869 -0.00024775029044700112 0 -0.0032022472673998879 -0.00024154702880997415 0 -0.0031809412826807617 -0.00024916885347937856 0 -0.0031775782302530882 -0.0002517959647296219 0 -0.0032022472673998879 -0.00024154702880997415 0 -0.0035308765377047545 -0.00026201611484946122 0 -0.0033446210005686127 -0.00012652880869589605 0 -0.0033446210005686127 -0.00012652880869589605 0 -0.0036454625436517446 -3.928168143764924e-05 0 -0.0034562551494137787 4.866027227487763e-05 0 -0.0031520457705961936 3.9151709509536299e-05 0 -0.0033446210005686127 -0.00012652880869589605 0 -0.0034562551494137787 4.866027227487763e-05 0 -0.0035308765377047545 -0.00026201611484946122 0 -0.0036454625436517446 -3.928168143764924e-05 0 -0.0038375614875055275 -0.00022108410546857189 0 -0.0035308765377047545 -0.00026201611484946122 0 -0.0033446210005686127 -0.00012652880869589605 0 -0.0036454625436517446 -3.928168143764924e-05 0 -0.0036454625436517446 -3.928168143764924e-05 0 -0.0036124403997021041 0.00017561104470403032 0 -0.0037999288778358749 0.00011244783114170462 0 -0.0036454625436517446 -3.928168143764924e-05 0 -0.0036124403997021041 0.00017561104470403032 0 -0.0034562551494137787 4.866027227487763e-05 0 -0.0031520457705961936 3.9151709509536299e-05 0 -0.0034562551494137787 4.866027227487763e-05 0 -0.0034708957093516528 0.00030790784169554687 0 -0.0036124403997021041 0.00017561104470403032 0 -0.0034562551494137787 4.866027227487763e-05 0 -0.0034708957093516528 0.00030790784169554687 0 -0.0033272074057743056 0.00033690156536063978 0 -0.0034708957093516528 0.00030790784169554687 0 -0.0034244589090209237 0.00041668782087585557 0 -0.0034708957093516528 0.00030790784169554687 0 -0.0034244589090209237 0.00041668782087585557 0 -0.0035757414758511409 0.00053995589672372398 0 -0.0033432557506732101 0.000495652584617571 0 -0.0034244589090209237 0.00041668782087585557 0 -0.0035757414758511409 0.00053995589672372398 0 -0.0043574166843046097 0.00037388702532155127 0 -0.0042308919805715628 0.00048698284540626003 0 -0.0050205683013472288 0.00041460960269431338 0 -0.0049546723140043896 0.00042236937482702014 0 -0.004987029397637263 0.00039333546599890946 0 -0.0034708957093516528 0.00030790784169554687 0 -0.0035757414758511409 0.00053995589672372398 0 -0.0036995850198300027 0.00032818875367781898 0 -0.0035757414758511409 0.00053995589672372398 0 -0.0036995850198300027 0.00032818875367781898 0 -0.0038853161788894842 0.00057280636605686118 0 -0.0042308919805715628 0.00048698284540626003 0 -0.0043816806898068572 0.00050532900177717487 0 -0.0036124403997021041 0.00017561104470403032 0 -0.0036995850198300027 0.00032818875367781898 0 -0.0037999288778358749 0.00011244783114170462 0 -0.0036124403997021041 0.00017561104470403032 0 -0.0034708957093516528 0.00030790784169554687 0 -0.0036995850198300027 0.00032818875367781898 0 -0.0036995850198300027 0.00032818875367781898 0 -0.003902541624221113 0.00029839227003577735 0 -0.0037999288778358749 0.00011244783114170462 0 -0.003902541624221113 0.00029839227003577735 0 -0.0040159699302975494 0.00014487764129024887 0 -0.0037999288778358749 0.00011244783114170462 0 -0.0036995850198300027 0.00032818875367781898 0 -0.003902541624221113 0.00029839227003577735 0 -0.0038853161788894842 0.00057280636605686118 0 -0.003902541624221113 0.00029839227003577735 0 -0.0038853161788894842 0.00057280636605686118 0 -0.0041152733261467112 0.00034131219141836345 0 -0.0038853161788894842 0.00057280636605686118 0 -0.0041152733261467112 0.00034131219141836345 0 -0.0042314038842184041 0.00057713116679307419 0 -0.0043816806898068572 0.00050532900177717487 0 -0.0044843370584216778 0.00051322123805303519 0 -0.0041152733261467112 0.00034131219141836345 0 -0.0041685175098954419 0.00019598130596985196 0 -0.0042682877200594391 0.00028761584785373179 0 -0.003902541624221113 0.00029839227003577735 0 -0.0041152733261467112 0.00034131219141836345 0 -0.0040159699302975494 0.00014487764129024887 0 -0.0041152733261467112 0.00034131219141836345 0 -0.0041685175098954419 0.00019598130596985196 0 -0.0040159699302975494 0.00014487764129024887 0 -0.0041685175098954419 0.00019598130596985196 0 -0.0041280809377807516 1.4194637341527195e-06 0 -0.0040159699302975494 0.00014487764129024887 0 -0.0041280809377807516 1.4194637341527195e-06 0 -0.0040159699302975494 0.00014487764129024887 0 -0.0038853336040263948 -3.5841046578137485e-07 0 -0.0036454625436517446 -3.928168143764924e-05 0 -0.0037999288778358749 0.00011244783114170462 0 -0.0038853336040263948 -3.5841046578137485e-07 0 -0.0040159699302975494 0.00014487764129024887 0 -0.0037999288778358749 0.00011244783114170462 0 -0.0038853336040263948 -3.5841046578137485e-07 0 -0.0036454625436517446 -3.928168143764924e-05 0 -0.0038853336040263948 -3.5841046578137485e-07 0 -0.0038375614875055275 -0.00022108410546857189 0 -0.0036404692063154937 -0.00016596368420670771 0 -0.0033745421566398802 -0.00019732074973455223 0 -0.0031712498869605004 -0.00026208034731593094 0 -0.0032861627114854517 -0.00016505223249818396 0 -0.0031575102262435557 -0.00019409809052103758 0 -0.0041280809377807516 1.4194637341527195e-06 0 -0.0038853336040263948 -3.5841046578137485e-07 0 -0.0038375614875055275 -0.00022108410546857189 0 -0.0033745421566398802 -0.00019732074973455223 0 -0.0030867501313048156 -0.00022886556086969454 0 -0.0031575102262435557 -0.00019409809052103758 0 -0.0030929941813617676 -0.00024502573960851241 0 -0.0030435508564188515 -0.00023660387597202335 0 -0.0030890724359290155 -0.0002502799207370213 0 -0.0030351891084558586 -0.00021844189958559711 0 -0.0030435508564188515 -0.00023660387597202335 0 -0.0030867501313048156 -0.00022886556086969454 0 -0.0030664559954487873 -0.000232498980565712 0 -0.0031575102262435557 -0.00019409809052103758 0 -0.0030929941813617676 -0.00024502573960851241 0 -0.0031272260271636354 -0.00024470801239816052 0 -0.0031712498869605004 -0.00026208034731593094 0 -0.0031575102262435557 -0.00019409809052103758 0 -0.0031272260271636354 -0.00024470801239816052 0 -0.0030351891084558586 -0.00021844189958559711 0 -0.0030435508564188515 -0.00023660387597202335 0 -0.0030079226311565555 -0.00023195190307124977 0 -0.0030012265688160607 -0.00020849482465930144 0 -0.0030351891084558586 -0.00021844189958559711 0 -0.0030079226311565555 -0.00023195190307124977 0 -0.0030435508564188515 -0.00023660387597202335 0 -0.0030230951583670009 -0.00025351956687652392 0 -0.0030079226311565555 -0.00023195190307124977 0 -0.0030929941813617676 -0.00024502573960851241 0 -0.0030435508564188515 -0.00023660387597202335 0 -0.003060364621308809 -0.00026467380028331476 0 -0.0030444336607319193 -0.00028188922664544326 0 -0.0030766787835138499 -0.00032710803070212389 0 -0.0029888123849999178 -0.00026552311865500253 0 -0.003060364621308809 -0.00026467380028331476 0 -0.0030696389680149026 -0.00028689463387387434 0 -0.0030992148044954272 -0.00027369884619815127 0 -0.0039357937318327506 0.00019976693852096828 0 -0.0037088370910388674 0.00021001266144933482 0 -0.003060364621308809 -0.00026467380028331476 0 -0.0030230951583670009 -0.00025351956687652392 0 -0.0030444336607319193 -0.00028188922664544326 0 -0.0030435508564188515 -0.00023660387597202335 0 -0.003060364621308809 -0.00026467380028331476 0 -0.0030230951583670009 -0.00025351956687652392 0 -0.0030444336607319193 -0.00028188922664544326 0 -0.0030696389680149026 -0.00028689463387387434 0 -0.0030766787835138499 -0.00032710803070212389 0 -0.003060364621308809 -0.00026467380028331476 0 -0.0030444336607319193 -0.00028188922664544326 0 -0.0030696389680149026 -0.00028689463387387434 0 -0.0031712498869605004 -0.00026208034731593094 0 -0.0030992148044954272 -0.00027369884619815127 0 -0.0030766787835138499 -0.00032710803070212389 0 -0.0030696389680149026 -0.00028689463387387434 0 -0.0030992148044954272 -0.00027369884619815127 0 -0.0030766787835138499 -0.00032710803070212389 0 -0.0036404692063154937 -0.00016596368420670771 0 -0.0039357937318327506 0.00019976693852096828 0 -0.0041280809377807516 1.4194637341527195e-06 0 -0.0042840590052235948 0.00019847749413398874 0 -0.0044238085043659652 0.00023832594534969095 0 -0.0030929941813617676 -0.00024502573960851241 0 -0.003060364621308809 -0.00026467380028331476 0 -0.0030992148044954272 -0.00027369884619815127 0 -0.0030929941813617676 -0.00024502573960851241 0 -0.0031272260271636354 -0.00024470801239816052 0 -0.0030992148044954272 -0.00027369884619815127 0 -0.0031712498869605004 -0.00026208034731593094 0 -0.0031272260271636354 -0.00024470801239816052 0 -0.0030992148044954272 -0.00027369884619815127 0 -0.0041685175098954419 0.00019598130596985196 0 -0.0041280809377807516 1.4194637341527195e-06 0 -0.0042840590052235948 0.00019847749413398874 0 -0.0041685175098954419 0.00019598130596985196 0 -0.0042840590052235948 0.00019847749413398874 0 -0.0042682877200594391 0.00028761584785373179 0 -0.0042840590052235948 0.00019847749413398874 0 -0.0043912112315883031 0.00025804237854547924 0 -0.0042682877200594391 0.00028761584785373179 0 -0.0042840590052235948 0.00019847749413398874 0 -0.0043912112315883031 0.00025804237854547924 0 -0.0044238085043659652 0.00023832594534969095 0 -0.0043912112315883031 0.00025804237854547924 0 -0.0044155368648286447 0.00030678751680096578 0 -0.004425137980903872 0.00024519621350297142 0 -0.0040206367973687337 0.00017343959402378202 0 -0.0039357937318327506 0.00019976693852096828 0 -0.004380688480944089 0.00035009682474183081 0 -0.0042682877200594391 0.00028761584785373179 0 -0.0042916615427563169 0.00039918872764373072 0 -0.0043912112315883031 0.00025804237854547924 0 -0.004380688480944089 0.00035009682474183081 0 -0.0042682877200594391 0.00028761584785373179 0 -0.0043912112315883031 0.00025804237854547924 0 -0.004380688480944089 0.00035009682474183081 0 -0.0044155368648286447 0.00030678751680096578 0 -0.0041152733261467112 0.00034131219141836345 0 -0.0042682877200594391 0.00028761584785373179 0 -0.0042916615427563169 0.00039918872764373072 0 -0.0044312107663012842 0.00043665700181816451 0 -0.0042314038842184041 0.00057713116679307419 0 -0.0045646813078844941 0.00048204850813684424 0 -0.0044843370584216778 0.00051322123805303519 0 -0.0045518052799311745 0.00049160153302331823 0 -0.0041152733261467112 0.00034131219141836345 0 -0.0042916615427563169 0.00039918872764373072 0 -0.0042314038842184041 0.00057713116679307419 0 -0.004380688480944089 0.00035009682474183081 0 -0.0042916615427563169 0.00039918872764373072 0 -0.0044312107663012842 0.00043665700181816451 0 -0.0042916615427563169 0.00039918872764373072 0 -0.0044312107663012842 0.00043665700181816451 0 -0.0042314038842184041 0.00057713116679307419 0 -0.0044312107663012842 0.00043665700181816451 0 -0.004559111034931374 0.00042497411407709581 0 -0.0045646813078844941 0.00048204850813684424 0 -0.0044312107663012842 0.00043665700181816451 0 -0.004559111034931374 0.00042497411407709581 0 -0.0044639043540196949 0.00037129905433287252 0 -0.004380688480944089 0.00035009682474183081 0 -0.0044312107663012842 0.00043665700181816451 0 -0.0044639043540196949 0.00037129905433287252 0 -0.0045627870315930012 0.00053213498135546843 0 -0.0046362937485807734 0.00059960989733704492 0 -0.0045380848328544854 0.00059610048514752221 0 -0.0046362937485807734 0.00059960989733704492 0 -0.0045380848328544854 0.00059610048514752221 0 -0.0044874321226549387 0.00069738811609939069 0 -0.004559111034931374 0.00042497411407709581 0 -0.0044639043540196949 0.00037129905433287252 0 -0.004425137980903872 0.00024519621350297142 0 -0.0046357592550099148 0.00054207312784518183 0 -0.0039357937318327506 0.00019976693852096828 0 -0.0044639043540196949 0.00037129905433287252 0 -0.0044155368648286447 0.00030678751680096578 0 -0.004425137980903872 0.00024519621350297142 0 -0.004380688480944089 0.00035009682474183081 0 -0.0044639043540196949 0.00037129905433287252 0 -0.0044155368648286447 0.00030678751680096578 0 -0.0045627870315930012 0.00053213498135546843 0 -0.0045380848328544854 0.00059610048514752221 0 -0.0044624047491999014 0.00055622341216778808 0 -0.0045380848328544854 0.00059610048514752221 0 -0.0044624047491999014 0.00055622341216778808 0 -0.0044874321226549387 0.00069738811609939069 0 -0.0045627870315930012 0.00053213498135546843 0 -0.0045008954636997518 0.00046311414091910352 0 -0.0044624047491999014 0.00055622341216778808 0 -0.004559111034931374 0.00042497411407709581 0 -0.0045008954636997518 0.00046311414091910352 0 -0.0045646813078844941 0.00048204850813684424 0 -0.0046357592550099148 0.00054207312784518183 0 -0.004480179222957582 0.00043256883170640929 0 -0.004328481003701889 0.00056668907893653721 0 -0.0043651219061227233 0.00046555334995067619 0 -0.0044624047491999014 0.00055622341216778808 0 -0.0043651219061227233 0.00046555334995067619 0 -0.0045008954636997518 0.00046311414091910352 0 -0.0044624047491999014 0.00055622341216778808 0 -0.004328481003701889 0.00056668907893653721 0 -0.0044624047491999014 0.00055622341216778808 0 -0.0044874321226549387 0.00069738811609939069 0 -0.0042909217819653393 0.00081276775082051529 0 -0.004328481003701889 0.00056668907893653721 0 -0.0044874321226549387 0.00069738811609939069 0 -0.0030230951583670009 -0.00025351956687652392 0 -0.0030444336607319193 -0.00028188922664544326 0 -0.0029888123849999178 -0.00026552311865500253 0 -0.0029639168845036739 -0.00021166232227366017 0 -0.0029888123849999178 -0.00026552311865500253 0 -0.0030079226311565555 -0.00023195190307124977 0 -0.0030230951583670009 -0.00025351956687652392 0 -0.0029888123849999178 -0.00026552311865500253 0 -0.0030079226311565555 -0.00023195190307124977 0 -0.0029359739848793449 -0.00022742882948586184 0 -0.0029639168845036739 -0.00021166232227366017 0 -0.0029888123849999178 -0.00026552311865500253 0 -0.0036881077878306583 0.00029569988057645996 0 -0.0037088370910388674 0.00021001266144933482 0 -0.0046321428040402481 0.00017777166915759272 0 -0.0045210453097939843 0.00024424382115688484 0 -0.0045421421300356288 0.00012385396026714002 0 -0.0044470525291018673 0.00019956762430598746 0 -0.0045210453097939843 0.00024424382115688484 0 -0.0045421421300356288 0.00012385396026714002 0 -0.0046321428040402481 0.00017777166915759272 0 -0.0045210453097939843 0.00024424382115688484 0 -0.0045642943014666867 0.00028240757518600119 0 -0.0044504879621226501 0.00021735992426952881 0 -0.0045664259334420327 0.0002796047036353134 0 -0.0044252715405582116 0.00019652698550120872 0 -0.0044288399877559373 0.00035302791991338245 0 -0.0045642943014666867 0.00028240757518600119 0 -0.0043651219061227233 0.00046555334995067619 0 -0.0045008954636997518 0.00046311414091910352 0 -0.0044288399877559373 0.00035302791991338245 0 -0.0045008954636997518 0.00046311414091910352 0 -0.0044288399877559373 0.00035302791991338245 0 -0.0045641705999862102 0.00038988387493862887 0 -0.0045008954636997518 0.00046311414091910352 0 -0.0045641705999862102 0.00038988387493862887 0 -0.0045646813078844941 0.00048204850813684424 0 -0.0044288399877559373 0.00035302791991338245 0 -0.0045641705999862102 0.00038988387493862887 0 -0.0045642943014666867 0.00028240757518600119 0 -0.0045641705999862102 0.00038988387493862887 0 -0.0045642943014666867 0.00028240757518600119 0 -0.0046627954437982091 0.0003215136030019022 0 -0.0045641705999862102 0.00038988387493862887 0 -0.0046627954437982091 0.0003215136030019022 0 -0.0046630082211000868 0.00039730056417094651 0 -0.0045641705999862102 0.00038988387493862887 0 -0.0045646813078844941 0.00048204850813684424 0 -0.0046630082211000868 0.00039730056417094651 0 -0.0047508520898443185 0.00046222601347283595 0 -0.0046630082211000868 0.00039730056417094651 0 -0.0047773540995584875 0.00035646566214648183 0 -0.0047508520898443185 0.00046222601347283595 0 -0.0045646813078844941 0.00048204850813684424 0 -0.0046630082211000868 0.00039730056417094651 0 -0.0046627954437982091 0.0003215136030019022 0 -0.0047478774486846087 0.00025894953575020122 0 -0.0047773540995584875 0.00035646566214648183 0 -0.0046627954437982091 0.0003215136030019022 0 -0.0046630082211000868 0.00039730056417094651 0 -0.0047773540995584875 0.00035646566214648183 0 -0.0047478774486846087 0.00025894953575020122 0 -0.0046670772746401782 0.00024278258301785931 0 -0.0047257363744796985 0.00018827654919432768 0 -0.0046627954437982091 0.0003215136030019022 0 -0.0047478774486846087 0.00025894953575020122 0 -0.0046670772746401782 0.00024278258301785931 0 -0.0046321428040402481 0.00017777166915759272 0 -0.0045642943014666867 0.00028240757518600119 0 -0.0046670772746401782 0.00024278258301785931 0 -0.0045642943014666867 0.00028240757518600119 0 -0.0046627954437982091 0.0003215136030019022 0 -0.0046670772746401782 0.00024278258301785931 0 -0.0046321428040402481 0.00017777166915759272 0 -0.0047257363744796985 0.00018827654919432768 0 -0.0047635466282207667 0.00011089052146484767 0 -0.0046321428040402481 0.00017777166915759272 0 -0.0046670772746401782 0.00024278258301785931 0 -0.0047257363744796985 0.00018827654919432768 0 -0.0047257363744796985 0.00018827654919432768 0 -0.0048271955017391436 0.00018315243997945495 0 -0.0047635466282207667 0.00011089052146484767 0 -0.0047478774486846087 0.00025894953575020122 0 -0.0047257363744796985 0.00018827654919432768 0 -0.0048271955017391436 0.00018315243997945495 0 -0.0048271955017391436 0.00018315243997945495 0 -0.0049010071331923042 0.00025241269875205446 0 -0.0049178603385468273 0.00014404836193154628 0 -0.0047478774486846087 0.00025894953575020122 0 -0.0048271955017391436 0.00018315243997945495 0 -0.0048250982125933395 0.00028125331380690659 0 -0.0048271955017391436 0.00018315243997945495 0 -0.0049010071331923042 0.00025241269875205446 0 -0.0048250982125933395 0.00028125331380690659 0 -0.0048250982125933395 0.00028125331380690659 0 -0.0047773540995584875 0.00035646566214648183 0 -0.0048733250923379346 0.00033876673358470817 0 -0.0047478774486846087 0.00025894953575020122 0 -0.0048250982125933395 0.00028125331380690659 0 -0.0047773540995584875 0.00035646566214648183 0 -0.0048640872560972784 0.00044022037031358715 0 -0.0047508520898443185 0.00046222601347283595 0 -0.0047773540995584875 0.00035646566214648183 0 -0.0048640872560972784 0.00044022037031358715 0 -0.0047773540995584875 0.00035646566214648183 0 -0.0048733250923379346 0.00033876673358470817 0 -0.0048640872560972784 0.00044022037031358715 0 -0.0048733250923379346 0.00033876673358470817 0 -0.0049315763123151295 0.00037746947576550275 0 -0.0049010071331923042 0.00025241269875205446 0 -0.0048250982125933395 0.00028125331380690659 0 -0.0048733250923379346 0.00033876673358470817 0 -0.0049010071331923042 0.00025241269875205446 0 -0.0048733250923379346 0.00033876673358470817 0 -0.0049301578401815026 0.00031871705909231187 0 -0.0049010071331923042 0.00025241269875205446 0 -0.0049560768050775682 0.00029128717062149555 0 -0.0049301578401815026 0.00031871705909231187 0 -0.0049666890712430217 0.0003415261012485874 0 -0.0049301578401815026 0.00031871705909231187 0 -0.0049315763123151295 0.00037746947576550275 0 -0.0049560768050775682 0.00029128717062149555 0 -0.0049666890712430217 0.0003415261012485874 0 -0.0049301578401815026 0.00031871705909231187 0 -0.0048733250923379346 0.00033876673358470817 0 -0.0049301578401815026 0.00031871705909231187 0 -0.0049315763123151295 0.00037746947576550275 0 -0.0049666890712430217 0.0003415261012485874 0 -0.0049315763123151295 0.00037746947576550275 0 -0.004987029397637263 0.00039333546599890946 0 -0.0049546723140043896 0.00042236937482702014 0 -0.0049315763123151295 0.00037746947576550275 0 -0.004987029397637263 0.00039333546599890946 0 -0.0049546723140043896 0.00042236937482702014 0 -0.0048640872560972784 0.00044022037031358715 0 -0.0049315763123151295 0.00037746947576550275 0 -0.0049666890712430217 0.0003415261012485874 0 -0.004987029397637263 0.00039333546599890946 0 -0.0050206708898953723 0.00033406186942249241 0 -0.0050309047341022591 0.00041798642673197806 0 -0.004987029397637263 0.00039333546599890946 0 -0.0050206708898953723 0.00033406186942249241 0 -0.0043574166843046097 0.00037388702532155127 0 -0.0051343157373130053 0.00050729413265180722 0 -0.0049560768050775682 0.00029128717062149555 0 -0.0049666890712430217 0.0003415261012485874 0 -0.0050206708898953723 0.00033406186942249241 0 -0.0049560768050775682 0.00029128717062149555 0 -0.0050206708898953723 0.00033406186942249241 0 -0.004963458842020832 0.00020980810669294744 0 -0.0049646161815026704 0.00016101217923404005 0 -0.004956086572709786 0.00018748379433858702 0 -0.004963458842020832 0.00020980810669294744 0 -0.0050164685654082745 0.00025690915645122301 0 -0.0049544990355907571 0.00020321855058719434 0 -0.0049010071331923042 0.00025241269875205446 0 -0.0049560768050775682 0.00029128717062149555 0 -0.004963458842020832 0.00020980810669294744 0 -0.004963458842020832 0.00020980810669294744 0 -0.004970514656431912 0.00019454502266395016 0 -0.0049178603385468273 0.00014404836193154628 0 -0.0049677893563711923 0.00015780530922417411 0 -0.0049182789879590634 0.00014439611636748084 0 -0.0049010071331923042 0.00025241269875205446 0 -0.004963458842020832 0.00020980810669294744 0 -0.0049178603385468273 0.00014404836193154628 0 -0.004956086572709786 0.00018748379433858702 0 -0.004963458842020832 0.00020980810669294744 0 -0.004970514656431912 0.00019454502266395016 0 -0.0049696133810985359 9.4138837549895689e-05 0 -0.0049829842984921609 0.00010859263010584263 0 -0.0049874284735752557 8.4509233846450884e-05 0 -0.0049749032897399535 0.00012464117882460577 0 -0.0049696133810985359 9.4138837549895689e-05 0 -0.0049829842984921609 0.00010859263010584263 0 -0.0049696133810985359 9.4138837549895689e-05 0 -0.0049377391282339547 9.3388247985882786e-05 0 -0.0049178603385468273 0.00014404836193154628 0 -0.0049749032897399535 0.00012464117882460577 0 -0.0049696133810985359 9.4138837549895689e-05 0 -0.0049178603385468273 0.00014404836193154628 0 -0.0049696133810985359 9.4138837549895689e-05 0 -0.0049638933072480573 5.100227009924524e-05 0 -0.0049377391282339547 9.3388247985882786e-05 0 -0.0049696133810985359 9.4138837549895689e-05 0 -0.0049638933072480573 5.100227009924524e-05 0 -0.0049831145147160834 5.7730343740504842e-05 0 -0.0049696133810985359 9.4138837549895689e-05 0 -0.0049831145147160834 5.7730343740504842e-05 0 -0.0049874284735752557 8.4509233846450884e-05 0 -0.0049831145147160834 5.7730343740504842e-05 0 -0.0049869425079006793 2.4155841743769994e-05 0 -0.0049939742590424828 2.9975330780116161e-05 0 -0.0049869425079006793 2.4155841743769994e-05 0 -0.0049999598186125536 9.6247477059511104e-09 0 -0.0049939742590424828 2.9975330780116161e-05 0 -0.0049869425079006793 2.4155841743769994e-05 0 -0.0050000240800579816 3.3764117674780504e-08 0 -0.0049570874002285914 1.9139035960475985e-05 0 -0.0049869425079006793 2.4155841743769994e-05 0 -0.0049999598186125536 9.6247477059511104e-09 0 -0.0050000240800579816 3.3764117674780504e-08 0 -0.0049638933072480573 5.100227009924524e-05 0 -0.0049831145147160834 5.7730343740504842e-05 0 -0.0049869425079006793 2.4155841743769994e-05 0 -0.0049638933072480573 5.100227009924524e-05 0 -0.0049869425079006793 2.4155841743769994e-05 0 -0.0049570874002285914 1.9139035960475985e-05 0 -0.0049638933072480573 5.100227009924524e-05 0 -0.0049570874002285914 1.9139035960475985e-05 0 -0.0048923515890321482 8.1094675800562002e-05 0 -0.0050000240800579816 3.3764117674780504e-08 0 -0.0049570874002285914 1.9139035960475985e-05 0 -0.0049997198436836894 -9.9218306599769492e-08 0 -0.0049570874002285914 1.9139035960475985e-05 0 -0.0049997198436836894 -9.9218306599769492e-08 0 -0.0048203987625984922 -5.0441622436753778e-06 0 -0.0049570874002285914 1.9139035960475985e-05 0 -0.0048923515890321482 8.1094675800562002e-05 0 -0.0048203987625984922 -5.0441622436753778e-06 0 -0.0049638933072480573 5.100227009924524e-05 0 -0.0048923515890321482 8.1094675800562002e-05 0 -0.0049377391282339547 9.3388247985882786e-05 0 -0.0048271955017391436 0.00018315243997945495 0 -0.0048923515890321482 8.1094675800562002e-05 0 -0.0049178603385468273 0.00014404836193154628 0 -0.0048923515890321482 8.1094675800562002e-05 0 -0.0049377391282339547 9.3388247985882786e-05 0 -0.0049178603385468273 0.00014404836193154628 0 -0.0048271955017391436 0.00018315243997945495 0 -0.0048923515890321482 8.1094675800562002e-05 0 -0.0047635466282207667 0.00011089052146484767 0 -0.0048923515890321482 8.1094675800562002e-05 0 -0.0047635466282207667 0.00011089052146484767 0 -0.0048203987625984922 -5.0441622436753778e-06 0 -0.0047635466282207667 0.00011089052146484767 0 -0.0048203987625984922 -5.0441622436753778e-06 0 -0.0046648084898698993 4.7759633229331426e-05 0 -0.0046321428040402481 0.00017777166915759272 0 -0.0047635466282207667 0.00011089052146484767 0 -0.0046648084898698993 4.7759633229331426e-05 0 -0.0049999999740155295 -2.0385229267612032e-10 0 -0.0050007215340036786 1.0825471298491842e-06 0 -0.0050000016327482666 1.2064193466220207e-09 0 -0.0049999584318087906 5.3927794508631811e-09 0 -0.0049089710735970241 2.8434111119366604e-06 0 -0.0050007215340036786 1.0825471298491842e-06 0 -0.0050000016327482666 1.2064193466220207e-09 0 -0.0050003965971102673 1.039908269781768e-06 0 -0.0049089710735970241 2.8434111119366604e-06 0 -0.0048264067160815362 3.2295004748688112e-05 0 -0.0050007215340036786 1.0825471298491842e-06 0 -0.0050003965971102673 1.039908269781768e-06 0 -0.0050024904590303503 6.8964912696934967e-06 0 -0.0050003965971102673 1.039908269781768e-06 0 -0.0049953902980943718 6.2842120002761097e-07 0 -0.0050024904590303503 6.8964912696934967e-06 0 -0.0050000016327482666 1.2064193466220207e-09 0 -0.0050003965971102673 1.039908269781768e-06 0 -0.0049999995331819619 3.9098542344878205e-10 0 -0.0050003965971102673 1.039908269781768e-06 0 -0.0049999995331819619 3.9098542344878205e-10 0 -0.0049953902980943718 6.2842120002761097e-07 0 -0.0049999826832318479 -4.2475048128098608e-09 0 -0.0049999995331819619 3.9098542344878205e-10 0 -0.0049953902980943718 6.2842120002761097e-07 0 -0.0049953902980943718 6.2842120002761097e-07 0 -0.0050024904590303503 6.8964912696934967e-06 0 -0.0049984302721117315 2.287048913599976e-05 0 -0.0049888237087172558 1.0688035154462261e-05 0 -0.0049953902980943718 6.2842120002761097e-07 0 -0.0049984302721117315 2.287048913599976e-05 0 -0.0048264067160815362 3.2295004748688112e-05 0 -0.004804732789225147 6.7020447565201228e-05 0 -0.0046321428040402481 0.00017777166915759272 0 -0.0046648084898698993 4.7759633229331426e-05 0 -0.0045421421300356288 0.00012385396026714002 0 -0.0041769937310620559 1.4859660736760122e-06 0 -0.0041422780544451143 -6.693346935735099e-05 0 -0.0041349938134826823 1.6867943906736931e-05 0 -0.0045060152258217809 -0.00010383586643026374 0 -0.004485442739478083 -2.1398771654793104e-05 0 -0.0041769937310620559 1.4859660736760122e-06 0 -0.0041422780544451143 -6.693346935735099e-05 0 -0.0042009703903974878 -3.2876413358169289e-05 0 -0.0041769937310620559 1.4859660736760122e-06 0 -0.0042009703903974878 -3.2876413358169289e-05 0 -0.0042034351230975497 4.5170177643418013e-06 0 -0.0042915495503260907 0.00014344809408490611 0 -0.0042227302091013197 0.0001259767275909226 0 -0.0043108706946843427 0.00022203108519691105 0 -0.004485442739478083 -2.1398771654793104e-05 0 -0.004618320756964076 6.4215287217449498e-05 0 -0.0048768265124273175 -0.00010428935741977988 0 -0.0048842792769375606 -0.00014100901240595261 0 -0.0049180739667458867 -0.00010714292530757183 0 -0.0049083521035109372 -8.4871332169545987e-05 0 -0.0048768265124273175 -0.00010428935741977988 0 -0.0048895301670149041 -7.269194498319296e-05 0 -0.0049083521035109372 -8.4871332169545987e-05 0 -0.0048768265124273175 -0.00010428935741977988 0 -0.0049180739667458867 -0.00010714292530757183 0 -0.0049083521035109372 -8.4871332169545987e-05 0 -0.0049180739667458867 -0.00010714292530757183 0 -0.0049266575445661726 -8.0841217563899751e-05 0 -0.0048768265124273175 -0.00010428935741977988 0 -0.0048665032650783042 -6.5488733775839332e-05 0 -0.0048895301670149041 -7.269194498319296e-05 0 -0.0045060152258217809 -0.00010383586643026374 0 -0.0047120707465713165 -3.0256098005799832e-05 0 -0.0041422780544451143 -6.693346935735099e-05 0 -0.0042203871296660729 -8.5969487083024823e-05 0 -0.0041639446611954276 -0.00017770458770440185 0 -0.0041422780544451143 -6.693346935735099e-05 0 -0.0042203871296660729 -8.5969487083024823e-05 0 -0.0042009703903974878 -3.2876413358169289e-05 0 -0.0042822152324914478 -0.00014150240302821765 0 -0.0042203871296660729 -8.5969487083024823e-05 0 -0.0041639446611954276 -0.00017770458770440185 0 -0.0042822152324914478 -0.00014150240302821765 0 -0.0042203871296660729 -8.5969487083024823e-05 0 -0.0042806492123239441 -8.4292436481682041e-05 0 -0.0042203871296660729 -8.5969487083024823e-05 0 -0.0042806492123239441 -8.4292436481682041e-05 0 -0.0042697676001206952 -4.181539229949533e-05 0 -0.0042822152324914478 -0.00014150240302821765 0 -0.004326273598340943 -0.00010181945113005015 0 -0.0043955510177937735 -0.00015523437212055572 0 -0.004326273598340943 -0.00010181945113005015 0 -0.00436935889369661 -8.0979520239188966e-05 0 -0.0043955510177937735 -0.00015523437212055572 0 -0.0042822152324914478 -0.00014150240302821765 0 -0.004326273598340943 -0.00010181945113005015 0 -0.0042806492123239441 -8.4292436481682041e-05 0 -0.0042806492123239441 -8.4292436481682041e-05 0 -0.0043164346664763282 -6.5257179749925572e-05 0 -0.0042697676001206952 -4.181539229949533e-05 0 -0.004326273598340943 -0.00010181945113005015 0 -0.0042806492123239441 -8.4292436481682041e-05 0 -0.0043164346664763282 -6.5257179749925572e-05 0 -0.0043164346664763282 -6.5257179749925572e-05 0 -0.00436935889369661 -8.0979520239188966e-05 0 -0.0043446865510696235 -2.5779281360484914e-05 0 -0.004326273598340943 -0.00010181945113005015 0 -0.0043164346664763282 -6.5257179749925572e-05 0 -0.00436935889369661 -8.0979520239188966e-05 0 -0.0042440833443185468 -6.840751392822132e-05 0 -0.0042418408908529289 -7.2554248018149743e-05 0 -0.0043446865510696235 -2.5779281360484914e-05 0 -0.004343991620073125 -1.6411456907861663e-05 0 -0.0042697676001206952 -4.181539229949533e-05 0 -0.004343991620073125 -1.6411456907861663e-05 0 -0.0042697676001206952 -4.181539229949533e-05 0 -0.004231749604162038 1.6499369181036957e-05 0 -0.0043164346664763282 -6.5257179749925572e-05 0 -0.0043446865510696235 -2.5779281360484914e-05 0 -0.0042697676001206952 -4.181539229949533e-05 0 -0.0042418408908529289 -7.2554248018149743e-05 0 -0.0042393255443917924 1.4836701759509317e-05 0 -0.0042192375005851929 2.7357206221033335e-05 0 -0.004231749604162038 1.6499369181036957e-05 0 -0.0042225029366929458 1.9857135562436147e-05 0 -0.0042192375005851929 2.7357206221033335e-05 0 -0.0042190560602425754 1.9845688832543415e-05 0 -0.0042225029366929458 1.9857135562436147e-05 0 -0.0042418408908529289 -7.2554248018149743e-05 0 -0.0040351322493746367 -5.5599237326289474e-05 0 -0.0042203871296660729 -8.5969487083024823e-05 0 -0.0042009703903974878 -3.2876413358169289e-05 0 -0.0042697676001206952 -4.181539229949533e-05 0 -0.0042009703903974878 -3.2876413358169289e-05 0 -0.0042697676001206952 -4.181539229949533e-05 0 -0.004231749604162038 1.6499369181036957e-05 0 -0.0041769937310620559 1.4859660736760122e-06 0 -0.0042034351230975497 4.5170177643418013e-06 0 -0.0042036052080228741 2.6876789612808666e-05 0 -0.0042009703903974878 -3.2876413358169289e-05 0 -0.004231749604162038 1.6499369181036957e-05 0 -0.0042034351230975497 4.5170177643418013e-06 0 -0.004231749604162038 1.6499369181036957e-05 0 -0.0042034351230975497 4.5170177643418013e-06 0 -0.0042036052080228741 2.6876789612808666e-05 0 -0.0042036052080228741 2.6876789612808666e-05 0 -0.004196924016903191 4.3260039813381449e-05 0 -0.0041791942046926342 2.8976733647827993e-05 0 -0.004231749604162038 1.6499369181036957e-05 0 -0.0042036052080228741 2.6876789612808666e-05 0 -0.0042219260006461038 2.3727307022523295e-05 0 -0.0042036052080228741 2.6876789612808666e-05 0 -0.0042219260006461038 2.3727307022523295e-05 0 -0.0042109750413903682 3.4765595271927626e-05 0 -0.0042219260006461038 2.3727307022523295e-05 0 -0.0042109750413903682 3.4765595271927626e-05 0 -0.0042176813571219492 3.0039537115481311e-05 0 -0.0042109750413903682 3.4765595271927626e-05 0 -0.0042098500142778899 3.9308952197707615e-05 0 -0.0042040384937027213 4.2916914903196125e-05 0 -0.0042109750413903682 3.4765595271927626e-05 0 -0.004196924016903191 4.3260039813381449e-05 0 -0.0042040384937027213 4.2916914903196125e-05 0 -0.0042036052080228741 2.6876789612808666e-05 0 -0.0042109750413903682 3.4765595271927626e-05 0 -0.004196924016903191 4.3260039813381449e-05 0 -0.0040351322493746367 -5.5599237326289474e-05 0 -0.0037948878759224429 2.261304626431198e-05 0 -0.0042269012790397444 1.9550188238056254e-05 0 -0.0042176813571219492 3.0039537115481311e-05 0 -0.0042141680868288262 5.0089482758261888e-05 0 -0.0040351322493746367 -5.5599237326289474e-05 0 -0.0041294032493910454 -4.6366981643678802e-05 0 -0.0042269012790397444 1.9550188238056254e-05 0 -0.0042225029366929458 1.9857135562436147e-05 0 -0.0042176813571219492 3.0039537115481311e-05 0 -0.0042219260006461038 2.3727307022523295e-05 0 -0.0042225029366929458 1.9857135562436147e-05 0 -0.0042176813571219492 3.0039537115481311e-05 0 -0.004231749604162038 1.6499369181036957e-05 0 -0.0042219260006461038 2.3727307022523295e-05 0 -0.0042225029366929458 1.9857135562436147e-05 0 -0.0042109750413903682 3.4765595271927626e-05 0 -0.0042176813571219492 3.0039537115481311e-05 0 -0.0042098500142778899 3.9308952197707615e-05 0 -0.0042176813571219492 3.0039537115481311e-05 0 -0.0042098500142778899 3.9308952197707615e-05 0 -0.0042141680868288262 5.0089482758261888e-05 0 -0.0042098500142778899 3.9308952197707615e-05 0 -0.0042040971947383335 4.661456153954249e-05 0 -0.0042141680868288262 5.0089482758261888e-05 0 -0.0042098500142778899 3.9308952197707615e-05 0 -0.0042040971947383335 4.661456153954249e-05 0 -0.0042040384937027213 4.2916914903196125e-05 0 -0.0041924790564269515 4.4329158650889405e-05 0 -0.004195637819420478 4.682284919033826e-05 0 -0.0041994515392948474 4.6586501683358746e-05 0 -0.0042040971947383335 4.661456153954249e-05 0 -0.004195637819420478 4.682284919033826e-05 0 -0.0041994515392948474 4.6586501683358746e-05 0 -0.004153380770370467 0.00011423130443155258 0 -0.0037948878759224429 2.261304626431198e-05 0 -0.004196924016903191 4.3260039813381449e-05 0 -0.0041974905269232584 4.4848365918469361e-05 0 -0.0041924183359629162 4.3750886261353381e-05 0 -0.004196924016903191 4.3260039813381449e-05 0 -0.0042040384937027213 4.2916914903196125e-05 0 -0.0041974905269232584 4.4848365918469361e-05 0 -0.0042040971947383335 4.661456153954249e-05 0 -0.0042040384937027213 4.2916914903196125e-05 0 -0.0041994515392948474 4.6586501683358746e-05 0 -0.0042040384937027213 4.2916914903196125e-05 0 -0.0041994515392948474 4.6586501683358746e-05 0 -0.0041974905269232584 4.4848365918469361e-05 0 -0.0041965012974167441 4.6831680800581016e-05 0 -0.0041994515392948474 4.6586501683358746e-05 0 -0.0041974905269232584 4.4848365918469361e-05 0 -0.0041965012974167441 4.6831680800581016e-05 0 -0.0041974905269232584 4.4848365918469361e-05 0 -0.0041924183359629162 4.3750886261353381e-05 0 -0.0041965012974167441 4.6831680800581016e-05 0 -0.0041944339937901535 3.6039466310109414e-05 0 -0.0041924183359629162 4.3750886261353381e-05 0 -0.0041638028276733798 -5.1571268286672837e-05 0 -0.004019960961382082 -6.910573060195011e-05 0 -0.0041944339937901535 3.6039466310109414e-05 0 -0.004218167074869902 -1.8940593787310183e-06 0 -0.0041505722790256263 1.9041986900753085e-05 0 -0.004196924016903191 4.3260039813381449e-05 0 -0.0041924183359629162 4.3750886261353381e-05 0 -0.0041814886188409391 5.0572510661385976e-05 0 -0.0041944339937901535 3.6039466310109414e-05 0 -0.0041924183359629162 4.3750886261353381e-05 0 -0.0041814886188409391 5.0572510661385976e-05 0 -0.004196924016903191 4.3260039813381449e-05 0 -0.0041814886188409391 5.0572510661385976e-05 0 -0.0041791942046926342 2.8976733647827993e-05 0 -0.0041944339937901535 3.6039466310109414e-05 0 -0.0041814886188409391 5.0572510661385976e-05 0 -0.0042179319287203353 7.342112850344561e-05 0 -0.0041814886188409391 5.0572510661385976e-05 0 -0.0042227302091013197 0.0001259767275909226 0 -0.0042179319287203353 7.342112850344561e-05 0 -0.0041694619522522269 1.3723185914932536e-05 0 -0.004485442739478083 -2.1398771654793104e-05 0 -0.0041814886188409391 5.0572510661385976e-05 0 -0.0041791942046926342 2.8976733647827993e-05 0 -0.0041349938134826823 1.6867943906736931e-05 0 -0.0041769937310620559 1.4859660736760122e-06 0 -0.0041791942046926342 2.8976733647827993e-05 0 -0.0041349938134826823 1.6867943906736931e-05 0 -0.0041769937310620559 1.4859660736760122e-06 0 -0.0042036052080228741 2.6876789612808666e-05 0 -0.0041791942046926342 2.8976733647827993e-05 0 -0.0042915495503260907 0.00014344809408490611 0 -0.0042589886617590217 8.0875963213274861e-05 0 -0.0043238662980999458 8.8181311749128724e-05 0 -0.0042915495503260907 0.00014344809408490611 0 -0.0042513070613034859 0.00011747201374498854 0 -0.0042589886617590217 8.0875963213274861e-05 0 -0.0042227302091013197 0.0001259767275909226 0 -0.0042382387158679804 9.8299622945716904e-05 0 -0.0042179319287203353 7.342112850344561e-05 0 -0.0042915495503260907 0.00014344809408490611 0 -0.0042513070613034859 0.00011747201374498854 0 -0.0042227302091013197 0.0001259767275909226 0 -0.0042513070613034859 0.00011747201374498854 0 -0.0042227302091013197 0.0001259767275909226 0 -0.0042382387158679804 9.8299622945716904e-05 0 -0.0042513070613034859 0.00011747201374498854 0 -0.0042382387158679804 9.8299622945716904e-05 0 -0.0042589886617590217 8.0875963213274861e-05 0 -0.0041944339937901535 3.6039466310109414e-05 0 -0.0042589886617590217 8.0875963213274861e-05 0 -0.0042179319287203353 7.342112850344561e-05 0 -0.0042382387158679804 9.8299622945716904e-05 0 -0.0042589886617590217 8.0875963213274861e-05 0 -0.0042179319287203353 7.342112850344561e-05 0 -0.0042676601514450001 -4.4512523386874236e-05 0 -0.0042589886617590217 8.0875963213274861e-05 0 -0.0043238662980999458 8.8181311749128724e-05 0 -0.0042676601514450001 -4.4512523386874236e-05 0 -0.0041944339937901535 3.6039466310109414e-05 0 -0.0042589886617590217 8.0875963213274861e-05 0 -0.004285488193639316 0.00011809346238765027 0 -0.0044153017603728549 9.729557005987239e-05 0 -0.0042676601514450001 -4.4512523386874236e-05 0 -0.0041638028276733798 -5.1571268286672837e-05 0 -0.0041944339937901535 3.6039466310109414e-05 0 -0.0046865504819539787 6.7404901048903249e-05 0 -0.0047333626185564817 0.00015292470983960856 0 -0.004285488193639316 0.00011809346238765027 0 -0.0047333626185564817 0.00015292470983960856 0 -0.0044935552981758605 5.319368333505929e-05 0 -0.0045626312921604783 9.300095546853762e-05 0 -0.0045353554859604078 0.00014358607075688987 0 -0.0046734729440323511 3.0694192210166045e-05 0 -0.0044260693264566641 0.00012045128576246286 0 -0.0046923700121334804 0.00027949148041323343 0 -0.0047860450261649817 4.133559353909407e-05 0 -0.0047337616572251965 0.0001533276690236357 0 -0.0048252447486853665 0.00012264917792896354 0 -0.0047860450261649817 4.133559353909407e-05 0 -0.0048252447486853665 0.00012264917792896354 0 -0.0048809857554922825 0.00011393026793832948 0 -0.0048252447486853665 0.00012264917792896354 0 -0.0048826773511805952 0.00017416217497036234 0 -0.0048809857554922825 0.00011393026793832948 0 -0.0048826773511805952 0.00017416217497036234 0 -0.0048809857554922825 0.00011393026793832948 0 -0.0049039101899696269 0.00015584093445111325 0 -0.0047333626185564817 0.00015292470983960856 0 -0.0048955476715583004 0.00019412396047374788 0 -0.0047337616572251965 0.0001533276690236357 0 -0.0048252447486853665 0.00012264917792896354 0 -0.0048826773511805952 0.00017416217497036234 0 -0.0049259815548458822 0.00020285520615801893 0 -0.0048826773511805952 0.00017416217497036234 0 -0.0049289144192445128 0.00015781270766870764 0 -0.0048826773511805952 0.00017416217497036234 0 -0.0049125584315793825 0.00016123554578356293 0 -0.0049153121390583168 0.00017009052935259932 0 -0.0048826773511805952 0.00017416217497036234 0 -0.0049125584315793825 0.00016123554578356293 0 -0.0049289144192445128 0.00015781270766870764 0 -0.0047333626185564817 0.00015292470983960856 0 -0.0047522582013675187 0.00015983079592540923 0 -0.0045626312921604783 9.300095546853762e-05 0 -0.004568753354457793 0.00016287007520655322 0 -0.0045353554859604078 0.00014358607075688987 0 -0.0049491445486228355 8.235864866251907e-05 0 -0.0049646161815026704 0.00016101217923404005 0 -0.0049340934316726235 0.00014478660509189694 0 -0.0050631932613127168 0.00041890762904721356 0 -0.0050309047341022591 0.00041798642673197806 0 -0.0050206708898953723 0.00033406186942249241 0 -0.0048700589359244482 0.00021925105121483414 0 -0.0050164685654082745 0.00025690915645122301 0 -0.0049491445486228355 8.235864866251907e-05 0 -0.0049340934316726235 0.00014478660509189694 0 -0.0048809857554922825 0.00011393026793832948 0 -0.0049340934316726235 0.00014478660509189694 0 -0.0048809857554922825 0.00011393026793832948 0 -0.0049039101899696269 0.00015584093445111325 0 -0.0049340934316726235 0.00014478660509189694 0 -0.0049039101899696269 0.00015584093445111325 0 -0.0049153121390583168 0.00017009052935259932 0 -0.0049340934316726235 0.00014478660509189694 0 -0.0049153121390583168 0.00017009052935259932 0 -0.0049399239566168852 0.00017267719099733144 0 -0.0048826773511805952 0.00017416217497036234 0 -0.0049039101899696269 0.00015584093445111325 0 -0.0049153121390583168 0.00017009052935259932 0 -0.0049646161815026704 0.00016101217923404005 0 -0.0049340934316726235 0.00014478660509189694 0 -0.0049399239566168852 0.00017267719099733144 0 -0.0049646161815026704 0.00016101217923404005 0 -0.004956086572709786 0.00018748379433858702 0 -0.0049399239566168852 0.00017267719099733144 0 -0.004956086572709786 0.00018748379433858702 0 -0.0049399239566168852 0.00017267719099733144 0 -0.0049315083042526763 0.000186828832100589 0 -0.0049153121390583168 0.00017009052935259932 0 -0.0049399239566168852 0.00017267719099733144 0 -0.0049315083042526763 0.000186828832100589 0 -0.0049153121390583168 0.00017009052935259932 0 -0.0049315083042526763 0.000186828832100589 0 -0.0049357100509954165 0.00014391054594358463 0 -0.004958512057445622 0.00015209613713989552 0 -0.0049411908657828185 0.00014566794106171164 0 -0.0049815760414087251 0.00011589300869305619 0 -0.0049645774115713364 0.00012497654569383038 0 -0.0049853900311269163 0.00010921575344134975 0 -0.0049815760414087251 0.00011589300869305619 0 -0.0049357100509954165 0.00014391054594358463 0 -0.0049645774115713364 0.00012497654569383038 0 -0.004956086572709786 0.00018748379433858702 0 -0.004970514656431912 0.00019454502266395016 0 -0.0049315083042526763 0.000186828832100589 0 -0.0049815760414087251 0.00011589300869305619 0 -0.0049829842984921609 0.00010859263010584263 0 -0.0049853900311269163 0.00010921575344134975 0 -0.0049677893563711923 0.00015780530922417411 0 -0.004958512057445622 0.00015209613713989552 0 -0.0049749032897399535 0.00012464117882460577 0 -0.0049815760414087251 0.00011589300869305619 0 -0.0049829842984921609 0.00010859263010584263 0 -0.004568753354457793 0.00016287007520655322 0 -0.0045353554859604078 0.00014358607075688987 0 -0.0045763229360321544 0.00023096697975566574 0 -0.0044153017603728549 9.729557005987239e-05 0 -0.0046693619638492785 0.00018646479478223732 0 -0.0042915495503260907 0.00014344809408490611 0 -0.0043850295816145026 0.00021480190999517918 0 -0.0043108706946843427 0.00022203108519691105 0 -0.0047522582013675187 0.00015983079592540923 0 -0.0046693619638492785 0.00018646479478223732 0 -0.0042915495503260907 0.00014344809408490611 0 -0.0043238662980999458 8.8181311749128724e-05 0 -0.0043850295816145026 0.00021480190999517918 0 -0.0049125584315793825 0.00016123554578356293 0 -0.0049289144192445128 0.00015781270766870764 0 -0.0049357100509954165 0.00014391054594358463 0 -0.0049289144192445128 0.00015781270766870764 0 -0.0049464972587359522 0.00013801257933779011 0 -0.0049357100509954165 0.00014391054594358463 0 -0.0049125584315793825 0.00016123554578356293 0 -0.0049153121390583168 0.00017009052935259932 0 -0.0049357100509954165 0.00014391054594358463 0 -0.0046693619638492785 0.00018646479478223732 0 -0.0048986621475086188 0.00012459314550694912 0 -0.0049464972587359522 0.00013801257933779011 0 -0.0049357100509954165 0.00014391054594358463 0 -0.0049645774115713364 0.00012497654569383038 0 -0.0049464972587359522 0.00013801257933779011 0 -0.0049645774115713364 0.00012497654569383038 0 -0.0049742822271808523 0.0001191963024707783 0 -0.0048090868159914486 0.00012373747578739845 0 -0.0048109994802578576 0.00011817346774961779 0 -0.0048099340969862464 0.00011853574125734086 0 -0.0043850295816145026 0.00021480190999517918 0 -0.0043108706946843427 0.00022203108519691105 0 -0.0043970101536548361 0.00031404969148226099 0 -0.0049180739667458867 -0.00010714292530757183 0 -0.0049266575445661726 -8.0841217563899751e-05 0 -0.0049512209792085798 -7.2811281232978804e-05 0 -0.004618320756964076 6.4215287217449498e-05 0 -0.0047297900659867415 9.3282318885972701e-05 0 -0.0046693619638492785 0.00018646479478223732 0 -0.0047297900659867415 9.3282318885972701e-05 0 -0.0049266575445661726 -8.0841217563899751e-05 0 -0.0049220381989113103 -6.5009033298252516e-05 0 -0.0049373286663237474 -6.6353646526818471e-05 0 -0.0049220381989113103 -6.5009033298252516e-05 0 -0.0049371964199767379 -4.8871522382171821e-05 0 -0.0049135722476134555 -5.1390313547535525e-05 0 -0.0049220381989113103 -6.5009033298252516e-05 0 -0.0049373286663237474 -6.6353646526818471e-05 0 -0.0049371964199767379 -4.8871522382171821e-05 0 -0.0049373286663237474 -6.6353646526818471e-05 0 -0.004952938488852812 -6.1734113155275706e-05 0 -0.0049371964199767379 -4.8871522382171821e-05 0 -0.004952938488852812 -6.1734113155275706e-05 0 -0.0049559938199061808 -4.400840933743808e-05 0 -0.0049371964199767379 -4.8871522382171821e-05 0 -0.0049373286663237474 -6.6353646526818471e-05 0 -0.004952938488852812 -6.1734113155275706e-05 0 -0.0049512209792085798 -7.2811281232978804e-05 0 -0.0047862447842454353 -1.135215853496833e-05 0 -0.0047297900659867415 9.3282318885972701e-05 0 -0.0049266575445661726 -8.0841217563899751e-05 0 -0.0049373286663237474 -6.6353646526818471e-05 0 -0.0049512209792085798 -7.2811281232978804e-05 0 -0.0048109994802578576 0.00011817346774961779 0 -0.0048099340969862464 0.00011853574125734086 0 -0.004810908947877935 0.00011389367161059048 0 -0.0048986621475086188 0.00012459314550694912 0 -0.0049362535299642286 5.7670015425935101e-05 0 -0.0049742822271808523 0.0001191963024707783 0 -0.0050003270451347967 9.4513216356257923e-05 0 -0.0049849228306503932 0.0001081225269165624 0 -0.0049645774115713364 0.00012497654569383038 0 -0.0049742822271808523 0.0001191963024707783 0 -0.0049849228306503932 0.0001081225269165624 0 -0.0047297900659867415 9.3282318885972701e-05 0 -0.0049362535299642286 5.7670015425935101e-05 0 -0.004952938488852812 -6.1734113155275706e-05 0 -0.0049559938199061808 -4.400840933743808e-05 0 -0.0049776960184501635 -4.4513225413457593e-05 0 -0.004952938488852812 -6.1734113155275706e-05 0 -0.0049513680888689663 -7.19004082124541e-05 0 -0.0049776960184501635 -4.4513225413457593e-05 0 -0.0049559938199061808 -4.400840933743808e-05 0 -0.0049776960184501635 -4.4513225413457593e-05 0 -0.0049746105769995184 -2.1781999010001334e-05 0 -0.0049776960184501635 -4.4513225413457593e-05 0 -0.0049958195752582216 -1.0725687880457961e-05 0 -0.0049746105769995184 -2.1781999010001334e-05 0 -0.0050003270451347967 9.4513216356257923e-05 0 -0.005002649507036736 9.0830890281584384e-05 0 -0.0049959414608949692 9.522648985584679e-05 0 -0.0049362535299642286 5.7670015425935101e-05 0 -0.0049434564243195367 6.4481239868208746e-05 0 -0.0049559938199061808 -4.400840933743808e-05 0 -0.0049475446749860132 -2.8809300761653929e-05 0 -0.0049746105769995184 -2.1781999010001334e-05 0 -0.0049475446749860132 -2.8809300761653929e-05 0 -0.0049371964199767379 -4.8871522382171821e-05 0 -0.0049102962595400628 -2.4905584088653159e-05 0 -0.0049559938199061808 -4.400840933743808e-05 0 -0.0049475446749860132 -2.8809300761653929e-05 0 -0.0049371964199767379 -4.8871522382171821e-05 0 -0.0049853900311269163 0.00010921575344134975 0 -0.0049934649390524577 8.5392788090431115e-05 0 -0.0049874284735752557 8.4509233846450884e-05 0 -0.0049829842984921609 0.00010859263010584263 0 -0.0049853900311269163 0.00010921575344134975 0 -0.0049874284735752557 8.4509233846450884e-05 0 -0.0049853900311269163 0.00010921575344134975 0 -0.004991056114853727 9.8908339082058041e-05 0 -0.0049934649390524577 8.5392788090431115e-05 0 -0.0049645774115713364 0.00012497654569383038 0 -0.0049853900311269163 0.00010921575344134975 0 -0.0049849228306503932 0.0001081225269165624 0 -0.0050003270451347967 9.4513216356257923e-05 0 -0.0049849228306503932 0.0001081225269165624 0 -0.0049959414608949692 9.522648985584679e-05 0 -0.0049853900311269163 0.00010921575344134975 0 -0.0049849228306503932 0.0001081225269165624 0 -0.004991056114853727 9.8908339082058041e-05 0 -0.0049849228306503932 0.0001081225269165624 0 -0.004991056114853727 9.8908339082058041e-05 0 -0.0049959414608949692 9.522648985584679e-05 0 -0.0049362535299642286 5.7670015425935101e-05 0 -0.0050074879878200486 1.2810882231195289e-05 0 -0.005002649507036736 9.0830890281584384e-05 0 -0.0050012919985116524 7.210408149864331e-05 0 -0.0050136268119160173 4.6389315414092908e-05 0 -0.0050027073257724658 9.4256973993526118e-05 0 -0.005002649507036736 9.0830890281584384e-05 0 -0.0050136268119160173 4.6389315414092908e-05 0 -0.005002649507036736 9.0830890281584384e-05 0 -0.004997148026118641 8.7347046077507657e-05 0 -0.0050012919985116524 7.210408149864331e-05 0 -0.005002649507036736 9.0830890281584384e-05 0 -0.0049959414608949692 9.522648985584679e-05 0 -0.004997148026118641 8.7347046077507657e-05 0 -0.004991056114853727 9.8908339082058041e-05 0 -0.0049959414608949692 9.522648985584679e-05 0 -0.004997148026118641 8.7347046077507657e-05 0 -0.0050012919985116524 7.210408149864331e-05 0 -0.0049934649390524577 8.5392788090431115e-05 0 -0.0049951347065639229 6.263358066370296e-05 0 -0.004997148026118641 8.7347046077507657e-05 0 -0.0050012919985116524 7.210408149864331e-05 0 -0.0049934649390524577 8.5392788090431115e-05 0 -0.004991056114853727 9.8908339082058041e-05 0 -0.004997148026118641 8.7347046077507657e-05 0 -0.0049934649390524577 8.5392788090431115e-05 0 -0.0049831145147160834 5.7730343740504842e-05 0 -0.0049951347065639229 6.263358066370296e-05 0 -0.0049874284735752557 8.4509233846450884e-05 0 -0.0049934649390524577 8.5392788090431115e-05 0 -0.0049951347065639229 6.263358066370296e-05 0 -0.0049874284735752557 8.4509233846450884e-05 0 -0.0049831145147160834 5.7730343740504842e-05 0 -0.0049951347065639229 6.263358066370296e-05 0 -0.0049939742590424828 2.9975330780116161e-05 0 -0.0049951347065639229 6.263358066370296e-05 0 -0.0049939742590424828 2.9975330780116161e-05 0 -0.0050136268119160173 4.6389315414092908e-05 0 -0.0050012919985116524 7.210408149864331e-05 0 -0.0049951347065639229 6.263358066370296e-05 0 -0.0050136268119160173 4.6389315414092908e-05 0 -0.0049958195752582216 -1.0725687880457961e-05 0 -0.0049974721267691492 1.2650510934451026e-06 0 -0.0049999988429359852 9.7392556700676018e-09 0 -0.0049974721267691492 1.2650510934451026e-06 0 -0.0049999988429359852 9.7392556700676018e-09 0 -0.0049999923655122012 -2.0154335806573705e-09 0 -0.0050074879878200486 1.2810882231195289e-05 0 -0.0050000003117984422 7.8388064316433587e-09 0 -0.0049999598186125536 9.6247477059511104e-09 0 -0.0049939742590424828 2.9975330780116161e-05 0 -0.0050000501156467515 2.4636601494701357e-08 0 -0.0049939742590424828 2.9975330780116161e-05 0 -0.0050136268119160173 4.6389315414092908e-05 0 -0.0050000501156467515 2.4636601494701357e-08 0 -0.0049475446749860132 -2.8809300761653929e-05 0 -0.0049572817937455216 -3.9135343083522457e-06 0 -0.0049102962595400628 -2.4905584088653159e-05 0 -0.0049785102340114355 -3.5193038968726769e-06 0 -0.0049530150147005141 -1.5933746021612275e-05 0 -0.0049958195752582216 -1.0725687880457961e-05 0 -0.0049572817937455216 -3.9135343083522457e-06 0 -0.0049746105769995184 -2.1781999010001334e-05 0 -0.0049475446749860132 -2.8809300761653929e-05 0 -0.0049572817937455216 -3.9135343083522457e-06 0 -0.0049746105769995184 -2.1781999010001334e-05 0 -0.0049947451549223927 1.2377472693671825e-06 0 -0.0049785102340114355 -3.5193038968726769e-06 0 -0.0049958195752582216 -1.0725687880457961e-05 0 -0.0049974721267691492 1.2650510934451026e-06 0 -0.0049572817937455216 -3.9135343083522457e-06 0 -0.0049974721267691492 1.2650510934451026e-06 0 -0.0050006361197424453 -1.2461369320530409e-06 0 -0.0049999923655122012 -2.0154335806573705e-09 0 -0.0050006361197424453 -1.2461369320530409e-06 0 -0.0050000002969331041 2.7887026574503336e-09 0 -0.004997799482617425 -1.8697664144142368e-06 0 -0.0050006361197424453 -1.2461369320530409e-06 0 -0.0049999923655122012 -2.0154335806573705e-09 0 -0.0050000002969331041 2.7887026574503336e-09 0 -0.0050000002012156389 7.3701135132617946e-12 0 -0.0050000002009808111 -2.4412850841868817e-10 0 -0.0050001109996067362 -1.1329270610119106e-07 0 -0.0050000002969331041 2.7887026574503336e-09 0 -0.0049950530017060435 1.5533065154129501e-07 0 -0.004997799482617425 -1.8697664144142368e-06 0 -0.0049999991349861132 1.1109872351858861e-10 0 -0.0049974343020058503 -6.5768000147067787e-08 0 -0.0049950530017060435 1.5533065154129501e-07 0 -0.0049943950093439401 -2.9322296421297538e-06 0 -0.004997799482617425 -1.8697664144142368e-06 0 -0.0049974343020058503 -6.5768000147067787e-08 0 -0.0049950408086411793 -2.2295449114607893e-06 0 -0.0050000002009808111 -2.4412850841868817e-10 0 -0.0050001109996067362 -1.1329270610119106e-07 0 -0.0049990286652084447 -1.0369704304026141e-06 0 -0.0049950530017060435 1.5533065154129501e-07 0 -0.0049943950093439401 -2.9322296421297538e-06 0 -0.0049900736706992559 -1.0801173448635277e-06 0 -0.0049943950093439401 -2.9322296421297538e-06 0 -0.0049972370514983514 -5.9792818828954729e-06 0 -0.0049911156864945886 -5.5448047514617818e-06 0 -0.0049943950093439401 -2.9322296421297538e-06 0 -0.0049911156864945886 -5.5448047514617818e-06 0 -0.0049900736706992559 -1.0801173448635277e-06 0 -0.0049943950093439401 -2.9322296421297538e-06 0 -0.004997799482617425 -1.8697664144142368e-06 0 -0.0049972370514983514 -5.9792818828954729e-06 0 -0.0050006361197424453 -1.2461369320530409e-06 0 -0.004997799482617425 -1.8697664144142368e-06 0 -0.0049972370514983514 -5.9792818828954729e-06 0 -0.0049102962595400628 -2.4905584088653159e-05 0 -0.0049135722476134555 -5.1390313547535525e-05 0 -0.0048931001492507438 -5.4313988313630797e-05 0 -0.0049371964199767379 -4.8871522382171821e-05 0 -0.0049102962595400628 -2.4905584088653159e-05 0 -0.0049135722476134555 -5.1390313547535525e-05 0 -0.0049102962595400628 -2.4905584088653159e-05 0 -0.0048668948932496653 -5.2393335460288797e-05 0 -0.0048931001492507438 -5.4313988313630797e-05 0 -0.0049530150147005141 -1.5933746021612275e-05 0 -0.0049327008786693455 -3.1977309886531429e-05 0 -0.0049327008786693455 -3.1977309886531429e-05 0 -0.0049943558174972268 -2.3859089756650644e-06 0 -0.0049972370514983514 -5.9792818828954729e-06 0 -0.0049918900954998291 -1.0213796610102436e-05 0 -0.0049911156864945886 -5.5448047514617818e-06 0 -0.0048668948932496653 -5.2393335460288797e-05 0 -0.0048707945811616339 -6.670775355556663e-05 0 -0.0048931001492507438 -5.4313988313630797e-05 0 -0.0049327008786693455 -3.1977309886531429e-05 0 -0.0047120707465713165 -3.0256098005799832e-05 0 -0.0049900749120889293 -4.8135950796079371e-06 0 -0.0049899467817342879 -3.3022993100059173e-06 0 -0.0049912131000938139 -4.0455089763381906e-06 0 -0.0049327008786693455 -3.1977309886531429e-05 0 -0.0049731814288199328 -6.6525820577079053e-06 0 -0.0047120707465713165 -3.0256098005799832e-05 0 -0.0049038897905742205 -8.194477802520424e-05 0 -0.0048707945811616339 -6.670775355556663e-05 0 -0.0048895301670149041 -7.269194498319296e-05 0 -0.0048931001492507438 -5.4313988313630797e-05 0 -0.0049054416562686574 -6.3598436948395987e-05 0 -0.0048895301670149041 -7.269194498319296e-05 0 -0.0048931001492507438 -5.4313988313630797e-05 0 -0.0049083521035109372 -8.4871332169545987e-05 0 -0.0049054416562686574 -6.3598436948395987e-05 0 -0.0048895301670149041 -7.269194498319296e-05 0 -0.0049083521035109372 -8.4871332169545987e-05 0 -0.0049220381989113103 -6.5009033298252516e-05 0 -0.0049054416562686574 -6.3598436948395987e-05 0 -0.0049083521035109372 -8.4871332169545987e-05 0 -0.0049266575445661726 -8.0841217563899751e-05 0 -0.0049220381989113103 -6.5009033298252516e-05 0 -0.0049220381989113103 -6.5009033298252516e-05 0 -0.0049054416562686574 -6.3598436948395987e-05 0 -0.0049135722476134555 -5.1390313547535525e-05 0 -0.0049054416562686574 -6.3598436948395987e-05 0 -0.0049135722476134555 -5.1390313547535525e-05 0 -0.0048931001492507438 -5.4313988313630797e-05 0 -0.0042822152324914478 -0.00014150240302821765 0 -0.0043232475835586768 -0.00024378032379423882 0 -0.0043955510177937735 -0.00015523437212055572 0 -0.0049899467817342879 -3.3022993100059173e-06 0 -0.0049938269794516559 -5.458254008651868e-06 0 -0.0049912131000938139 -4.0455089763381906e-06 0 -0.0047120707465713165 -3.0256098005799832e-05 0 -0.0046324906521491571 -0.00012866537641293555 0 -0.0042822152324914478 -0.00014150240302821765 0 -0.0041639446611954276 -0.00017770458770440185 0 -0.0043232475835586768 -0.00024378032379423882 0 -0.0049938269794516559 -5.458254008651868e-06 0 -0.0049912131000938139 -4.0455089763381906e-06 0 -0.0049935999295581211 -4.3912103041963707e-06 0 -0.0049918414555504328 -4.3643522833976514e-06 0 -0.0049912131000938139 -4.0455089763381906e-06 0 -0.0049935999295581211 -4.3912103041963707e-06 0 -0.0049935999295581211 -4.3912103041963707e-06 0 -0.0049951272598592871 -3.9153884419484733e-06 0 -0.0049962945992072091 -3.1379979497195955e-06 0 -0.0049918414555504328 -4.3643522833976514e-06 0 -0.0049935999295581211 -4.3912103041963707e-06 0 -0.0049953901707001326 -3.8325608586298711e-06 0 -0.0049938269794516559 -5.458254008651868e-06 0 -0.0049935999295581211 -4.3912103041963707e-06 0 -0.0049951272598592871 -3.9153884419484733e-06 0 -0.0049935999295581211 -4.3912103041963707e-06 0 -0.0049953901707001326 -3.8325608586298711e-06 0 -0.0049962945992072091 -3.1379979497195955e-06 0 -0.0049938269794516559 -5.458254008651868e-06 0 -0.0049951272598592871 -3.9153884419484733e-06 0 -0.004994665571501895 -2.976859178854354e-06 0 -0.004994665571501895 -2.976859178854354e-06 0 -0.0049968197761019644 -1.8415936232041461e-06 0 -0.0049979521126268453 -1.0669973353295846e-06 0 -0.004994665571501895 -2.976859178854354e-06 0 -0.0049958762177466634 -2.8774468794392752e-06 0 -0.0049968197761019644 -1.8415936232041461e-06 0 -0.0049951272598592871 -3.9153884419484733e-06 0 -0.004994665571501895 -2.976859178854354e-06 0 -0.0049958762177466634 -2.8774468794392752e-06 0 -0.0049958762177466634 -2.8774468794392752e-06 0 -0.0049969031526894917 -2.1866176122421763e-06 0 -0.0049962945992072091 -3.1379979497195955e-06 0 -0.0049951272598592871 -3.9153884419484733e-06 0 -0.0049958762177466634 -2.8774468794392752e-06 0 -0.0049962945992072091 -3.1379979497195955e-06 0 -0.0049958762177466634 -2.8774468794392752e-06 0 -0.0049969031526894917 -2.1866176122421763e-06 0 -0.0049968197761019644 -1.8415936232041461e-06 0 -0.0049969031526894917 -2.1866176122421763e-06 0 -0.0049978514082270548 -1.689148311525915e-06 0 -0.0049979584015423283 -1.3089393364548445e-06 0 -0.0049969031526894917 -2.1866176122421763e-06 0 -0.0049968197761019644 -1.8415936232041461e-06 0 -0.0049979584015423283 -1.3089393364548445e-06 0 -0.0049953901707001326 -3.8325608586298711e-06 0 -0.0049962945992072091 -3.1379979497195955e-06 0 -0.0049990286652084447 -1.0369704304026141e-06 0 -0.0049943558174972268 -2.3859089756650644e-06 0 -0.0049950408086411793 -2.2295449114607893e-06 0 -0.0049969031526894917 -2.1866176122421763e-06 0 -0.0049962945992072091 -3.1379979497195955e-06 0 -0.0049978514082270548 -1.689148311525915e-06 0 -0.0049962945992072091 -3.1379979497195955e-06 0 -0.0049978514082270548 -1.689148311525915e-06 0 -0.0049990286652084447 -1.0369704304026141e-06 0 -0.0050000002009808111 -2.4412850841868817e-10 0 -0.0049991646460820945 -5.3033547376329671e-07 0 -0.0049999941983630211 -1.2626765043915831e-09 0 -0.0050000002009808111 -2.4412850841868817e-10 0 -0.0049990286652084447 -1.0369704304026141e-06 0 -0.0049991646460820945 -5.3033547376329671e-07 0 -0.0049990286652084447 -1.0369704304026141e-06 0 -0.0049986202037987449 -1.0687500399205086e-06 0 -0.0049991646460820945 -5.3033547376329671e-07 0 -0.0049990286652084447 -1.0369704304026141e-06 0 -0.0049986124470388377 -1.2305443047341318e-06 0 -0.0049986202037987449 -1.0687500399205086e-06 0 -0.0049978514082270548 -1.689148311525915e-06 0 -0.0049990286652084447 -1.0369704304026141e-06 0 -0.0049986124470388377 -1.2305443047341318e-06 0 -0.0049978514082270548 -1.689148311525915e-06 0 -0.0049986124470388377 -1.2305443047341318e-06 0 -0.0049986202037987449 -1.0687500399205086e-06 0 -0.0049978514082270548 -1.689148311525915e-06 0 -0.0049986202037987449 -1.0687500399205086e-06 0 -0.0049979584015423283 -1.3089393364548445e-06 0 -0.0049968197761019644 -1.8415936232041461e-06 0 -0.0049981644995569776 -1.0154257336667811e-06 0 -0.0049979521126268453 -1.0669973353295846e-06 0 -0.0049981644995569776 -1.0154257336667811e-06 0 -0.0049999941983630211 -1.2626765043915831e-09 0 -0.0049979521126268453 -1.0669973353295846e-06 0 -0.0049981644995569776 -1.0154257336667811e-06 0 -0.0049979584015423283 -1.3089393364548445e-06 0 -0.0049991646460820945 -5.3033547376329671e-07 0 -0.0049968197761019644 -1.8415936232041461e-06 0 -0.0049981644995569776 -1.0154257336667811e-06 0 -0.0049979584015423283 -1.3089393364548445e-06 0 -0.0049986202037987449 -1.0687500399205086e-06 0 -0.0049979584015423283 -1.3089393364548445e-06 0 -0.0049991646460820945 -5.3033547376329671e-07 0 -0.0049981644995569776 -1.0154257336667811e-06 0 -0.0049991646460820945 -5.3033547376329671e-07 0 -0.0049999941983630211 -1.2626765043915831e-09 0 -0.0049999941983630211 -1.2626765043915831e-09 0 -0.0049979521126268453 -1.0669973353295846e-06 0 -0.0049999983293313325 -1.1394751823400655e-09 0 -0.0049979521126268453 -1.0669973353295846e-06 0 -0.0049999983293313325 -1.1394751823400655e-09 0 -0.0049996870661437277 -9.1952828784214775e-08 0 -0.004996147113925908 -5.1893620130123226e-06 0 -0.0049926203718808184 -4.2156625231381441e-06 0 -0.0049975809928448052 -4.5110737035041615e-06 0 -0.0049926259956373682 -4.0003613108825375e-06 0 -0.0049859735994227522 2.949623349296561e-06 0 -0.0049804353760585498 -1.5017508365569302e-06 0 -0.0049926203718808184 -4.2156625231381441e-06 0 -0.0049746312416534787 9.3573438446181481e-06 0 -0.0049804353760585498 -1.5017508365569302e-06 0 -0.0049746312416534787 9.3573438446181481e-06 0 -0.0049698507471002554 2.1300416412374548e-06 0 -0.004994665571501895 -2.976859178854354e-06 0 -0.0049979521126268453 -1.0669973353295846e-06 0 -0.0049996870661437277 -9.1952828784214775e-08 0 -0.0049953098222566689 -3.0278690930516341e-06 0 -0.0049977763827124787 -2.4833303006070361e-06 0 -0.004994665571501895 -2.976859178854354e-06 0 -0.004996147113925908 -5.1893620130123226e-06 0 -0.0049926203718808184 -4.2156625231381441e-06 0 -0.0049523733078407047 2.6569004471687227e-05 0 -0.004960245310399394 1.6774034786574187e-05 0 -0.0049432280057586262 -6.1276685853756884e-06 0 -0.0049836283789846106 4.8679875093758856e-07 0 -0.0049931527323113945 1.8846561548607116e-08 0 -0.0049837614478064037 -1.0914910234702476e-05 0 -0.0049717126455054812 8.7827535326994591e-06 0 -0.0049601735354967581 -7.2138619847346112e-06 0 -0.0049933787401318592 -6.4008854371023606e-08 0 -0.0049997737026398282 6.4626006333477303e-08 0 -0.0049975809928448052 -4.5110737035041615e-06 0 -0.0049977763827124787 -2.4833303006070361e-06 0 -0.0049999978795368816 -2.422164044621718e-10 0 -0.0049999983293313325 -1.1394751823400655e-09 0 -0.0049996870661437277 -9.1952828784214775e-08 0 -0.0050000006530437832 5.4569821228015787e-10 0 -0.0049523733078407047 2.6569004471687227e-05 0 -0.004960245310399394 1.6774034786574187e-05 0 -0.0049746312416534787 9.3573438446181481e-06 0 -0.0049717126455054812 8.7827535326994591e-06 0 -0.0049859735994227522 2.949623349296561e-06 0 -0.004996147113925908 -5.1893620130123226e-06 0 -0.0049997737026398282 6.4626006333477303e-08 0 -0.0049975809928448052 -4.5110737035041615e-06 0 -0.004960245310399394 1.6774034786574187e-05 0 -0.0049698507471002554 2.1300416412374548e-06 0 -0.0049609347269228285 -6.0153897720706e-06 0 -0.0049804353760585498 -1.5017508365569302e-06 0 -0.0049698507471002554 2.1300416412374548e-06 0 -0.0049609347269228285 -6.0153897720706e-06 0 -0.0049729013216507616 5.6461039100377125e-05 0 -0.004871077180983974 -0.00011432375842721133 0 -0.004960245310399394 1.6774034786574187e-05 0 -0.0049746312416534787 9.3573438446181481e-06 0 -0.0049698507471002554 2.1300416412374548e-06 0 -0.004960245310399394 1.6774034786574187e-05 0 -0.0049591133311201741 -1.164700555714911e-05 0 -0.0049432280057586262 -6.1276685853756884e-06 0 -0.004871077180983974 -0.00011432375842721133 0 -0.0049601735354967581 -7.2138619847346112e-06 0 -0.0050249494107704835 -4.6778647945989348e-05 0 -0.004958831917063089 -0.0001025024203254405 0 -0.0050206517970161624 -0.00023438844584139563 0 -0.0049601735354967581 -7.2138619847346112e-06 0 -0.00489373035816948 -0.00018656620411338721 0 -0.0049368560952764715 -1.7940780584645306e-05 0 -0.004958831917063089 -0.0001025024203254405 0 -0.0048890833372493125 -0.00020687319309162569 0 -0.0050249494107704835 -4.6778647945989348e-05 0 -0.0049368560952764715 -1.7940780584645306e-05 0 -0.004958831917063089 -0.0001025024203254405 0 -0.004871077180983974 -0.00011432375842721133 0 -0.0049266271092064965 -0.00031536846073288008 0 -0.0047014824487061936 -0.00036863585610421809 0 -0.0047045939376479358 -0.00018934487507005272 0 -0.0046029681362634934 -0.00023565447076664655 0 -0.0049266271092064965 -0.00031536846073288008 0 -0.0046967040864809148 -0.00048466293209743132 0 -0.0047045939376479358 -0.00018934487507005272 0 -0.0046029681362634934 -0.00023565447076664655 0 -0.0045847361719079981 -0.00012808382776291716 0 -0.004958831917063089 -0.0001025024203254405 0 -0.0050206517970161624 -0.00023438844584139563 0 -0.0049259525043889004 -0.00018368219472094275 0 -0.0049266271092064965 -0.00031536846073288008 0 -0.0049571814639556167 -0.00021342229485344605 0 -0.0050752909126232995 -0.0002676644568482769 0 -0.0049376861838549948 -0.00026881920631126267 0 -0.004946826390980796 -0.0003769372064830733 0 -0.0050752909126232995 -0.0002676644568482769 0 -0.0049376861838549948 -0.00026881920631126267 0 -0.0049259525043889004 -0.00018368219472094275 0 -0.0049376861838549948 -0.00026881920631126267 0 -0.0048890833372493125 -0.00020687319309162569 0 -0.0048562240338437465 -0.00031839449904512565 0 -0.0049376861838549948 -0.00026881920631126267 0 -0.004946826390980796 -0.0003769372064830733 0 -0.0048562240338437465 -0.00031839449904512565 0 -0.004958831917063089 -0.0001025024203254405 0 -0.0049259525043889004 -0.00018368219472094275 0 -0.0048890833372493125 -0.00020687319309162569 0 -0.0049376861838549948 -0.00026881920631126267 0 -0.0049259525043889004 -0.00018368219472094275 0 -0.0048890833372493125 -0.00020687319309162569 0 -0.0046324906521491571 -0.00012866537641293555 0 -0.0047478829701931161 -0.00016823991617885499 0 -0.0049938269794516559 -5.458254008651868e-06 0 -0.0049926203718808184 -4.2156625231381441e-06 0 -0.0049885119775787534 -9.0509805408734464e-06 0 -0.0049938269794516559 -5.458254008651868e-06 0 -0.004994665571501895 -2.976859178854354e-06 0 -0.0049926203718808184 -4.2156625231381441e-06 0 -0.004871077180983974 -0.00011432375842721133 0 -0.0047478829701931161 -0.00016823991617885499 0 -0.0049804353760585498 -1.5017508365569302e-06 0 -0.0049609347269228285 -6.0153897720706e-06 0 -0.0049885119775787534 -9.0509805408734464e-06 0 -0.0049804353760585498 -1.5017508365569302e-06 0 -0.0049926203718808184 -4.2156625231381441e-06 0 -0.0049885119775787534 -9.0509805408734464e-06 0 -0.0047014824487061936 -0.00036863585610421809 0 -0.0045103454242734937 -0.00030939367462875242 0 -0.0046029681362634934 -0.00023565447076664655 0 -0.0045114297941023776 -0.00016109900414799675 0 -0.0046029681362634934 -0.00023565447076664655 0 -0.0045847361719079981 -0.00012808382776291716 0 -0.0045103454242734937 -0.00030939367462875242 0 -0.0045114297941023776 -0.00016109900414799675 0 -0.0046029681362634934 -0.00023565447076664655 0 -0.0045103454242734937 -0.00030939367462875242 0 -0.0045114297941023776 -0.00016109900414799675 0 -0.0043955510177937735 -0.00015523437212055572 0 -0.0043232475835586768 -0.00024378032379423882 0 -0.0045103454242734937 -0.00030939367462875242 0 -0.0043955510177937735 -0.00015523437212055572 0 -0.00436935889369661 -8.0979520239188966e-05 0 -0.0043446865510696235 -2.5779281360484914e-05 0 -0.004463374917883684 -6.9230056948947253e-05 0 -0.0045114297941023776 -0.00016109900414799675 0 -0.0043955510177937735 -0.00015523437212055572 0 -0.004463374917883684 -6.9230056948947253e-05 0 -0.00436935889369661 -8.0979520239188966e-05 0 -0.0043955510177937735 -0.00015523437212055572 0 -0.004463374917883684 -6.9230056948947253e-05 0 -0.0042418408908529289 -7.2554248018149743e-05 0 -0.0043033073465106337 -0.00017189010029445258 0 -0.0043446865510696235 -2.5779281360484914e-05 0 -0.0043444625581182152 -1.5843429516954332e-05 0 -0.004463374917883684 -6.9230056948947253e-05 0 -0.0040351322493746367 -5.5599237326289474e-05 0 -0.0040298480824494795 -0.00030488192286864577 0 -0.0040662058712710586 -0.00023454194753120845 0 -0.0040652061452323991 -0.00012941166110424148 0 -0.0042326197530138275 -0.00032340179476405471 0 -0.0040652061452323991 -0.00012941166110424148 0 -0.0042326197530138275 -0.00032340179476405471 0 -0.004347111946372992 -0.00014773122583158413 0 -0.0049801086254451701 -0.00061648487282043771 0 -0.0049908135480149288 -0.00065145089446760971 0 -0.0050011036102690452 -0.00063677926456153758 0 -0.0040298480824494795 -0.00030488192286864577 0 -0.0046967040864809148 -0.00048466293209743132 0 -0.0043033073465106337 -0.00017189010029445258 0 -0.0046967040864809148 -0.00048466293209743132 0 -0.0045114297941023776 -0.00016109900414799675 0 -0.004463374917883684 -6.9230056948947253e-05 0 -0.0045847361719079981 -0.00012808382776291716 0 -0.0042326197530138275 -0.00032340179476405471 0 -0.004347111946372992 -0.00014773122583158413 0 -0.0044015337423530662 -0.00041293491339614469 0 -0.0050084018882223585 -0.00065672358389910973 0 -0.0049908135480149288 -0.00065145089446760971 0 -0.0050107872461288691 -0.00064380698296951451 0 -0.0049908135480149288 -0.00065145089446760971 0 -0.0050107872461288691 -0.00064380698296951451 0 -0.0050011036102690452 -0.00063677926456153758 0 -0.0049266271092064965 -0.00031536846073288008 0 -0.0050287382132263442 -0.0005723697267747081 0 -0.0050752909126232995 -0.0002676644568482769 0 -0.0050598207917558168 -0.00045860559592626434 0 -0.004946826390980796 -0.0003769372064830733 0 -0.0050598207917558168 -0.00045860559592626434 0 -0.004946826390980796 -0.0003769372064830733 0 -0.0049655428569580929 -0.0005207000626924565 0 -0.004946826390980796 -0.0003769372064830733 0 -0.0049007756598614793 -0.0004763646251734755 0 -0.0048057449755283931 -0.000456826362831283 0 -0.004946826390980796 -0.0003769372064830733 0 -0.0049655428569580929 -0.0005207000626924565 0 -0.0049007756598614793 -0.0004763646251734755 0 -0.0049655428569580929 -0.0005207000626924565 0 -0.0049007756598614793 -0.0004763646251734755 0 -0.0048829425119366011 -0.00054884159364895074 0 -0.0041640743144543847 -0.00061898890514655526 0 -0.0042775394125500448 -0.00064129549137836265 0 -0.0049347741189900802 -0.00060210455317159263 0 -0.0050160309084718354 -0.00064017141840097753 0 -0.0047485301012214869 -0.00068075215755030241 0 -0.0049655428569580929 -0.0005207000626924565 0 -0.0048829425119366011 -0.00054884159364895074 0 -0.0049347741189900802 -0.00060210455317159263 0 -0.0049655428569580929 -0.0005207000626924565 0 -0.0049347741189900802 -0.00060210455317159263 0 -0.0050186139382900202 -0.00063210530348265881 0 -0.0050598207917558168 -0.00045860559592626434 0 -0.0049655428569580929 -0.0005207000626924565 0 -0.0050186139382900202 -0.00063210530348265881 0 -0.0049347741189900802 -0.00060210455317159263 0 -0.0050160309084718354 -0.00064017141840097753 0 -0.0050186139382900202 -0.00063210530348265881 0 -0.0040298480824494795 -0.00030488192286864577 0 -0.0041640743144543847 -0.00061898890514655526 0 -0.0049801086254451701 -0.00061648487282043771 0 -0.0050160309084718354 -0.00064017141840097753 0 -0.0050186139382900202 -0.00063210530348265881 0 -0.0049801086254451701 -0.00061648487282043771 0 -0.0050011036102690452 -0.00063677926456153758 0 -0.0050186139382900202 -0.00063210530348265881 0 -0.0050107872461288691 -0.00064380698296951451 0 -0.0050011036102690452 -0.00063677926456153758 0 -0.0050186139382900202 -0.00063210530348265881 0 -0.0050287382132263442 -0.0005723697267747081 0 -0.0050243419372802134 -0.00061029869155222434 0 -0.0031229015789466484 -0.0004543709476966977 0 -0.0032947453282001059 -0.00054957464328846128 0 -0.0031803909988596538 -0.00041293337050120419 0 -0.0031229015789466484 -0.0004543709476966977 0 -0.0031803909988596538 -0.00041293337050120419 0 -0.0031669362853634499 -0.00042964939849710439 0 -0.0031880941338225683 -0.00039892944640928309 0 -0.003290408824753155 -0.00035132281479016161 0 -0.0032947453282001059 -0.00054957464328846128 0 -0.0031803909988596538 -0.00041293337050120419 0 -0.0035131776059884479 -0.00029545629995462585 0 -0.0032947453282001059 -0.00054957464328846128 0 -0.0035131776059884479 -0.00029545629995462585 0 -0.0038111239827131678 -0.00061960769042736187 0 -0.0031803909988596538 -0.00041293337050120419 0 -0.0030523341248377264 -0.00040495717341204455 0 -0.0030671368875209307 -0.00045279936416045449 0 -0.0030671368875209307 -0.00045279936416045449 0 -0.0031238682859234144 -0.00047090641129649561 0 -0.0030334399850186493 -0.00050738371691234473 0 -0.0031803909988596538 -0.00041293337050120419 0 -0.0031669362853634499 -0.00042964939849710439 0 -0.0031238682859234144 -0.00047090641129649561 0 -0.0031803909988596538 -0.00041293337050120419 0 -0.0030671368875209307 -0.00045279936416045449 0 -0.0031238682859234144 -0.00047090641129649561 0 -0.0031669362853634499 -0.00042964939849710439 0 -0.0031238682859234144 -0.00047090641129649561 0 -0.0031691476745911505 -0.00046915303448294421 0 -0.0034197994665978431 -0.0003059254468168998 0 -0.0030907620417545507 -0.00032883267013233134 0 -0.0031691476745911505 -0.00046915303448294421 0 -0.003174229300616054 -0.00043500025761466707 0 -0.0032064292405844927 -0.00049310436522756647 0 -0.0036870279627775411 -0.00017455813193961703 0 -0.0036938005766672197 -0.00023303645153748988 0 -0.0037084379909218821 -0.00022637133832329584 0 -0.0031669362853634499 -0.00042964939849710439 0 -0.0031691476745911505 -0.00046915303448294421 0 -0.003174229300616054 -0.00043500025761466707 0 -0.0037948878759224429 2.261304626431198e-05 0 -0.0031687470163843934 -0.00015764600308498453 0 -0.003764534519815167 -0.00019969045239301918 0 -0.0036870279627775411 -0.00017455813193961703 0 -0.0037084379909218821 -0.00022637133832329584 0 -0.0037671968116056425 -0.00012128791582917617 0 -0.0036796185984180356 -0.00011834515591373778 0 -0.0036870279627775411 -0.00017455813193961703 0 -0.0037671968116056425 -0.00012128791582917617 0 -0.003764534519815167 -0.00019969045239301918 0 -0.0036870279627775411 -0.00017455813193961703 0 -0.0040298480824494795 -0.00030488192286864577 0 -0.0034197994665978431 -0.0003059254468168998 0 -0.0031229015789466484 -0.0004543709476966977 0 -0.0031669362853634499 -0.00042964939849710439 0 -0.003174229300616054 -0.00043500025761466707 0 -0.0039163738383119241 -0.00043449471230923672 0 -0.0038711244245084571 -0.00041336534713392811 0 -0.0038806474576270318 -0.00049400909263219326 0 -0.0039163738383119241 -0.00043449471230923672 0 -0.0038711244245084571 -0.00041336534713392811 0 -0.0039073794761127914 -0.00035733698995275468 0 -0.003797693921723173 -0.00042165617730272509 0 -0.0038806474576270318 -0.00049400909263219326 0 -0.0037327205060606649 -0.00052905847734535866 0 -0.0038711244245084571 -0.00041336534713392811 0 -0.003797693921723173 -0.00042165617730272509 0 -0.0038315870339888781 -0.00034814751385117736 0 -0.0038711244245084571 -0.00041336534713392811 0 -0.003797693921723173 -0.00042165617730272509 0 -0.0038806474576270318 -0.00049400909263219326 0 -0.0033381665818204473 -0.00047553161817485257 0 -0.0032233508995027685 -0.00051440889695773188 0 -0.0027959512402416604 -0.00044662030054217318 0 -0.0027091499556525065 -0.00049997820764313651 0 -0.0027572831312813401 -0.00052004931142319764 0 -0.0027959512402416604 -0.00044662030054217318 0 -0.0028297038500855382 -0.00049611391578778367 0 -0.0027572831312813401 -0.00052004931142319764 0 -0.0033381665818204473 -0.00047553161817485257 0 -0.0034596160866853321 -0.00040054333566171853 0 -0.0029103311220231918 -0.00040790731100120856 0 -0.0028943158901788934 -0.00052780464110861974 0 -0.0028297038500855382 -0.00049611391578778367 0 -0.0027959512402416604 -0.00044662030054217318 0 -0.0029103311220231918 -0.00040790731100120856 0 -0.0028297038500855382 -0.00049611391578778367 0 -0.0030671368875209307 -0.00045279936416045449 0 -0.0029756159631385984 -0.00041802750391787028 0 -0.0030334399850186493 -0.00050738371691234473 0 -0.0030523341248377264 -0.00040495717341204455 0 -0.0030671368875209307 -0.00045279936416045449 0 -0.0029756159631385984 -0.00041802750391787028 0 -0.0034596160866853321 -0.00040054333566171853 0 -0.0028460892724676353 -0.00047062958315480312 0 -0.0029103311220231918 -0.00040790731100120856 0 -0.0030334399850186493 -0.00050738371691234473 0 -0.0028943158901788934 -0.00052780464110861974 0 -0.003290408824753155 -0.00035132281479016161 0 -0.0034596160866853321 -0.00040054333566171853 0 -0.0035131776059884479 -0.00029545629995462585 0 -0.0039598404562825413 -0.00021605050686357454 0 -0.0038111239827131678 -0.00061960769042736187 0 -0.0039598404562825413 -0.00021605050686357454 0 -0.0043721617363270673 -0.00064367729556429314 0 -0.0044201133026652807 -0.00067105231863998527 0 -0.0034596160866853321 -0.00040054333566171853 0 -0.0042475022267037098 -0.00051927494355651646 0 -0.0039163738383119241 -0.00043449471230923672 0 -0.0040021407696176348 -0.00046997233682389281 0 -0.0039073794761127914 -0.00035733698995275468 0 -0.0039598404562825413 -0.00021605050686357454 0 -0.0038111239827131678 -0.00061960769042736187 0 -0.0043721617363270673 -0.00064367729556429314 0 -0.0039163738383119241 -0.00043449471230923672 0 -0.0038806474576270318 -0.00049400909263219326 0 -0.0040021407696176348 -0.00046997233682389281 0 -0.0045028993979371809 -0.00060931342820619782 0 -0.0047485301012214869 -0.00068075215755030241 0 -0.0043721617363270673 -0.00064367729556429314 0 -0.0042775394125500448 -0.00064129549137836265 0 -0.0043680558431026233 -0.00064759813262191138 0 -0.0045610766425705903 -0.00055674311703216484 0 -0.0045028993979371809 -0.00060931342820619782 0 -0.0047485301012214869 -0.00068075215755030241 0 -0.0045610766425705903 -0.00055674311703216484 0 -0.0047485301012214869 -0.00068075215755030241 0 -0.0046737624206714939 -0.00051493455773660157 0 -0.0045610766425705903 -0.00055674311703216484 0 -0.0044629974623198601 -0.00057093309323055135 0 -0.0045028993979371809 -0.00060931342820619782 0 -0.0045610766425705903 -0.00055674311703216484 0 -0.0044629974623198601 -0.00057093309323055135 0 -0.004486557193796023 -0.00052658698563299666 0 -0.0044629974623198601 -0.00057093309323055135 0 -0.0045028993979371809 -0.00060931342820619782 0 -0.0044277127139002812 -0.00061277026493160617 0 -0.0048829425119366011 -0.00054884159364895074 0 -0.0047485301012214869 -0.00068075215755030241 0 -0.0048057449755283931 -0.000456826362831283 0 -0.0047485301012214869 -0.00068075215755030241 0 -0.0048057449755283931 -0.000456826362831283 0 -0.0046737624206714939 -0.00051493455773660157 0 -0.0048829425119366011 -0.00054884159364895074 0 -0.0049347741189900802 -0.00060210455317159263 0 -0.0047485301012214869 -0.00068075215755030241 0 -0.0049007756598614793 -0.0004763646251734755 0 -0.0048829425119366011 -0.00054884159364895074 0 -0.0048057449755283931 -0.000456826362831283 0 -0.0048057449755283931 -0.000456826362831283 0 -0.0046737624206714939 -0.00051493455773660157 0 -0.004674053619287512 -0.00041393448877592324 0 -0.0048057449755283931 -0.000456826362831283 0 -0.004674053619287512 -0.00041393448877592324 0 -0.0047436371947891121 -0.00031452085072489281 0 -0.004674053619287512 -0.00041393448877592324 0 -0.0046615191019410869 -0.00034301450673592833 0 -0.0047436371947891121 -0.00031452085072489281 0 -0.0048057449755283931 -0.000456826362831283 0 -0.0048562240338437465 -0.00031839449904512565 0 -0.0047436371947891121 -0.00031452085072489281 0 -0.004946826390980796 -0.0003769372064830733 0 -0.0048057449755283931 -0.000456826362831283 0 -0.0048562240338437465 -0.00031839449904512565 0 -0.004486557193796023 -0.00052658698563299666 0 -0.0045769845460988676 -0.00047233447332222596 0 -0.0044879732202660026 -0.00044095808893605831 0 -0.0045610766425705903 -0.00055674311703216484 0 -0.004486557193796023 -0.00052658698563299666 0 -0.0045769845460988676 -0.00047233447332222596 0 -0.0045610766425705903 -0.00055674311703216484 0 -0.0046737624206714939 -0.00051493455773660157 0 -0.0045769845460988676 -0.00047233447332222596 0 -0.0046737624206714939 -0.00051493455773660157 0 -0.0045769845460988676 -0.00047233447332222596 0 -0.004674053619287512 -0.00041393448877592324 0 -0.0045769845460988676 -0.00047233447332222596 0 -0.004674053619287512 -0.00041393448877592324 0 -0.0045842022313819768 -0.00037833961557222595 0 -0.004674053619287512 -0.00041393448877592324 0 -0.0046615191019410869 -0.00034301450673592833 0 -0.0045842022313819768 -0.00037833961557222595 0 -0.0045842022313819768 -0.00037833961557222595 0 -0.0044879732202660026 -0.00044095808893605831 0 -0.0045080719757979769 -0.00030058810316959766 0 -0.0045769845460988676 -0.00047233447332222596 0 -0.0045842022313819768 -0.00037833961557222595 0 -0.0044879732202660026 -0.00044095808893605831 0 -0.0043986633540905257 -0.00052091455675450267 0 -0.0044201133026652807 -0.00067105231863998527 0 -0.00408617042621124 -0.00039671646804576575 0 -0.0044879732202660026 -0.00044095808893605831 0 -0.0043676174894739126 -0.00038004719555456994 0 -0.0045080719757979769 -0.00030058810316959766 0 -0.0043676174894739126 -0.00038004719555456994 0 -0.0043986633540905257 -0.00052091455675450267 0 -0.00408617042621124 -0.00039671646804576575 0 -0.0044879732202660026 -0.00044095808893605831 0 -0.0043676174894739126 -0.00038004719555456994 0 -0.0043986633540905257 -0.00052091455675450267 0 -0.004486557193796023 -0.00052658698563299666 0 -0.0044879732202660026 -0.00044095808893605831 0 -0.0043986633540905257 -0.00052091455675450267 0 -0.0044629974623198601 -0.00057093309323055135 0 -0.004486557193796023 -0.00052658698563299666 0 -0.0043986633540905257 -0.00052091455675450267 0 -0.0045028993979371809 -0.00060931342820619782 0 -0.0044277127139002812 -0.00061277026493160617 0 -0.0043721617363270673 -0.00064367729556429314 0 -0.0044629974623198601 -0.00057093309323055135 0 -0.0043986633540905257 -0.00052091455675450267 0 -0.0044277127139002812 -0.00061277026493160617 0 -0.0043986633540905257 -0.00052091455675450267 0 -0.0044277127139002812 -0.00061277026493160617 0 -0.0044201133026652807 -0.00067105231863998527 0 -0.0038711244245084571 -0.00041336534713392811 0 -0.0039073794761127914 -0.00035733698995275468 0 -0.0038315870339888781 -0.00034814751385117736 0 -0.0044277127139002812 -0.00061277026493160617 0 -0.0043721617363270673 -0.00064367729556429314 0 -0.0044201133026652807 -0.00067105231863998527 0 -0.003797693921723173 -0.00042165617730272509 0 -0.0038315870339888781 -0.00034814751385117736 0 -0.0037354856975058992 -0.00030829359608796193 0 -0.0039073794761127914 -0.00035733698995275468 0 -0.0038315870339888781 -0.00034814751385117736 0 -0.0038139554757525914 -0.00022906779965739313 0 -0.0038315870339888781 -0.00034814751385117736 0 -0.0038139554757525914 -0.00022906779965739313 0 -0.0037354856975058992 -0.00030829359608796193 0 -0.0042475022267037098 -0.00051927494355651646 0 -0.0039311366367525778 -0.000300763864579082 0 -0.00408617042621124 -0.00039671646804576575 0 -0.0040729551720906929 -0.0001406353410682926 0 -0.0043345272387786829 -0.00018269153402821091 0 -0.0043676174894739126 -0.00038004719555456994 0 -0.00408617042621124 -0.00039671646804576575 0 -0.0043345272387786829 -0.00018269153402821091 0 -0.0043676174894739126 -0.00038004719555456994 0 -0.0043345272387786829 -0.00018269153402821091 0 -0.0045080719757979769 -0.00030058810316959766 0 -0.0047376774798857857 3.201259943694983e-05 0 -0.0045512820249067887 5.3020819904613499e-05 0 -0.0043345272387786829 -0.00018269153402821091 0 -0.0044951762898363095 6.3352598160077987e-05 0 -0.0041061222167190336 0.00010465316000690554 0 -0.0040729551720906929 -0.0001406353410682926 0 -0.0043345272387786829 -0.00018269153402821091 0 -0.0041061222167190336 0.00010465316000690554 0 -0.0048890833372493125 -0.00020687319309162569 0 -0.0048151310526962426 -0.00026236823114849815 0 -0.0047742563138195269 -0.00020899050993525645 0 -0.0048890833372493125 -0.00020687319309162569 0 -0.0047742563138195269 -0.00020899050993525645 0 -0.004870204581439469 -0.00011278337865529033 0 -0.0048890833372493125 -0.00020687319309162569 0 -0.0048151310526962426 -0.00026236823114849815 0 -0.0048562240338437465 -0.00031839449904512565 0 -0.0048151310526962426 -0.00026236823114849815 0 -0.0048562240338437465 -0.00031839449904512565 0 -0.0047436371947891121 -0.00031452085072489281 0 -0.0048151310526962426 -0.00026236823114849815 0 -0.0047436371947891121 -0.00031452085072489281 0 -0.0047742563138195269 -0.00020899050993525645 0 -0.0047436371947891121 -0.00031452085072489281 0 -0.0047742563138195269 -0.00020899050993525645 0 -0.0046424740334246499 -0.00027690815442228174 0 -0.0047742563138195269 -0.00020899050993525645 0 -0.0046612363880507114 -0.00015284318357359082 0 -0.004870204581439469 -0.00011278337865529033 0 -0.0043345272387786829 -0.00018269153402821091 0 -0.0046612363880507114 -0.00015284318357359082 0 -0.0045080719757979769 -0.00030058810316959766 0 -0.0047742563138195269 -0.00020899050993525645 0 -0.0046612363880507114 -0.00015284318357359082 0 -0.0046424740334246499 -0.00027690815442228174 0 -0.0046612363880507114 -0.00015284318357359082 0 -0.0046424740334246499 -0.00027690815442228174 0 -0.0045080719757979769 -0.00030058810316959766 0 -0.0046615191019410869 -0.00034301450673592833 0 -0.0047436371947891121 -0.00031452085072489281 0 -0.0046424740334246499 -0.00027690815442228174 0 -0.0046615191019410869 -0.00034301450673592833 0 -0.0045842022313819768 -0.00037833961557222595 0 -0.0046424740334246499 -0.00027690815442228174 0 -0.0045842022313819768 -0.00037833961557222595 0 -0.0046424740334246499 -0.00027690815442228174 0 -0.0045080719757979769 -0.00030058810316959766 0 -0.0047376774798857857 3.201259943694983e-05 0 -0.0048888859137004356 -1.2293924345196091e-05 0 -0.0043345272387786829 -0.00018269153402821091 0 -0.0046612363880507114 -0.00015284318357359082 0 -0.0044951762898363095 6.3352598160077987e-05 0 -0.0046612363880507114 -0.00015284318357359082 0 -0.0044951762898363095 6.3352598160077987e-05 0 -0.004896812109453111 -2.1537707321748638e-05 0 -0.0049731632658727735 4.5829777343755674e-05 0 -0.004896812109453111 -2.1537707321748638e-05 0 -0.004870204581439469 -0.00011278337865529033 0 -0.0049731632658727735 4.5829777343755674e-05 0 -0.0048890833372493125 -0.00020687319309162569 0 -0.004870204581439469 -0.00011278337865529033 0 -0.0046612363880507114 -0.00015284318357359082 0 -0.004896812109453111 -2.1537707321748638e-05 0 -0.004870204581439469 -0.00011278337865529033 0 -0.0049786937222008124 1.0622857546176691e-05 0 -0.004896812109453111 -2.1537707321748638e-05 0 -0.0049526381030521385 -2.6190865243601604e-06 0 -0.0049731632658727735 4.5829777343755674e-05 0 -0.004896812109453111 -2.1537707321748638e-05 0 -0.0049526381030521385 -2.6190865243601604e-06 0 -0.0049601735354967581 -7.2138619847346112e-06 0 -0.0049652261591979149 2.5587413993603203e-06 0 -0.0049836283789846106 4.8679875093758856e-07 0 -0.0049837614478064037 -1.0914910234702476e-05 0 -0.0049526381030521385 -2.6190865243601604e-06 0 -0.0049786937222008124 1.0622857546176691e-05 0 -0.0049526381030521385 -2.6190865243601604e-06 0 -0.0049881708013055333 -6.1529450921306716e-07 0 -0.0049526381030521385 -2.6190865243601604e-06 0 -0.0049999405544799667 -1.3616603626047945e-08 0 -0.0049881708013055333 -6.1529450921306716e-07 0 -0.0049836283789846106 4.8679875093758856e-07 0 -0.0049526381030521385 -2.6190865243601604e-06 0 -0.0049999405544799667 -1.3616603626047945e-08 0 -0.0049836283789846106 4.8679875093758856e-07 0 -0.0049931527323113945 1.8846561548607116e-08 0 -0.0049999405544799667 -1.3616603626047945e-08 0 -0.0049939662765239989 4.3876410984245159e-06 0 -0.0049881708013055333 -6.1529450921306716e-07 0 -0.0049999971214158235 -1.1880461886662143e-09 0 -0.0049786937222008124 1.0622857546176691e-05 0 -0.0049939662765239989 4.3876410984245159e-06 0 -0.0049881708013055333 -6.1529450921306716e-07 0 -0.0049999405544799667 -1.3616603626047945e-08 0 -0.0049881708013055333 -6.1529450921306716e-07 0 -0.0049999971214158235 -1.1880461886662143e-09 0 -0.0049939662765239989 4.3876410984245159e-06 0 -0.0049999971214158235 -1.1880461886662143e-09 0 -0.0049968401823587485 1.9465367891466445e-06 0 -0.0049968401823587485 1.9465367891466445e-06 0 -0.0049999935987360914 2.7524991299274399e-09 0 -0.004997014486135651 1.2712827841246725e-06 0 -0.0049999971214158235 -1.1880461886662143e-09 0 -0.0049968401823587485 1.9465367891466445e-06 0 -0.0049999935987360914 2.7524991299274399e-09 0 -0.0049939662765239989 4.3876410984245159e-06 0 -0.0049968401823587485 1.9465367891466445e-06 0 -0.0049938782832328011 2.4569201378482415e-06 0 -0.0045512820249067887 5.3020819904613499e-05 0 -0.0043704694090412888 5.109724820063931e-05 0 -0.0049938782832328011 2.4569201378482415e-06 0 -0.004997014486135651 1.2712827841246725e-06 0 -0.00499467316128702 2.2967918469646588e-06 0 -0.0043704694090412888 5.109724820063931e-05 0 -0.0042840465773692831 4.5526057038410545e-05 0 -0.0049968401823587485 1.9465367891466445e-06 0 -0.0049938782832328011 2.4569201378482415e-06 0 -0.004997014486135651 1.2712827841246725e-06 0 -0.0049999935987360914 2.7524991299274399e-09 0 -0.004997014486135651 1.2712827841246725e-06 0 -0.0049999935569621286 2.1293485924887014e-10 0 -0.0049999935569621286 2.1293485924887014e-10 0 -0.0049974848022845972 1.0110331167201118e-06 0 -0.0049990629144864903 4.8981332864693774e-07 0 -0.004997014486135651 1.2712827841246725e-06 0 -0.0049999935569621286 2.1293485924887014e-10 0 -0.0049974848022845972 1.0110331167201118e-06 0 -0.0049999935569621286 2.1293485924887014e-10 0 -0.0049990629144864903 4.8981332864693774e-07 0 -0.0050000018943883486 2.9207142203285914e-10 0 -0.0050218676696215225 -4.0727895113562168e-05 0 -0.0049999352470353215 4.7934821269251834e-08 0 -0.0049358088601424996 1.3859816541036423e-05 0 -0.0049448824835904388 7.8911328879611956e-05 0 -0.0049771790956681366 1.4400349158205281e-05 0 -0.0034429437000373748 9.7065050385912476e-05 0 -0.0035477817650025859 8.4439377699050972e-05 0 -0.0035401841934593527 -9.4973966540516284e-05 0 -0.0041383604597433525 2.0951137627625296e-05 0 -0.0048700798435107866 -0.00013217845597948561 0 -0.0049358088601424996 1.3859816541036423e-05 0 -0.0049448824835904388 7.8911328879611956e-05 0 -0.0048375851775888049 9.3386217039344901e-05 0 -0.0049974848022845972 1.0110331167201118e-06 0 -0.0049990629144864903 4.8981332864693774e-07 0 -0.00499467316128702 2.2967918469646588e-06 0 -0.0041383604597433525 2.0951137627625296e-05 0 -0.0042840465773692831 4.5526057038410545e-05 0 -0.0050218676696215225 -4.0727895113562168e-05 0 -0.0042840465773692831 4.5526057038410545e-05 0 -0.0037444758138309537 9.9808582554263811e-05 0 -0.0035383607870360947 8.4049741908384521e-05 0 -0.0035953578193351297 3.5755361745497088e-05 0 -0.004997014486135651 1.2712827841246725e-06 0 -0.0049974848022845972 1.0110331167201118e-06 0 -0.00499467316128702 2.2967918469646588e-06 0 -0.0042840465773692831 4.5526057038410545e-05 0 -0.0036699607292870941 0.00022402033272601741 0 -0.0035477817650025859 8.4439377699050972e-05 0 -0.0035953578193351297 3.5755361745497088e-05 0 -0.0035401841934593527 -9.4973966540516284e-05 0 -0.0035953578193351297 3.5755361745497088e-05 0 -0.0035401841934593527 -9.4973966540516284e-05 0 -0.0036551034902940821 -6.0119604255270018e-05 0 -0.0041383604597433525 2.0951137627625296e-05 0 -0.0034003393206469678 -0.00015588488619031109 0 -0.003435018082079311 -0.00018843453116118935 0 -0.0034818323523928092 -0.00024370543091126385 0 -0.0034188195334574466 -0.00023967283913690711 0 -0.0034410517742935859 -0.00027517464261383762 0 -0.0034818323523928092 -0.00024370543091126385 0 -0.0034188195334574466 -0.00023967283913690711 0 -0.0034003393206469678 -0.00015588488619031109 0 -0.0036114276173594769 -0.00030138486692550146 0 -0.0035401841934593527 -9.4973966540516284e-05 0 -0.0036873715615034037 -0.00017869010328800238 0 -0.0036361636792963982 -0.00026902226796877851 0 -0.0035401841934593527 -9.4973966540516284e-05 0 -0.0036873715615034037 -0.00017869010328800238 0 -0.0036551034902940821 -6.0119604255270018e-05 0 -0.0034410517742935859 -0.00027517464261383762 0 -0.0034818323523928092 -0.00024370543091126385 0 -0.0035443943136394896 -0.00031071298718034272 0 -0.0036873715615034037 -0.00017869010328800238 0 -0.0037611137885265439 -8.7585601051114745e-05 0 -0.0036551034902940821 -6.0119604255270018e-05 0 -0.0038139554757525914 -0.00022906779965739313 0 -0.0036873715615034037 -0.00017869010328800238 0 -0.0037611137885265439 -8.7585601051114745e-05 0 -0.0039311366367525778 -0.000300763864579082 0 -0.0037717283762149717 -0.00010046836405810751 0 -0.00408617042621124 -0.00039671646804576575 0 -0.0040729551720906929 -0.0001406353410682926 0 -0.0037611137885265439 -8.7585601051114745e-05 0 -0.0041061222167190336 0.00010465316000690554 0 -0.0037444758138309537 9.9808582554263811e-05 0 -0.0037611137885265439 -8.7585601051114745e-05 0 -0.0040729551720906929 -0.0001406353410682926 0 -0.0041061222167190336 0.00010465316000690554 0 -0.0037611137885265439 -8.7585601051114745e-05 0 -0.0037444758138309537 9.9808582554263811e-05 0 -0.0037611137885265439 -8.7585601051114745e-05 0 -0.0036551034902940821 -6.0119604255270018e-05 0 -0.0037444758138309537 9.9808582554263811e-05 0 -0.0035953578193351297 3.5755361745497088e-05 0 -0.0036551034902940821 -6.0119604255270018e-05 0 -0.0033358522388437064 -0.00027205911917648428 0 -0.0033287415673870255 -0.0002281735690362184 0 -0.0033498479189201262 -0.00024927169915940769 0 -0.0049959542110679404 9.0226139250436328e-07 0 -0.0049999890751134162 -2.2635001621027992e-09 0 -0.0050000079544342251 1.2648830509453927e-08 0 -0.0049959542110679404 9.0226139250436328e-07 0 -0.0050000079544342251 1.2648830509453927e-08 0 -0.0049956907200122648 8.510082755617788e-06 0 -0.0041666815858352087 -0.00013477081479014606 0 -0.0041954515687666998 -0.00011776434488879544 0 -0.0033358522388437064 -0.00027205911917648428 0 -0.003361715964727187 -0.00021189197994293666 0 -0.0033287415673870255 -0.0002281735690362184 0 -0.003361715964727187 -0.00021189197994293666 0 -0.0033950311631225807 -0.00021517502142018847 0 -0.0033735549414240541 -0.0002270099243724661 0 -0.0050000079544342251 1.2648830509453927e-08 0 -0.0049932095820570564 6.3387000841284854e-06 0 -0.0049999399640448814 -2.0924496170740145e-08 0 -0.0050000079544342251 1.2648830509453927e-08 0 -0.0049956907200122648 8.510082755617788e-06 0 -0.0049932095820570564 6.3387000841284854e-06 0 -0.0049665753738666165 2.6932132822536426e-05 0 -0.0049932095820570564 6.3387000841284854e-06 0 -0.0049771790956681366 1.4400349158205281e-05 0 -0.0049358088601424996 1.3859816541036423e-05 0 -0.0049999399640448814 -2.0924496170740145e-08 0 -0.0049771790956681366 1.4400349158205281e-05 0 -0.0049932095820570564 6.3387000841284854e-06 0 -0.0049999399640448814 -2.0924496170740145e-08 0 -0.0049771790956681366 1.4400349158205281e-05 0 -0.0049665753738666165 2.6932132822536426e-05 0 -0.0049956907200122648 8.510082755617788e-06 0 -0.0049932095820570564 6.3387000841284854e-06 0 -0.0041383604597433525 2.0951137627625296e-05 0 -0.0041954515687666998 -0.00011776434488879544 0 -0.003435018082079311 -0.00018843453116118935 0 -0.003361715964727187 -0.00021189197994293666 0 -0.0033950311631225807 -0.00021517502142018847 0 -0.003435018082079311 -0.00018843453116118935 0 -0.0033950311631225807 -0.00021517502142018847 0 -0.0034188195334574466 -0.00023967283913690711 0 -0.0033950311631225807 -0.00021517502142018847 0 -0.0034188195334574466 -0.00023967283913690711 0 -0.0033735549414240541 -0.0002270099243724661 0 -0.0034188195334574466 -0.00023967283913690711 0 -0.0033735549414240541 -0.0002270099243724661 0 -0.0033854344940727351 -0.00030385935420192042 0 -0.0034410517742935859 -0.00027517464261383762 0 -0.0034188195334574466 -0.00023967283913690711 0 -0.0033854344940727351 -0.00030385935420192042 0 -0.0033765396781392279 -0.00023103443342994926 0 -0.0033988587069412862 -0.00028998057022592015 0 -0.0033593592570393157 -0.00024275672406924058 0 -0.0033735549414240541 -0.0002270099243724661 0 -0.0034127282465872474 -0.00027345200249854758 0 -0.003361715964727187 -0.00021189197994293666 0 -0.0033735549414240541 -0.0002270099243724661 0 -0.0033287415673870255 -0.0002281735690362184 0 -0.0033593592570393157 -0.00024275672406924058 0 -0.0033735549414240541 -0.0002270099243724661 0 -0.0033287415673870255 -0.0002281735690362184 0 -0.0033593592570393157 -0.00024275672406924058 0 -0.0033287415673870255 -0.0002281735690362184 0 -0.0033223544419380374 -0.00024352002893071337 0 -0.0033287415673870255 -0.0002281735690362184 0 -0.0033223544419380374 -0.00024352002893071337 0 -0.0032749790013308203 -0.00014651576428688931 0 -0.0033287415673870255 -0.0002281735690362184 0 -0.0033498479189201262 -0.00024927169915940769 0 -0.0032749790013308203 -0.00014651576428688931 0 -0.0032940018480380729 -0.00032414023562710842 0 -0.0032211181933634106 -0.00044094870398689166 0 -0.0032039299858633106 -0.00035577377523988545 0 -0.0032940018480380729 -0.00032414023562710842 0 -0.0033223544419380374 -0.00024352002893071337 0 -0.0032749790013308203 -0.00014651576428688931 0 -0.0032940018480380729 -0.00032414023562710842 0 -0.0033223544419380374 -0.00024352002893071337 0 -0.0033738744935494945 -0.00033150580983751406 0 -0.0033593592570393157 -0.00024275672406924058 0 -0.0033223544419380374 -0.00024352002893071337 0 -0.0033738744935494945 -0.00033150580983751406 0 -0.0032940018480380729 -0.00032414023562710842 0 -0.0033738744935494945 -0.00033150580983751406 0 -0.0033152819189785849 -0.00041011525035818575 0 -0.0033738744935494945 -0.00033150580983751406 0 -0.0034127282465872474 -0.00027345200249854758 0 -0.0034522039844502731 -0.00038980097035672145 0 -0.0033738744935494945 -0.00033150580983751406 0 -0.0034522039844502731 -0.00038980097035672145 0 -0.0033860274823415532 -0.00041554871650246067 0 -0.0033593592570393157 -0.00024275672406924058 0 -0.0033738744935494945 -0.00033150580983751406 0 -0.0034127282465872474 -0.00027345200249854758 0 -0.0034410517742935859 -0.00027517464261383762 0 -0.0033854344940727351 -0.00030385935420192042 0 -0.0034500118242801019 -0.0003264596367073138 0 -0.0033854344940727351 -0.00030385935420192042 0 -0.003408833129090533 -0.00039914680231475751 0 -0.0034500118242801019 -0.0003264596367073138 0 -0.0033988587069412862 -0.00028998057022592015 0 -0.0034303459980185688 -0.00039543492916854702 0 -0.003408833129090533 -0.00039914680231475751 0 -0.0034589589299206169 -0.00051503237782770566 0 -0.0034653742396255718 -0.00043476273331479116 0 -0.0034522039844502731 -0.00038980097035672145 0 -0.0034589589299206169 -0.00051503237782770566 0 -0.0034201721340689725 -0.00046299175969554687 0 -0.0034303459980185688 -0.00039543492916854702 0 -0.0034567646374865165 -0.00050643599935323456 0 -0.0034589589299206169 -0.00051503237782770566 0 -0.0034201721340689725 -0.00046299175969554687 0 -0.0034107457664147218 -0.00052468384774445305 0 -0.0034201721340689725 -0.00046299175969554687 0 -0.0034107457664147218 -0.00052468384774445305 0 -0.0033824159846099267 -0.00047498395225408982 0 -0.0034107457664147218 -0.00052468384774445305 0 -0.0033824159846099267 -0.00047498395225408982 0 -0.0033273322359644282 -0.00053852308481166242 0 -0.0033824159846099267 -0.00047498395225408982 0 -0.0033860274823415532 -0.00041554871650246067 0 -0.0033321657076365602 -0.00047316105175575939 0 -0.0034522039844502731 -0.00038980097035672145 0 -0.0034201721340689725 -0.00046299175969554687 0 -0.0033860274823415532 -0.00041554871650246067 0 -0.0034201721340689725 -0.00046299175969554687 0 -0.0033824159846099267 -0.00047498395225408982 0 -0.0033860274823415532 -0.00041554871650246067 0 -0.0033860274823415532 -0.00041554871650246067 0 -0.0033152819189785849 -0.00041011525035818575 0 -0.0033321657076365602 -0.00047316105175575939 0 -0.0033738744935494945 -0.00033150580983751406 0 -0.0033860274823415532 -0.00041554871650246067 0 -0.0033152819189785849 -0.00041011525035818575 0 -0.0033152819189785849 -0.00041011525035818575 0 -0.0033321657076365602 -0.00047316105175575939 0 -0.0032618036694857665 -0.00049852434725942822 0 -0.0033321657076365602 -0.00047316105175575939 0 -0.0032618036694857665 -0.00049852434725942822 0 -0.0033273322359644282 -0.00053852308481166242 0 -0.0033824159846099267 -0.00047498395225408982 0 -0.0033321657076365602 -0.00047316105175575939 0 -0.0033273322359644282 -0.00053852308481166242 0 -0.0032618036694857665 -0.00049852434725942822 0 -0.0032256247044986893 -0.00056885553441405582 0 -0.0033273322359644282 -0.00053852308481166242 0 -0.0032618036694857665 -0.00049852434725942822 0 -0.0032256247044986893 -0.00056885553441405582 0 -0.0031352063138352006 -0.00053215303409314036 0 -0.0032940018480380729 -0.00032414023562710842 0 -0.0033152819189785849 -0.00041011525035818575 0 -0.0032211181933634106 -0.00044094870398689166 0 -0.0033152819189785849 -0.00041011525035818575 0 -0.0032618036694857665 -0.00049852434725942822 0 -0.0032211181933634106 -0.00044094870398689166 0 -0.0036114276173594769 -0.00030138486692550146 0 -0.003659170232839883 -0.00040846436065146283 0 -0.0037354856975058992 -0.00030829359608796193 0 -0.0036361636792963982 -0.00026902226796877851 0 -0.0036671072322121958 -0.00041425620725303949 0 -0.0035561762060504929 -0.00039931558958104828 0 -0.0035443943136394896 -0.00031071298718034272 0 -0.0036671072322121958 -0.00041425620725303949 0 -0.003797693921723173 -0.00042165617730272509 0 -0.0037354856975058992 -0.00030829359608796193 0 -0.0036671072322121958 -0.00041425620725303949 0 -0.0038139554757525914 -0.00022906779965739313 0 -0.0036873715615034037 -0.00017869010328800238 0 -0.0037354856975058992 -0.00030829359608796193 0 -0.0036873715615034037 -0.00017869010328800238 0 -0.0037354856975058992 -0.00030829359608796193 0 -0.0036361636792963982 -0.00026902226796877851 0 -0.0034410517742935859 -0.00027517464261383762 0 -0.0035443943136394896 -0.00031071298718034272 0 -0.0034500118242801019 -0.0003264596367073138 0 -0.0034500118242801019 -0.0003264596367073138 0 -0.0034580120952857028 -0.00043989768947380684 0 -0.0034056354852880087 -0.00047553783476307951 0 -0.0034344303795879163 -0.00033837596009935492 0 -0.0034894834813283793 -0.00045100497524469454 0 -0.0034500118242801019 -0.0003264596367073138 0 -0.0035040340360330598 -0.00038097666902524324 0 -0.0034580120952857028 -0.00043989768947380684 0 -0.003408833129090533 -0.00039914680231475751 0 -0.0034500118242801019 -0.0003264596367073138 0 -0.0034653742396255718 -0.00043476273331479116 0 -0.0035561762060504929 -0.00039931558958104828 0 -0.0035443943136394896 -0.00031071298718034272 0 -0.0035040340360330598 -0.00038097666902524324 0 -0.0035443943136394896 -0.00031071298718034272 0 -0.0034500118242801019 -0.0003264596367073138 0 -0.0035040340360330598 -0.00038097666902524324 0 -0.0035561762060504929 -0.00039931558958104828 0 -0.0035040340360330598 -0.00038097666902524324 0 -0.0035052192781273267 -0.00044403971716637443 0 -0.0035561762060504929 -0.00039931558958104828 0 -0.0035052192781273267 -0.00044403971716637443 0 -0.0035648855468588124 -0.00046109562794504038 0 -0.0035040340360330598 -0.00038097666902524324 0 -0.0035052192781273267 -0.00044403971716637443 0 -0.0034580120952857028 -0.00043989768947380684 0 -0.0035052192781273267 -0.00044403971716637443 0 -0.0034580120952857028 -0.00043989768947380684 0 -0.0034677742508521362 -0.00048082552430668194 0 -0.0035052192781273267 -0.00044403971716637443 0 -0.0035117280499769522 -0.00048043854243344741 0 -0.0035648855468588124 -0.00046109562794504038 0 -0.0035052192781273267 -0.00044403971716637443 0 -0.0035117280499769522 -0.00048043854243344741 0 -0.0034677742508521362 -0.00048082552430668194 0 -0.0035117280499769522 -0.00048043854243344741 0 -0.0035389594520408071 -0.00050575602633611721 0 -0.0035648855468588124 -0.00046109562794504038 0 -0.0034580120952857028 -0.00043989768947380684 0 -0.0034056354852880087 -0.00047553783476307951 0 -0.0034141545294410804 -0.00049235642799883201 0 -0.0034580120952857028 -0.00043989768947380684 0 -0.0034141545294410804 -0.00049235642799883201 0 -0.0034677742508521362 -0.00048082552430668194 0 -0.0034894834813283793 -0.00045100497524469454 0 -0.0031171337082973086 -0.00049657103855579345 0 -0.0034141545294410804 -0.00049235642799883201 0 -0.0033963121548614365 -0.00049471739472448214 0 -0.0034721349063003806 -0.00047045299614074856 0 -0.0034056354852880087 -0.00047553783476307951 0 -0.0034141545294410804 -0.00049235642799883201 0 -0.0034721349063003806 -0.00047045299614074856 0 -0.0034589589299206169 -0.00051503237782770566 0 -0.0034653742396255718 -0.00043476273331479116 0 -0.0034735843075309994 -0.0005538933974467531 0 -0.0034141545294410804 -0.00049235642799883201 0 -0.0034677742508521362 -0.00048082552430668194 0 -0.0034425357937938137 -0.00049720772123258196 0 -0.0034141545294410804 -0.00049235642799883201 0 -0.0033963121548614365 -0.00049471739472448214 0 -0.0034425357937938137 -0.00049720772123258196 0 -0.0033963121548614365 -0.00049471739472448214 0 -0.0034872205453567525 -0.00050903691697585455 0 -0.0035545825028300343 -0.00055364160573442812 0 -0.0033963121548614365 -0.00049471739472448214 0 -0.0028117063412238341 -0.00054422549502947018 0 -0.0032136593282674109 -0.00042339895094009063 0 -0.0028124251459885428 -0.00052538073856042635 0 -0.002989860977828118 -0.00047849182085882004 0 -0.0033870692826631398 -0.00050139221880460901 0 -0.0031976965127818906 -0.00054128640317066231 0 -0.0027919605759446865 -0.000532344606930125 0 -0.0028117063412238341 -0.00054422549502947018 0 -0.0032136593282674109 -0.00042339895094009063 0 -0.0034872205453567525 -0.00050903691697585455 0 -0.0035545825028300343 -0.00055364160573442812 0 -0.0035389594520408071 -0.00050575602633611721 0 -0.0035117280499769522 -0.00048043854243344741 0 -0.0034872205453567525 -0.00050903691697585455 0 -0.0035389594520408071 -0.00050575602633611721 0 -0.0035117280499769522 -0.00048043854243344741 0 -0.0034872205453567525 -0.00050903691697585455 0 -0.0034677742508521362 -0.00048082552430668194 0 -0.0034872205453567525 -0.00050903691697585455 0 -0.0034677742508521362 -0.00048082552430668194 0 -0.0034425357937938137 -0.00049720772123258196 0 -0.0033963121548614365 -0.00049471739472448214 0 -0.0034872205453567525 -0.00050903691697585455 0 -0.0034425357937938137 -0.00049720772123258196 0 -0.0031976965127818906 -0.00054128640317066231 0 -0.0032233508995027685 -0.00051440889695773188 0 -0.0035545825028300343 -0.00055364160573442812 0 -0.0036403064050870597 -0.00050532481385160799 0 -0.0037327205060606649 -0.00052905847734535866 0 -0.0027919605759446865 -0.000532344606930125 0 -0.0028117063412238341 -0.00054422549502947018 0 -0.0027091499556525065 -0.00049997820764313651 0 -0.0027919605759446865 -0.000532344606930125 0 -0.0027091499556525065 -0.00049997820764313651 0 -0.0027517615495997404 -0.00051246628200661505 0 -0.0036403064050870597 -0.00050532481385160799 0 -0.0035745444908163141 -0.00050525328868724598 0 -0.0035648855468588124 -0.00046109562794504038 0 -0.0035745444908163141 -0.00050525328868724598 0 -0.0035389594520408071 -0.00050575602633611721 0 -0.0035648855468588124 -0.00046109562794504038 0 -0.0035545825028300343 -0.00055364160573442812 0 -0.0036403064050870597 -0.00050532481385160799 0 -0.0035745444908163141 -0.00050525328868724598 0 -0.0035545825028300343 -0.00055364160573442812 0 -0.0035745444908163141 -0.00050525328868724598 0 -0.0035389594520408071 -0.00050575602633611721 0 -0.0036403064050870597 -0.00050532481385160799 0 -0.0035648855468588124 -0.00046109562794504038 0 -0.0036671072322121958 -0.00041425620725303949 0 -0.0035561762060504929 -0.00039931558958104828 0 -0.0035648855468588124 -0.00046109562794504038 0 -0.0036671072322121958 -0.00041425620725303949 0 -0.0036403064050870597 -0.00050532481385160799 0 -0.0036671072322121958 -0.00041425620725303949 0 -0.0037327205060606649 -0.00052905847734535866 0 -0.003797693921723173 -0.00042165617730272509 0 -0.0036671072322121958 -0.00041425620725303949 0 -0.0037327205060606649 -0.00052905847734535866 0 -0.0027091499556525065 -0.00049997820764313651 0 -0.0027034117104889109 -0.00051026671583081465 0 -0.0027572831312813401 -0.00052004931142319764 0 -0.0027091499556525065 -0.00049997820764313651 0 -0.0027034117104889109 -0.00051026671583081465 0 -0.0027517615495997404 -0.00051246628200661505 0 -0.0027034117104889109 -0.00051026671583081465 0 -0.0026803624309312533 -0.00061261586749306951 0 -0.0025599477655964798 -0.00059471179051986142 0 -0.0027034117104889109 -0.00051026671583081465 0 -0.0026803624309312533 -0.00061261586749306951 0 -0.0027530887300582512 -0.00058577356676081085 0 -0.0026998848550253895 -0.00051203865861208721 0 -0.0026604612718037711 -0.00054415319764412201 0 -0.0027726220577535899 -0.00048145788734844057 0 -0.0027517615495997404 -0.00051246628200661505 0 -0.0027775205897944515 -0.00050251079849976377 0 -0.0027034117104889109 -0.00051026671583081465 0 -0.0027726220577535899 -0.00048145788734844057 0 -0.0027517615495997404 -0.00051246628200661505 0 -0.0027919605759446865 -0.000532344606930125 0 -0.0027517615495997404 -0.00051246628200661505 0 -0.0027786775190965494 -0.00051738112384746801 0 -0.0027919605759446865 -0.000532344606930125 0 -0.0027786775190965494 -0.00051738112384746801 0 -0.0027842145540066159 -0.00051281394462759781 0 -0.0027517615495997404 -0.00051246628200661505 0 -0.0027786775190965494 -0.00051738112384746801 0 -0.0027775205897944515 -0.00050251079849976377 0 -0.0027919605759446865 -0.000532344606930125 0 -0.0027842145540066159 -0.00051281394462759781 0 -0.0027863925515475246 -0.00050896623433462193 0 -0.0027786775190965494 -0.00051738112384746801 0 -0.0027842145540066159 -0.00051281394462759781 0 -0.0027775205897944515 -0.00050251079849976377 0 -0.0027842145540066159 -0.00051281394462759781 0 -0.0027863925515475246 -0.00050896623433462193 0 -0.0027848082718652857 -0.00050192876556785337 0 -0.0027863925515475246 -0.00050896623433462193 0 -0.0027848082718652857 -0.00050192876556785337 0 -0.0027871099775979057 -0.00050102979042995549 0 -0.0027842145540066159 -0.00051281394462759781 0 -0.0027848082718652857 -0.00050192876556785337 0 -0.0027775205897944515 -0.00050251079849976377 0 -0.002989860977828118 -0.00047849182085882004 0 -0.0031171337082973086 -0.00049657103855579345 0 -0.0033963121548614365 -0.00049471739472448214 0 -0.0032136593282674109 -0.00042339895094009063 0 -0.0034721349063003806 -0.00047045299614074856 0 -0.0027863925515475246 -0.00050896623433462193 0 -0.0027928868604730895 -0.0005002958676060624 0 -0.0027871099775979057 -0.00050102979042995549 0 -0.0027928868604730895 -0.0005002958676060624 0 -0.0027871099775979057 -0.00050102979042995549 0 -0.0027849613014306568 -0.00049265781365001604 0 -0.0027848082718652857 -0.00050192876556785337 0 -0.0027871099775979057 -0.00050102979042995549 0 -0.0027849613014306568 -0.00049265781365001604 0 -0.0027928868604730895 -0.0005002958676060624 0 -0.0027849613014306568 -0.00049265781365001604 0 -0.0027824939620019521 -0.00048912675567593816 0 -0.0027726220577535899 -0.00048145788734844057 0 -0.0027775205897944515 -0.00050251079849976377 0 -0.0027812225909626146 -0.00049047800531502048 0 -0.0027849613014306568 -0.00049265781365001604 0 -0.0027812225909626146 -0.00049047800531502048 0 -0.0027823181426951645 -0.0004911747671473677 0 -0.0027848082718652857 -0.00050192876556785337 0 -0.0027775205897944515 -0.00050251079849976377 0 -0.0027812225909626146 -0.00049047800531502048 0 -0.0027848082718652857 -0.00050192876556785337 0 -0.0027849613014306568 -0.00049265781365001604 0 -0.0027812225909626146 -0.00049047800531502048 0 -0.0027726220577535899 -0.00048145788734844057 0 -0.0027812225909626146 -0.00049047800531502048 0 -0.0027823181426951645 -0.0004911747671473677 0 -0.0026604612718037711 -0.00054415319764412201 0 -0.0026437257103686233 -0.00056963197625167045 0 -0.0027849613014306568 -0.00049265781365001604 0 -0.0027823181426951645 -0.0004911747671473677 0 -0.0027824939620019521 -0.00048912675567593816 0 -0.0027777530988121455 -0.00049569291143752685 0 -0.0027823181426951645 -0.0004911747671473677 0 -0.0027824939620019521 -0.00048912675567593816 0 -0.0026437257103686233 -0.00056963197625167045 0 -0.0024604559973057339 -0.00067516000410699009 0 -0.0027777530988121455 -0.00049569291143752685 0 -0.0027823181426951645 -0.0004911747671473677 0 -0.0027739545759814747 -0.00050446716943144173 0 -0.0024612469444517922 -0.00067581184150809054 0 -0.0023830507877945556 -0.00075151113003994621 0 -0.0024522768373826504 -0.0007524001965991267 0 -0.0024612469444517922 -0.00067581184150809054 0 -0.0025318058847305772 -0.00076035219816128908 0 -0.0024522768373826504 -0.0007524001965991267 0 -0.0024612469444517922 -0.00067581184150809054 0 -0.0025807703223514719 -0.00069283294589412214 0 -0.0025318058847305772 -0.00076035219816128908 0 -0.0025807703223514719 -0.00069283294589412214 0 -0.0026482848332462731 -0.00071000422622052807 0 -0.0026011061942784047 -0.00078202934416005988 0 -0.0026803624309312533 -0.00061261586749306951 0 -0.0025807703223514719 -0.00069283294589412214 0 -0.0026482848332462731 -0.00071000422622052807 0 -0.0025599477655964798 -0.00059471179051986142 0 -0.0024612469444517922 -0.00067581184150809054 0 -0.0025807703223514719 -0.00069283294589412214 0 -0.0026803624309312533 -0.00061261586749306951 0 -0.0025599477655964798 -0.00059471179051986142 0 -0.0025807703223514719 -0.00069283294589412214 0 -0.0027528230582901055 -0.00073100569774073624 0 -0.0027820826789905048 -0.00065026872214319676 0 -0.0028198235429555372 -0.00071111248542813212 0 -0.0021567535752438517 -0.00094633725860535209 0 -0.001807056858900101 -0.0010241207141312068 0 -0.0018337233786332725 -0.00074071807026653393 0 -0.0023898191102931163 -0.00085233882826109362 0 -0.0026689461481162902 -0.00066080948572426489 0 -0.0030582111221312477 -0.00063413918882671916 0 -0.0026689461481162902 -0.00066080948572426489 0 -0.0033273322359644282 -0.00053852308481166242 0 -0.0032905472191551519 -0.00062781640791852286 0 -0.0033854531849193616 -0.00059015571946145436 0 -0.0032256247044986893 -0.00056885553441405582 0 -0.0033273322359644282 -0.00053852308481166242 0 -0.0032905472191551519 -0.00062781640791852286 0 -0.0026689461481162902 -0.00066080948572426489 0 -0.0031480618647685235 -0.00051068027448434162 0 -0.0027456010517613971 -0.00048104965106738587 0 -0.0027683557812330306 -0.00048521194343499277 0 -0.0027665792284754603 -0.00047304440537833956 0 -0.0027456010517613971 -0.00048104965106738587 0 -0.0027683557812330306 -0.00048521194343499277 0 -0.0027621112049380754 -0.0004950933357790549 0 -0.0027683557812330306 -0.00048521194343499277 0 -0.0027665792284754603 -0.00047304440537833956 0 -0.0027793076431812391 -0.00047618377287356509 0 -0.0034107457664147218 -0.00052468384774445305 0 -0.0033273322359644282 -0.00053852308481166242 0 -0.0033854531849193616 -0.00059015571946145436 0 -0.0034107457664147218 -0.00052468384774445305 0 -0.0034735843075309994 -0.0005538933974467531 0 -0.0033854531849193616 -0.00059015571946145436 0 -0.0034589589299206169 -0.00051503237782770566 0 -0.0034107457664147218 -0.00052468384774445305 0 -0.0034735843075309994 -0.0005538933974467531 0 -0.0031171337082973086 -0.00049657103855579345 0 -0.0031480618647685235 -0.00051068027448434162 0 -0.0027905315007824704 -0.00046527485529334044 0 -0.0027665792284754603 -0.00047304440537833956 0 -0.0027793076431812391 -0.00047618377287356509 0 -0.0031171337082973086 -0.00049657103855579345 0 -0.0027273985169861781 -0.00049391633682145056 0 -0.0027905315007824704 -0.00046527485529334044 0 -0.0027793076431812391 -0.00047618377287356509 0 -0.0027824939620019521 -0.00048912675567593816 0 -0.0027683557812330306 -0.00048521194343499277 0 -0.0027793076431812391 -0.00047618377287356509 0 -0.0027824939620019521 -0.00048912675567593816 0 -0.0027777530988121455 -0.00049569291143752685 0 -0.0027824939620019521 -0.00048912675567593816 0 -0.00277409244300038 -0.00049372581881115688 0 -0.00277409244300038 -0.00049372581881115688 0 -0.0027723574240390791 -0.00049665069024916529 0 -0.0027621112049380754 -0.0004950933357790549 0 -0.0027683557812330306 -0.00048521194343499277 0 -0.0027824939620019521 -0.00048912675567593816 0 -0.00277409244300038 -0.00049372581881115688 0 -0.0020662725098181569 -0.00055828968502124395 0 -0.0022026813933006136 -0.00055459558855923765 0 -0.0015168774194901089 -0.00062945411468242132 0 -0.0015217976404205563 -0.00052588786597078754 0 -0.0015017141840972651 -0.00052153694835313264 0 -0.0027723574240390791 -0.00049665069024916529 0 -0.0027621112049380754 -0.0004950933357790549 0 -0.0027725493732505334 -0.00050268282483868895 0 -0.0027777530988121455 -0.00049569291143752685 0 -0.00277409244300038 -0.00049372581881115688 0 -0.0027723574240390791 -0.00049665069024916529 0 -0.0027777530988121455 -0.00049569291143752685 0 -0.0027723574240390791 -0.00049665069024916529 0 -0.0027725493732505334 -0.00050268282483868895 0 -0.0027777530988121455 -0.00049569291143752685 0 -0.0027739545759814747 -0.00050446716943144173 0 -0.0027725493732505334 -0.00050268282483868895 0 -0.0015542307818954891 -0.0005327463109747664 0 -0.0015168774194901089 -0.00062945411468242132 0 -0.0015217976404205563 -0.00052588786597078754 0 -0.0015542307818954891 -0.0005327463109747664 0 -0.0015168774194901089 -0.00062945411468242132 0 -0.001601181445548954 -0.00053845326277607135 0 -0.0015542307818954891 -0.0005327463109747664 0 -0.001601181445548954 -0.00053845326277607135 0 -0.0016068863968774858 -0.00051195863536525072 0 -0.0027683557812330306 -0.00048521194343499277 0 -0.00277409244300038 -0.00049372581881115688 0 -0.0027621112049380754 -0.0004950933357790549 0 -0.001807056858900101 -0.0010241207141312068 0 -0.0015168774194901089 -0.00062945411468242132 0 -0.0018337233786332725 -0.00074071807026653393 0 -0.0026689461481162902 -0.00066080948572426489 0 -0.0020662725098181569 -0.00055828968502124395 0 -0.0015168774194901089 -0.00062945411468242132 0 -0.0018337233786332725 -0.00074071807026653393 0 -0.0017110023778394885 -0.00052314569505374333 0 -0.0017110023778394885 -0.00052314569505374333 0 -0.0015370034185147744 -0.00051149040254111901 0 -0.0016068863968774858 -0.00051195863536525072 0 -0.0015168774194901089 -0.00062945411468242132 0 -0.001601181445548954 -0.00053845326277607135 0 -0.0017110023778394885 -0.00052314569505374333 0 -0.001601181445548954 -0.00053845326277607135 0 -0.0017110023778394885 -0.00052314569505374333 0 -0.0016068863968774858 -0.00051195863536525072 0 -0.0017110023778394885 -0.00052314569505374333 0 -0.0021669901074027188 -8.1121300947173511e-05 0 -0.0022318345740943929 -0.0003449522043924513 0 -0.0017009628173746392 -0.00052365690590797174 0 -0.0018678659222227177 -0.00029977407768629917 0 -0.0017110023778394885 -0.00052314569505374333 0 -0.0021441259988174474 -0.00057493010928228079 0 -0.0022318345740943929 -0.0003449522043924513 0 -0.0021567535752438517 -0.00094633725860535209 0 -0.0018337233786332725 -0.00074071807026653393 0 -0.0021441259988174474 -0.00057493010928228079 0 -0.0018337233786332725 -0.00074071807026653393 0 -0.0017110023778394885 -0.00052314569505374333 0 -0.0021441259988174474 -0.00057493010928228079 0 -0.0015294178041032318 -0.00052659342876537206 0 -0.0015370034185147744 -0.00051149040254111901 0 -0.0015165818530623995 -0.00052827990482400184 0 -0.0015294178041032318 -0.00052659342876537206 0 -0.0015105512716904611 -0.00053463841285064108 0 -0.0015165818530623995 -0.00052827990482400184 0 -0.0015105512716904611 -0.00053463841285064108 0 -0.0015165818530623995 -0.00052827990482400184 0 -0.0015080280313614655 -0.00053368374571071808 0 -0.0015294178041032318 -0.00052659342876537206 0 -0.0015225004660011357 -0.00052744362275430629 0 -0.0015105512716904611 -0.00053463841285064108 0 -0.0015294178041032318 -0.00052659342876537206 0 -0.0015370034185147744 -0.00051149040254111901 0 -0.0015531191951545494 -0.00052072168422043414 0 -0.0015370034185147744 -0.00051149040254111901 0 -0.0015531191951545494 -0.00052072168422043414 0 -0.0016068863968774858 -0.00051195863536525072 0 -0.0015531191951545494 -0.00052072168422043414 0 -0.0016068863968774858 -0.00051195863536525072 0 -0.0015474068419131025 -0.0005161597580523547 0 -0.0015474068419131025 -0.0005161597580523547 0 -0.0015225004660011357 -0.00052744362275430629 0 -0.0015172331901198613 -0.00052240740279062823 0 -0.0015531191951545494 -0.00052072168422043414 0 -0.0015474068419131025 -0.0005161597580523547 0 -0.0015225004660011357 -0.00052744362275430629 0 -0.0015294178041032318 -0.00052659342876537206 0 -0.0015531191951545494 -0.00052072168422043414 0 -0.0015225004660011357 -0.00052744362275430629 0 -0.0015225004660011357 -0.00052744362275430629 0 -0.0015172331901198613 -0.00052240740279062823 0 -0.0014915335431599235 -0.0005316684583277256 0 -0.0015172331901198613 -0.00052240740279062823 0 -0.001500348968268817 -0.00052333137742152874 0 -0.0014915335431599235 -0.0005316684583277256 0 -0.0015172331901198613 -0.00052240740279062823 0 -0.001500348968268817 -0.00052333137742152874 0 -0.0015205475789184207 -0.00051799977180980758 0 -0.0015205475789184207 -0.00051799977180980758 0 -0.0015170468694251146 -0.00051899141533329554 0 -0.0015074418091452428 -0.00051953607749525015 0 -0.001500348968268817 -0.00052333137742152874 0 -0.0015205475789184207 -0.00051799977180980758 0 -0.0015074418091452428 -0.00051953607749525015 0 -0.0015474068419131025 -0.0005161597580523547 0 -0.0015172331901198613 -0.00052240740279062823 0 -0.0015205475789184207 -0.00051799977180980758 0 -0.0015474068419131025 -0.0005161597580523547 0 -0.0015205475789184207 -0.00051799977180980758 0 -0.0015413692089909976 -0.00051659503868910369 0 -0.0015542307818954891 -0.0005327463109747664 0 -0.0016068863968774858 -0.00051195863536525072 0 -0.0015413692089909976 -0.00051659503868910369 0 -0.0016068863968774858 -0.00051195863536525072 0 -0.0015474068419131025 -0.0005161597580523547 0 -0.0015413692089909976 -0.00051659503868910369 0 -0.0015413692089909976 -0.00051659503868910369 0 -0.0015217976404205563 -0.00052588786597078754 0 -0.0015170468694251146 -0.00051899141533329554 0 -0.0015542307818954891 -0.0005327463109747664 0 -0.0015413692089909976 -0.00051659503868910369 0 -0.0015217976404205563 -0.00052588786597078754 0 -0.0015205475789184207 -0.00051799977180980758 0 -0.0015413692089909976 -0.00051659503868910369 0 -0.0015170468694251146 -0.00051899141533329554 0 -0.0015062700906193249 -0.00052041612222280154 0 -0.0015170468694251146 -0.00051899141533329554 0 -0.0015074418091452428 -0.00051953607749525015 0 -0.0023477639343735478 -0.0007217001764619782 0 -0.0023345611543830243 -0.00070784146256406047 0 -0.0023337622042556385 -0.0008620572585179842 0 -0.0015062700906193249 -0.00052041612222280154 0 -0.0015017141840972651 -0.00052153694835313264 0 -0.0014979245692387146 -0.00052468282117557681 0 -0.0015217976404205563 -0.00052588786597078754 0 -0.0015062700906193249 -0.00052041612222280154 0 -0.0015017141840972651 -0.00052153694835313264 0 -0.0015217976404205563 -0.00052588786597078754 0 -0.0015062700906193249 -0.00052041612222280154 0 -0.0015170468694251146 -0.00051899141533329554 0 -0.0024604559973057339 -0.00067516000410699009 0 -0.0022026813933006136 -0.00055459558855923765 0 -0.0022026813933006136 -0.00055459558855923765 0 -0.0018691638429397443 -0.00070462805736644623 0 -0.0023477639343735478 -0.0007217001764619782 0 -0.0023337622042556385 -0.0008620572585179842 0 -0.0023649223526476218 -0.00078310643070885584 0 -0.0015062700906193249 -0.00052041612222280154 0 -0.0015074418091452428 -0.00051953607749525015 0 -0.0014979245692387146 -0.00052468282117557681 0 -0.001500348968268817 -0.00052333137742152874 0 -0.0015074418091452428 -0.00051953607749525015 0 -0.0014979245692387146 -0.00052468282117557681 0 -0.0014979245692387146 -0.00052468282117557681 0 -0.0014228497748922603 -0.00054520390508004538 0 -0.0014714236976067746 -0.00053458818662799508 0 -0.0018691638429397443 -0.00070462805736644623 0 -0.0019004912720902614 -0.00076867266661950176 0 -0.001500348968268817 -0.00052333137742152874 0 -0.0014979245692387146 -0.00052468282117557681 0 -0.0014714236976067746 -0.00053458818662799508 0 -0.0014228497748922603 -0.00054520390508004538 0 -0.0014469228013306152 -0.00054282667244771095 0 -0.0014714236976067746 -0.00053458818662799508 0 -0.0014469228013306152 -0.00054282667244771095 0 -0.0014714236976067746 -0.00053458818662799508 0 -0.0014915335431599235 -0.0005316684583277256 0 -0.001500348968268817 -0.00052333137742152874 0 -0.0014714236976067746 -0.00053458818662799508 0 -0.0014915335431599235 -0.0005316684583277256 0 -0.0015225004660011357 -0.00052744362275430629 0 -0.0014902023243135575 -0.00053801544756051673 0 -0.0015105512716904611 -0.00053463841285064108 0 -0.0015225004660011357 -0.00052744362275430629 0 -0.0014915335431599235 -0.0005316684583277256 0 -0.0014902023243135575 -0.00053801544756051673 0 -0.0014469228013306152 -0.00054282667244771095 0 -0.0014915335431599235 -0.0005316684583277256 0 -0.0014902023243135575 -0.00053801544756051673 0 -0.0014469228013306152 -0.00054282667244771095 0 -0.0014902023243135575 -0.00053801544756051673 0 -0.0014681915967481817 -0.00054105444507129396 0 -0.0014469228013306152 -0.00054282667244771095 0 -0.0014681915967481817 -0.00054105444507129396 0 -0.0014282064510159017 -0.00053541228560289515 0 -0.0014902023243135575 -0.00053801544756051673 0 -0.0014681915967481817 -0.00054105444507129396 0 -0.0014923861960276122 -0.0005407339637232459 0 -0.001477923610144508 -0.00053900062257918014 0 -0.0014962628036701707 -0.00054144784674400404 0 -0.0014730442963538366 -0.00052918980541256564 0 -0.0014681915967481817 -0.00054105444507129396 0 -0.0014923861960276122 -0.0005407339637232459 0 -0.001477923610144508 -0.00053900062257918014 0 -0.0014923861960276122 -0.0005407339637232459 0 -0.001477923610144508 -0.00053900062257918014 0 -0.0014962628036701707 -0.00054144784674400404 0 -0.0014923861960276122 -0.0005407339637232459 0 -0.0015025069555125569 -0.00053776219459639608 0 -0.0014962628036701707 -0.00054144784674400404 0 -0.0014923861960276122 -0.0005407339637232459 0 -0.0015105512716904611 -0.00053463841285064108 0 -0.0015025069555125569 -0.00053776219459639608 0 -0.0014902023243135575 -0.00053801544756051673 0 -0.0014923861960276122 -0.0005407339637232459 0 -0.0015105512716904611 -0.00053463841285064108 0 -0.0015105512716904611 -0.00053463841285064108 0 -0.0015080280313614655 -0.00053368374571071808 0 -0.0015025069555125569 -0.00053776219459639608 0 -0.0025265265833958488 -0.0008292736494000582 0 -0.0026011061942784047 -0.00078202934416005988 0 -0.0025847857937476609 -0.00086662860926511713 0 -0.0025265265833958488 -0.0008292736494000582 0 -0.0024751505434393228 -0.00086800658889682708 0 -0.0025246195468981666 -0.00088313957727007659 0 -0.0025265265833958488 -0.0008292736494000582 0 -0.0025246195468981666 -0.00088313957727007659 0 -0.0025847857937476609 -0.00086662860926511713 0 -0.0026238337127197971 -0.00088487408973580831 0 -0.0025847857937476609 -0.00086662860926511713 0 -0.002654476773355033 -0.00084010393052993233 0 -0.0026011061942784047 -0.00078202934416005988 0 -0.0025847857937476609 -0.00086662860926511713 0 -0.002654476773355033 -0.00084010393052993233 0 -0.0026482848332462731 -0.00071000422622052807 0 -0.0026011061942784047 -0.00078202934416005988 0 -0.0026732576565291128 -0.00076094560215134892 0 -0.0025807703223514719 -0.00069283294589412214 0 -0.0026011061942784047 -0.00078202934416005988 0 -0.0025318058847305772 -0.00076035219816128908 0 -0.0025265265833958488 -0.0008292736494000582 0 -0.0026011061942784047 -0.00078202934416005988 0 -0.0025318058847305772 -0.00076035219816128908 0 -0.0025318058847305772 -0.00076035219816128908 0 -0.0024522768373826504 -0.0007524001965991267 0 -0.0024375354259163675 -0.00082018034397822676 0 -0.0023830507877945556 -0.00075151113003994621 0 -0.0024522768373826504 -0.0007524001965991267 0 -0.0024375354259163675 -0.00082018034397822676 0 -0.0023477639343735478 -0.0007217001764619782 0 -0.0023649223526476218 -0.00078310643070885584 0 -0.0024375354259163675 -0.00082018034397822676 0 -0.0024604559973057339 -0.00067516000410699009 0 -0.0024122578353080251 -0.00082407334420857899 0 -0.0023337622042556385 -0.0008620572585179842 0 -0.0024375354259163675 -0.00082018034397822676 0 -0.0024199497335275814 -0.00090169162082337126 0 -0.0023337622042556385 -0.0008620572585179842 0 -0.0023649223526476218 -0.00078310643070885584 0 -0.0024375354259163675 -0.00082018034397822676 0 -0.0025265265833958488 -0.0008292736494000582 0 -0.0025318058847305772 -0.00076035219816128908 0 -0.0024375354259163675 -0.00082018034397822676 0 -0.0024375354259163675 -0.00082018034397822676 0 -0.0024751505434393228 -0.00086800658889682708 0 -0.0024199497335275814 -0.00090169162082337126 0 -0.0025265265833958488 -0.0008292736494000582 0 -0.0024375354259163675 -0.00082018034397822676 0 -0.0024751505434393228 -0.00086800658889682708 0 -0.0024751505434393228 -0.00086800658889682708 0 -0.0024864623653215894 -0.00093058241738605107 0 -0.0025246195468981666 -0.00088313957727007659 0 -0.0024751505434393228 -0.00086800658889682708 0 -0.0024864623653215894 -0.00093058241738605107 0 -0.0024199497335275814 -0.00090169162082337126 0 -0.0023337622042556385 -0.0008620572585179842 0 -0.0023253535045284495 -0.00099265753601280411 0 -0.0024199497335275814 -0.00090169162082337126 0 -0.0023253535045284495 -0.00099265753601280411 0 -0.0024199497335275814 -0.00090169162082337126 0 -0.002422618852530842 -0.00097884100952340229 0 -0.0024864623653215894 -0.00093058241738605107 0 -0.0024199497335275814 -0.00090169162082337126 0 -0.002422618852530842 -0.00097884100952340229 0 -0.0024864623653215894 -0.00093058241738605107 0 -0.002422618852530842 -0.00097884100952340229 0 -0.0024742486174430208 -0.00099024549944320647 0 -0.0025236305268706303 -0.00097303219811796483 0 -0.0025828642180193442 -0.00098806532782323817 0 -0.0024974491121821595 -0.0010347421562885192 0 -0.0024742486174430208 -0.00099024549944320647 0 -0.0025236305268706303 -0.00097303219811796483 0 -0.0024974491121821595 -0.0010347421562885192 0 -0.0025236305268706303 -0.00097303219811796483 0 -0.002550070950570056 -0.00092423065581758205 0 -0.0025828642180193442 -0.00098806532782323817 0 -0.0024864623653215894 -0.00093058241738605107 0 -0.0025236305268706303 -0.00097303219811796483 0 -0.002550070950570056 -0.00092423065581758205 0 -0.0024864623653215894 -0.00093058241738605107 0 -0.0024742486174430208 -0.00099024549944320647 0 -0.0025236305268706303 -0.00097303219811796483 0 -0.0024864623653215894 -0.00093058241738605107 0 -0.002550070950570056 -0.00092423065581758205 0 -0.0025246195468981666 -0.00088313957727007659 0 -0.002550070950570056 -0.00092423065581758205 0 -0.0025246195468981666 -0.00088313957727007659 0 -0.0025847857937476609 -0.00086662860926511713 0 -0.0026238337127197971 -0.00088487408973580831 0 -0.0025847857937476609 -0.00086662860926511713 0 -0.002599873295900459 -0.00091641498944073773 0 -0.002550070950570056 -0.00092423065581758205 0 -0.0025847857937476609 -0.00086662860926511713 0 -0.002599873295900459 -0.00091641498944073773 0 -0.0026238337127197971 -0.00088487408973580831 0 -0.002599873295900459 -0.00091641498944073773 0 -0.0026560288318535192 -0.00091683442946890569 0 -0.002550070950570056 -0.00092423065581758205 0 -0.002599873295900459 -0.00091641498944073773 0 -0.0025828642180193442 -0.00098806532782323817 0 -0.001293681381703265 -0.00080716807019778263 0 -0.0017437327736397985 -0.0008694449731621916 0 -0.002599873295900459 -0.00091641498944073773 0 -0.0025828642180193442 -0.00098806532782323817 0 -0.0026560288318535192 -0.00091683442946890569 0 -0.001293681381703265 -0.00080716807019778263 0 -0.00062568472912014083 -0.00089375330891096295 0 -0.00079342893316387592 -0.00080455663945498712 0 -0.00074394286969005385 -0.00079057090428250086 0 -0.00072937011635773434 -0.00082246081713863888 0 -0.00074394286969005385 -0.00079057090428250086 0 -0.00070797551459490478 -0.00079451191385177357 0 -0.00072937011635773434 -0.00082246081713863888 0 -0.00081566619799254482 -0.00079106945189582657 0 -0.00072937011635773434 -0.00082246081713863888 0 -0.00071707180774711107 -0.00085686592317966818 0 -0.00070797551459490478 -0.00079451191385177357 0 -0.00067221503050038649 -0.00080358460248948201 0 -0.00068386854933561803 -0.00076533338609843251 0 -0.00070797551459490478 -0.00079451191385177357 0 -0.00069953638123111943 -0.0008218649353635498 0 -0.00067221503050038649 -0.00080358460248948201 0 -0.00069953638123111943 -0.0008218649353635498 0 -0.00067235232887984185 -0.00083420892950867491 0 -0.00071707180774711107 -0.00085686592317966818 0 -0.00069953638123111943 -0.0008218649353635498 0 -0.00067221503050038649 -0.00080358460248948201 0 -0.00067235232887984185 -0.00083420892950867491 0 -0.00070797551459490478 -0.00079451191385177357 0 -0.00069953638123111943 -0.0008218649353635498 0 -0.00072937011635773434 -0.00082246081713863888 0 -0.00069953638123111943 -0.0008218649353635498 0 -0.00072937011635773434 -0.00082246081713863888 0 -0.00071707180774711107 -0.00085686592317966818 0 -0.00063094310593606279 -0.00082347301006994544 0 -0.00059700096730216251 -0.00077805640974102231 0 -0.00063953514864709951 -0.00077746239603323434 0 -0.00067221503050038649 -0.00080358460248948201 0 -0.00063953514864709951 -0.00077746239603323434 0 -0.00068386854933561803 -0.00076533338609843251 0 -0.00067221503050038649 -0.00080358460248948201 0 -0.00063094310593606279 -0.00082347301006994544 0 -0.00063953514864709951 -0.00077746239603323434 0 -0.00067221503050038649 -0.00080358460248948201 0 -0.00067235232887984185 -0.00083420892950867491 0 -0.00063094310593606279 -0.00082347301006994544 0 -0.00064803455411432584 -0.00085834013923322117 0 -0.00065454620528578727 -0.00089673833976277174 0 -0.00059341317555858903 -0.00086563680839247712 0 -0.00067235232887984185 -0.00083420892950867491 0 -0.00064803455411432584 -0.00085834013923322117 0 -0.00071707180774711107 -0.00085686592317966818 0 -0.00064803455411432584 -0.00085834013923322117 0 -0.00071707180774711107 -0.00085686592317966818 0 -0.00065454620528578727 -0.00089673833976277174 0 -0.00063094310593606279 -0.00082347301006994544 0 -0.00064803455411432584 -0.00085834013923322117 0 -0.00059341317555858903 -0.00086563680839247712 0 -0.00067235232887984185 -0.00083420892950867491 0 -0.00063094310593606279 -0.00082347301006994544 0 -0.00064803455411432584 -0.00085834013923322117 0 -0.0017437327736397985 -0.0008694449731621916 0 -0.0016766948798525346 -0.00089549242743475676 0 -0.0026238337127197971 -0.00088487408973580831 0 -0.0026560288318535192 -0.00091683442946890569 0 -0.002654476773355033 -0.00084010393052993233 0 -0.0026560288318535192 -0.00091683442946890569 0 -0.002654476773355033 -0.00084010393052993233 0 -0.0027196929023875966 -0.00084855428754725896 0 -0.0016766948798525346 -0.00089549242743475676 0 -0.0016407983919420562 -0.00072315598628819062 0 -0.0027196929023875966 -0.00084855428754725896 0 -0.0027152017151523293 -0.00079014526058925505 0 -0.0027721071185276137 -0.00078844174923653693 0 -0.002654476773355033 -0.00084010393052993233 0 -0.0027196929023875966 -0.00084855428754725896 0 -0.0027152017151523293 -0.00079014526058925505 0 -0.0027152017151523293 -0.00079014526058925505 0 -0.0027721071185276137 -0.00078844174923653693 0 -0.0027332789949225927 -0.00073691159696989304 0 -0.0027152017151523293 -0.00079014526058925505 0 -0.0026732576565291128 -0.00076094560215134892 0 -0.0027332789949225927 -0.00073691159696989304 0 -0.002654476773355033 -0.00084010393052993233 0 -0.0027152017151523293 -0.00079014526058925505 0 -0.0026732576565291128 -0.00076094560215134892 0 -0.0026011061942784047 -0.00078202934416005988 0 -0.002654476773355033 -0.00084010393052993233 0 -0.0026732576565291128 -0.00076094560215134892 0 -0.00044970206209640225 -0.00050106564290674138 0 -0.0002079177541588089 -0.00049869400332882392 0 -0.00044309687416923529 -0.00024088643210005804 0 -0.0016407983919420562 -0.00072315598628819062 0 -0.0016634307729427263 -0.00045369947826140802 0 -0.0016407983919420562 -0.00072315598628819062 0 -0.0029199456220758355 -0.00081453197232022809 0 -0.0016407983919420562 -0.00072315598628819062 0 -0.00032151079082359406 -0.00068842107648909624 0 -0.00065454620528578727 -0.00089673833976277174 0 -0.00060313316496969876 -0.00094090709190787134 0 -0.00059341317555858903 -0.00086563680839247712 0 -0.00060313316496969876 -0.00094090709190787134 0 -0.00054985713345231826 -0.00089260371814667608 0 -0.00059341317555858903 -0.00086563680839247712 0 -0.00044970206209640225 -0.00050106564290674138 0 -0.00038615441551918567 -0.00067736597954852539 0 -0.0005968939703961903 -0.00064338190443311623 0 -0.00044970206209640225 -0.00050106564290674138 0 -0.0002079177541588089 -0.00049869400332882392 0 -0.00038615441551918567 -0.00067736597954852539 0 -0.0005441687460094346 -0.00085577000311394763 0 -0.00059341317555858903 -0.00086563680839247712 0 -0.00054972383763351627 -0.00083688470043140274 0 -0.00032151079082359406 -0.00068842107648909624 0 -0.00057672332996292831 -0.00087578046600393829 0 -0.00054985713345231826 -0.00089260371814667608 0 -0.0005441687460094346 -0.00085577000311394763 0 -0.00053488630264291403 -0.00083336601957632428 0 -0.00054985713345231826 -0.00089260371814667608 0 -0.0005441687460094346 -0.00085577000311394763 0 -0.00059341317555858903 -0.00086563680839247712 0 -0.0005441687460094346 -0.00085577000311394763 0 -0.00052798605206134908 -0.00084720937463643182 0 -0.00054972383763351627 -0.00083688470043140274 0 -0.0005441687460094346 -0.00085577000311394763 0 -0.00052798605206134908 -0.00084720937463643182 0 -0.00053488630264291403 -0.00083336601957632428 0 -0.00059341317555858903 -0.00086563680839247712 0 -0.00058241168472202812 -0.00082191014463135162 0 -0.00054972383763351627 -0.00083688470043140274 0 -0.00063094310593606279 -0.00082347301006994544 0 -0.00059341317555858903 -0.00086563680839247712 0 -0.00058241168472202812 -0.00082191014463135162 0 -0.00058241168472202812 -0.00082191014463135162 0 -0.0005621125423629624 -0.00078519915472988547 0 -0.00054375176880773664 -0.00080847230368770689 0 -0.00058241168472202812 -0.00082191014463135162 0 -0.0005621125423629624 -0.00078519915472988547 0 -0.00059700096730216251 -0.00077805640974102231 0 -0.00063094310593606279 -0.00082347301006994544 0 -0.00058241168472202812 -0.00082191014463135162 0 -0.00059700096730216251 -0.00077805640974102231 0 -0.00054972383763351627 -0.00083688470043140274 0 -0.00054375176880773664 -0.00080847230368770689 0 -0.00052036977158883971 -0.00081775565681034155 0 -0.00052798605206134908 -0.00084720937463643182 0 -0.00054972383763351627 -0.00083688470043140274 0 -0.00052036977158883971 -0.00081775565681034155 0 -0.00058241168472202812 -0.00082191014463135162 0 -0.00054972383763351627 -0.00083688470043140274 0 -0.00054375176880773664 -0.00080847230368770689 0 -0.0005621125423629624 -0.00078519915472988547 0 -0.00054375176880773664 -0.00080847230368770689 0 -0.00052394909944443804 -0.00076735665617922236 0 -0.00054375176880773664 -0.00080847230368770689 0 -0.00052036977158883971 -0.00081775565681034155 0 -0.00052394909944443804 -0.00076735665617922236 0 -0.00052036977158883971 -0.00081775565681034155 0 -0.00048687104562316545 -0.00081612216543495378 0 -0.00048421968778661323 -0.00077369678022832307 0 -0.00052036977158883971 -0.00081775565681034155 0 -0.00052052755719612313 -0.00086969864222207242 0 -0.00048687104562316545 -0.00081612216543495378 0 -0.00052798605206134908 -0.00084720937463643182 0 -0.00052036977158883971 -0.00081775565681034155 0 -0.00052052755719612313 -0.00086969864222207242 0 -0.00052052755719612313 -0.00086969864222207242 0 -0.00048687104562316545 -0.00081612216543495378 0 -0.00042158534758044032 -0.00083814784229099511 0 -0.00048687104562316545 -0.00081612216543495378 0 -0.00044255873448837562 -0.00079058775855908407 0 -0.00042158534758044032 -0.00083814784229099511 0 -0.00048687104562316545 -0.00081612216543495378 0 -0.00044255873448837562 -0.00079058775855908407 0 -0.00048421968778661323 -0.00077369678022832307 0 -0.00044255873448837562 -0.00079058775855908407 0 -0.00042158534758044032 -0.00083814784229099511 0 -0.00036623817773516606 -0.00077835443125855359 0 -0.00042158534758044032 -0.00083814784229099511 0 -0.00033251666053070439 -0.00087152823703390021 0 -0.00036623817773516606 -0.00077835443125855359 0 -0.00052052755719612313 -0.00086969864222207242 0 -0.00042158534758044032 -0.00083814784229099511 0 -0.00039640564210025736 -0.00092106748100755434 0 -0.00042158534758044032 -0.00083814784229099511 0 -0.00039640564210025736 -0.00092106748100755434 0 -0.00033251666053070439 -0.00087152823703390021 0 -0.00076557455520802548 -0.00082727710897688889 0 -0.00095413987714589022 -0.00071811013734631487 0 -0.00075993469547215424 -0.00070078945815579027 0 -0.00076557455520802548 -0.00082727710897688889 0 -0.00065568240163097814 -0.00075204695247193425 0 -0.00075993469547215424 -0.00070078945815579027 0 -0.00076557455520802548 -0.00082727710897688889 0 -0.00065568240163097814 -0.00075204695247193425 0 -0.00053488630264291403 -0.00083336601957632428 0 -0.00055128444065390039 -0.00086319964528775892 0 -0.00054187243921672364 -0.00089016990518315641 0 -0.00065568240163097814 -0.00075204695247193425 0 -0.00053488630264291403 -0.00083336601957632428 0 -0.0005968939703961903 -0.00064338190443311623 0 -0.00052052755719612313 -0.00086969864222207242 0 -0.00076557455520802548 -0.00082727710897688889 0 -0.00053488630264291403 -0.00083336601957632428 0 -0.00052798605206134908 -0.00084720937463643182 0 -0.00052052755719612313 -0.00086969864222207242 0 -0.00053488630264291403 -0.00083336601957632428 0 -0.00016947790568987842 -0.00083263571769946049 0 -0.00027059513288952983 -0.00080555165808023944 0 -0.00023887699055095109 -0.00089838861210439383 0 -0.00072705292664104802 -0.00068972806577740503 0 -0.00061511709927463678 -0.00081274097736393984 0 -0.00027059513288952983 -0.00080555165808023944 0 -0.00033251666053070439 -0.00087152823703390021 0 -0.00036623817773516606 -0.00077835443125855359 0 -0.00027059513288952983 -0.00080555165808023944 0 -0.00033251666053070439 -0.00087152823703390021 0 -0.00023887699055095109 -0.00089838861210439383 0 -0.00054187243921672364 -0.00089016990518315641 0 -0.00085171979223451055 -0.00075389240112319676 0 -0.00033251666053070439 -0.00087152823703390021 0 -0.00023887699055095109 -0.00089838861210439383 0 -0.00031273997786715582 -0.00096596562974209967 0 -0.00039640564210025736 -0.00092106748100755434 0 -0.00033251666053070439 -0.00087152823703390021 0 -0.00031273997786715582 -0.00096596562974209967 0 -0.00061511709927463678 -0.00081274097736393984 0 -0.00085171979223451055 -0.00075389240112319676 0 -0.0017902534816784444 -0.0006327765591883389 0 -0.001223406081930411 -0.00095389374964469521 0 -0.0012213347816300753 -0.00042102086294010797 0 -0.0011351103463793128 -0.00044214266328894501 0 -0.0010343832942996505 -0.00073421803194364155 0 -0.00087941888220628608 -0.00059841354896727171 0 -0.0014822827438513507 -0.00053020660810669767 0 -0.00085171979223451055 -0.00075389240112319676 0 -0.001223406081930411 -0.00095389374964469521 0 -0.0012213347816300753 -0.00042102086294010797 0 -0.00081257759967587589 -0.00055989112643619558 0 -0.00085171979223451055 -0.00075389240112319676 0 -0.00090887666447357163 -0.00063031442871706834 0 -0.0017902534816784444 -0.0006327765591883389 0 -0.0012213347816300753 -0.00042102086294010797 0 -0.0016106190350633539 -0.00015378886026421194 0 -0.00038615441551918567 -0.00067736597954852539 0 -0.00053488630264291403 -0.00083336601957632428 0 -0.0005968939703961903 -0.00064338190443311623 0 -0.00065568240163097814 -0.00075204695247193425 0 -0.0005968939703961903 -0.00064338190443311623 0 -0.00075993469547215424 -0.00070078945815579027 0 -0.00095413987714589022 -0.00071811013734631487 0 -0.00075993469547215424 -0.00070078945815579027 0 -0.00081257759967587589 -0.00055989112643619558 0 -0.0005968939703961903 -0.00064338190443311623 0 -0.00075993469547215424 -0.00070078945815579027 0 -0.00081257759967587589 -0.00055989112643619558 0 -0.0012213347816300753 -0.00042102086294010797 0 -0.00081257759967587589 -0.00055989112643619558 0 -0.00083798037823045065 -0.00030547641688690456 0 -0.00081257759967587589 -0.00055989112643619558 0 -0.00061593297014639456 -0.0004294579059445382 0 -0.00083798037823045065 -0.00030547641688690456 0 -0.0005968939703961903 -0.00064338190443311623 0 -0.00081257759967587589 -0.00055989112643619558 0 -0.00061593297014639456 -0.0004294579059445382 0 -0.00044970206209640225 -0.00050106564290674138 0 -0.0005968939703961903 -0.00064338190443311623 0 -0.00061593297014639456 -0.0004294579059445382 0 -0.00044970206209640225 -0.00050106564290674138 0 -0.00061593297014639456 -0.0004294579059445382 0 -0.00044309687416923529 -0.00024088643210005804 0 -0.00069764396951411771 -0.00020617395199629016 0 -0.00072496542907795843 5.4668927878625346e-05 0 -0.00044309687416923529 -0.00024088643210005804 0 -0.00061593297014639456 -0.0004294579059445382 0 -0.00069764396951411771 -0.00020617395199629016 0 -0.00044309687416923529 -0.00024088643210005804 0 -0.0017788977061505415 -0.0002870411397074601 0 -0.0016634307729427263 -0.00045369947826140802 0 -0.00061593297014639456 -0.0004294579059445382 0 -0.00069764396951411771 -0.00020617395199629016 0 -0.00083798037823045065 -0.00030547641688690456 0 -0.00069764396951411771 -0.00020617395199629016 0 -0.000867530491814669 -0.00010523216860167975 0 -0.00072496542907795843 5.4668927878625346e-05 0 -0.00069764396951411771 -0.00020617395199629016 0 -0.00083798037823045065 -0.00030547641688690456 0 -0.000867530491814669 -0.00010523216860167975 0 -0.00087731013847215612 -0.00027399512435816046 0 -0.0011033910505765928 -6.7263670265890312e-05 0 -0.00083798037823045065 -0.00030547641688690456 0 -0.000867530491814669 -0.00010523216860167975 0 -0.0010944315020576742 -0.00012213148172414087 0 -0.00072496542907795843 5.4668927878625346e-05 0 -0.0010600180139031801 0.00010265946980475278 0 -0.0010382061602446601 0.00034989459827063031 0 -0.000867530491814669 -0.00010523216860167975 0 -0.00072496542907795843 5.4668927878625346e-05 0 -0.0010600180139031801 0.00010265946980475278 0 -0.0029067259109931704 -0.00064757742560769414 0 -0.002917802668697025 -0.00064084050195428646 0 -0.0029010285772690966 -0.0006892304170781037 0 -0.0016106190350633539 -0.00015378886026421194 0 -0.0011708659233298374 1.4653134748881141e-05 0 -0.0015364415538101175 0.00028516236737095949 0 -0.0019100482341449093 6.261309444525807e-05 0 -0.0016106190350633539 -0.00015378886026421194 0 -0.0015364415538101175 0.00028516236737095949 0 -0.0012213347816300753 -0.00042102086294010797 0 -0.0016106190350633539 -0.00015378886026421194 0 -0.0011708659233298374 1.4653134748881141e-05 0 -0.0012213347816300753 -0.00042102086294010797 0 -0.00083798037823045065 -0.00030547641688690456 0 -0.0011708659233298374 1.4653134748881141e-05 0 -0.0010944315020576742 -0.00012213148172414087 0 -0.0010600180139031801 0.00010265946980475278 0 -0.0013448221447356259 8.5022769680701728e-05 0 -0.000867530491814669 -0.00010523216860167975 0 -0.0010944315020576742 -0.00012213148172414087 0 -0.0010600180139031801 0.00010265946980475278 0 -0.0011033910505765928 -6.7263670265890312e-05 0 -0.0016888677781105733 0.0001267307355112079 0 -0.0019122238453114827 0.0006596918666949104 0 -0.0015284472475658941 0.00032922620641817548 0 -0.0015364415538101175 0.00028516236737095949 0 -0.0011708659233298374 1.4653134748881141e-05 0 -0.0015280486877471012 0.00032954465572137523 0 -0.0015364415538101175 0.00028516236737095949 0 -0.0016888677781105733 0.0001267307355112079 0 -0.0016800741929848043 0.00015094483004366528 0 -0.0025895962597129994 0.00030898652380318184 0 -0.0016888677781105733 0.0001267307355112079 0 -0.0025174337020982518 0.00026666425641896273 0 -0.0025172322935412381 0.00019777385474756948 0 -0.0021059117591133059 0.00025971417375343338 0 -0.0025172322935412381 0.00019777385474756948 0 -0.002172759936708396 -0.00010082122983410097 0 -0.0021059117591133059 0.00025971417375343338 0 -0.0031419829038383629 -9.8313438409372653e-05 0 -0.0028963030663504302 -0.00010250987441063153 0 -0.0029790902937919402 -3.0959168627474005e-06 0 -0.0016888677781105733 0.0001267307355112079 0 -0.0021317459434483012 0.00010331811687014033 0 -0.0030328553844000054 9.185272711442008e-05 0 -0.0021317459434483012 0.00010331811687014033 0 -0.0021317459434483012 0.00010331811687014033 0 -0.0022301206395596526 -0.00031518649871527596 0 -0.0010600180139031801 0.00010265946980475278 0 -0.0012976149851596712 0.0003549545667688501 0 -0.0010382061602446601 0.00034989459827063031 0 -0.0024992489003708273 -0.00020386798754560293 0 -0.0023500012159745082 -0.00020759591352401287 0 -0.002478453315461762 -8.573588658877858e-05 0 -0.0010600180139031801 0.00010265946980475278 0 -0.0013448221447356259 8.5022769680701728e-05 0 -0.0012976149851596712 0.0003549545667688501 0 -0.0031691476745911505 -0.00046915303448294421 0 -0.0032064292405844927 -0.00049310436522756647 0 -0.0031559323438887406 -0.00053325683287014521 0 -0.0028011838355133331 -0.00043243880569445993 0 -0.0028471861064840362 -0.00038963709452192465 0 -0.0027916646655455966 -0.00040996206805306973 0 -0.0030907620417545507 -0.00032883267013233134 0 -0.0029469856295001136 -0.00048415605100449774 0 -0.002846007978573224 -0.00038229286249500088 0 -0.0028471861064840362 -0.00038963709452192465 0 -0.0027916646655455966 -0.00040996206805306973 0 -0.0030907620417545507 -0.00032883267013233134 0 -0.0029084554133543584 -0.00020762157188232712 0 -0.0022301206395596526 -0.00031518649871527596 0 -0.0029084554133543584 -0.00020762157188232712 0 -0.0031462797192840304 0.00021853419217648948 0 -0.0029195790775264794 0.00011442677300633701 0 -0.0029790902937919402 -3.0959168627474005e-06 0 -0.0028963030663504302 -0.00010250987441063153 0 -0.0028676770389818094 5.9562814245986753e-05 0 -0.0029790902937919402 -3.0959168627474005e-06 0 -0.0021317459434483012 0.00010331811687014033 0 -0.0029084554133543584 -0.00020762157188232712 0 -0.0030907620417545507 -0.00032883267013233134 0 -0.0031687470163843934 -0.00015764600308498453 0 -0.0029324066319509983 -0.00021261369232254709 0 -0.0029482959350638472 -0.00029652028596114906 0 -0.0030990532174434092 -0.00013452945677506969 0 -0.0029084554133543584 -0.00020762157188232712 0 -0.0031687470163843934 -0.00015764600308498453 0 -0.0028676770389818094 5.9562814245986753e-05 0 -0.0029195790775264794 0.00011442677300633701 0 -0.0029790902937919402 -3.0959168627474005e-06 0 -0.0030612650980373448 -0.0005896049286586918 0 -0.003082262593538599 -0.00059158277501983011 0 -0.002917802668697025 -0.00064084050195428646 0 -0.0029993894442499679 -0.00056338717953582072 0 -0.0029167896500174127 -0.00065721388990340663 0 -0.0030612650980373448 -0.0005896049286586918 0 -0.0030761776484395215 -0.00054181637400268134 0 -0.0029696713570762502 -0.00057134241125703588 0 -0.0029067259109931704 -0.00064757742560769414 0 -0.0029036778155550644 -0.00065892726112557073 0 -0.002917802668697025 -0.00064084050195428646 0 -0.0030612650980373448 -0.0005896049286586918 0 -0.0030791793755179397 -0.00058667210659767079 0 -0.0030761776484395215 -0.00054181637400268134 0 -0.003017522886268905 -0.00056525231591944417 0 -0.0029993894442499679 -0.00056338717953582072 0 -0.0017788977061505415 -0.0002870411397074601 0 -0.0022301206395596526 -0.00031518649871527596 0 -0.0022301206395596526 -0.00031518649871527596 0 -0.0029993894442499679 -0.00056338717953582072 0 -0.0029993894442499679 -0.00056338717953582072 0 -0.0029469856295001136 -0.00048415605100449774 0 -0.0028011838355133331 -0.00043243880569445993 0 -0.0027460887809293067 -0.00043501133305162817 0 -0.0027916646655455966 -0.00040996206805306973 0 -0.0029067259109931704 -0.00064757742560769414 0 -0.0028718963342465832 -0.00065679813013600039 0 -0.0029036778155550644 -0.00065892726112557073 0 -0.0031238682859234144 -0.00047090641129649561 0 -0.0031691476745911505 -0.00046915303448294421 0 -0.0031559323438887406 -0.00053325683287014521 0 -0.0030791793755179397 -0.00058667210659767079 0 -0.0031559323438887406 -0.00053325683287014521 0 -0.0030761776484395215 -0.00054181637400268134 0 -0.0031238682859234144 -0.00047090641129649561 0 -0.0031559323438887406 -0.00053325683287014521 0 -0.0030761776484395215 -0.00054181637400268134 0 -0.0030334399850186493 -0.00050738371691234473 0 -0.0030761776484395215 -0.00054181637400268134 0 -0.0029696713570762502 -0.00057134241125703588 0 -0.0031238682859234144 -0.00047090641129649561 0 -0.0030334399850186493 -0.00050738371691234473 0 -0.0030761776484395215 -0.00054181637400268134 0 -0.0030334399850186493 -0.00050738371691234473 0 -0.0029696713570762502 -0.00057134241125703588 0 -0.0028943158901788934 -0.00052780464110861974 0 -0.0029696713570762502 -0.00057134241125703588 0 -0.002917802668697025 -0.00064084050195428646 0 -0.0028662837170976155 -0.00059369273577245072 0 -0.0030612650980373448 -0.0005896049286586918 0 -0.0029696713570762502 -0.00057134241125703588 0 -0.002917802668697025 -0.00064084050195428646 0 -0.0029696713570762502 -0.00057134241125703588 0 -0.0028662837170976155 -0.00059369273577245072 0 -0.0028943158901788934 -0.00052780464110861974 0 -0.0028662837170976155 -0.00059369273577245072 0 -0.0028943158901788934 -0.00052780464110861974 0 -0.0028054685026479794 -0.0005667959279437979 0 -0.002917802668697025 -0.00064084050195428646 0 -0.0028662837170976155 -0.00059369273577245072 0 -0.0028304534907290274 -0.00064633601080484829 0 -0.0028943158901788934 -0.00052780464110861974 0 -0.0028297038500855382 -0.00049611391578778367 0 -0.0028054685026479794 -0.0005667959279437979 0 -0.0028297038500855382 -0.00049611391578778367 0 -0.0027572831312813401 -0.00052004931142319764 0 -0.0028054685026479794 -0.0005667959279437979 0 -0.0027034117104889109 -0.00051026671583081465 0 -0.0027572831312813401 -0.00052004931142319764 0 -0.0027530887300582512 -0.00058577356676081085 0 -0.0027572831312813401 -0.00052004931142319764 0 -0.0027530887300582512 -0.00058577356676081085 0 -0.0028054685026479794 -0.0005667959279437979 0 -0.0028662837170976155 -0.00059369273577245072 0 -0.0028054685026479794 -0.0005667959279437979 0 -0.0028304534907290274 -0.00064633601080484829 0 -0.0027530887300582512 -0.00058577356676081085 0 -0.0028054685026479794 -0.0005667959279437979 0 -0.0028304534907290274 -0.00064633601080484829 0 -0.0027530887300582512 -0.00058577356676081085 0 -0.0028304534907290274 -0.00064633601080484829 0 -0.002753263799341015 -0.0006730656969389803 0 -0.0026803624309312533 -0.00061261586749306951 0 -0.0027530887300582512 -0.00058577356676081085 0 -0.002753263799341015 -0.0006730656969389803 0 -0.0026803624309312533 -0.00061261586749306951 0 -0.0026482848332462731 -0.00071000422622052807 0 -0.00269661725495138 -0.0006785210310660812 0 -0.0026899759208538171 -0.00062699471747993979 0 -0.0026973282714652411 -0.00064943548534947488 0 -0.0026482848332462731 -0.00071000422622052807 0 -0.0026732576565291128 -0.00076094560215134892 0 -0.00269661725495138 -0.0006785210310660812 0 -0.0026732576565291128 -0.00076094560215134892 0 -0.00269661725495138 -0.0006785210310660812 0 -0.0027332789949225927 -0.00073691159696989304 0 -0.0028304534907290274 -0.00064633601080484829 0 -0.002753263799341015 -0.0006730656969389803 0 -0.0028084086370893449 -0.00071517542353402596 0 -0.0026973282714652411 -0.00064943548534947488 0 -0.0029199456220758355 -0.00081453197232022809 0 -0.0028456614458282183 -0.00075140500342177406 0 -0.0028084086370893449 -0.00071517542353402596 0 -0.0028621182762327141 -0.0006873027157807425 0 -0.0028304534907290274 -0.00064633601080484829 0 -0.0028084086370893449 -0.00071517542353402596 0 -0.0028621182762327141 -0.0006873027157807425 0 -0.0028456614458282183 -0.00075140500342177406 0 -0.0028621182762327141 -0.0006873027157807425 0 -0.0029010285772690966 -0.0006892304170781037 0 -0.002917802668697025 -0.00064084050195428646 0 -0.0028621182762327141 -0.0006873027157807425 0 -0.0029010285772690966 -0.0006892304170781037 0 -0.002917802668697025 -0.00064084050195428646 0 -0.0028304534907290274 -0.00064633601080484829 0 -0.0028621182762327141 -0.0006873027157807425 0 -0.0037957975284510321 1.713378825218415e-07 0 -0.0038066246945804715 -5.2680501734071188e-06 0 -0.0040586361118219831 -1.4098540563091503e-05 0 -0.0037957975284510321 1.713378825218415e-07 0 -0.0043124924251282159 -1.7709106571021151e-07 0 -0.0040586361118219831 -1.4098540563091503e-05 0 -0.0038066246945804715 -5.2680501734071188e-06 0 -0.0036881816824198962 -1.126984281716723e-05 0 -0.0035170670622455213 -6.6280539698933037e-07 0 -0.0038066246945804715 -5.2680501734071188e-06 0 -0.00388389381606762 -2.5744586447753084e-05 0 -0.0036881816824198962 -1.126984281716723e-05 0 -0.0038066246945804715 -5.2680501734071188e-06 0 -0.004032217738681728 -2.7319314987328955e-05 0 -0.0040586361118219831 -1.4098540563091503e-05 0 -0.0038066246945804715 -5.2680501734071188e-06 0 -0.00388389381606762 -2.5744586447753084e-05 0 -0.004032217738681728 -2.7319314987328955e-05 0 -0.004032217738681728 -2.7319314987328955e-05 0 -0.0043042680367185743 -8.0376737109583282e-05 0 -0.0040586361118219831 -1.4098540563091503e-05 0 -0.00388389381606762 -2.5744586447753084e-05 0 -0.004032427938100676 -7.4312856392469678e-05 0 -0.0039263865878887061 -4.4817660787984051e-05 0 -0.00388389381606762 -2.5744586447753084e-05 0 -0.004032217738681728 -2.7319314987328955e-05 0 -0.004032427938100676 -7.4312856392469678e-05 0 -0.004032427938100676 -7.4312856392469678e-05 0 -0.0043042680367185743 -8.0376737109583282e-05 0 -0.0040947470946241654 -0.00012426191098943525 0 -0.004032217738681728 -2.7319314987328955e-05 0 -0.004032427938100676 -7.4312856392469678e-05 0 -0.0043042680367185743 -8.0376737109583282e-05 0 -0.0043042680367185743 -8.0376737109583282e-05 0 -0.0043124924251282159 -1.7709106571021151e-07 0 -0.0040586361118219831 -1.4098540563091503e-05 0 -0.0043124924251282159 -1.7709106571021151e-07 0 -0.0045915083992190261 -9.8181473075535926e-06 0 -0.0049996282099189337 6.7213761374448942e-08 0 -0.0043042680367185743 -8.0376737109583282e-05 0 -0.0043124924251282159 -1.7709106571021151e-07 0 -0.0045915083992190261 -9.8181473075535926e-06 0 -0.0045915083992190261 -9.8181473075535926e-06 0 -0.0049996282099189337 6.7213761374448942e-08 0 -0.0048279520124320466 2.1072339850853518e-05 0 -0.0049996282099189337 6.7213761374448942e-08 0 -0.0049996893332335196 8.1423587650213439e-09 0 -0.0048279520124320466 2.1072339850853518e-05 0 -0.0049996893332335196 8.1423587650213439e-09 0 -0.0048279520124320466 2.1072339850853518e-05 0 -0.004895807342594944 -1.4830604255967882e-05 0 -0.0048279520124320466 2.1072339850853518e-05 0 -0.004725355119239388 -5.1063716111926142e-05 0 -0.0048702949413710686 6.0568194392483569e-06 0 -0.0045915083992190261 -9.8181473075535926e-06 0 -0.0048279520124320466 2.1072339850853518e-05 0 -0.004725355119239388 -5.1063716111926142e-05 0 -0.0043042680367185743 -8.0376737109583282e-05 0 -0.0045915083992190261 -9.8181473075535926e-06 0 -0.004725355119239388 -5.1063716111926142e-05 0 -0.0043309099152668337 -7.8141542015806555e-05 0 -0.0044163865160280827 -7.507996437993087e-05 0 -0.0040947470946241654 -0.00012426191098943525 0 -0.0043206589989860222 -6.376680174521316e-05 0 -0.0041115142294899784 -0.00012742130322395545 0 -0.0040947470946241654 -0.00012426191098943525 0 -0.0043206589989860222 -6.376680174521316e-05 0 -0.0043003019384450338 -2.8654411492295775e-06 0 -0.0043206589989860222 -6.376680174521316e-05 0 -0.0043003019384450338 -2.8654411492295775e-06 0 -0.0046173513435577131 -4.5974752322089599e-05 0 -0.0044163865160280827 -7.507996437993087e-05 0 -0.0045843157622252519 -1.3990701087068588e-05 0 -0.0048279520124320466 2.1072339850853518e-05 0 -0.0048702949413710686 6.0568194392483569e-06 0 -0.004895807342594944 -1.4830604255967882e-05 0 -0.0049996893332335196 8.1423587650213439e-09 0 -0.004895807342594944 -1.4830604255967882e-05 0 -0.0049994422911093118 -8.444823301134115e-08 0 -0.0048702949413710686 6.0568194392483569e-06 0 -0.004895807342594944 -1.4830604255967882e-05 0 -0.0047642051828791785 -1.615328482225456e-05 0 -0.0043003019384450338 -2.8654411492295775e-06 0 -0.0047642051828791785 -1.615328482225456e-05 0 -0.0046173513435577131 -4.5974752322089599e-05 0 -0.0045843157622252519 -1.3990701087068588e-05 0 -0.0047268578415039014 -1.2381397793375504e-05 0 -0.004895807342594944 -1.4830604255967882e-05 0 -0.0047642051828791785 -1.615328482225456e-05 0 -0.0049994422911093118 -8.444823301134115e-08 0 -0.0049994422911093118 -8.444823301134115e-08 0 -0.0049884170897415469 -2.3079209429515417e-05 0 -0.0050002566635695533 1.6661554984970904e-09 0 -0.0049994422911093118 -8.444823301134115e-08 0 -0.0047663276299180091 -0.00011478076471689381 0 -0.0049884170897415469 -2.3079209429515417e-05 0 -0.0047621746807275682 -0.00013925895902172167 0 -0.0047229034347660796 -0.00019815694574170056 0 -0.0047642051828791785 -1.615328482225456e-05 0 -0.0049994422911093118 -8.444823301134115e-08 0 -0.0047663276299180091 -0.00011478076471689381 0 -0.0047642051828791785 -1.615328482225456e-05 0 -0.0047663276299180091 -0.00011478076471689381 0 -0.0046173513435577131 -4.5974752322089599e-05 0 -0.0047663276299180091 -0.00011478076471689381 0 -0.0044656988182876743 -0.00015508742829831374 0 -0.004464986281898768 -0.00039725301001031904 0 -0.0047663276299180091 -0.00011478076471689381 0 -0.0044656988182876743 -0.00015508742829831374 0 -0.0046173513435577131 -4.5974752322089599e-05 0 -0.0044656988182876743 -0.00015508742829831374 0 -0.0044582589084893346 -7.3502446257499814e-05 0 -0.0046173513435577131 -4.5974752322089599e-05 0 -0.0043206589989860222 -6.376680174521316e-05 0 -0.0046173513435577131 -4.5974752322089599e-05 0 -0.004472721071205556 -5.4344440923650239e-05 0 -0.0044582589084893346 -7.3502446257499814e-05 0 -0.0046173513435577131 -4.5974752322089599e-05 0 -0.004472721071205556 -5.4344440923650239e-05 0 -0.0043206589989860222 -6.376680174521316e-05 0 -0.004472721071205556 -5.4344440923650239e-05 0 -0.0044273294423225525 -6.3654040922414949e-05 0 -0.0044582589084893346 -7.3502446257499814e-05 0 -0.004472721071205556 -5.4344440923650239e-05 0 -0.0043996556235860185 -4.4731906445587002e-05 0 -0.0044582589084893346 -7.3502446257499814e-05 0 -0.0043996556235860185 -4.4731906445587002e-05 0 -0.0043162562437178576 -9.8213139381250156e-05 0 -0.0037832920191026671 -4.5987867131455878e-05 0 -0.0037738464730889452 2.0426627383019411e-05 0 -0.0037788064574715498 6.7336841905057219e-05 0 -0.004472721071205556 -5.4344440923650239e-05 0 -0.0043996556235860185 -4.4731906445587002e-05 0 -0.0044273294423225525 -6.3654040922414949e-05 0 -0.0043996556235860185 -4.4731906445587002e-05 0 -0.0044273294423225525 -6.3654040922414949e-05 0 -0.0042792043586037751 9.9865769616820868e-05 0 -0.0040998747118210568 -4.962973387395322e-05 0 -0.0040300472708299307 7.3865632942075052e-05 0 -0.0037832920191026671 -4.5987867131455878e-05 0 -0.0041115142294899784 -0.00012742130322395545 0 -0.0037738464730889452 2.0426627383019411e-05 0 -0.0040998747118210568 -4.962973387395322e-05 0 -0.0041050135016164292 -0.00011431439176804664 0 -0.0043206589989860222 -6.376680174521316e-05 0 -0.0044273294423225525 -6.3654040922414949e-05 0 -0.0041115142294899784 -0.00012742130322395545 0 -0.004032427938100676 -7.4312856392469678e-05 0 -0.0040947470946241654 -0.00012426191098943525 0 -0.0041115142294899784 -0.00012742130322395545 0 -0.004032427938100676 -7.4312856392469678e-05 0 -0.0041115142294899784 -0.00012742130322395545 0 -0.0039263865878887061 -4.4817660787984051e-05 0 -0.0041115142294899784 -0.00012742130322395545 0 -0.0039263865878887061 -4.4817660787984051e-05 0 -0.0037738464730889452 2.0426627383019411e-05 0 -0.0037520636155447115 6.3866494804040219e-06 0 -0.0036831583454003569 8.9553754417184042e-06 0 -0.0037738464730889452 2.0426627383019411e-05 0 -0.0039263865878887061 -4.4817660787984051e-05 0 -0.0037520636155447115 6.3866494804040219e-06 0 -0.0037738464730889452 2.0426627383019411e-05 0 -0.00388389381606762 -2.5744586447753084e-05 0 -0.0037520636155447115 6.3866494804040219e-06 0 -0.0036881816824198962 -1.126984281716723e-05 0 -0.00388389381606762 -2.5744586447753084e-05 0 -0.0039263865878887061 -4.4817660787984051e-05 0 -0.0037520636155447115 6.3866494804040219e-06 0 -0.0037520636155447115 6.3866494804040219e-06 0 -0.0036881816824198962 -1.126984281716723e-05 0 -0.0035189896324882911 -4.7851813320470908e-05 0 -0.0037520636155447115 6.3866494804040219e-06 0 -0.0036831583454003569 8.9553754417184042e-06 0 -0.0035189896324882911 -4.7851813320470908e-05 0 -0.0037520648044172505 3.0757983081183093e-05 0 -0.0037738464730889452 2.0426627383019411e-05 0 -0.0037788064574715498 6.7336841905057219e-05 0 -0.0036831583454003569 8.9553754417184042e-06 0 -0.0037520648044172505 3.0757983081183093e-05 0 -0.0036901989577484942 -4.7357725591436822e-05 0 -0.0037520648044172505 3.0757983081183093e-05 0 -0.0037860234009607697 1.2205409000118575e-06 0 -0.0036901989577484942 -4.7357725591436822e-05 0 -0.0036831583454003569 8.9553754417184042e-06 0 -0.0037520648044172505 3.0757983081183093e-05 0 -0.0037738464730889452 2.0426627383019411e-05 0 -0.0038165492296320476 5.227904691921651e-05 0 -0.003877703830949185 1.8184604334339228e-05 0 -0.0039230926327401645 0.00012609735670380938 0 -0.0037520648044172505 3.0757983081183093e-05 0 -0.0038165492296320476 5.227904691921651e-05 0 -0.0037788064574715498 6.7336841905057219e-05 0 -0.0037860234009607697 1.2205409000118575e-06 0 -0.003877703830949185 1.8184604334339228e-05 0 -0.0037857310870828445 -7.7487373300943216e-05 0 -0.0038165492296320476 5.227904691921651e-05 0 -0.0037860234009607697 1.2205409000118575e-06 0 -0.003877703830949185 1.8184604334339228e-05 0 -0.0037520648044172505 3.0757983081183093e-05 0 -0.0038165492296320476 5.227904691921651e-05 0 -0.0037860234009607697 1.2205409000118575e-06 0 -0.0036367189452786741 1.7746502423749305e-05 0 -0.0037413798541435202 3.5311911234322747e-05 0 -0.003660905306597247 -5.7248203348236481e-05 0 -0.0036367189452786741 1.7746502423749305e-05 0 -0.0037413798541435202 3.5311911234322747e-05 0 -0.0038632016369744373 0.00013584050016562192 0 -0.0037351437643698706 -2.9822306936305396e-05 0 -0.0037413798541435202 3.5311911234322747e-05 0 -0.003660905306597247 -5.7248203348236481e-05 0 -0.0037351437643698706 -2.9822306936305396e-05 0 -0.0037413798541435202 3.5311911234322747e-05 0 -0.0038193100343314355 1.7758761665702275e-05 0 -0.0037413798541435202 3.5311911234322747e-05 0 -0.0038193100343314355 1.7758761665702275e-05 0 -0.0038206236225761603 0.0001007658591295752 0 -0.0037416314837460276 -3.6125749857514522e-06 0 -0.0035082638896320943 -0.00018268634250051243 0 -0.0035082638896320943 -0.00018268634250051243 0 -0.003665983769532419 5.338843248116128e-05 0 -0.0035082638896320943 -0.00018268634250051243 0 -0.0032037285343791289 -0.00017616180153825516 0 -0.0038241769149988066 0.00011455896804641902 0 -0.0038134589681673215 0.00012634639585578454 0 -0.0037459990103526322 0.00015415868409988752 0 -0.0038241769149988066 0.00011455896804641902 0 -0.0038206236225761603 0.0001007658591295752 0 -0.0038134589681673215 0.00012634639585578454 0 -0.0038206236225761603 0.0001007658591295752 0 -0.0038134589681673215 0.00012634639585578454 0 -0.0038632016369744373 0.00013584050016562192 0 -0.0038134589681673215 0.00012634639585578454 0 -0.0038632016369744373 0.00013584050016562192 0 -0.0038288533449275732 0.00010064966851719179 0 -0.003877703830949185 1.8184604334339228e-05 0 -0.0038632016369744373 0.00013584050016562192 0 -0.0039230926327401645 0.00012609735670380938 0 -0.0037413798541435202 3.5311911234322747e-05 0 -0.0038206236225761603 0.0001007658591295752 0 -0.0038632016369744373 0.00013584050016562192 0 -0.003758397007258496 1.6553949639734093e-05 0 -0.0038508639596393428 0.00012247462771106891 0 -0.0039084915282930508 6.0357840049534849e-05 0 -0.0039230926327401645 0.00012609735670380938 0 -0.0040708159111230244 4.4912018909306236e-05 0 -0.0038632016369744373 0.00013584050016562192 0 -0.0039084915282930508 6.0357840049534849e-05 0 -0.0039230926327401645 0.00012609735670380938 0 -0.0038632016369744373 0.00013584050016562192 0 -0.0039084915282930508 6.0357840049534849e-05 0 -0.0038288533449275732 0.00010064966851719179 0 -0.0039084915282930508 6.0357840049534849e-05 0 -0.0038288533449275732 0.00010064966851719179 0 -0.0037879574863416729 3.9096042220232518e-05 0 -0.0038134589681673215 0.00012634639585578454 0 -0.0038288533449275732 0.00010064966851719179 0 -0.0037703544160790073 0.00010677255799986788 0 -0.0038288533449275732 0.00010064966851719179 0 -0.0037879574863416729 3.9096042220232518e-05 0 -0.0037703544160790073 0.00010677255799986788 0 -0.0039084915282930508 6.0357840049534849e-05 0 -0.0038853215867938025 -2.2014532851265837e-05 0 -0.0037879574863416729 3.9096042220232518e-05 0 -0.0038853215867938025 -2.2014532851265837e-05 0 -0.0037879574863416729 3.9096042220232518e-05 0 -0.0037526907690034737 -9.133113561267663e-05 0 -0.0039084915282930508 6.0357840049534849e-05 0 -0.0038853215867938025 -2.2014532851265837e-05 0 -0.0040585195415204596 -1.7478081375530183e-05 0 -0.0039084915282930508 6.0357840049534849e-05 0 -0.0040708159111230244 4.4912018909306236e-05 0 -0.0040585195415204596 -1.7478081375530183e-05 0 -0.0040708159111230244 4.4912018909306236e-05 0 -0.0040585195415204596 -1.7478081375530183e-05 0 -0.0042334300147635574 -2.6459687636415272e-05 0 -0.0039383816728122837 0.0001220793505796641 0 -0.0040300472708299307 7.3865632942075052e-05 0 -0.0039230926327401645 0.00012609735670380938 0 -0.0040708159111230244 4.4912018909306236e-05 0 -0.0042792043586037751 9.9865769616820868e-05 0 -0.0038165492296320476 5.227904691921651e-05 0 -0.0039230926327401645 0.00012609735670380938 0 -0.0037788064574715498 6.7336841905057219e-05 0 -0.0040708159111230244 4.4912018909306236e-05 0 -0.0042792043586037751 9.9865769616820868e-05 0 -0.0042334300147635574 -2.6459687636415272e-05 0 -0.0043996556235860185 -4.4731906445587002e-05 0 -0.0042792043586037751 9.9865769616820868e-05 0 -0.0042334300147635574 -2.6459687636415272e-05 0 -0.0043996556235860185 -4.4731906445587002e-05 0 -0.0042334300147635574 -2.6459687636415272e-05 0 -0.0043162562437178576 -9.8213139381250156e-05 0 -0.0042334300147635574 -2.6459687636415272e-05 0 -0.0040841068212802379 -0.00012756229911431181 0 -0.0043162562437178576 -9.8213139381250156e-05 0 -0.0040585195415204596 -1.7478081375530183e-05 0 -0.0042334300147635574 -2.6459687636415272e-05 0 -0.0040841068212802379 -0.00012756229911431181 0 -0.0040841068212802379 -0.00012756229911431181 0 -0.0043162562437178576 -9.8213139381250156e-05 0 -0.0041870955343170776 -0.00023473124677368464 0 -0.0044656988182876743 -0.00015508742829831374 0 -0.0043162562437178576 -9.8213139381250156e-05 0 -0.0041870955343170776 -0.00023473124677368464 0 -0.0044656988182876743 -0.00015508742829831374 0 -0.0044582589084893346 -7.3502446257499814e-05 0 -0.0043162562437178576 -9.8213139381250156e-05 0 -0.0044656988182876743 -0.00015508742829831374 0 -0.004464986281898768 -0.00039725301001031904 0 -0.00429076985453581 -0.00035639165858211133 0 -0.0044656988182876743 -0.00015508742829831374 0 -0.0041870955343170776 -0.00023473124677368464 0 -0.00429076985453581 -0.00035639165858211133 0 -0.0041870955343170776 -0.00023473124677368464 0 -0.0041131991905924677 -0.0003794588335302664 0 -0.00429076985453581 -0.00035639165858211133 0 -0.0041131991905924677 -0.0003794588335302664 0 -0.0042444337329489443 -0.00052627330115967734 0 -0.00429076985453581 -0.00035639165858211133 0 -0.0041131991905924677 -0.0003794588335302664 0 -0.0042444337329489443 -0.00052627330115967734 0 -0.0039387064353119221 -0.00049285899081889459 0 -0.0046248984885829533 -0.00032945489530322898 0 -0.0049996618768463038 -7.9205967760305692e-07 0 -0.0050046600721340507 6.3450115392396162e-07 0 -0.0049884170897415469 -2.3079209429515417e-05 0 -0.0050002566635695533 1.6661554984970904e-09 0 -0.0042444337329489443 -0.00052627330115967734 0 -0.004464986281898768 -0.00039725301001031904 0 -0.00429076985453581 -0.00035639165858211133 0 -0.0046248984885829533 -0.00032945489530322898 0 -0.0047229034347660796 -0.00019815694574170056 0 -0.0044669363001685726 -0.0002373940546329358 0 -0.0043337624080623865 -0.00022968761307803974 0 -0.0039387064353119221 -0.00049285899081889459 0 -0.0039265796767648242 -0.00028542816871492474 0 -0.0036662855615729305 -0.00045966516694209903 0 -0.0049992156206408803 -7.3767864166562397e-07 0 -0.004999993650811504 -7.8544136651736255e-10 0 -0.0049999931729066442 -1.3175119083154681e-09 0 -0.0046248984885829533 -0.00032945489530322898 0 -0.0044669363001685726 -0.0002373940546329358 0 -0.0041131991905924677 -0.0003794588335302664 0 -0.0039387064353119221 -0.00049285899081889459 0 -0.0039265796767648242 -0.00028542816871492474 0 -0.004994624807321664 -2.0902881393624313e-09 0 -0.0049992156206408803 -7.3767864166562397e-07 0 -0.004999993650811504 -7.8544136651736255e-10 0 -0.0041870955343170776 -0.00023473124677368464 0 -0.0041131991905924677 -0.0003794588335302664 0 -0.0039265796767648242 -0.00028542816871492474 0 -0.0038908927920664697 -0.00013837935793941143 0 -0.0037526907690034737 -9.133113561267663e-05 0 -0.0037182627347762892 -0.00026357903544364049 0 -0.0039265796767648242 -0.00028542816871492474 0 -0.0038908927920664697 -0.00013837935793941143 0 -0.0037182627347762892 -0.00026357903544364049 0 -0.0040841068212802379 -0.00012756229911431181 0 -0.0041870955343170776 -0.00023473124677368464 0 -0.0039265796767648242 -0.00028542816871492474 0 -0.0040841068212802379 -0.00012756229911431181 0 -0.0039265796767648242 -0.00028542816871492474 0 -0.0038908927920664697 -0.00013837935793941143 0 -0.0038853215867938025 -2.2014532851265837e-05 0 -0.0040585195415204596 -1.7478081375530183e-05 0 -0.0039856952358843095 -7.5723317308257069e-05 0 -0.0040841068212802379 -0.00012756229911431181 0 -0.0039856952358843095 -7.5723317308257069e-05 0 -0.0038908927920664697 -0.00013837935793941143 0 -0.0038853215867938025 -2.2014532851265837e-05 0 -0.0039856952358843095 -7.5723317308257069e-05 0 -0.0038908927920664697 -0.00013837935793941143 0 -0.0040585195415204596 -1.7478081375530183e-05 0 -0.0040841068212802379 -0.00012756229911431181 0 -0.0039856952358843095 -7.5723317308257069e-05 0 -0.0038853215867938025 -2.2014532851265837e-05 0 -0.0038908927920664697 -0.00013837935793941143 0 -0.0037526907690034737 -9.133113561267663e-05 0 -0.0037526907690034737 -9.133113561267663e-05 0 -0.0036015690191652863 -0.00016162965938970551 0 -0.0036486889273674348 -2.9114320313993811e-05 0 -0.0036015690191652863 -0.00016162965938970551 0 -0.0034926854875706754 -0.0001148513284879074 0 -0.0036486889273674348 -2.9114320313993811e-05 0 -0.0036015690191652863 -0.00016162965938970551 0 -0.0034427659249110774 -0.00023421471475775055 0 -0.0034926854875706754 -0.0001148513284879074 0 -0.0036015690191652863 -0.00016162965938970551 0 -0.0037182627347762892 -0.00026357903544364049 0 -0.0035597529507039134 -0.00032045319780763112 0 -0.0036015690191652863 -0.00016162965938970551 0 -0.0035597529507039134 -0.00032045319780763112 0 -0.0034427659249110774 -0.00023421471475775055 0 -0.0037526907690034737 -9.133113561267663e-05 0 -0.0036015690191652863 -0.00016162965938970551 0 -0.0037182627347762892 -0.00026357903544364049 0 -0.0037182627347762892 -0.00026357903544364049 0 -0.0035597529507039134 -0.00032045319780763112 0 -0.0036662855615729305 -0.00045966516694209903 0 -0.0039265796767648242 -0.00028542816871492474 0 -0.0037182627347762892 -0.00026357903544364049 0 -0.0036662855615729305 -0.00045966516694209903 0 -0.0049979759954391486 -4.6796333989096257e-07 0 -0.0049966290155513265 -3.5464880581120729e-07 0 -0.0049999926558864311 5.8323156436816024e-11 0 -0.0049999931729066442 -1.3175119083154681e-09 0 -0.0049979759954391486 -4.6796333989096257e-07 0 -0.0049999926558864311 5.8323156436816024e-11 0 -0.0043337624080623865 -0.00022968761307803974 0 -0.0042229318140504209 -0.00018830179438898803 0 -0.0035597529507039134 -0.00032045319780763112 0 -0.0036662855615729305 -0.00045966516694209903 0 -0.0034385731155446024 -0.00037749472986130814 0 -0.0049992156206408803 -7.3767864166562397e-07 0 -0.0049999931729066442 -1.3175119083154681e-09 0 -0.0049979759954391486 -4.6796333989096257e-07 0 -0.0041666815858352087 -0.00013477081479014606 0 -0.0042229318140504209 -0.00018830179438898803 0 -0.0049959542110679404 9.0226139250436328e-07 0 -0.0049999890751134162 -2.2635001621027992e-09 0 -0.0049966290155513265 -3.5464880581120729e-07 0 -0.0049999890751134162 -2.2635001621027992e-09 0 -0.0049966290155513265 -3.5464880581120729e-07 0 -0.0049999926558864311 5.8323156436816024e-11 0 -0.0035597529507039134 -0.00032045319780763112 0 -0.0034385731155446024 -0.00037749472986130814 0 -0.0034427659249110774 -0.00023421471475775055 0 -0.0034385731155446024 -0.00037749472986130814 0 -0.0033498479189201262 -0.00024927169915940769 0 -0.0034427659249110774 -0.00023421471475775055 0 -0.0033358522388437064 -0.00027205911917648428 0 -0.0034385731155446024 -0.00037749472986130814 0 -0.0033498479189201262 -0.00024927169915940769 0 -0.0033498479189201262 -0.00024927169915940769 0 -0.0034427659249110774 -0.00023421471475775055 0 -0.0032749790013308203 -0.00014651576428688931 0 -0.0034427659249110774 -0.00023421471475775055 0 -0.0034926854875706754 -0.0001148513284879074 0 -0.0032749790013308203 -0.00014651576428688931 0 -0.0032749790013308203 -0.00014651576428688931 0 -0.0032039299858633106 -0.00035577377523988545 0 -0.0030791726256756908 -0.00033796629760276322 0 -0.0032940018480380729 -0.00032414023562710842 0 -0.0032749790013308203 -0.00014651576428688931 0 -0.0032039299858633106 -0.00035577377523988545 0 -0.0032039299858633106 -0.00035577377523988545 0 -0.0030791726256756908 -0.00033796629760276322 0 -0.0031194340210019718 -0.00043120576537354914 0 -0.0030791726256756908 -0.00033796629760276322 0 -0.0028812325337698253 -0.00030424449452497919 0 -0.0029026536689189474 -0.0004560457087593325 0 -0.0030791726256756908 -0.00033796629760276322 0 -0.0031194340210019718 -0.00043120576537354914 0 -0.0029026536689189474 -0.0004560457087593325 0 -0.0032554353552995421 -0.00014302938632697787 0 -0.0032220369524637821 -0.00011884086574846021 0 -0.0034926854875706754 -0.0001148513284879074 0 -0.0032749790013308203 -0.00014651576428688931 0 -0.0035348456436548785 8.330045847728838e-05 0 -0.0032749790013308203 -0.00014651576428688931 0 -0.0030791726256756908 -0.00033796629760276322 0 -0.0028812325337698253 -0.00030424449452497919 0 -0.0034926854875706754 -0.0001148513284879074 0 -0.0036486889273674348 -2.9114320313993811e-05 0 -0.0035348456436548785 8.330045847728838e-05 0 -0.0036486889273674348 -2.9114320313993811e-05 0 -0.003688623072244174 7.7181311270819604e-05 0 -0.0035348456436548785 8.330045847728838e-05 0 -0.0037879574863416729 3.9096042220232518e-05 0 -0.0037526907690034737 -9.133113561267663e-05 0 -0.0036486889273674348 -2.9114320313993811e-05 0 -0.0037879574863416729 3.9096042220232518e-05 0 -0.0036486889273674348 -2.9114320313993811e-05 0 -0.003688623072244174 7.7181311270819604e-05 0 -0.003688623072244174 7.7181311270819604e-05 0 -0.0037703544160790073 0.00010677255799986788 0 -0.0037459990103526322 0.00015415868409988752 0 -0.0037879574863416729 3.9096042220232518e-05 0 -0.003688623072244174 7.7181311270819604e-05 0 -0.0037703544160790073 0.00010677255799986788 0 -0.003688623072244174 7.7181311270819604e-05 0 -0.0035348456436548785 8.330045847728838e-05 0 -0.0037459990103526322 0.00015415868409988752 0 -0.0028812325337698253 -0.00030424449452497919 0 -0.0027811467699754453 -0.0005016190023077237 0 -0.0029026536689189474 -0.0004560457087593325 0 -0.0032220369524637821 -0.00011884086574846021 0 -0.0032037285343791289 -0.00017616180153825516 0 -0.0028812325337698253 -0.00030424449452497919 0 -0.0027811467699754453 -0.0005016190023077237 0 -0.0027409273214350797 -0.00048755534499717956 0 -0.0027811467699754453 -0.0005016190023077237 0 -0.0027892311280923484 -0.00057828341093010946 0 -0.0029026536689189474 -0.0004560457087593325 0 -0.0038134589681673215 0.00012634639585578454 0 -0.0037703544160790073 0.00010677255799986788 0 -0.0037459990103526322 0.00015415868409988752 0 -0.0027811467699754453 -0.0005016190023077237 0 -0.0027409273214350797 -0.00048755534499717956 0 -0.0027619875223637721 -0.00049716580968103081 0 -0.0027909418222107183 -0.00049063996570358499 0 -0.0027679000246802381 -0.0004875110219116796 0 -0.0027712140098938454 -0.00047372041949011773 0 -0.0027909418222107183 -0.00049063996570358499 0 -0.0027679000246802381 -0.0004875110219116796 0 -0.0027619875223637721 -0.00049716580968103081 0 -0.0027679000246802381 -0.0004875110219116796 0 -0.0027619875223637721 -0.00049716580968103081 0 -0.0027500058756292577 -0.00048550464334070075 0 -0.0027909418222107183 -0.00049063996570358499 0 -0.0027409273214350797 -0.00048755534499717956 0 -0.0027619875223637721 -0.00049716580968103081 0 -0.0027811467699754453 -0.0005016190023077237 0 -0.0027892311280923484 -0.00057828341093010946 0 -0.0027155578788048028 -0.00063934925215556487 0 -0.0027716098488104633 -0.00051286340161268431 0 -0.0027337391809137352 -0.00055881939508345706 0 -0.0027811467699754453 -0.0005016190023077237 0 -0.0027619875223637721 -0.00049716580968103081 0 -0.0027500058756292577 -0.00048550464334070075 0 -0.0027892311280923484 -0.00057828341093010946 0 -0.0027973553111259437 -0.00058258679918242787 0 -0.0027225985203967753 -0.00066742661201215096 0 -0.0030582111221312477 -0.00063413918882671916 0 -0.0029481130973433665 -0.00053767199373425242 0 -0.0032618036694857665 -0.00049852434725942822 0 -0.0032211181933634106 -0.00044094870398689166 0 -0.0031352063138352006 -0.00053215303409314036 0 -0.0032211181933634106 -0.00044094870398689166 0 -0.0031352063138352006 -0.00053215303409314036 0 -0.0031194340210019718 -0.00043120576537354914 0 -0.0032211181933634106 -0.00044094870398689166 0 -0.0032039299858633106 -0.00035577377523988545 0 -0.0031194340210019718 -0.00043120576537354914 0 -0.0029481130973433665 -0.00053767199373425242 0 -0.0028968203442988425 -0.00045740653941455663 0 -0.0031352063138352006 -0.00053215303409314036 0 -0.0031194340210019718 -0.00043120576537354914 0 -0.0029026536689189474 -0.0004560457087593325 0 -0.0027892311280923484 -0.00057828341093010946 0 -0.0027973553111259437 -0.00058258679918242787 0 -0.0029026536689189474 -0.0004560457087593325 0 -0.0026749216361223894 -0.00074844915542419304 0 -0.0027225985203967753 -0.00066742661201215096 0 -0.0026023925894365441 -0.00076464792817699829 0 -0.0023898191102931163 -0.00085233882826109362 0 -0.0026067174596827239 -0.00077227631998270962 0 -0.0027528230582901055 -0.00073100569774073624 0 -0.0027225985203967753 -0.00066742661201215096 0 -0.0026023925894365441 -0.00076464792817699829 0 -0.0027820826789905048 -0.00065026872214319676 0 -0.0027973553111259437 -0.00058258679918242787 0 -0.0027225985203967753 -0.00066742661201215096 0 -0.0027528230582901055 -0.00073100569774073624 0 -0.0027820826789905048 -0.00065026872214319676 0 -0.0027225985203967753 -0.00066742661201215096 0 -0.0027892311280923484 -0.00057828341093010946 0 -0.0027225985203967753 -0.00066742661201215096 0 -0.0027155578788048028 -0.00063934925215556487 0 -0.0026749216361223894 -0.00074844915542419304 0 -0.0027225985203967753 -0.00066742661201215096 0 -0.0027155578788048028 -0.00063934925215556487 0 -0.0027500058756292577 -0.00048550464334070075 0 -0.0027712140098938454 -0.00047372041949011773 0 -0.0027639305855389974 -0.00045392166211675452 0 -0.0027272633252555531 -0.00061769861815172498 0 -0.0027337391809137352 -0.00055881939508345706 0 -0.0027679000246802381 -0.0004875110219116796 0 -0.0027500058756292577 -0.00048550464334070075 0 -0.0027712140098938454 -0.00047372041949011773 0 -0.0027639305855389974 -0.00045392166211675452 0 -0.0027846949345714253 -0.0004264599609146441 0 -0.0027898923430833109 -0.00046388616418854492 0 -0.0027712140098938454 -0.00047372041949011773 0 -0.0027639305855389974 -0.00045392166211675452 0 -0.0027898923430833109 -0.00046388616418854492 0 -0.0027337711659671023 -0.00044577331522836582 0 -0.0027500058756292577 -0.00048550464334070075 0 -0.0027639305855389974 -0.00045392166211675452 0 -0.0027337711659671023 -0.00044577331522836582 0 -0.0027639305855389974 -0.00045392166211675452 0 -0.0027525124535626717 -0.00041785781699405427 0 -0.0027337711659671023 -0.00044577331522836582 0 -0.0027525124535626717 -0.00041785781699405427 0 -0.0027193590412911009 -0.0003979427798509047 0 -0.0027639305855389974 -0.00045392166211675452 0 -0.0027525124535626717 -0.00041785781699405427 0 -0.0027846949345714253 -0.0004264599609146441 0 -0.0027525124535626717 -0.00041785781699405427 0 -0.0027846949345714253 -0.0004264599609146441 0 -0.0027713715567134738 -0.0003815399451733187 0 -0.0036595682205194779 -0.00011014317089000663 0 -0.0036565038119622949 -0.00014166248335941941 0 -0.0036361966798200726 -0.00012566287266203052 0 -0.0032708079276643565 -0.00029694143054692239 0 -0.0028116188461231326 -0.00018123923737975122 0 -0.0023994869275987094 -3.171712365046762e-05 0 -0.002440917720017261 -1.7085763855628685e-05 0 -0.0024236789056140398 -4.1936648369296321e-05 0 -0.0027525124535626717 -0.00041785781699405427 0 -0.0027713715567134738 -0.0003815399451733187 0 -0.0027193590412911009 -0.0003979427798509047 0 -0.0028116188461231326 -0.00018123923737975122 0 -0.0025374637526569565 -0.0003319930271292389 0 -0.0025048039675852085 -0.00048113018593598928 0 -0.0026500617201441652 -0.0004823323798398303 0 -0.0025846440923833532 -0.0006349875710170526 0 -0.0025217324170545893 -0.00041206304790049515 0 -0.0025374637526569565 -0.0003319930271292389 0 -0.0025048039675852085 -0.00048113018593598928 0 -0.002627449340410122 -0.00042658429529946964 0 -0.0024187284455388478 -0.00028102652553277445 0 -0.0026749216361223894 -0.00074844915542419304 0 -0.0026500617201441652 -0.0004823323798398303 0 -0.0025846440923833532 -0.0006349875710170526 0 -0.0027272633252555531 -0.00061769861815172498 0 -0.0025374637526569565 -0.0003319930271292389 0 -0.0026749216361223894 -0.00074844915542419304 0 -0.0025846440923833532 -0.0006349875710170526 0 -0.0026023925894365441 -0.00076464792817699829 0 -0.0021567535752438517 -0.00094633725860535209 0 -0.0021441259988174474 -0.00057493010928228079 0 -0.0024059960206697707 -0.00062774596489882444 0 -0.0021567535752438517 -0.00094633725860535209 0 -0.0026023925894365441 -0.00076464792817699829 0 -0.0024059960206697707 -0.00062774596489882444 0 -0.0025846440923833532 -0.0006349875710170526 0 -0.0026023925894365441 -0.00076464792817699829 0 -0.0024059960206697707 -0.00062774596489882444 0 -0.0025048039675852085 -0.00048113018593598928 0 -0.0025846440923833532 -0.0006349875710170526 0 -0.0024059960206697707 -0.00062774596489882444 0 -0.0021441259988174474 -0.00057493010928228079 0 -0.0024059960206697707 -0.00062774596489882444 0 -0.0023447119548285424 -0.00046215924613353284 0 -0.0021441259988174474 -0.00057493010928228079 0 -0.0023447119548285424 -0.00046215924613353284 0 -0.0022318345740943929 -0.0003449522043924513 0 -0.0025048039675852085 -0.00048113018593598928 0 -0.0023447119548285424 -0.00046215924613353284 0 -0.0024187284455388478 -0.00028102652553277445 0 -0.0025048039675852085 -0.00048113018593598928 0 -0.0024059960206697707 -0.00062774596489882444 0 -0.0023447119548285424 -0.00046215924613353284 0 -0.0023447119548285424 -0.00046215924613353284 0 -0.0024187284455388478 -0.00028102652553277445 0 -0.0022318345740943929 -0.0003449522043924513 0 -0.0021669901074027188 -8.1121300947173511e-05 0 -0.0024187284455388478 -0.00028102652553277445 0 -0.0022318345740943929 -0.0003449522043924513 0 -0.0021669901074027188 -8.1121300947173511e-05 0 -0.0024187284455388478 -0.00028102652553277445 0 -0.0024515728982285588 -6.8013545979889569e-05 0 -0.0021669901074027188 -8.1121300947173511e-05 0 -0.0024515728982285588 -6.8013545979889569e-05 0 -0.0023804005983641872 -1.8412194990524655e-05 0 -0.0025374637526569565 -0.0003319930271292389 0 -0.0024589334678487185 -3.938907093154939e-05 0 -0.002627449340410122 -0.00042658429529946964 0 -0.0024187284455388478 -0.00028102652553277445 0 -0.0024515728982285588 -6.8013545979889569e-05 0 -0.002440917720017261 -1.7085763855628685e-05 0 -0.0024515728982285588 -6.8013545979889569e-05 0 -0.0024236789056140398 -4.1936648369296321e-05 0 -0.0024515728982285588 -6.8013545979889569e-05 0 -0.0024277455485938412 -4.076630640290972e-05 0 -0.0024236789056140398 -4.1936648369296321e-05 0 -0.0024515728982285588 -6.8013545979889569e-05 0 -0.002427185294935348 -1.8445130936023912e-05 0 -0.0024277455485938412 -4.076630640290972e-05 0 -0.0024515728982285588 -6.8013545979889569e-05 0 -0.002427185294935348 -1.8445130936023912e-05 0 -0.0023804005983641872 -1.8412194990524655e-05 0 -0.002427185294935348 -1.8445130936023912e-05 0 -0.0023804005983641872 -1.8412194990524655e-05 0 -0.00240661896725044 2.0812672642113497e-05 0 -0.002427185294935348 -1.8445130936023912e-05 0 -0.00240661896725044 2.0812672642113497e-05 0 -0.002424175074254591 2.8724514801638104e-06 0 -0.002427185294935348 -1.8445130936023912e-05 0 -0.0024295393154309618 -1.0326363742818991e-05 0 -0.002424175074254591 2.8724514801638104e-06 0 -0.002427185294935348 -1.8445130936023912e-05 0 -0.0024295393154309618 -1.0326363742818991e-05 0 -0.0024277455485938412 -4.076630640290972e-05 0 -0.0015370034185147744 -0.00051149040254111901 0 -0.0015165818530623995 -0.00052827990482400184 0 -0.0014974066220124745 -0.00053390051455580304 0 -0.0021669901074027188 -8.1121300947173511e-05 0 -0.0023804005983641872 -1.8412194990524655e-05 0 -0.0024048604936325619 3.7464772831156823e-05 0 -0.0018678659222227177 -0.00029977407768629917 0 -0.001844581324674819 -0.00029011836639735832 0 -0.0023804005983641872 -1.8412194990524655e-05 0 -0.00240661896725044 2.0812672642113497e-05 0 -0.0024048604936325619 3.7464772831156823e-05 0 -0.0015165818530623995 -0.00052827990482400184 0 -0.0015080280313614655 -0.00053368374571071808 0 -0.0014974066220124745 -0.00053390051455580304 0 -0.0015080280313614655 -0.00053368374571071808 0 -0.0015025069555125569 -0.00053776219459639608 0 -0.0014974066220124745 -0.00053390051455580304 0 -0.0015025069555125569 -0.00053776219459639608 0 -0.0014974066220124745 -0.00053390051455580304 0 -0.0014962628036701707 -0.00054144784674400404 0 -0.0014313000781329944 -0.00051478834537397244 0 -0.0014081909124428226 -0.00047626377191467426 0 -0.0014284758345282824 -0.00047673100156914286 0 -0.001844581324674819 -0.00029011836639735832 0 -0.0014226163829001038 -0.00053255946949799099 0 -0.0018706073951781708 -0.00027140270071717641 0 -0.001844581324674819 -0.00029011836639735832 0 -0.001844581324674819 -0.00029011836639735832 0 -0.001974421256957285 -0.00024077999918983614 0 -0.0014313000781329944 -0.00051478834537397244 0 -0.0014678663511863159 -0.000470135019445104 0 -0.0014284758345282824 -0.00047673100156914286 0 -0.002424175074254591 2.8724514801638104e-06 0 -0.002454127936576313 -3.2941574765286901e-05 0 -0.0024351288459794527 -7.5939753914328023e-06 0 -0.00240661896725044 2.0812672642113497e-05 0 -0.0024115021818414146 1.4864366038462624e-05 0 -0.002424175074254591 2.8724514801638104e-06 0 -0.0024115021818414146 1.4864366038462624e-05 0 -0.002424175074254591 2.8724514801638104e-06 0 -0.002454127936576313 -3.2941574765286901e-05 0 -0.0024295393154309618 -1.0326363742818991e-05 0 -0.002424175074254591 2.8724514801638104e-06 0 -0.0024351288459794527 -7.5939753914328023e-06 0 -0.0014678663511863159 -0.000470135019445104 0 -0.0014284758345282824 -0.00047673100156914286 0 -0.0014550912134084961 -0.00043503999240713305 0 -0.0014081909124428226 -0.00047626377191467426 0 -0.0014284758345282824 -0.00047673100156914286 0 -0.0014080637946859557 -0.0004601376726117224 0 -0.0023930781914785057 -3.0811561199118366e-05 0 -0.0024192123024821808 -5.1136493157800214e-05 0 -0.0023401461841305753 -8.0301032775759743e-05 0 -0.0023930781914785057 -3.0811561199118366e-05 0 -0.0024192123024821808 -5.1136493157800214e-05 0 -0.0024221773710277495 -1.3699526004542071e-05 0 -0.002454127936576313 -3.2941574765286901e-05 0 -0.0024192123024821808 -5.1136493157800214e-05 0 -0.0024337624531152817 -1.6214324535145561e-05 0 -0.0024192123024821808 -5.1136493157800214e-05 0 -0.0024337624531152817 -1.6214324535145561e-05 0 -0.0024221773710277495 -1.3699526004542071e-05 0 -0.0024337624531152817 -1.6214324535145561e-05 0 -0.0024310340390893133 7.4699590057090016e-07 0 -0.0024221773710277495 -1.3699526004542071e-05 0 -0.0024337624531152817 -1.6214324535145561e-05 0 -0.0024351288459794527 -7.5939753914328023e-06 0 -0.0024310340390893133 7.4699590057090016e-07 0 -0.002454127936576313 -3.2941574765286901e-05 0 -0.0024337624531152817 -1.6214324535145561e-05 0 -0.0024351288459794527 -7.5939753914328023e-06 0 -0.0024295393154309618 -1.0326363742818991e-05 0 -0.0024351288459794527 -7.5939753914328023e-06 0 -0.0024310340390893133 7.4699590057090016e-07 0 -0.0024310340390893133 7.4699590057090016e-07 0 -0.0024221773710277495 -1.3699526004542071e-05 0 -0.002428714041463617 3.8459695047781027e-06 0 -0.0023930781914785057 -3.0811561199118366e-05 0 -0.0024221773710277495 -1.3699526004542071e-05 0 -0.002428714041463617 3.8459695047781027e-06 0 -0.0024310340390893133 7.4699590057090016e-07 0 -0.002499943857612371 5.4569655990578805e-05 0 -0.0024016027823842031 -5.1768930887921566e-05 0 -0.0024310340390893133 7.4699590057090016e-07 0 -0.002428714041463617 3.8459695047781027e-06 0 -0.002499943857612371 5.4569655990578805e-05 0 -0.002499943857612371 5.4569655990578805e-05 0 -0.0024016027823842031 -5.1768930887921566e-05 0 -0.0025060483353858869 -0.00017703163169744706 0 -0.0024295393154309618 -1.0326363742818991e-05 0 -0.0024310340390893133 7.4699590057090016e-07 0 -0.0024277455485938412 -4.076630640290972e-05 0 -0.0024310340390893133 7.4699590057090016e-07 0 -0.0024016027823842031 -5.1768930887921566e-05 0 -0.0024277455485938412 -4.076630640290972e-05 0 -0.0023994869275987094 -3.171712365046762e-05 0 -0.0024016027823842031 -5.1768930887921566e-05 0 -0.0024236789056140398 -4.1936648369296321e-05 0 -0.0024016027823842031 -5.1768930887921566e-05 0 -0.0024277455485938412 -4.076630640290972e-05 0 -0.0024236789056140398 -4.1936648369296321e-05 0 -0.0024080825456742881 -0.00040438488185277817 0 -0.0025060483353858869 -0.00017703163169744706 0 -0.0028477095947309354 -0.00037148887429049509 0 -0.0028116188461231326 -0.00018123923737975122 0 -0.0032835650540395584 -0.0002451339476182403 0 -0.0024080825456742881 -0.00040438488185277817 0 -0.0024016027823842031 -5.1768930887921566e-05 0 -0.0025060483353858869 -0.00017703163169744706 0 -0.0028116188461231326 -0.00018123923737975122 0 -0.0023479350656421942 -5.5506881102228003e-05 0 -0.002499943857612371 5.4569655990578805e-05 0 -0.0025060483353858869 -0.00017703163169744706 0 -0.0028477095947309354 -0.00037148887429049509 0 -0.002499943857612371 5.4569655990578805e-05 0 -0.0028477095947309354 -0.00037148887429049509 0 -0.0034794101393364847 -4.3475215028894016e-05 0 -0.0032835650540395584 -0.0002451339476182403 0 -0.0034708863511582499 -0.00016510226636631139 0 -0.0036214568746913227 -0.00015199115317535053 0 -0.0035085941268298781 -0.0001447451903417843 0 -0.003558877796989946 -0.00013392123082070373 0 -0.0028477095947309354 -0.00037148887429049509 0 -0.0035085941268298781 -0.0001447451903417843 0 -0.0034794101393364847 -4.3475215028894016e-05 0 -0.0035085941268298781 -0.0001447451903417843 0 -0.0034794101393364847 -4.3475215028894016e-05 0 -0.0035533067617593288 -0.00012757512247062289 0 -0.0023174070373092721 2.4789256067280769e-05 0 -0.0023557000136987514 2.6751119124892776e-05 0 -0.0023278923243543526 4.672380758482818e-05 0 -0.0023557000136987514 2.6751119124892776e-05 0 -0.0023278923243543526 4.672380758482818e-05 0 -0.0023021888843532843 -1.065174429845174e-06 0 -0.002499943857612371 5.4569655990578805e-05 0 -0.0023174070373092721 2.4789256067280769e-05 0 -0.0023557000136987514 2.6751119124892776e-05 0 -0.002499943857612371 5.4569655990578805e-05 0 -0.0023557000136987514 2.6751119124892776e-05 0 -0.0023791745964687472 1.1296016335927931e-05 0 -0.0025181644699685071 5.6296568681734079e-05 0 -0.0029287968106154567 -1.8378026162258062e-05 0 -0.002428714041463617 3.8459695047781027e-06 0 -0.002499943857612371 5.4569655990578805e-05 0 -0.0023791745964687472 1.1296016335927931e-05 0 -0.0023930781914785057 -3.0811561199118366e-05 0 -0.002428714041463617 3.8459695047781027e-06 0 -0.0023376533249527863 -2.2374035364924442e-05 0 -0.002428714041463617 3.8459695047781027e-06 0 -0.0023376533249527863 -2.2374035364924442e-05 0 -0.0023791745964687472 1.1296016335927931e-05 0 -0.0023376533249527863 -2.2374035364924442e-05 0 -0.0023791745964687472 1.1296016335927931e-05 0 -0.0023021888843532843 -1.065174429845174e-06 0 -0.0023557000136987514 2.6751119124892776e-05 0 -0.0023791745964687472 1.1296016335927931e-05 0 -0.0023021888843532843 -1.065174429845174e-06 0 -0.0023376533249527863 -2.2374035364924442e-05 0 -0.0023021888843532843 -1.065174429845174e-06 0 -0.0022304141128844813 -6.1343830644587617e-05 0 -0.0023376533249527863 -2.2374035364924442e-05 0 -0.0022304141128844813 -6.1343830644587617e-05 0 -0.0023401461841305753 -8.0301032775759743e-05 0 -0.0023930781914785057 -3.0811561199118366e-05 0 -0.0023376533249527863 -2.2374035364924442e-05 0 -0.0023401461841305753 -8.0301032775759743e-05 0 -0.0025301327104278438 0.00012084566356774871 0 -0.0025731967246628595 9.1102631757740749e-05 0 -0.0025413885899754668 6.7752432727124991e-05 0 -0.0023363376285397068 2.9935725582222893e-05 0 -0.002333936279839344 -1.2948459160462192e-05 0 -0.0022304141128844813 -6.1343830644587617e-05 0 -0.0021462290202407153 -4.829009821638276e-05 0 -0.0021265411542586003 -0.00010157675786987113 0 -0.0023021888843532843 -1.065174429845174e-06 0 -0.0022304141128844813 -6.1343830644587617e-05 0 -0.0021462290202407153 -4.829009821638276e-05 0 -0.0023234011071998056 3.9268819570685641e-05 0 -0.0023363376285397068 2.9935725582222893e-05 0 -0.0023278923243543526 4.672380758482818e-05 0 -0.0023021888843532843 -1.065174429845174e-06 0 -0.0021462290202407153 -4.829009821638276e-05 0 -0.0023278923243543526 4.672380758482818e-05 0 -0.0025301327104278438 0.00012084566356774871 0 -0.0025584896472922733 7.0234682344640025e-05 0 -0.0025301327104278438 0.00012084566356774871 0 -0.0025584896472922733 7.0234682344640025e-05 0 -0.0025731967246628595 9.1102631757740749e-05 0 -0.0025584896472922733 7.0234682344640025e-05 0 -0.002484133149091087 3.3117516001632897e-06 0 -0.0026001095911029819 1.9113751349551547e-05 0 -0.002484133149091087 3.3117516001632897e-06 0 -0.0026001095911029819 1.9113751349551547e-05 0 -0.0025627670101029112 -7.7036108920966402e-05 0 -0.0023278923243543526 4.672380758482818e-05 0 -0.0025584896472922733 7.0234682344640025e-05 0 -0.002484133149091087 3.3117516001632897e-06 0 -0.0023174070373092721 2.4789256067280769e-05 0 -0.0023278923243543526 4.672380758482818e-05 0 -0.002484133149091087 3.3117516001632897e-06 0 -0.0034794101393364847 -4.3475215028894016e-05 0 -0.0035533067617593288 -0.00012757512247062289 0 -0.0036321426918592748 -0.00011794180988573332 0 -0.0029287968106154567 -1.8378026162258062e-05 0 -0.002943484108078855 -0.00011746038523133312 0 -0.0023174070373092721 2.4789256067280769e-05 0 -0.002484133149091087 3.3117516001632897e-06 0 -0.002554959996966988 -0.00010081993149584356 0 -0.0035085941268298781 -0.0001447451903417843 0 -0.0035533067617593288 -0.00012757512247062289 0 -0.003558877796989946 -0.00013392123082070373 0 -0.0035533067617593288 -0.00012757512247062289 0 -0.0036321426918592748 -0.00011794180988573332 0 -0.0036015215538506193 -0.0001308834190418795 0 -0.0026001095911029819 1.9113751349551547e-05 0 -0.0025627670101029112 -7.7036108920966402e-05 0 -0.0026877577507568935 -7.8963649252554567e-06 0 -0.0024952703218108219 6.9987743618899739e-05 0 -0.002943484108078855 -0.00011746038523133312 0 -0.0036321426918592748 -0.00011794180988573332 0 -0.0036015215538506193 -0.0001308834190418795 0 -0.0036188346918995793 -0.00013062390998237153 0 -0.0036321426918592748 -0.00011794180988573332 0 -0.0036188346918995793 -0.00013062390998237153 0 -0.0036327520943629436 -0.0001281703191108444 0 -0.0036015215538506193 -0.0001308834190418795 0 -0.0036188346918995793 -0.00013062390998237153 0 -0.0035930426031811776 -0.00013455965387152111 0 -0.0036188346918995793 -0.00013062390998237153 0 -0.0036127666587143534 -0.00013086859514592372 0 -0.0035930426031811776 -0.00013455965387152111 0 -0.0036188346918995793 -0.00013062390998237153 0 -0.0036127666587143534 -0.00013086859514592372 0 -0.0036222234119696415 -0.00012933073516001594 0 -0.0036127666587143534 -0.00013086859514592372 0 -0.0036154337716950572 -0.00012499469677919247 0 -0.0036203798180162563 -0.00011753658219025581 0 -0.0036127666587143534 -0.00013086859514592372 0 -0.0036154337716950572 -0.00012499469677919247 0 -0.0036222234119696415 -0.00012933073516001594 0 -0.0036081933508129139 -0.00012768172437027341 0 -0.0036263146959893528 -0.00011589955001315601 0 -0.0036203798180162563 -0.00011753658219025581 0 -0.0036127666587143534 -0.00013086859514592372 0 -0.0036081933508129139 -0.00012768172437027341 0 -0.0036203798180162563 -0.00011753658219025581 0 -0.0036081933508129139 -0.00012768172437027341 0 -0.0035939604629756667 -0.00012992001674596584 0 -0.0036263146959893528 -0.00011589955001315601 0 -0.0036081933508129139 -0.00012768172437027341 0 -0.0035939604629756667 -0.00012992001674596584 0 -0.0035930426031811776 -0.00013455965387152111 0 -0.0036127666587143534 -0.00013086859514592372 0 -0.0036081933508129139 -0.00012768172437027341 0 -0.0035930426031811776 -0.00013455965387152111 0 -0.0035533067617593288 -0.00012757512247062289 0 -0.0036015215538506193 -0.0001308834190418795 0 -0.0035930426031811776 -0.00013455965387152111 0 -0.0035939604629756667 -0.00012992001674596584 0 -0.0035930426031811776 -0.00013455965387152111 0 -0.003558877796989946 -0.00013392123082070373 0 -0.0035533067617593288 -0.00012757512247062289 0 -0.0035930426031811776 -0.00013455965387152111 0 -0.003558877796989946 -0.00013392123082070373 0 -0.0036214568746913227 -0.00015199115317535053 0 -0.003558877796989946 -0.00013392123082070373 0 -0.0036059947460711562 -0.0001233540703739581 0 -0.0035939604629756667 -0.00012992001674596584 0 -0.003558877796989946 -0.00013392123082070373 0 -0.0036059947460711562 -0.0001233540703739581 0 -0.0036565038119622949 -0.00014166248335941941 0 -0.0036214568746913227 -0.00015199115317535053 0 -0.0036361966798200726 -0.00012566287266203052 0 -0.0036214568746913227 -0.00015199115317535053 0 -0.0036059947460711562 -0.0001233540703739581 0 -0.0036361966798200726 -0.00012566287266203052 0 -0.0036595682205194779 -0.00011014317089000663 0 -0.003640822555659797 -0.00011196461325129413 0 -0.0036642379105422036 -9.5155639405780309e-05 0 -0.0036595682205194779 -0.00011014317089000663 0 -0.0036361966798200726 -0.00012566287266203052 0 -0.003640822555659797 -0.00011196461325129413 0 -0.0036059947460711562 -0.0001233540703739581 0 -0.0036361966798200726 -0.00012566287266203052 0 -0.003640822555659797 -0.00011196461325129413 0 -0.0035939604629756667 -0.00012992001674596584 0 -0.0036059947460711562 -0.0001233540703739581 0 -0.0036263146959893528 -0.00011589955001315601 0 -0.0036059947460711562 -0.0001233540703739581 0 -0.003640822555659797 -0.00011196461325129413 0 -0.0036263146959893528 -0.00011589955001315601 0 -0.003640822555659797 -0.00011196461325129413 0 -0.0036263146959893528 -0.00011589955001315601 0 -0.0036642379105422036 -9.5155639405780309e-05 0 -0.0036263146959893528 -0.00011589955001315601 0 -0.0036522607671290682 -9.6100046604651797e-05 0 -0.0036642379105422036 -9.5155639405780309e-05 0 -0.0036522607671290682 -9.6100046604651797e-05 0 -0.0036642379105422036 -9.5155639405780309e-05 0 -0.0036886176242496732 -7.2408041117348094e-05 0 -0.0036595682205194779 -0.00011014317089000663 0 -0.0036642379105422036 -9.5155639405780309e-05 0 -0.0036926554799967463 -7.6662414405018986e-05 0 -0.0032708079276643565 -0.00029694143054692239 0 -0.0032113363489038164 -0.00026483227098827013 0 -0.0036642379105422036 -9.5155639405780309e-05 0 -0.0036926554799967463 -7.6662414405018986e-05 0 -0.0036886176242496732 -7.2408041117348094e-05 0 -0.0037351437643698706 -2.9822306936305396e-05 0 -0.0037358836847695047 -2.890500387340089e-05 0 -0.0036926554799967463 -7.6662414405018986e-05 0 -0.0035082638896320943 -0.00018268634250051243 0 -0.0032113363489038164 -0.00026483227098827013 0 -0.0037351437643698706 -2.9822306936305396e-05 0 -0.0036926554799967463 -7.6662414405018986e-05 0 -0.0036886176242496732 -7.2408041117348094e-05 0 -0.0027909418222107183 -0.00049063996570358499 0 -0.0027712140098938454 -0.00047372041949011773 0 -0.0027898923430833109 -0.00046388616418854492 0 -0.0036522607671290682 -9.6100046604651797e-05 0 -0.0036886176242496732 -7.2408041117348094e-05 0 -0.003660905306597247 -5.7248203348236481e-05 0 -0.0037351437643698706 -2.9822306936305396e-05 0 -0.0036886176242496732 -7.2408041117348094e-05 0 -0.003660905306597247 -5.7248203348236481e-05 0 -0.0036367189452786741 1.7746502423749305e-05 0 -0.003660905306597247 -5.7248203348236481e-05 0 -0.0035965850381536268 -9.8789233368805609e-05 0 -0.003660905306597247 -5.7248203348236481e-05 0 -0.0035965850381536268 -9.8789233368805609e-05 0 -0.0036331215850012402 -9.3375452118474393e-05 0 -0.0036522607671290682 -9.6100046604651797e-05 0 -0.003660905306597247 -5.7248203348236481e-05 0 -0.0036331215850012402 -9.3375452118474393e-05 0 -0.003758397007258496 1.6553949639734093e-05 0 -0.0036933081803801745 -8.3358830031887674e-05 0 -0.0035965850381536268 -9.8789233368805609e-05 0 -0.0036154337716950572 -0.00012499469677919247 0 -0.0036203798180162563 -0.00011753658219025581 0 -0.0035965850381536268 -9.8789233368805609e-05 0 -0.0036203798180162563 -0.00011753658219025581 0 -0.0036331215850012402 -9.3375452118474393e-05 0 -0.0036263146959893528 -0.00011589955001315601 0 -0.0036522607671290682 -9.6100046604651797e-05 0 -0.0036203798180162563 -0.00011753658219025581 0 -0.0036522607671290682 -9.6100046604651797e-05 0 -0.0036203798180162563 -0.00011753658219025581 0 -0.0036331215850012402 -9.3375452118474393e-05 0 -0.0036453402753068077 -0.00014671458372141478 0 -0.0036862145192731325 -0.00010387005295151805 0 -0.0036901989577484942 -4.7357725591436822e-05 0 -0.0036453402753068077 -0.00014671458372141478 0 -0.0036862145192731325 -0.00010387005295151805 0 -0.0036485915877791041 -0.00014114303578469036 0 -0.0036933081803801745 -8.3358830031887674e-05 0 -0.0036542577913011914 -0.00013451290245749021 0 -0.0035965850381536268 -9.8789233368805609e-05 0 -0.0036154337716950572 -0.00012499469677919247 0 -0.0036485915877791041 -0.00014114303578469036 0 -0.0037857310870828445 -7.7487373300943216e-05 0 -0.0036862145192731325 -0.00010387005295151805 0 -0.0036485915877791041 -0.00014114303578469036 0 -0.0037860234009607697 1.2205409000118575e-06 0 -0.0037857310870828445 -7.7487373300943216e-05 0 -0.0036901989577484942 -4.7357725591436822e-05 0 -0.0037857310870828445 -7.7487373300943216e-05 0 -0.0036862145192731325 -0.00010387005295151805 0 -0.0036901989577484942 -4.7357725591436822e-05 0 -0.0036453402753068077 -0.00014671458372141478 0 -0.0036901989577484942 -4.7357725591436822e-05 0 -0.0035189896324882911 -4.7851813320470908e-05 0 -0.0036831583454003569 8.9553754417184042e-06 0 -0.0036901989577484942 -4.7357725591436822e-05 0 -0.0035189896324882911 -4.7851813320470908e-05 0 -0.0035189896324882911 -4.7851813320470908e-05 0 -0.0032625049081703495 -5.0895482461449568e-05 0 -0.0035170670622455213 -6.6280539698933037e-07 0 -0.0036881816824198962 -1.126984281716723e-05 0 -0.0035189896324882911 -4.7851813320470908e-05 0 -0.0035170670622455213 -6.6280539698933037e-07 0 -0.0032625049081703495 -5.0895482461449568e-05 0 -0.0031700032857999525 -5.6626879922117852e-05 0 -0.0035170670622455213 -6.6280539698933037e-07 0 -0.0030895454343496226 -8.9355429983941994e-05 0 -0.0035189896324882911 -4.7851813320470908e-05 0 -0.0032625049081703495 -5.0895482461449568e-05 0 -0.0033582775184819737 -9.5016596361197688e-05 0 -0.0034836618635558981 -5.0356234224907011e-05 0 -0.0031134998597397556 -5.3262331873243777e-05 0 -0.0030510767817322694 -5.3912335541967382e-05 0 -0.0029948073310704214 -4.8154862371392754e-05 0 -0.0032625049081703495 -5.0895482461449568e-05 0 -0.0031134998597397556 -5.3262331873243777e-05 0 -0.0030510767817322694 -5.3912335541967382e-05 0 -0.0030895454343496226 -8.9355429983941994e-05 0 -0.0032625049081703495 -5.0895482461449568e-05 0 -0.0031134998597397556 -5.3262331873243777e-05 0 -0.0032625049081703495 -5.0895482461449568e-05 0 -0.0031700032857999525 -5.6626879922117852e-05 0 -0.0030510767817322694 -5.3912335541967382e-05 0 -0.0030510767817322694 -5.3912335541967382e-05 0 -0.0028988971372261767 -4.0256847901363395e-05 0 -0.0029889035680991101 -7.9726249930379698e-05 0 -0.0031700032857999525 -5.6626879922117852e-05 0 -0.0030510767817322694 -5.3912335541967382e-05 0 -0.0029889035680991101 -7.9726249930379698e-05 0 -0.0030510767817322694 -5.3912335541967382e-05 0 -0.0029948073310704214 -4.8154862371392754e-05 0 -0.0028855343735440294 -3.7323176221938214e-05 0 -0.0030510767817322694 -5.3912335541967382e-05 0 -0.0028855343735440294 -3.7323176221938214e-05 0 -0.0028988971372261767 -4.0256847901363395e-05 0 -0.0029948073310704214 -4.8154862371392754e-05 0 -0.0028591150797862264 -5.4823122568452092e-05 0 -0.0028132291378918975 -5.4582009075186823e-05 0 -0.0029948073310704214 -4.8154862371392754e-05 0 -0.0028132291378918975 -5.4582009075186823e-05 0 -0.0028855343735440294 -3.7323176221938214e-05 0 -0.0033582775184819737 -9.5016596361197688e-05 0 -0.0032953073753924115 -9.7283892440497787e-05 0 -0.0030895454343496226 -8.9355429983941994e-05 0 -0.0029948073310704214 -4.8154862371392754e-05 0 -0.0028591150797862264 -5.4823122568452092e-05 0 -0.0036453402753068077 -0.00014671458372141478 0 -0.0036485915877791041 -0.00014114303578469036 0 -0.0036327520943629436 -0.0001281703191108444 0 -0.0030895454343496226 -8.9355429983941994e-05 0 -0.0031134998597397556 -5.3262331873243777e-05 0 -0.0029948073310704214 -4.8154862371392754e-05 0 -0.0036154337716950572 -0.00012499469677919247 0 -0.0036485915877791041 -0.00014114303578469036 0 -0.0036222234119696415 -0.00012933073516001594 0 -0.0036485915877791041 -0.00014114303578469036 0 -0.0036222234119696415 -0.00012933073516001594 0 -0.0036327520943629436 -0.0001281703191108444 0 -0.002943484108078855 -0.00011746038523133312 0 -0.0032953073753924115 -9.7283892440497787e-05 0 -0.0028463204341632859 -6.4813658930203401e-05 0 -0.0028591150797862264 -5.4823122568452092e-05 0 -0.0028132291378918975 -5.4582009075186823e-05 0 -0.0036188346918995793 -0.00013062390998237153 0 -0.0036222234119696415 -0.00012933073516001594 0 -0.0036327520943629436 -0.0001281703191108444 0 -0.002943484108078855 -0.00011746038523133312 0 -0.0027035607333957888 -3.8192981765424358e-05 0 -0.0025627670101029112 -7.7036108920966402e-05 0 -0.0028132291378918975 -5.4582009075186823e-05 0 -0.0026877577507568935 -7.8963649252554567e-06 0 -0.0028132291378918975 -5.4582009075186823e-05 0 -0.0026877577507568935 -7.8963649252554567e-06 0 -0.0027683468989986668 -9.2697675308463108e-06 0 -0.0027683468989986668 -9.2697675308463108e-06 0 -0.0027776419190583806 2.5787110223544995e-07 0 -0.0028855343735440294 -3.7323176221938214e-05 0 -0.0028132291378918975 -5.4582009075186823e-05 0 -0.0027683468989986668 -9.2697675308463108e-06 0 -0.0028855343735440294 -3.7323176221938214e-05 0 -0.0026535049542377631 5.0739947734593593e-05 0 -0.0026759697895333903 3.8993271835286009e-05 0 -0.0027776419190583806 2.5787110223544995e-07 0 -0.0027683468989986668 -9.2697675308463108e-06 0 -0.0026535049542377631 5.0739947734593593e-05 0 -0.0027776419190583806 2.5787110223544995e-07 0 -0.0026877577507568935 -7.8963649252554567e-06 0 -0.0027683468989986668 -9.2697675308463108e-06 0 -0.0026535049542377631 5.0739947734593593e-05 0 -0.0025584896472922733 7.0234682344640025e-05 0 -0.0026001095911029819 1.9113751349551547e-05 0 -0.0026535049542377631 5.0739947734593593e-05 0 -0.0026001095911029819 1.9113751349551547e-05 0 -0.0026877577507568935 -7.8963649252554567e-06 0 -0.0026535049542377631 5.0739947734593593e-05 0 -0.0025584896472922733 7.0234682344640025e-05 0 -0.0026535049542377631 5.0739947734593593e-05 0 -0.0025731967246628595 9.1102631757740749e-05 0 -0.0026535049542377631 5.0739947734593593e-05 0 -0.0025661308537453312 7.7370628170701111e-05 0 -0.0025731967246628595 9.1102631757740749e-05 0 -0.0026535049542377631 5.0739947734593593e-05 0 -0.0025661308537453312 7.7370628170701111e-05 0 -0.0026759697895333903 3.8993271835286009e-05 0 -0.0025661308537453312 7.7370628170701111e-05 0 -0.0025731967246628595 9.1102631757740749e-05 0 -0.0025413885899754668 6.7752432727124991e-05 0 -0.0026106547809516679 5.3121809988009031e-06 0 -0.0025866769581785387 1.3476233973660585e-05 0 -0.0024338445245226503 2.1460634716559579e-05 0 -0.0025661308537453312 7.7370628170701111e-05 0 -0.0026104794675810231 5.6638985579988826e-05 0 -0.0024294334882117175 4.2534751635931382e-05 0 -0.0025661308537453312 7.7370628170701111e-05 0 -0.0026104794675810231 5.6638985579988826e-05 0 -0.0026759697895333903 3.8993271835286009e-05 0 -0.0026128493911452212 2.936237271258426e-05 0 -0.0027431472740558041 -6.2232806320188315e-06 0 -0.0026104794675810231 5.6638985579988826e-05 0 -0.0026759697895333903 3.8993271835286009e-05 0 -0.0027778019897014596 -7.1655924310384907e-06 0 -0.0026106547809516679 5.3121809988009031e-06 0 -0.0027778019897014596 -7.1655924310384907e-06 0 -0.0027414950668704489 3.526307937421024e-06 0 -0.0026759697895333903 3.8993271835286009e-05 0 -0.0027778019897014596 -7.1655924310384907e-06 0 -0.0027776419190583806 2.5787110223544995e-07 0 -0.0027778019897014596 -7.1655924310384907e-06 0 -0.0027776419190583806 2.5787110223544995e-07 0 -0.0028988971372261767 -4.0256847901363395e-05 0 -0.0027776419190583806 2.5787110223544995e-07 0 -0.0028855343735440294 -3.7323176221938214e-05 0 -0.0028988971372261767 -4.0256847901363395e-05 0 -0.0027778019897014596 -7.1655924310384907e-06 0 -0.0028988971372261767 -4.0256847901363395e-05 0 -0.0029889035680991101 -7.9726249930379698e-05 0 -0.0027778019897014596 -7.1655924310384907e-06 0 -0.0028885562302359436 -6.0167343369814165e-05 0 -0.0029889035680991101 -7.9726249930379698e-05 0 -0.0028885562302359436 -6.0167343369814165e-05 0 -0.0029710594030445989 -0.00011119474112360897 0 -0.0029889035680991101 -7.9726249930379698e-05 0 -0.0028885562302359436 -6.0167343369814165e-05 0 -0.0029333050112945029 -4.9105995214926743e-05 0 -0.0029710594030445989 -0.00011119474112360897 0 -0.0028885562302359436 -6.0167343369814165e-05 0 -0.0027414950668704489 3.526307937421024e-06 0 -0.0029333050112945029 -4.9105995214926743e-05 0 -0.0027778019897014596 -7.1655924310384907e-06 0 -0.0028885562302359436 -6.0167343369814165e-05 0 -0.0027414950668704489 3.526307937421024e-06 0 -0.0027414950668704489 3.526307937421024e-06 0 -0.002653929462846909 2.7467534275065514e-05 0 -0.0029157566819148959 1.7971883620671649e-05 0 -0.0027414950668704489 3.526307937421024e-06 0 -0.0029157566819148959 1.7971883620671649e-05 0 -0.0029333050112945029 -4.9105995214926743e-05 0 -0.0027414950668704489 3.526307937421024e-06 0 -0.002653929462846909 2.7467534275065514e-05 0 -0.0025866769581785387 1.3476233973660585e-05 0 -0.0026106547809516679 5.3121809988009031e-06 0 -0.0027414950668704489 3.526307937421024e-06 0 -0.0025866769581785387 1.3476233973660585e-05 0 -0.0026091923513178006 1.2807518078582868e-07 0 -0.0026307197124414501 2.2587903773488582e-05 0 -0.0025484128233312976 1.4402053955131801e-05 0 -0.002653929462846909 2.7467534275065514e-05 0 -0.0026307197124414501 2.2587903773488582e-05 0 -0.0026637771526992105 1.8729431501410737e-05 0 -0.002653929462846909 2.7467534275065514e-05 0 -0.0026307197124414501 2.2587903773488582e-05 0 -0.0025484128233312976 1.4402053955131801e-05 0 -0.0026307197124414501 2.2587903773488582e-05 0 -0.0026637771526992105 1.8729431501410737e-05 0 -0.0027195896792220325 1.891346792081171e-05 0 -0.0026865403029027058 2.6243374702529491e-05 0 -0.0027941651013386314 9.3122195026565498e-06 0 -0.0026091923513178006 1.2807518078582868e-07 0 -0.0027195896792220325 1.891346792081171e-05 0 -0.0028631510371760912 1.5577845042534437e-08 0 -0.0026091923513178006 1.2807518078582868e-07 0 -0.0026307197124414501 2.2587903773488582e-05 0 -0.0027195896792220325 1.891346792081171e-05 0 -0.0030993372652377074 -7.6539632032781085e-05 0 -0.0031176848361123754 -1.6935250198599885e-07 0 -0.0033728060296788222 2.0834885190220098e-05 0 -0.0027195896792220325 1.891346792081171e-05 0 -0.0028261039616256441 -1.8816446507280925e-05 0 -0.0028631510371760912 1.5577845042534437e-08 0 -0.0027941651013386314 9.3122195026565498e-06 0 -0.002964141193456421 -3.0155591436016324e-05 0 -0.0029157566819148959 1.7971883620671649e-05 0 -0.0031107655474494375 -6.985072838618606e-05 0 -0.0030993372652377074 -7.6539632032781085e-05 0 -0.0026637771526992105 1.8729431501410737e-05 0 -0.0027195896792220325 1.891346792081171e-05 0 -0.0028261039616256441 -1.8816446507280925e-05 0 -0.0029157566819148959 1.7971883620671649e-05 0 -0.0029333050112945029 -4.9105995214926743e-05 0 -0.0030993372652377074 -7.6539632032781085e-05 0 -0.0031134482707821124 -6.6488600164218661e-05 0 -0.0031803055000589392 -3.8894452701836464e-05 0 -0.0029333050112945029 -4.9105995214926743e-05 0 -0.0030993372652377074 -7.6539632032781085e-05 0 -0.0029710594030445989 -0.00011119474112360897 0 -0.0031107655474494375 -6.985072838618606e-05 0 -0.0030993372652377074 -7.6539632032781085e-05 0 -0.0031176848361123754 -1.6935250198599885e-07 0 -0.0028261039616256441 -1.8816446507280925e-05 0 -0.0028631510371760912 1.5577845042534437e-08 0 -0.0031167502906616594 -1.0866685334647537e-07 0 -0.002964141193456421 -3.0155591436016324e-05 0 -0.0031168918918513424 -1.1942328305456316e-09 0 -0.0037957975284510321 1.713378825218415e-07 0 -0.0031176848361123754 -1.6935250198599885e-07 0 -0.0033728060296788222 2.0834885190220098e-05 0 -0.0029710594030445989 -0.00011119474112360897 0 -0.0029889035680991101 -7.9726249930379698e-05 0 -0.0030982403342664899 -5.1018524758318008e-05 0 -0.0031700032857999525 -5.6626879922117852e-05 0 -0.0029889035680991101 -7.9726249930379698e-05 0 -0.0030982403342664899 -5.1018524758318008e-05 0 -0.0031803055000589392 -3.8894452701836464e-05 0 -0.0033295158446024872 -1.3474384596813869e-05 0 -0.0038066246945804715 -5.2680501734071188e-06 0 -0.0035550597173112063 4.1605488524287252e-05 0 -0.0035170670622455213 -6.6280539698933037e-07 0 -0.0033295158446024872 -1.3474384596813869e-05 0 -0.0034804788516793802 -5.7490548356697247e-06 0 -0.0031700032857999525 -5.6626879922117852e-05 0 -0.0030982403342664899 -5.1018524758318008e-05 0 -0.0035170670622455213 -6.6280539698933037e-07 0 -0.0037957975284510321 1.713378825218415e-07 0 -0.0033728060296788222 2.0834885190220098e-05 0 -0.0035550597173112063 4.1605488524287252e-05 0 -0.0037957975284510321 1.713378825218415e-07 0 -0.0038066246945804715 -5.2680501734071188e-06 0 -0.0035550597173112063 4.1605488524287252e-05 0 -0.00158530322070055 3.8164605897709659e-05 0 -0.0016115930044014524 4.3956559423538307e-05 0 -0.0012895779346377026 4.5223406396703854e-09 0 -0.00158530322070055 3.8164605897709659e-05 0 -0.0016115930044014524 4.3956559423538307e-05 0 -0.0017148078584774322 6.0585551108611373e-05 0 -0.00158530322070055 3.8164605897709659e-05 0 -0.0012895779346377026 4.5223406396703854e-09 0 -0.0015741127329530387 1.9718999072217211e-07 0 -0.0016115930044014524 4.3956559423538307e-05 0 -0.0012895779346377026 4.5223406396703854e-09 0 -0.0014160645340996637 2.9442598904566382e-05 0 -0.0016115930044014524 4.3956559423538307e-05 0 -0.0016589432607194547 4.0167177115666402e-05 0 -0.0017570475732156935 5.4351520947466929e-05 0 -0.0016115930044014524 4.3956559423538307e-05 0 -0.0016589432607194547 4.0167177115666402e-05 0 -0.0014160645340996637 2.9442598904566382e-05 0 -0.0016589432607194547 4.0167177115666402e-05 0 -0.0017570475732156935 5.4351520947466929e-05 0 -0.0017877372274364318 5.2767182961788987e-05 0 -0.0016589432607194547 4.0167177115666402e-05 0 -0.0017877372274364318 5.2767182961788987e-05 0 -0.0017612352089539287 3.057873659030684e-05 0 -0.0017570475732156935 5.4351520947466929e-05 0 -0.0018547031867443709 6.3720358093074663e-05 0 -0.0018489559129352469 6.7826890890462988e-05 0 -0.0017570475732156935 5.4351520947466929e-05 0 -0.0018547031867443709 6.3720358093074663e-05 0 -0.0017877372274364318 5.2767182961788987e-05 0 -0.0016115930044014524 4.3956559423538307e-05 0 -0.0017570475732156935 5.4351520947466929e-05 0 -0.0018489559129352469 6.7826890890462988e-05 0 -0.0016115930044014524 4.3956559423538307e-05 0 -0.0018489559129352469 6.7826890890462988e-05 0 -0.0017148078584774322 6.0585551108611373e-05 0 -0.0018489559129352469 6.7826890890462988e-05 0 -0.0018653419851911938 8.8728420353978359e-05 0 -0.0017148078584774322 6.0585551108611373e-05 0 -0.0018547031867443709 6.3720358093074663e-05 0 -0.0018489559129352469 6.7826890890462988e-05 0 -0.0019735640077985627 8.0968944162412642e-05 0 -0.0018489559129352469 6.7826890890462988e-05 0 -0.0020817645441373613 0.00011289752452269839 0 -0.0019735640077985627 8.0968944162412642e-05 0 -0.0018489559129352469 6.7826890890462988e-05 0 -0.0018653419851911938 8.8728420353978359e-05 0 -0.0020817645441373613 0.00011289752452269839 0 -0.0018653419851911938 8.8728420353978359e-05 0 -0.0017148078584774322 6.0585551108611373e-05 0 -0.001644862944221358 8.1465857816842604e-05 0 -0.0018653419851911938 8.8728420353978359e-05 0 -0.0018312867650032993 1.3288363151786702e-05 0 -0.0019380214888247321 5.6456476908632217e-05 0 -0.0018362983673914657 8.158735462426244e-05 0 -0.0017394282565850871 5.1253063459686486e-05 0 -0.00158530322070055 3.8164605897709659e-05 0 -0.0017148078584774322 6.0585551108611373e-05 0 -0.001644862944221358 8.1465857816842604e-05 0 -0.0015747337601836288 -1.4450255942742219e-07 0 -0.0018312867650032993 1.3288363151786702e-05 0 -0.0018347591921864385 1.4820917512717845e-07 0 -0.00158530322070055 3.8164605897709659e-05 0 -0.0015741127329530387 1.9718999072217211e-07 0 -0.001644862944221358 8.1465857816842604e-05 0 -0.0015745047158575172 2.5160860964427864e-08 0 -0.0017394282565850871 5.1253063459686486e-05 0 -0.0018312867650032993 1.3288363151786702e-05 0 -0.0018347591921864385 1.4820917512717845e-07 0 -0.0019380214888247321 5.6456476908632217e-05 0 -0.0018347591921864385 1.4820917512717845e-07 0 -0.0019380214888247321 5.6456476908632217e-05 0 -0.0020951834734744107 1.2048588629254792e-07 0 -0.0018653419851911938 8.8728420353978359e-05 0 -0.0019380214888247321 5.6456476908632217e-05 0 -0.0019176216786893929 9.3606873736110289e-05 0 -0.0019380214888247321 5.6456476908632217e-05 0 -0.0020303939207172031 -8.5310465324759385e-06 0 -0.0019176216786893929 9.3606873736110289e-05 0 -0.0025073952008527784 -1.2749827519135236e-05 0 -0.0024714897318059764 1.2586421931572893e-05 0 -0.0024124823337360862 8.413883006683955e-05 0 -0.0022615194106121502 6.5991317264919103e-06 0 -0.0021702484274127246 7.627236727252815e-05 0 -0.0019380214888247321 5.6456476908632217e-05 0 -0.0020951834734744107 1.2048588629254792e-07 0 -0.0020303939207172031 -8.5310465324759385e-06 0 -0.0020951834734744107 1.2048588629254792e-07 0 -0.0020303939207172031 -8.5310465324759385e-06 0 -0.002355185901103298 -2.0061881696577384e-07 0 -0.0025073952008527784 -1.2749827519135236e-05 0 -0.0025484128233312976 1.4402053955131801e-05 0 -0.002356140010492259 -1.1169120035517559e-07 0 -0.0022615194106121502 6.5991317264919103e-06 0 -0.0023554733294577062 1.8347619052800207e-08 0 -0.0025073952008527784 -1.2749827519135236e-05 0 -0.0025484128233312976 1.4402053955131801e-05 0 -0.0024714897318059764 1.2586421931572893e-05 0 -0.0026091923513178006 1.2807518078582868e-07 0 -0.0025484128233312976 1.4402053955131801e-05 0 -0.002356140010492259 -1.1169120035517559e-07 0 -0.0025866769581785387 1.3476233973660585e-05 0 -0.0024945317990298478 1.0951104852750264e-05 0 -0.0024338445245226503 2.1460634716559579e-05 0 -0.002653929462846909 2.7467534275065514e-05 0 -0.0025866769581785387 1.3476233973660585e-05 0 -0.0024945317990298478 1.0951104852750264e-05 0 -0.002653929462846909 2.7467534275065514e-05 0 -0.0025484128233312976 1.4402053955131801e-05 0 -0.0024945317990298478 1.0951104852750264e-05 0 -0.0025484128233312976 1.4402053955131801e-05 0 -0.0024945317990298478 1.0951104852750264e-05 0 -0.0024714897318059764 1.2586421931572893e-05 0 -0.0024945317990298478 1.0951104852750264e-05 0 -0.0024714897318059764 1.2586421931572893e-05 0 -0.0022904703973531944 5.9251108248974751e-05 0 -0.0024945317990298478 1.0951104852750264e-05 0 -0.0022904703973531944 5.9251108248974751e-05 0 -0.0024338445245226503 2.1460634716559579e-05 0 -0.0022904703973531944 5.9251108248974751e-05 0 -0.0024124823337360862 8.413883006683955e-05 0 -0.0020817645441373613 0.00011289752452269839 0 -0.0024714897318059764 1.2586421931572893e-05 0 -0.0022904703973531944 5.9251108248974751e-05 0 -0.0024124823337360862 8.413883006683955e-05 0 -0.0018653419851911938 8.8728420353978359e-05 0 -0.0019176216786893929 9.3606873736110289e-05 0 -0.0020817645441373613 0.00011289752452269839 0 -0.0021702484274127246 7.627236727252815e-05 0 -0.0021054175071135856 0.00010450949862372841 0 -0.0021476867141976587 8.2057123279926703e-05 0 -0.0022713221460363337 4.0118191306938909e-05 0 -0.0022904703973531944 5.9251108248974751e-05 0 -0.0020817645441373613 0.00011289752452269839 0 -0.0021147599697425453 8.4812613152584113e-05 0 -0.0021147599697425453 8.4812613152584113e-05 0 -0.0021521561076601661 4.4918425074127657e-05 0 -0.0020516533336542974 6.7698445531323424e-05 0 -0.0021147599697425453 8.4812613152584113e-05 0 -0.0022857095477807226 2.0679761346936152e-05 0 -0.0021521561076601661 4.4918425074127657e-05 0 -0.0022857095477807226 2.0679761346936152e-05 0 -0.0022773233164497053 -6.2138197559097882e-06 0 -0.0021521561076601661 4.4918425074127657e-05 0 -0.0022904703973531944 5.9251108248974751e-05 0 -0.0021147599697425453 8.4812613152584113e-05 0 -0.0022616146318247678 5.607246877385166e-05 0 -0.0022713221460363337 4.0118191306938909e-05 0 -0.0024385655970310645 3.2563250365570879e-05 0 -0.0022904703973531944 5.9251108248974751e-05 0 -0.0022616146318247678 5.607246877385166e-05 0 -0.0024338445245226503 2.1460634716559579e-05 0 -0.0022857095477807226 2.0679761346936152e-05 0 -0.0024414433445738644 4.211041928041322e-05 0 -0.0024294334882117175 4.2534751635931382e-05 0 -0.0022857095477807226 2.0679761346936152e-05 0 -0.0024294334882117175 4.2534751635931382e-05 0 -0.0022773233164497053 -6.2138197559097882e-06 0 -0.0026104794675810231 5.6638985579988826e-05 0 -0.0024414433445738644 4.211041928041322e-05 0 -0.0024294334882117175 4.2534751635931382e-05 0 -0.0026128493911452212 2.936237271258426e-05 0 -0.0024385655970310645 3.2563250365570879e-05 0 -0.0025661308537453312 7.7370628170701111e-05 0 -0.0025413885899754668 6.7752432727124991e-05 0 -0.0024294334882117175 4.2534751635931382e-05 0 -0.0025413885899754668 6.7752432727124991e-05 0 -0.0024294334882117175 4.2534751635931382e-05 0 -0.0022773233164497053 -6.2138197559097882e-06 0 -0.002333936279839344 -1.2948459160462192e-05 0 -0.0022924474648131133 -4.8705634747409487e-06 0 -0.0021334304273229378 -0.00011244519696794351 0 -0.0022773233164497053 -6.2138197559097882e-06 0 -0.0020926145719262477 -6.1715930347075855e-05 0 -0.0022773233164497053 -6.2138197559097882e-06 0 -0.0020917231795441775 1.6368861853812235e-05 0 -0.0020926145719262477 -6.1715930347075855e-05 0 -0.0022773233164497053 -6.2138197559097882e-06 0 -0.0021521561076601661 4.4918425074127657e-05 0 -0.0020917231795441775 1.6368861853812235e-05 0 -0.0021521561076601661 4.4918425074127657e-05 0 -0.0020217716488935109 4.8504739751493767e-05 0 -0.0020516533336542974 6.7698445531323424e-05 0 -0.0021521561076601661 4.4918425074127657e-05 0 -0.0020917231795441775 1.6368861853812235e-05 0 -0.0020217716488935109 4.8504739751493767e-05 0 -0.0020217716488935109 4.8504739751493767e-05 0 -0.0019635108671812408 6.6517109042331209e-05 0 -0.0020516533336542974 6.7698445531323424e-05 0 -0.0020217716488935109 4.8504739751493767e-05 0 -0.0019635108671812408 6.6517109042331209e-05 0 -0.0019399587218381844 5.8862977871520967e-05 0 -0.0019635108671812408 6.6517109042331209e-05 0 -0.0020516533336542974 6.7698445531323424e-05 0 -0.0019574958011506164 7.1095833476445396e-05 0 -0.0021147599697425453 8.4812613152584113e-05 0 -0.0020516533336542974 6.7698445531323424e-05 0 -0.002026776432435309 7.7753767359067807e-05 0 -0.0021147599697425453 8.4812613152584113e-05 0 -0.002026776432435309 7.7753767359067807e-05 0 -0.0019735640077985627 8.0968944162412642e-05 0 -0.0020516533336542974 6.7698445531323424e-05 0 -0.002026776432435309 7.7753767359067807e-05 0 -0.0019574958011506164 7.1095833476445396e-05 0 -0.0020817645441373613 0.00011289752452269839 0 -0.0021147599697425453 8.4812613152584113e-05 0 -0.0019735640077985627 8.0968944162412642e-05 0 -0.0018547031867443709 6.3720358093074663e-05 0 -0.0019735640077985627 8.0968944162412642e-05 0 -0.0018691734392180699 5.9804560536248458e-05 0 -0.0019735640077985627 8.0968944162412642e-05 0 -0.0019574958011506164 7.1095833476445396e-05 0 -0.0018691734392180699 5.9804560536248458e-05 0 -0.002026776432435309 7.7753767359067807e-05 0 -0.0019735640077985627 8.0968944162412642e-05 0 -0.0019574958011506164 7.1095833476445396e-05 0 -0.0019574958011506164 7.1095833476445396e-05 0 -0.0018691734392180699 5.9804560536248458e-05 0 -0.0018949170354764975 6.033106014320641e-05 0 -0.0018547031867443709 6.3720358093074663e-05 0 -0.0018691734392180699 5.9804560536248458e-05 0 -0.0017877372274364318 5.2767182961788987e-05 0 -0.0018691734392180699 5.9804560536248458e-05 0 -0.0017877372274364318 5.2767182961788987e-05 0 -0.0017612352089539287 3.057873659030684e-05 0 -0.0018691734392180699 5.9804560536248458e-05 0 -0.0018252415535114177 4.4163137397619456e-05 0 -0.0017612352089539287 3.057873659030684e-05 0 -0.0018691734392180699 5.9804560536248458e-05 0 -0.0018252415535114177 4.4163137397619456e-05 0 -0.0018949170354764975 6.033106014320641e-05 0 -0.0018252415535114177 4.4163137397619456e-05 0 -0.0018298578786820807 4.557296575197873e-05 0 -0.0018949170354764975 6.033106014320641e-05 0 -0.0018298578786820807 4.557296575197873e-05 0 -0.0018842188759455704 5.8004304104798136e-05 0 -0.001846821998057047 5.2376774025603297e-05 0 -0.0018298578786820807 4.557296575197873e-05 0 -0.0018842188759455704 5.8004304104798136e-05 0 -0.0018949170354764975 6.033106014320641e-05 0 -0.0019635108671812408 6.6517109042331209e-05 0 -0.0018842188759455704 5.8004304104798136e-05 0 -0.0019399587218381844 5.8862977871520967e-05 0 -0.0019635108671812408 6.6517109042331209e-05 0 -0.0019574958011506164 7.1095833476445396e-05 0 -0.0018949170354764975 6.033106014320641e-05 0 -0.0019635108671812408 6.6517109042331209e-05 0 -0.0018842188759455704 5.8004304104798136e-05 0 -0.0018949170354764975 6.033106014320641e-05 0 -0.0018549470823536903 5.2388366706530166e-05 0 -0.0018598707806835762 4.9483397197763416e-05 0 -0.0019026219928553506 5.2435725740171818e-05 0 -0.0018877419307200306 5.6582984435008759e-05 0 -0.0018549470823536903 5.2388366706530166e-05 0 -0.0019026219928553506 5.2435725740171818e-05 0 -0.0018842188759455704 5.8004304104798136e-05 0 -0.0018877419307200306 5.6582984435008759e-05 0 -0.0019399587218381844 5.8862977871520967e-05 0 -0.0018877419307200306 5.6582984435008759e-05 0 -0.0019026219928553506 5.2435725740171818e-05 0 -0.0019399587218381844 5.8862977871520967e-05 0 -0.0018877419307200306 5.6582984435008759e-05 0 -0.001846821998057047 5.2376774025603297e-05 0 -0.0018549470823536903 5.2388366706530166e-05 0 -0.0018842188759455704 5.8004304104798136e-05 0 -0.0018877419307200306 5.6582984435008759e-05 0 -0.001846821998057047 5.2376774025603297e-05 0 -0.001846821998057047 5.2376774025603297e-05 0 -0.0018549470823536903 5.2388366706530166e-05 0 -0.0018144438950793733 4.8155147087627481e-05 0 -0.0018549470823536903 5.2388366706530166e-05 0 -0.0018153871583636942 4.3535005225750499e-05 0 -0.0018144438950793733 4.8155147087627481e-05 0 -0.0018549470823536903 5.2388366706530166e-05 0 -0.0018153871583636942 4.3535005225750499e-05 0 -0.0018598707806835762 4.9483397197763416e-05 0 -0.0018153871583636942 4.3535005225750499e-05 0 -0.0018311938015821779 4.4420247160007221e-05 0 -0.0018598707806835762 4.9483397197763416e-05 0 -0.0018153871583636942 4.3535005225750499e-05 0 -0.0018311938015821779 4.4420247160007221e-05 0 -0.0017712517870920612 2.9654053909636962e-05 0 -0.0018190021347831364 8.2292574948877374e-06 0 -0.0017420251002428161 1.5645058394585998e-05 0 -0.0018311938015821779 4.4420247160007221e-05 0 -0.0018598707806835762 4.9483397197763416e-05 0 -0.0018826921576902264 4.2104899732960894e-05 0 -0.0018826921576902264 4.2104899732960894e-05 0 -0.0019361333602597444 3.4338962840541789e-05 0 -0.0019026219928553506 5.2435725740171818e-05 0 -0.0018598707806835762 4.9483397197763416e-05 0 -0.0018826921576902264 4.2104899732960894e-05 0 -0.0019026219928553506 5.2435725740171818e-05 0 -0.0019111413359589181 -9.476402405530304e-05 0 -0.0018382456051258894 -0.00014928178831140554 0 -0.0017992774433349295 -7.2879218107212512e-05 0 -0.0018054647489808974 -2.2916921269041108e-05 0 -0.0019111413359589181 -9.476402405530304e-05 0 -0.0017992774433349295 -7.2879218107212512e-05 0 -0.0018190021347831364 8.2292574948877374e-06 0 -0.0018961080911002316 -2.8938369290403016e-05 0 -0.0019111413359589181 -9.476402405530304e-05 0 -0.0019842983249963252 -0.00019502093045852423 0 -0.0018382456051258894 -0.00014928178831140554 0 -0.0018961080911002316 -2.8938369290403016e-05 0 -0.0019773127838170397 -9.2327746387679905e-05 0 -0.0018826921576902264 4.2104899732960894e-05 0 -0.0019361333602597444 3.4338962840541789e-05 0 -0.0019393872575920134 2.9712069077351753e-06 0 -0.0019111413359589181 -9.476402405530304e-05 0 -0.0019842983249963252 -0.00019502093045852423 0 -0.0020072983879549896 -0.00019330095375629105 0 -0.0019644958669681567 4.2295031636147072e-05 0 -0.0019361333602597444 3.4338962840541789e-05 0 -0.0019899897458045246 6.1804608749324025e-06 0 -0.0019644958669681567 4.2295031636147072e-05 0 -0.0019361333602597444 3.4338962840541789e-05 0 -0.0019026219928553506 5.2435725740171818e-05 0 -0.0019644958669681567 4.2295031636147072e-05 0 -0.0019026219928553506 5.2435725740171818e-05 0 -0.0019399587218381844 5.8862977871520967e-05 0 -0.0020217716488935109 4.8504739751493767e-05 0 -0.0019644958669681567 4.2295031636147072e-05 0 -0.0019399587218381844 5.8862977871520967e-05 0 -0.0020217716488935109 4.8504739751493767e-05 0 -0.0019644958669681567 4.2295031636147072e-05 0 -0.0020171869733192809 2.3636137812162556e-05 0 -0.0020917231795441775 1.6368861853812235e-05 0 -0.0020171869733192809 2.3636137812162556e-05 0 -0.002044397223658101 -1.9903539626010023e-05 0 -0.0020917231795441775 1.6368861853812235e-05 0 -0.0020217716488935109 4.8504739751493767e-05 0 -0.0020171869733192809 2.3636137812162556e-05 0 -0.0019644958669681567 4.2295031636147072e-05 0 -0.0020171869733192809 2.3636137812162556e-05 0 -0.0019899897458045246 6.1804608749324025e-06 0 -0.0019361333602597444 3.4338962840541789e-05 0 -0.0019899897458045246 6.1804608749324025e-06 0 -0.0019393872575920134 2.9712069077351753e-06 0 -0.0020171869733192809 2.3636137812162556e-05 0 -0.0019899897458045246 6.1804608749324025e-06 0 -0.002044397223658101 -1.9903539626010023e-05 0 -0.0019899897458045246 6.1804608749324025e-06 0 -0.002044397223658101 -1.9903539626010023e-05 0 -0.0020582907622095203 -9.1489225232967576e-05 0 -0.002044397223658101 -1.9903539626010023e-05 0 -0.0020926145719262477 -6.1715930347075855e-05 0 -0.0020582907622095203 -9.1489225232967576e-05 0 -0.0020917231795441775 1.6368861853812235e-05 0 -0.002044397223658101 -1.9903539626010023e-05 0 -0.0020926145719262477 -6.1715930347075855e-05 0 -0.0020926145719262477 -6.1715930347075855e-05 0 -0.0020582907622095203 -9.1489225232967576e-05 0 -0.0021265411542586003 -0.00010157675786987113 0 -0.0020582907622095203 -9.1489225232967576e-05 0 -0.0021265411542586003 -0.00010157675786987113 0 -0.0021881647830661196 -0.00010770291469623307 0 -0.0021334304273229378 -0.00011244519696794351 0 -0.0020926145719262477 -6.1715930347075855e-05 0 -0.0021265411542586003 -0.00010157675786987113 0 -0.0021462290202407153 -4.829009821638276e-05 0 -0.0021334304273229378 -0.00011244519696794351 0 -0.0021265411542586003 -0.00010157675786987113 0 -0.0023401461841305753 -8.0301032775759743e-05 0 -0.0021881647830661196 -0.00010770291469623307 0 -0.002278911143758622 -0.00019858712146559511 0 -0.0022304141128844813 -6.1343830644587617e-05 0 -0.0021265411542586003 -0.00010157675786987113 0 -0.0021881647830661196 -0.00010770291469623307 0 -0.0022304141128844813 -6.1343830644587617e-05 0 -0.0023401461841305753 -8.0301032775759743e-05 0 -0.0021881647830661196 -0.00010770291469623307 0 -0.0021766617181565406 -0.00010438859598333353 0 -0.0022026628879860013 -0.00015546249679210792 0 -0.0020582907622095203 -9.1489225232967576e-05 0 -0.0020994787438335721 -9.5497145913196833e-05 0 -0.0020692286516412069 -0.00011924904880991711 0 -0.0020582907622095203 -9.1489225232967576e-05 0 -0.0021881647830661196 -0.00010770291469623307 0 -0.0020994787438335721 -9.5497145913196833e-05 0 -0.0020994787438335721 -9.5497145913196833e-05 0 -0.0021148007113987203 -0.00012871238201243951 0 -0.0020692286516412069 -0.00011924904880991711 0 -0.0022026628879860013 -0.00015546249679210792 0 -0.0019838094954333857 -0.0002685726667596126 0 -0.0019838094954333857 -0.0002685726667596126 0 -0.001994338272887228 -0.00018657159658175249 0 -0.0021148007113987203 -0.00012871238201243951 0 -0.002041828314600039 -0.00014945009464004816 0 -0.0019842983249963252 -0.00019502093045852423 0 -0.0021148007113987203 -0.00012871238201243951 0 -0.0020692286516412069 -0.00011924904880991711 0 -0.002041828314600039 -0.00014945009464004816 0 -0.0020431116896532427 -9.5249748975204199e-05 0 -0.0019773127838170397 -9.2327746387679905e-05 0 -0.0020582907622095203 -9.1489225232967576e-05 0 -0.0020692286516412069 -0.00011924904880991711 0 -0.002041828314600039 -0.00014945009464004816 0 -0.0020582907622095203 -9.1489225232967576e-05 0 -0.002041828314600039 -0.00014945009464004816 0 -0.0020072983879549896 -0.00019330095375629105 0 -0.0019899897458045246 6.1804608749324025e-06 0 -0.0020582907622095203 -9.1489225232967576e-05 0 -0.0019393872575920134 2.9712069077351753e-06 0 -0.002041828314600039 -0.00014945009464004816 0 -0.0019842983249963252 -0.00019502093045852423 0 -0.0020072983879549896 -0.00019330095375629105 0 -0.00186055429037098 -0.00035402451319429916 0 -0.0019842983249963252 -0.00019502093045852423 0 -0.001861064063844815 -0.00022547607623330903 0 -0.0019842983249963252 -0.00019502093045852423 0 -0.001861064063844815 -0.00022547607623330903 0 -0.0018382456051258894 -0.00014928178831140554 0 -0.00186055429037098 -0.00035402451319429916 0 -0.001861064063844815 -0.00022547607623330903 0 -0.0017733115146445779 -0.00021774276248929552 0 -0.001861064063844815 -0.00022547607623330903 0 -0.0017733115146445779 -0.00021774276248929552 0 -0.0018382456051258894 -0.00014928178831140554 0 -0.0015171314029057545 -0.00031298251758850212 0 -0.001453125001598943 -0.00033757055594885367 0 -0.0014501115630420639 -0.00029510632770967272 0 -0.0015171314029057545 -0.00031298251758850212 0 -0.0014990372508626385 -0.00036352140594167996 0 -0.001453125001598943 -0.00033757055594885367 0 -0.0014990372508626385 -0.00036352140594167996 0 -0.0014534183784305778 -0.00038603734542637028 0 -0.001453125001598943 -0.00033757055594885367 0 -0.0015569705318589379 -0.00036166206604279868 0 -0.0015171314029057545 -0.00031298251758850212 0 -0.0014990372508626385 -0.00036352140594167996 0 -0.0019838094954333857 -0.0002685726667596126 0 -0.0016143926688587601 -0.00026575846339088935 0 -0.0019838094954333857 -0.0002685726667596126 0 -0.0019563491758856385 -0.00029425202012417034 0 -0.002278911143758622 -0.00019858712146559511 0 -0.0023353854967145113 -0.00027698790430375701 0 -0.0024281490526620185 -0.00014211742253238371 0 -0.0015569705318589379 -0.00036166206604279868 0 -0.0014990372508626385 -0.00036352140594167996 0 -0.0015110840671149924 -0.00041803807965835844 0 -0.0014990372508626385 -0.00036352140594167996 0 -0.0015110840671149924 -0.00041803807965835844 0 -0.0014534183784305778 -0.00038603734542637028 0 -0.0015110840671149924 -0.00041803807965835844 0 -0.0014550912134084961 -0.00043503999240713305 0 -0.0014534183784305778 -0.00038603734542637028 0 -0.002454127936576313 -3.2941574765286901e-05 0 -0.0024192123024821808 -5.1136493157800214e-05 0 -0.0024281490526620185 -0.00014211742253238371 0 -0.0014678663511863159 -0.000470135019445104 0 -0.0015110840671149924 -0.00041803807965835844 0 -0.0014550912134084961 -0.00043503999240713305 0 -0.001974421256957285 -0.00024077999918983614 0 -0.0019563491758856385 -0.00029425202012417034 0 -0.0023401461841305753 -8.0301032775759743e-05 0 -0.002278911143758622 -0.00019858712146559511 0 -0.0024281490526620185 -0.00014211742253238371 0 -0.0024192123024821808 -5.1136493157800214e-05 0 -0.0023401461841305753 -8.0301032775759743e-05 0 -0.0024281490526620185 -0.00014211742253238371 0 -0.0014080637946859557 -0.0004601376726117224 0 -0.0014098287209903517 -0.00043984144102073708 0 -0.0013869602194876425 -0.00044855029735348535 0 -0.0014284758345282824 -0.00047673100156914286 0 -0.0014080637946859557 -0.0004601376726117224 0 -0.0014098287209903517 -0.00043984144102073708 0 -0.0014264819727576473 -0.00047462213624096535 0 -0.0014106823349272846 -0.00042706671327696465 0 -0.0014081909124428226 -0.00047626377191467426 0 -0.0014080637946859557 -0.0004601376726117224 0 -0.0013869602194876425 -0.00044855029735348535 0 -0.0014284758345282824 -0.00047673100156914286 0 -0.0014550912134084961 -0.00043503999240713305 0 -0.0014106051690751312 -0.0004132196334507711 0 -0.0014550912134084961 -0.00043503999240713305 0 -0.0014534183784305778 -0.00038603734542637028 0 -0.0014106051690751312 -0.0004132196334507711 0 -0.0014098287209903517 -0.00043984144102073708 0 -0.0013985173717428676 -0.0004018039590965885 0 -0.0013895159161261077 -0.00042747443306275244 0 -0.0014106823349272846 -0.00042706671327696465 0 -0.0013940570668282003 -0.00037321599844573921 0 -0.0014534183784305778 -0.00038603734542637028 0 -0.0014106051690751312 -0.0004132196334507711 0 -0.0013892461178188942 -0.00034571984317840787 0 -0.0014534183784305778 -0.00038603734542637028 0 -0.0013892461178188942 -0.00034571984317840787 0 -0.001453125001598943 -0.00033757055594885367 0 -0.001453125001598943 -0.00033757055594885367 0 -0.0014501115630420639 -0.00029510632770967272 0 -0.0014108534155023343 -0.00031097010357816101 0 -0.0013892461178188942 -0.00034571984317840787 0 -0.0014108534155023343 -0.00031097010357816101 0 -0.0013670188632559054 -0.00027904793997024659 0 -0.0013940570668282003 -0.00037321599844573921 0 -0.001373743380674429 -0.00030880794164896272 0 -0.0013892461178188942 -0.00034571984317840787 0 -0.001453125001598943 -0.00033757055594885367 0 -0.0014108534155023343 -0.00031097010357816101 0 -0.0013969231036285946 -0.00028105561095741671 0 -0.0013771972901980352 -0.00025091229736263793 0 -0.0013670188632559054 -0.00027904793997024659 0 -0.0014108534155023343 -0.00031097010357816101 0 -0.0013969231036285946 -0.00028105561095741671 0 -0.0013670188632559054 -0.00027904793997024659 0 -0.0013969231036285946 -0.00028105561095741671 0 -0.0013771972901980352 -0.00025091229736263793 0 -0.0014076460855191027 -0.0002352946521371338 0 -0.0014345264908324795 -0.00020082714183226094 0 -0.00143789688048353 -0.00025897645842388079 0 -0.0014773286952569965 -0.00026195547655303008 0 -0.0013969231036285946 -0.00028105561095741671 0 -0.0014345264908324795 -0.00020082714183226094 0 -0.00143789688048353 -0.00025897645842388079 0 -0.001470266565677308 -0.0001882463446485027 0 -0.0016040026996147899 -0.00019224783385363698 0 -0.0013822166763884432 -0.00029326946602837586 0 -0.001470266565677308 -0.0001882463446485027 0 -0.0014501115630420639 -0.00029510632770967272 0 -0.0013969231036285946 -0.00028105561095741671 0 -0.00143789688048353 -0.00025897645842388079 0 -0.0014501115630420639 -0.00029510632770967272 0 -0.0014108534155023343 -0.00031097010357816101 0 -0.0013969231036285946 -0.00028105561095741671 0 -0.0014501115630420639 -0.00029510632770967272 0 -0.00143789688048353 -0.00025897645842388079 0 -0.0014773286952569965 -0.00026195547655303008 0 -0.0015171314029057545 -0.00031298251758850212 0 -0.0014501115630420639 -0.00029510632770967272 0 -0.0014773286952569965 -0.00026195547655303008 0 -0.0016143926688587601 -0.00026575846339088935 0 -0.0016040026996147899 -0.00019224783385363698 0 -0.001707516626762309 -0.00012738571978453833 0 -0.0018382456051258894 -0.00014928178831140554 0 -0.0017992774433349295 -7.2879218107212512e-05 0 -0.0017733115146445779 -0.00021774276248929552 0 -0.001707516626762309 -0.00012738571978453833 0 -0.0018382456051258894 -0.00014928178831140554 0 -0.0016656966062157741 -6.695606663748893e-05 0 -0.001707516626762309 -0.00012738571978453833 0 -0.0017230119805611325 -5.6817431359449375e-05 0 -0.001707516626762309 -0.00012738571978453833 0 -0.0017992774433349295 -7.2879218107212512e-05 0 -0.0017230119805611325 -5.6817431359449375e-05 0 -0.0017230119805611325 -5.6817431359449375e-05 0 -0.0017327371635293084 -1.6302173840221583e-05 0 -0.0016911509203555407 -2.0707256191981041e-05 0 -0.0017992774433349295 -7.2879218107212512e-05 0 -0.0017230119805611325 -5.6817431359449375e-05 0 -0.0017327371635293084 -1.6302173840221583e-05 0 -0.0018054647489808974 -2.2916921269041108e-05 0 -0.0017992774433349295 -7.2879218107212512e-05 0 -0.0017327371635293084 -1.6302173840221583e-05 0 -0.0018054647489808974 -2.2916921269041108e-05 0 -0.0017327371635293084 -1.6302173840221583e-05 0 -0.0017179098893142885 -2.928214562428283e-06 0 -0.0017327371635293084 -1.6302173840221583e-05 0 -0.0016873937562785104 -8.1976707156945933e-09 0 -0.0017179098893142885 -2.928214562428283e-06 0 -0.0017327371635293084 -1.6302173840221583e-05 0 -0.0016911509203555407 -2.0707256191981041e-05 0 -0.0016873937562785104 -8.1976707156945933e-09 0 -0.0015844353928280929 -0.00010227300529949474 0 -0.0016049784372138011 -5.4119883364733326e-05 0 -0.0014647730364784645 -0.00019665928203964247 0 -0.0013803657982090476 -0.00021900313737822794 0 -0.0014071583980040457 -0.00012156533527072563 0 -0.0014647730364784645 -0.00019665928203964247 0 -0.0014071583980040457 -0.00012156533527072563 0 -0.0015218276493836555 -0.0001176389410474914 0 -0.0013396085065869021 -0.00015562013545632276 0 -0.0013803657982090476 -0.00021900313737822794 0 -0.0014071583980040457 -0.00012156533527072563 0 -0.0013462608879095837 -0.00016349385342728125 0 -0.0013856961764155402 -0.00021116157864848191 0 -0.0013396085065869021 -0.00015562013545632276 0 -0.0013848244497262415 -0.00020453162635828285 0 -0.0013373469941529656 -0.00023275538074315325 0 -0.0013771972901980352 -0.00025091229736263793 0 -0.0014076460855191027 -0.0002352946521371338 0 -0.0013848244497262415 -0.00020453162635828285 0 -0.0013771972901980352 -0.00025091229736263793 0 -0.0013848244497262415 -0.00020453162635828285 0 -0.0013373469941529656 -0.00023275538074315325 0 -0.0016656966062157741 -6.695606663748893e-05 0 -0.0017230119805611325 -5.6817431359449375e-05 0 -0.0016911509203555407 -2.0707256191981041e-05 0 -0.001470266565677308 -0.0001882463446485027 0 -0.0015844353928280929 -0.00010227300529949474 0 -0.001470266565677308 -0.0001882463446485027 0 -0.0013856961764155402 -0.00021116157864848191 0 -0.001423746856093735 -0.00027675247653106164 0 -0.0014647730364784645 -0.00019665928203964247 0 -0.0013803657982090476 -0.00021900313737822794 0 -0.001359766416873436 -1.9899051632170026e-05 0 -0.0014696163892309554 1.0849675735900661e-05 0 -0.0013632756288297423 7.0283925716878198e-05 0 -0.001359766416873436 -1.9899051632170026e-05 0 -0.0014391593001344927 -6.2937023088298889e-05 0 -0.0014696163892309554 1.0849675735900661e-05 0 -0.0012813026621461511 2.1478954671010217e-05 0 -0.001359766416873436 -1.9899051632170026e-05 0 -0.0013346381130695136 -8.1786979117415664e-05 0 -0.0012813026621461511 2.1478954671010217e-05 0 -0.001359766416873436 -1.9899051632170026e-05 0 -0.0013632756288297423 7.0283925716878198e-05 0 -0.0013396085065869021 -0.00015562013545632276 0 -0.0013346381130695136 -8.1786979117415664e-05 0 -0.0012663018524193908 -6.1340059222492855e-05 0 -0.0013396085065869021 -0.00015562013545632276 0 -0.0013346381130695136 -8.1786979117415664e-05 0 -0.0014071583980040457 -0.00012156533527072563 0 -0.001359766416873436 -1.9899051632170026e-05 0 -0.0013346381130695136 -8.1786979117415664e-05 0 -0.0014071583980040457 -0.00012156533527072563 0 -0.001359766416873436 -1.9899051632170026e-05 0 -0.0014071583980040457 -0.00012156533527072563 0 -0.0014391593001344927 -6.2937023088298889e-05 0 -0.0014071583980040457 -0.00012156533527072563 0 -0.0014391593001344927 -6.2937023088298889e-05 0 -0.0015218276493836555 -0.0001176389410474914 0 -0.0014391593001344927 -6.2937023088298889e-05 0 -0.0015218276493836555 -0.0001176389410474914 0 -0.0014696163892309554 1.0849675735900661e-05 0 -0.0016049784372138011 -5.4119883364733326e-05 0 -0.0016308924810713521 9.9271570083581564e-06 0 -0.0016873937562785104 -8.1976707156945933e-09 0 -0.0016286213562377873 1.0123087323268899e-05 0 -0.0017179098893142885 -2.928214562428283e-06 0 -0.0016583521100444814 4.7475142799335713e-05 0 -0.0017433721723079843 4.1851970695554952e-05 0 -0.0017712517870920612 2.9654053909636962e-05 0 -0.0016286213562377873 1.0123087323268899e-05 0 -0.0016583521100444814 4.7475142799335713e-05 0 -0.0017179098893142885 -2.928214562428283e-06 0 -0.0016709743288798836 5.1259560186067325e-05 0 -0.0017420251002428161 1.5645058394585998e-05 0 -0.0016286213562377873 1.0123087323268899e-05 0 -0.0015554653229273637 6.6352008277924303e-05 0 -0.0016583521100444814 4.7475142799335713e-05 0 -0.0016286213562377873 1.0123087323268899e-05 0 -0.0014696163892309554 1.0849675735900661e-05 0 -0.0015554653229273637 6.6352008277924303e-05 0 -0.0015218276493836555 -0.0001176389410474914 0 -0.0016286213562377873 1.0123087323268899e-05 0 -0.0014696163892309554 1.0849675735900661e-05 0 -0.0014696163892309554 1.0849675735900661e-05 0 -0.0014487986041124179 0.00011793114600278714 0 -0.0015554653229273637 6.6352008277924303e-05 0 -0.0014487986041124179 0.00011793114600278714 0 -0.0015554653229273637 6.6352008277924303e-05 0 -0.0015969721314620555 0.00013180834963523222 0 -0.0016583521100444814 4.7475142799335713e-05 0 -0.0017016006470468568 9.5344035769721184e-05 0 -0.0017155231881098175 5.9617440108380826e-05 0 -0.0015554653229273637 6.6352008277924303e-05 0 -0.0016583521100444814 4.7475142799335713e-05 0 -0.0015969721314620555 0.00013180834963523222 0 -0.0016583521100444814 4.7475142799335713e-05 0 -0.0015969721314620555 0.00013180834963523222 0 -0.0017016006470468568 9.5344035769721184e-05 0 -0.0013229277729432899 0.00028517071762382371 0 -0.0014169177896558372 0.00019048598131201787 0 -0.0015969721314620555 0.00013180834963523222 0 -0.0017148458527505219 0.00018221362475178476 0 -0.0017016006470468568 9.5344035769721184e-05 0 -0.0015969721314620555 0.00013180834963523222 0 -0.001531064709752377 0.00027066191893667757 0 -0.0017148458527505219 0.00018221362475178476 0 -0.0014487986041124179 0.00011793114600278714 0 -0.0015969721314620555 0.00013180834963523222 0 -0.001531064709752377 0.00027066191893667757 0 -0.0014487986041124179 0.00011793114600278714 0 -0.0012955851498958352 0.00020229210275204146 0 -0.001531064709752377 0.00027066191893667757 0 -0.0014487986041124179 0.00011793114600278714 0 -0.0012955851498958352 0.00020229210275204146 0 -0.0013632756288297423 7.0283925716878198e-05 0 -0.0014696163892309554 1.0849675735900661e-05 0 -0.0014487986041124179 0.00011793114600278714 0 -0.0013632756288297423 7.0283925716878198e-05 0 -0.0012813026621461511 2.1478954671010217e-05 0 -0.0013632756288297423 7.0283925716878198e-05 0 -0.0012683422007864163 0.00011657150397289973 0 -0.0012955851498958352 0.00020229210275204146 0 -0.0013632756288297423 7.0283925716878198e-05 0 -0.0012683422007864163 0.00011657150397289973 0 -0.0012955851498958352 0.00020229210275204146 0 -0.0012683422007864163 0.00011657150397289973 0 -0.0011905631452208214 0.00021870766728456997 0 -0.0012955851498958352 0.00020229210275204146 0 -0.0011927232913312535 0.0002859171742097193 0 -0.0011905631452208214 0.00021870766728456997 0 -0.0012955851498958352 0.00020229210275204146 0 -0.0012530433004829822 0.0003170518482544266 0 -0.001531064709752377 0.00027066191893667757 0 -0.0012955851498958352 0.00020229210275204146 0 -0.0011927232913312535 0.0002859171742097193 0 -0.0012530433004829822 0.0003170518482544266 0 -0.0012530433004829822 0.0003170518482544266 0 -0.001175376300290997 0.00031776671085047162 0 -0.0011475645985095774 0.00031131648351657775 0 -0.0011927232913312535 0.0002859171742097193 0 -0.001175376300290997 0.00031776671085047162 0 -0.0011566803210463212 0.00030955946340033806 0 -0.0011927232913312535 0.0002859171742097193 0 -0.0012530433004829822 0.0003170518482544266 0 -0.001175376300290997 0.00031776671085047162 0 -0.001175376300290997 0.00031776671085047162 0 -0.0011396499733859926 0.00032492866165838503 0 -0.001138201640273225 0.00032829384095132801 0 -0.001175376300290997 0.00031776671085047162 0 -0.0011566803210463212 0.00030955946340033806 0 -0.0011396499733859926 0.00032492866165838503 0 -0.001138201640273225 0.00032829384095132801 0 -0.0011125691068891515 0.00033030938890549189 0 -0.0011475645985095774 0.00031131648351657775 0 -0.001175376300290997 0.00031776671085047162 0 -0.001138201640273225 0.00032829384095132801 0 -0.0011475645985095774 0.00031131648351657775 0 -0.001138201640273225 0.00032829384095132801 0 -0.0011104737049219702 0.00033432482754823105 0 -0.0011207569763965657 0.0003361003422052415 0 -0.001138201640273225 0.00032829384095132801 0 -0.0011104737049219702 0.00033432482754823105 0 -0.0011125691068891515 0.00033030938890549189 0 -0.0011104737049219702 0.00033432482754823105 0 -0.0011207569763965657 0.0003361003422052415 0 -0.0010936215962908018 0.00033547453127554016 0 -0.0011396499733859926 0.00032492866165838503 0 -0.001138201640273225 0.00032829384095132801 0 -0.0011263736918523551 0.00033634678268154187 0 -0.0011207569763965657 0.0003361003422052415 0 -0.0011263736918523551 0.00033634678268154187 0 -0.0011164900037588402 0.00033921736672344496 0 -0.001138201640273225 0.00032829384095132801 0 -0.0011207569763965657 0.0003361003422052415 0 -0.0011263736918523551 0.00033634678268154187 0 -0.0010695399478819368 0.00034057999488007587 0 -0.0010465795146569509 0.00034326456172272034 0 -0.0010808502483012101 0.0003378342809338128 0 -0.0010695399478819368 0.00034057999488007587 0 -0.0010808502483012101 0.0003378342809338128 0 -0.0010979134459699637 0.00032881789373546906 0 -0.0010695399478819368 0.00034057999488007587 0 -0.0010465795146569509 0.00034326456172272034 0 -0.0010453370103360121 0.00035184846933958351 0 -0.0010465795146569509 0.00034326456172272034 0 -0.0010211871331117519 0.00034790692237448011 0 -0.0010453370103360121 0.00035184846933958351 0 -0.0010465795146569509 0.00034326456172272034 0 -0.0010808502483012101 0.0003378342809338128 0 -0.0010560841213010056 0.00033595964070681143 0 -0.0010808502483012101 0.0003378342809338128 0 -0.0010560841213010056 0.00033595964070681143 0 -0.0010936215962908018 0.00033547453127554016 0 -0.0011104737049219702 0.00033432482754823105 0 -0.0010808502483012101 0.0003378342809338128 0 -0.0010936215962908018 0.00033547453127554016 0 -0.0011104737049219702 0.00033432482754823105 0 -0.0010808502483012101 0.0003378342809338128 0 -0.0011125691068891515 0.00033030938890549189 0 -0.0011125691068891515 0.00033030938890549189 0 -0.0010979134459699637 0.00032881789373546906 0 -0.0011475645985095774 0.00031131648351657775 0 -0.0010808502483012101 0.0003378342809338128 0 -0.0011125691068891515 0.00033030938890549189 0 -0.0010979134459699637 0.00032881789373546906 0 -0.0010979134459699637 0.00032881789373546906 0 -0.0010804251086139146 0.00033971166790175048 0 -0.0010953538695188396 0.00032092731939030445 0 -0.0010695399478819368 0.00034057999488007587 0 -0.0010979134459699637 0.00032881789373546906 0 -0.0010804251086139146 0.00033971166790175048 0 -0.0010695399478819368 0.00034057999488007587 0 -0.0010804251086139146 0.00033971166790175048 0 -0.0010453370103360121 0.00035184846933958351 0 -0.0010953538695188396 0.00032092731939030445 0 -0.0011475645985095774 0.00031131648351657775 0 -0.0011085054430355456 0.00031617155758463197 0 -0.0010979134459699637 0.00032881789373546906 0 -0.0010953538695188396 0.00032092731939030445 0 -0.0011475645985095774 0.00031131648351657775 0 -0.0012634379944483683 0.00031471460716534606 0 -0.0013229277729432899 0.00028517071762382371 0 -0.0012530433004829822 0.0003170518482544266 0 -0.0011475645985095774 0.00031131648351657775 0 -0.0011085054430355456 0.00031617155758463197 0 -0.0011085054430355456 0.00031617155758463197 0 -0.0011074532417575966 0.00029158522581515441 0 -0.0011111924116243589 0.00020678974361361093 0 -0.0010953538695188396 0.00032092731939030445 0 -0.0011085054430355456 0.00031617155758463197 0 -0.0011074532417575966 0.00029158522581515441 0 -0.0011074532417575966 0.00029158522581515441 0 -0.001218262471933827 0.00023380111723668047 0 -0.0011111924116243589 0.00020678974361361093 0 -0.0011074532417575966 0.00029158522581515441 0 -0.001218262471933827 0.00023380111723668047 0 -0.0011161205543904599 0.00032776204092082158 0 -0.001218262471933827 0.00023380111723668047 0 -0.0011161205543904599 0.00032776204092082158 0 -0.0012763847609443301 0.00029540088598541245 0 -0.0011126286463767471 0.00034980845879942142 0 -0.0011294408717409021 0.00035078630651591986 0 -0.0012763847609443301 0.00029540088598541245 0 -0.0011161205543904599 0.00032776204092082158 0 -0.0011126286463767471 0.00034980845879942142 0 -0.0012763847609443301 0.00029540088598541245 0 -0.0010953538695188396 0.00032092731939030445 0 -0.0011074532417575966 0.00029158522581515441 0 -0.0011161205543904599 0.00032776204092082158 0 -0.0010804251086139146 0.00033971166790175048 0 -0.0010953538695188396 0.00032092731939030445 0 -0.0011161205543904599 0.00032776204092082158 0 -0.0010804251086139146 0.00033971166790175048 0 -0.0011161205543904599 0.00032776204092082158 0 -0.0010811317895661396 0.0003474638844313758 0 -0.0010804251086139146 0.00033971166790175048 0 -0.0010811317895661396 0.0003474638844313758 0 -0.0010453370103360121 0.00035184846933958351 0 -0.0010811317895661396 0.0003474638844313758 0 -0.0010611877587471978 0.00035552928197805613 0 -0.0010453370103360121 0.00035184846933958351 0 -0.0011161205543904599 0.00032776204092082158 0 -0.0010811317895661396 0.0003474638844313758 0 -0.0011126286463767471 0.00034980845879942142 0 -0.0011126286463767471 0.00034980845879942142 0 -0.0010612333430093954 0.00035799066455963576 0 -0.0011294408717409021 0.00035078630651591986 0 -0.0011126286463767471 0.00034980845879942142 0 -0.0010611877587471978 0.00035552928197805613 0 -0.0010612333430093954 0.00035799066455963576 0 -0.0010811317895661396 0.0003474638844313758 0 -0.0011126286463767471 0.00034980845879942142 0 -0.0010611877587471978 0.00035552928197805613 0 -0.0010611877587471978 0.00035552928197805613 0 -0.0010339959784335317 0.00036031918496881018 0 -0.0010184020841009166 0.00035997043231001497 0 -0.0010611877587471978 0.00035552928197805613 0 -0.0010339959784335317 0.00036031918496881018 0 -0.0010612333430093954 0.00035799066455963576 0 -0.0010339959784335317 0.00036031918496881018 0 -0.0010612333430093954 0.00035799066455963576 0 -0.0010219521823380017 0.00036149927171628222 0 -0.0010612333430093954 0.00035799066455963576 0 -0.0010219521823380017 0.00036149927171628222 0 -0.0010061567362501123 0.00036465083046458106 0 -0.0010339959784335317 0.00036031918496881018 0 -0.0010219521823380017 0.00036149927171628222 0 -0.00099831794179636017 0.00036354499774652986 0 -0.0010219521823380017 0.00036149927171628222 0 -0.00099831794179636017 0.00036354499774652986 0 -0.00099816270308502632 0.00036319582936642398 0 -0.0010219521823380017 0.00036149927171628222 0 -0.00099816270308502632 0.00036319582936642398 0 -0.0010061567362501123 0.00036465083046458106 0 -0.00099831794179636017 0.00036354499774652986 0 -0.0010184020841009166 0.00035997043231001497 0 -0.00097111008052009533 0.00035929180467872727 0 -0.0010339959784335317 0.00036031918496881018 0 -0.00099831794179636017 0.00036354499774652986 0 -0.0010184020841009166 0.00035997043231001497 0 -0.0010184020841009166 0.00035997043231001497 0 -0.0010023902951590243 0.0003547727333399518 0 -0.00097111008052009533 0.00035929180467872727 0 -0.0010184020841009166 0.00035997043231001497 0 -0.0010453370103360121 0.00035184846933958351 0 -0.0010023902951590243 0.0003547727333399518 0 -0.0010211871331117519 0.00034790692237448011 0 -0.0010453370103360121 0.00035184846933958351 0 -0.0010023902951590243 0.0003547727333399518 0 -0.0010611877587471978 0.00035552928197805613 0 -0.0010184020841009166 0.00035997043231001497 0 -0.0010453370103360121 0.00035184846933958351 0 -0.00098963940361326288 0.00025352084428596414 0 -0.0010933433163787291 0.00024864693390365953 0 -0.00099742401873261269 0.0003000386600328581 0 -0.00098963940361326288 0.00025352084428596414 0 -0.0011064798685212396 0.00018892592259684132 0 -0.0010933433163787291 0.00024864693390365953 0 -0.00098963940361326288 0.00025352084428596414 0 -0.0009392358541376487 0.00031331434595010621 0 -0.00099742401873261269 0.0003000386600328581 0 -0.0011546571755904759 0.00034546659713519438 0 -0.0013420623149980548 0.00027758126561537263 0 -0.00098963940361326288 0.00025352084428596414 0 -0.00086287773139565645 0.00031761216575221327 0 -0.00089744146134690384 0.0003240470315567166 0 -0.00098963940361326288 0.00025352084428596414 0 -0.00086287773139565645 0.00031761216575221327 0 -0.00098860019905755089 0.00016021465643939838 0 -0.0010612333430093954 0.00035799066455963576 0 -0.0010061567362501123 0.00036465083046458106 0 -0.0011294408717409021 0.00035078630651591986 0 -0.0011546571755904759 0.00034546659713519438 0 -0.0013042383709668424 0.00019433264115113039 0 -0.00098963940361326288 0.00025352084428596414 0 -0.00089744146134690384 0.0003240470315567166 0 -0.0009392358541376487 0.00031331434595010621 0 -0.0015286547132782778 0.00021551909819798981 0 -0.0015978743936210461 0.00023050576580250015 0 -0.0015946827379829168 0.00015277374655646333 0 -0.0015176285520408254 0.00033423971013274835 0 -0.0015286547132782778 0.00021551909819798981 0 -0.0015978743936210461 0.00023050576580250015 0 -0.00098963940361326288 0.00025352084428596414 0 -0.00098860019905755089 0.00016021465643939838 0 -0.0011064798685212396 0.00018892592259684132 0 -0.00098860019905755089 0.00016021465643939838 0 -0.0011064798685212396 0.00018892592259684132 0 -0.001214055406469347 0.00010141925608811405 0 -0.00098860019905755089 0.00016021465643939838 0 -0.0013323991910055104 -2.4154212068135465e-05 0 -0.001214055406469347 0.00010141925608811405 0 -0.0015946827379829168 0.00015277374655646333 0 -0.0016245344430984177 0.00010247680043647966 0 -0.0016690772791556484 0.0001175454428452788 0 -0.0013042383709668424 0.00019433264115113039 0 -0.0014909157654964401 6.01903697356043e-05 0 -0.0015978743936210461 0.00023050576580250015 0 -0.0015946827379829168 0.00015277374655646333 0 -0.0016690772791556484 0.0001175454428452788 0 -0.0013420623149980548 0.00027758126561537263 0 -0.0014086935011752228 0.00019436490975735692 0 -0.0015286547132782778 0.00021551909819798981 0 -0.0015946827379829168 0.00015277374655646333 0 -0.0015427475484804767 0.00012169237996742337 0 -0.0015946827379829168 0.00015277374655646333 0 -0.0015427475484804767 0.00012169237996742337 0 -0.0016245344430984177 0.00010247680043647966 0 -0.0015427475484804767 0.00012169237996742337 0 -0.0016297576755367799 6.7139384428712803e-05 0 -0.0016110646624760384 5.7339950798202033e-05 0 -0.0015427475484804767 0.00012169237996742337 0 -0.0016245344430984177 0.00010247680043647966 0 -0.0016297576755367799 6.7139384428712803e-05 0 -0.0016245344430984177 0.00010247680043647966 0 -0.0016576503262463937 4.2781810929023749e-05 0 -0.0016690772791556484 0.0001175454428452788 0 -0.0016245344430984177 0.00010247680043647966 0 -0.0016297576755367799 6.7139384428712803e-05 0 -0.0016576503262463937 4.2781810929023749e-05 0 -0.0016297576755367799 6.7139384428712803e-05 0 -0.0016895559807987995 1.6797914953925251e-05 0 -0.0016576503262463937 4.2781810929023749e-05 0 -0.0016297576755367799 6.7139384428712803e-05 0 -0.0016895559807987995 1.6797914953925251e-05 0 -0.0016110646624760384 5.7339950798202033e-05 0 -0.0016895559807987995 1.6797914953925251e-05 0 -0.0016965905645246078 1.2193968409640661e-06 0 -0.0016110646624760384 5.7339950798202033e-05 0 -0.0016895559807987995 1.6797914953925251e-05 0 -0.0016965905645246078 1.2193968409640661e-06 0 -0.0017376051701330629 1.8939698678108081e-05 0 -0.001675918584629464 7.5354225235358842e-06 0 -0.0015593072854714484 6.3641799142011662e-05 0 -0.0016965905645246078 1.2193968409640661e-06 0 -0.001769510112410336 4.6258732778933788e-05 0 -0.0017847354773755661 6.8362665044695929e-05 0 -0.0016965905645246078 1.2193968409640661e-06 0 -0.001769510112410336 4.6258732778933788e-05 0 -0.0017678245120944485 4.0631159601138028e-05 0 -0.0016965905645246078 1.2193968409640661e-06 0 -0.0014795372096472041 5.2313208347485327e-05 0 -0.0013376845156730221 3.8376270817795889e-05 0 -0.0015427475484804767 0.00012169237996742337 0 -0.0014795372096472041 5.2313208347485327e-05 0 -0.0016110646624760384 5.7339950798202033e-05 0 -0.0014086935011752228 0.00019436490975735692 0 -0.001467572902473689 4.8341019244190975e-05 0 -0.0016965905645246078 1.2193968409640661e-06 0 -0.0014795372096472041 5.2313208347485327e-05 0 -0.0016110646624760384 5.7339950798202033e-05 0 -0.0015593072854714484 6.3641799142011662e-05 0 -0.0014169177896558372 0.00019048598131201787 0 -0.001218262471933827 0.00023380111723668047 0 -0.0014795372096472041 5.2313208347485327e-05 0 -0.0013376845156730221 3.8376270817795889e-05 0 -0.001218262471933827 0.00023380111723668047 0 -0.0013376845156730221 3.8376270817795889e-05 0 -0.0011111924116243589 0.00020678974361361093 0 -0.001218262471933827 0.00023380111723668047 0 -0.0012763847609443301 0.00029540088598541245 0 -0.0014795372096472041 5.2313208347485327e-05 0 -0.0017847354773755661 6.8362665044695929e-05 0 -0.0017148458527505219 0.00018221362475178476 0 -0.0017496746806909967 9.0865518327186935e-05 0 -0.0017148458527505219 0.00018221362475178476 0 -0.0017016006470468568 9.5344035769721184e-05 0 -0.0017496746806909967 9.0865518327186935e-05 0 -0.0017016006470468568 9.5344035769721184e-05 0 -0.0017496746806909967 9.0865518327186935e-05 0 -0.0017497817682034899 6.1463544569459436e-05 0 -0.0017016006470468568 9.5344035769721184e-05 0 -0.0017497817682034899 6.1463544569459436e-05 0 -0.0017155231881098175 5.9617440108380826e-05 0 -0.001769510112410336 4.6258732778933788e-05 0 -0.0017847354773755661 6.8362665044695929e-05 0 -0.0017711330288980593 6.1101958588619665e-05 0 -0.0017847354773755661 6.8362665044695929e-05 0 -0.0017496746806909967 9.0865518327186935e-05 0 -0.0017711330288980593 6.1101958588619665e-05 0 -0.0017496746806909967 9.0865518327186935e-05 0 -0.0017497817682034899 6.1463544569459436e-05 0 -0.0017711330288980593 6.1101958588619665e-05 0 -0.0017497817682034899 6.1463544569459436e-05 0 -0.0017711330288980593 6.1101958588619665e-05 0 -0.0017739386377719174 4.9485357400632213e-05 0 -0.001769510112410336 4.6258732778933788e-05 0 -0.0017711330288980593 6.1101958588619665e-05 0 -0.0017739386377719174 4.9485357400632213e-05 0 -0.001769510112410336 4.6258732778933788e-05 0 -0.0017739386377719174 4.9485357400632213e-05 0 -0.0017893968821705753 4.5513816123305786e-05 0 -0.0017739386377719174 4.9485357400632213e-05 0 -0.0017893968821705753 4.5513816123305786e-05 0 -0.0017823480989552654 3.9451174203798846e-05 0 -0.0016583521100444814 4.7475142799335713e-05 0 -0.0017155231881098175 5.9617440108380826e-05 0 -0.0017433721723079843 4.1851970695554952e-05 0 -0.0017497817682034899 6.1463544569459436e-05 0 -0.0017155231881098175 5.9617440108380826e-05 0 -0.0017433721723079843 4.1851970695554952e-05 0 -0.0017497817682034899 6.1463544569459436e-05 0 -0.0017739386377719174 4.9485357400632213e-05 0 -0.0017433721723079843 4.1851970695554952e-05 0 -0.0017739386377719174 4.9485357400632213e-05 0 -0.0017433721723079843 4.1851970695554952e-05 0 -0.0017823480989552654 3.9451174203798846e-05 0 -0.0017433721723079843 4.1851970695554952e-05 0 -0.0017712517870920612 2.9654053909636962e-05 0 -0.0017823480989552654 3.9451174203798846e-05 0 -0.0018153871583636942 4.3535005225750499e-05 0 -0.0017712517870920612 2.9654053909636962e-05 0 -0.0017823480989552654 3.9451174203798846e-05 0 -0.0018153871583636942 4.3535005225750499e-05 0 -0.0017893968821705753 4.5513816123305786e-05 0 -0.0018144438950793733 4.8155147087627481e-05 0 -0.0018153871583636942 4.3535005225750499e-05 0 -0.0017893968821705753 4.5513816123305786e-05 0 -0.0017823480989552654 3.9451174203798846e-05 0 -0.0017893968821705753 4.5513816123305786e-05 0 -0.0018144438950793733 4.8155147087627481e-05 0 -0.0017678245120944485 4.0631159601138028e-05 0 -0.0018144438950793733 4.8155147087627481e-05 0 -0.0017970412697226052 4.1430414058114057e-05 0 -0.0017678245120944485 4.0631159601138028e-05 0 -0.001846821998057047 5.2376774025603297e-05 0 -0.0018144438950793733 4.8155147087627481e-05 0 -0.0017970412697226052 4.1430414058114057e-05 0 -0.0016965905645246078 1.2193968409640661e-06 0 -0.0017376051701330629 1.8939698678108081e-05 0 -0.0017678245120944485 4.0631159601138028e-05 0 -0.0017970412697226052 4.1430414058114057e-05 0 -0.0017376051701330629 1.8939698678108081e-05 0 -0.0017678245120944485 4.0631159601138028e-05 0 -0.001769510112410336 4.6258732778933788e-05 0 -0.0017893968821705753 4.5513816123305786e-05 0 -0.0017678245120944485 4.0631159601138028e-05 0 -0.0017704999592626336 2.7468538037460486e-05 0 -0.0017617978798973562 2.0763028916037605e-05 0 -0.0017190986689981148 1.1273971144231601e-05 0 -0.0017617978798973562 2.0763028916037605e-05 0 -0.0016853687023399534 -8.715492053941614e-06 0 -0.0017190986689981148 1.1273971144231601e-05 0 -0.0017970412697226052 4.1430414058114057e-05 0 -0.0017376051701330629 1.8939698678108081e-05 0 -0.0017704999592626336 2.7468538037460486e-05 0 -0.0017376051701330629 1.8939698678108081e-05 0 -0.0017704999592626336 2.7468538037460486e-05 0 -0.0017190986689981148 1.1273971144231601e-05 0 -0.0018298578786820807 4.557296575197873e-05 0 -0.0017970412697226052 4.1430414058114057e-05 0 -0.0017704999592626336 2.7468538037460486e-05 0 -0.0018298578786820807 4.557296575197873e-05 0 -0.001846821998057047 5.2376774025603297e-05 0 -0.0017970412697226052 4.1430414058114057e-05 0 -0.0018298578786820807 4.557296575197873e-05 0 -0.0017704999592626336 2.7468538037460486e-05 0 -0.0017617978798973562 2.0763028916037605e-05 0 -0.0018252415535114177 4.4163137397619456e-05 0 -0.0018298578786820807 4.557296575197873e-05 0 -0.0017617978798973562 2.0763028916037605e-05 0 -0.0017617978798973562 2.0763028916037605e-05 0 -0.0017612352089539287 3.057873659030684e-05 0 -0.0017045963642289058 1.2516881664257294e-06 0 -0.0018252415535114177 4.4163137397619456e-05 0 -0.0017617978798973562 2.0763028916037605e-05 0 -0.0017612352089539287 3.057873659030684e-05 0 -0.0017612352089539287 3.057873659030684e-05 0 -0.0017045963642289058 1.2516881664257294e-06 0 -0.0016544272364870441 1.4145466619319382e-06 0 -0.0017045963642289058 1.2516881664257294e-06 0 -0.0016419325039809056 -3.1642077082827873e-05 0 -0.0016544272364870441 1.4145466619319382e-06 0 -0.0017617978798973562 2.0763028916037605e-05 0 -0.0017045963642289058 1.2516881664257294e-06 0 -0.0016853687023399534 -8.715492053941614e-06 0 -0.0016853687023399534 -8.715492053941614e-06 0 -0.0016419325039809056 -3.1642077082827873e-05 0 -0.0016365340283121927 -2.2751996561441953e-05 0 -0.0017045963642289058 1.2516881664257294e-06 0 -0.0016853687023399534 -8.715492053941614e-06 0 -0.0016419325039809056 -3.1642077082827873e-05 0 -0.0016419325039809056 -3.1642077082827873e-05 0 -0.0016137729438835714 -2.5722003087683526e-05 0 -0.0016047092258119481 -4.2494680801913301e-05 0 -0.0016419325039809056 -3.1642077082827873e-05 0 -0.0016365340283121927 -2.2751996561441953e-05 0 -0.0016137729438835714 -2.5722003087683526e-05 0 -0.0016365340283121927 -2.2751996561441953e-05 0 -0.0016401093135188316 -1.8311636810092405e-05 0 -0.0015930083306333429 -1.2349982463858487e-05 0 -0.0016853687023399534 -8.715492053941614e-06 0 -0.0016365340283121927 -2.2751996561441953e-05 0 -0.0016401093135188316 -1.8311636810092405e-05 0 -0.0016853687023399534 -8.715492053941614e-06 0 -0.0016401093135188316 -1.8311636810092405e-05 0 -0.0017190986689981148 1.1273971144231601e-05 0 -0.0016895559807987995 1.6797914953925251e-05 0 -0.0016401093135188316 -1.8311636810092405e-05 0 -0.0017190986689981148 1.1273971144231601e-05 0 -0.0016895559807987995 1.6797914953925251e-05 0 -0.0017376051701330629 1.8939698678108081e-05 0 -0.0017190986689981148 1.1273971144231601e-05 0 -0.0016895559807987995 1.6797914953925251e-05 0 -0.0016401093135188316 -1.8311636810092405e-05 0 -0.0016576503262463937 4.2781810929023749e-05 0 -0.0016169360204617979 -7.527651356370854e-06 0 -0.0014909157654964401 6.01903697356043e-05 0 -0.0016401093135188316 -1.8311636810092405e-05 0 -0.0015046361604785013 8.9849348436078279e-06 0 -0.0013323991910055104 -2.4154212068135465e-05 0 -0.0016401093135188316 -1.8311636810092405e-05 0 -0.0016576503262463937 4.2781810929023749e-05 0 -0.0016690772791556484 0.0001175454428452788 0 -0.0016401093135188316 -1.8311636810092405e-05 0 -0.0015046361604785013 8.9849348436078279e-06 0 -0.0015930083306333429 -1.2349982463858487e-05 0 -0.0015046361604785013 8.9849348436078279e-06 0 -0.0015609122286551224 4.4507562540745735e-05 0 -0.0015930083306333429 -1.2349982463858487e-05 0 -0.0015046361604785013 8.9849348436078279e-06 0 -0.0014976853270047389 7.6655591949297539e-05 0 -0.0015609122286551224 4.4507562540745735e-05 0 -0.0015046361604785013 8.9849348436078279e-06 0 -0.0014976853270047389 7.6655591949297539e-05 0 -0.0014488270580547162 6.0634081961503247e-05 0 -0.0015046361604785013 8.9849348436078279e-06 0 -0.0014488270580547162 6.0634081961503247e-05 0 -0.0013580324318652921 3.7981114343549583e-05 0 -0.0015046361604785013 8.9849348436078279e-06 0 -0.0013323991910055104 -2.4154212068135465e-05 0 -0.0013580324318652921 3.7981114343549583e-05 0 -0.0014976853270047389 7.6655591949297539e-05 0 -0.0014488270580547162 6.0634081961503247e-05 0 -0.0014159493094597724 0.00011655026672961348 0 -0.0014488270580547162 6.0634081961503247e-05 0 -0.0013580324318652921 3.7981114343549583e-05 0 -0.0014159493094597724 0.00011655026672961348 0 -0.001214055406469347 0.00010141925608811405 0 -0.0013580324318652921 3.7981114343549583e-05 0 -0.0014159493094597724 0.00011655026672961348 0 -0.0013323991910055104 -2.4154212068135465e-05 0 -0.001214055406469347 0.00010141925608811405 0 -0.0013580324318652921 3.7981114343549583e-05 0 -0.0012247777463357064 0.0001471955440595559 0 -0.0011978657025974529 0.00021667954055914923 0 -0.001214055406469347 0.00010141925608811405 0 -0.0014504146628230292 0.00019106625447039182 0 -0.0014159493094597724 0.00011655026672961348 0 -0.0011064798685212396 0.00018892592259684132 0 -0.001214055406469347 0.00010141925608811405 0 -0.0011780609368310505 0.00014205465706479886 0 -0.0011064798685212396 0.00018892592259684132 0 -0.0011780609368310505 0.00014205465706479886 0 -0.0010933433163787291 0.00024864693390365953 0 -0.0011978657025974529 0.00021667954055914923 0 -0.0010958418601534393 0.00027728595403125954 0 -0.0014976853270047389 7.6655591949297539e-05 0 -0.0014401793215213384 0.00012086302262351872 0 -0.0014159493094597724 0.00011655026672961348 0 -0.0011978657025974529 0.00021667954055914923 0 -0.001228303760396436 0.00020521759695101203 0 -0.0011978657025974529 0.00021667954055914923 0 -0.0012816579816720896 0.00021674235297173655 0 -0.0010124632173454154 0.0003890590128761958 0 -0.00096543786662640907 0.00028775916267465473 0 -0.00088941180020770891 0.000330232230872008 0 -0.0014976853270047389 7.6655591949297539e-05 0 -0.0014401793215213384 0.00012086302262351872 0 -0.0015702652703192188 7.6611557693140789e-05 0 -0.0014976853270047389 7.6655591949297539e-05 0 -0.0015702652703192188 7.6611557693140789e-05 0 -0.0015609122286551224 4.4507562540745735e-05 0 -0.00090391926473123985 0.00025849756939868093 0 -0.00096543786662640907 0.00028775916267465473 0 -0.00088941180020770891 0.000330232230872008 0 -0.0011564926411535351 0.0002428343615323352 0 -0.0010933433163787291 0.00024864693390365953 0 -0.0010889658769224193 0.0003243285725955816 0 -0.0011780609368310505 0.00014205465706479886 0 -0.0011564926411535351 0.0002428343615323352 0 -0.0010933433163787291 0.00024864693390365953 0 -0.0015338316475221926 -9.801522782401303e-07 0 -0.0015702652703192188 7.6611557693140789e-05 0 -0.0015330001106998552 3.200426368277951e-05 0 -0.0015338316475221926 -9.801522782401303e-07 0 -0.0015330001106998552 3.200426368277951e-05 0 -0.0014647268573324875 2.1588603938027352e-06 0 -0.00086780352759006061 0.00015424068688264209 0 -0.00026722443878074393 0.00023700240923416036 0 -0.00076863685285944263 0.00026986215936631669 0 -0.00088941180020770891 0.000330232230872008 0 -0.00084320418206712338 0.00022886920252142233 0 -0.00090391926473123985 0.00025849756939868093 0 -0.00088941180020770891 0.000330232230872008 0 -0.00084320418206712338 0.00022886920252142233 0 -0.00086780352759006061 0.00015424068688264209 0 -0.0012816579816720896 0.00021674235297173655 0 -0.0015702652703192188 7.6611557693140789e-05 0 -0.0015742489397270929 5.9731978651627552e-05 0 -0.0015609122286551224 4.4507562540745735e-05 0 -0.0015702652703192188 7.6611557693140789e-05 0 -0.0015742489397270929 5.9731978651627552e-05 0 -0.0015330001106998552 3.200426368277951e-05 0 -0.0015742489397270929 5.9731978651627552e-05 0 -0.0015330001106998552 3.200426368277951e-05 0 -0.0014694523699457843 0.00013672178563542387 0 -0.0015515738212869997 6.5791871272731378e-05 0 -0.0015891288024791547 6.1738590065826764e-05 0 -0.0015742489397270929 5.9731978651627552e-05 0 -0.0015904924932753195 1.1402773634752558e-05 0 -0.0016160912146133356 -7.4965835335770588e-06 0 -0.0015742489397270929 5.9731978651627552e-05 0 -0.0015904924932753195 1.1402773634752558e-05 0 -0.0015609122286551224 4.4507562540745735e-05 0 -0.0015904924932753195 1.1402773634752558e-05 0 -0.0015609122286551224 4.4507562540745735e-05 0 -0.0015930083306333429 -1.2349982463858487e-05 0 -0.0016365340283121927 -2.2751996561441953e-05 0 -0.0015930083306333429 -1.2349982463858487e-05 0 -0.0016137729438835714 -2.5722003087683526e-05 0 -0.0015904924932753195 1.1402773634752558e-05 0 -0.0015930083306333429 -1.2349982463858487e-05 0 -0.0016137729438835714 -2.5722003087683526e-05 0 -0.0015904924932753195 1.1402773634752558e-05 0 -0.0016137729438835714 -2.5722003087683526e-05 0 -0.0016160912146133356 -7.4965835335770588e-06 0 -0.0016046260669366401 -3.5130079299850524e-05 0 -0.0016160912146133356 -7.4965835335770588e-06 0 -0.0016047092258119481 -4.2494680801913301e-05 0 -0.0016137729438835714 -2.5722003087683526e-05 0 -0.0016160912146133356 -7.4965835335770588e-06 0 -0.0016047092258119481 -4.2494680801913301e-05 0 -0.0011793400696770552 -2.4177319813183263e-05 0 -0.0015891288024791547 6.1738590065826764e-05 0 -0.0013524122715142467 0.00020208028343203776 0 -0.001393146924371145 9.3618932056907549e-05 0 -0.0013533393684831683 4.4798803591959638e-05 0 -0.0013524122715142467 0.00020208028343203776 0 -0.001393146924371145 9.3618932056907549e-05 0 -0.0014694523699457843 0.00013672178563542387 0 -0.0011793400696770552 -2.4177319813183263e-05 0 -0.00089109287081424885 7.3083068597663877e-05 0 -0.001393146924371145 9.3618932056907549e-05 0 -0.0014694523699457843 0.00013672178563542387 0 -0.0014409631568666854 6.0603921487831673e-05 0 -0.0015330001106998552 3.200426368277951e-05 0 -0.0014409631568666854 6.0603921487831673e-05 0 -0.0014647268573324875 2.1588603938027352e-06 0 -0.0015330001106998552 3.200426368277951e-05 0 -0.0014694523699457843 0.00013672178563542387 0 -0.0014409631568666854 6.0603921487831673e-05 0 -0.0014409631568666854 6.0603921487831673e-05 0 -0.0013510320214512601 4.7398528177200004e-05 0 -0.0014647268573324875 2.1588603938027352e-06 0 -0.0013533393684831683 4.4798803591959638e-05 0 -0.0013510320214512601 4.7398528177200004e-05 0 -0.0013278784634966699 9.0874634078653513e-05 0 -0.001393146924371145 9.3618932056907549e-05 0 -0.0014409631568666854 6.0603921487831673e-05 0 -0.0013510320214512601 4.7398528177200004e-05 0 -0.001393146924371145 9.3618932056907549e-05 0 -0.0013533393684831683 4.4798803591959638e-05 0 -0.0013510320214512601 4.7398528177200004e-05 0 -0.0013248605534077773 6.1448624430478744e-05 0 -0.001444279736151869 -1.0116002841842394e-06 0 -0.00089109287081424885 7.3083068597663877e-05 0 -0.00043339609182210245 -5.0902867736921923e-05 0 -0.0013510320214512601 4.7398528177200004e-05 0 -0.0013278784634966699 9.0874634078653513e-05 0 -0.0012730175083044987 7.0221322908130265e-05 0 -0.0013533393684831683 4.4798803591959638e-05 0 -0.0013278784634966699 9.0874634078653513e-05 0 -0.0013419707312432696 0.00012969623859922493 0 -0.0013278784634966699 9.0874634078653513e-05 0 -0.0012775628602301457 0.00010475977528206064 0 -0.0013049724848111716 0.00015045230197723085 0 -0.0012052752472712937 0.00010659717469283802 0 -0.0012775628602301457 0.00010475977528206064 0 -0.0012730175083044987 7.0221322908130265e-05 0 -0.0012052752472712937 0.00010659717469283802 0 -0.0012775628602301457 0.00010475977528206064 0 -0.0013049724848111716 0.00015045230197723085 0 -0.00086780352759006061 0.00015424068688264209 0 -0.001444279736151869 -1.0116002841842394e-06 0 -0.0013278784634966699 9.0874634078653513e-05 0 -0.0012775628602301457 0.00010475977528206064 0 -0.0012730175083044987 7.0221322908130265e-05 0 -0.00010463071388379951 -2.5325754825741012e-07 0 0.00018653122560898487 -4.349336955983297e-05 0 0.00015638312670712091 1.1978965666522306e-05 0 -0.00010539331842808636 -2.1667560299724242e-07 0 -0.00030503195974989131 -8.9918782314227995e-05 0 -0.00030544969310330078 1.2850808130113513e-05 0 -0.00010499822970539416 -4.8233720831765553e-08 0 -3.9650655240522537e-06 -3.1367445315940074e-05 0 -0.00039566028111199359 1.8675300885774534e-05 0 -0.00030503195974989131 -8.9918782314227995e-05 0 -0.00039204962446951223 -0.00012580489234804512 0 -0.00039566028111199359 1.8675300885774534e-05 0 -0.00030503195974989131 -8.9918782314227995e-05 0 -0.00030544969310330078 1.2850808130113513e-05 0 -0.00039566028111199359 1.8675300885774534e-05 0 -0.00030544969310330078 1.2850808130113513e-05 0 -0.00039125359414702242 2.9910285620689944e-05 0 -0.00030544969310330078 1.2850808130113513e-05 0 -0.00030968748618921319 1.1505418259704732e-07 0 -0.00039125359414702242 2.9910285620689944e-05 0 -0.00010539331842808636 -2.1667560299724242e-07 0 -0.00030544969310330078 1.2850808130113513e-05 0 -0.00030968748618921319 1.1505418259704732e-07 0 -0.00030968748618921319 1.1505418259704732e-07 0 -0.00039125359414702242 2.9910285620689944e-05 0 -0.00051454198585716942 7.9914728771570548e-08 0 -0.00039864634156859882 1.6004349438463806e-05 0 -0.00039566028111199359 1.8675300885774534e-05 0 -0.00039125359414702242 2.9910285620689944e-05 0 -0.00039864634156859882 1.6004349438463806e-05 0 -0.00039125359414702242 2.9910285620689944e-05 0 -0.00046005135082840306 -1.6409429794227089e-05 0 -0.0011793400696770552 -2.4177319813183263e-05 0 -0.0007486731918281978 -0.00014239732479860882 0 -0.00039125359414702242 2.9910285620689944e-05 0 -0.00046005135082840306 -1.6409429794227089e-05 0 -0.00051454198585716942 7.9914728771570548e-08 0 -0.00046005135082840306 -1.6409429794227089e-05 0 -0.00051454198585716942 7.9914728771570548e-08 0 -0.00071888483047037198 -1.737591108080001e-07 0 -0.0011050175182809232 -0.00030245296730945859 0 -0.00071986167695924086 -7.3039225111219648e-07 0 -0.001150478117115841 -4.3452415065904793e-05 0 -0.0007486731918281978 -0.00014239732479860882 0 -0.00071926659604387168 -7.4537532965240973e-08 0 -0.00071986167695924086 -7.3039225111219648e-07 0 -0.001150478117115841 -4.3452415065904793e-05 0 -0.00100436355862752 2.1728268513774081e-07 0 -0.001150478117115841 -4.3452415065904793e-05 0 -0.0013609629543461343 -0.00017108704570368533 0 -0.0014662594925386901 -2.1551559269371656e-05 0 -0.0011050175182809232 -0.00030245296730945859 0 -0.001150478117115841 -4.3452415065904793e-05 0 -0.0013609629543461343 -0.00017108704570368533 0 -0.0013377097634655894 -0.00043643517822902691 0 -0.0011050175182809232 -0.00030245296730945859 0 -0.0013609629543461343 -0.00017108704570368533 0 -0.00157391637269943 -5.302948681567435e-05 0 -0.0016047092258119481 -4.2494680801913301e-05 0 -0.0015825458857066739 -3.7697585336253224e-05 0 -0.0011793400696770552 -2.4177319813183263e-05 0 -0.0014890950170240039 -0.00014845997107398786 0 -0.0016046260669366401 -3.5130079299850524e-05 0 -0.00157391637269943 -5.302948681567435e-05 0 -0.0016047092258119481 -4.2494680801913301e-05 0 -0.0016419325039809056 -3.1642077082827873e-05 0 -0.0015825458857066739 -3.7697585336253224e-05 0 -0.0016544272364870441 1.4145466619319382e-06 0 -0.0016419325039809056 -3.1642077082827873e-05 0 -0.0016047092258119481 -4.2494680801913301e-05 0 -0.0015825458857066739 -3.7697585336253224e-05 0 -0.0014890950170240039 -0.00014845997107398786 0 -0.0014646134023127962 2.5684630882631714e-06 0 -0.00157391637269943 -5.302948681567435e-05 0 -0.0015825458857066739 -3.7697585336253224e-05 0 -0.0014662594925386901 -2.1551559269371656e-05 0 -0.0014662594925386901 -2.1551559269371656e-05 0 -0.001559993632843052 1.4761156642684809e-05 0 -0.0012876385282353899 1.8325960562431801e-07 0 -0.0015825458857066739 -3.7697585336253224e-05 0 -0.0014662594925386901 -2.1551559269371656e-05 0 -0.001559993632843052 1.4761156642684809e-05 0 -0.0015825458857066739 -3.7697585336253224e-05 0 -0.0016544272364870441 1.4145466619319382e-06 0 -0.001559993632843052 1.4761156642684809e-05 0 -0.0016589432607194547 4.0167177115666402e-05 0 -0.0016544272364870441 1.4145466619319382e-06 0 -0.001559993632843052 1.4761156642684809e-05 0 -0.0016589432607194547 4.0167177115666402e-05 0 -0.0017612352089539287 3.057873659030684e-05 0 -0.0016544272364870441 1.4145466619319382e-06 0 -0.0016589432607194547 4.0167177115666402e-05 0 -0.001559993632843052 1.4761156642684809e-05 0 -0.0014160645340996637 2.9442598904566382e-05 0 -0.001559993632843052 1.4761156642684809e-05 0 -0.0014160645340996637 2.9442598904566382e-05 0 -0.0012876385282353899 1.8325960562431801e-07 0 -0.0012895779346377026 4.5223406396703854e-09 0 -0.0014160645340996637 2.9442598904566382e-05 0 -0.00100436355862752 2.1728268513774081e-07 0 -0.0014160645340996637 2.9442598904566382e-05 0 -0.00100436355862752 2.1728268513774081e-07 0 -0.0012876385282353899 1.8325960562431801e-07 0 -0.001150478117115841 -4.3452415065904793e-05 0 -0.00100436355862752 2.1728268513774081e-07 0 -0.0012876385282353899 1.8325960562431801e-07 0 -0.001150478117115841 -4.3452415065904793e-05 0 -0.0014662594925386901 -2.1551559269371656e-05 0 -0.0012876385282353899 1.8325960562431801e-07 0 -0.00053376380843370283 -0.00041697589178506695 0 -0.00043475734108654239 -0.00040732366617411535 0 -0.00050274167257710807 -0.0003339919667677048 0 -0.00053376380843370283 -0.00041697589178506695 0 -0.00043475734108654239 -0.00040732366617411535 0 -0.00047833369632465137 -0.00045917735656610239 0 -0.00035047310088350057 -0.00037748232743452334 0 -0.00043475734108654239 -0.00040732366617411535 0 -0.00039282757523111984 -0.0003167661376339419 0 -0.00035047310088350057 -0.00037748232743452334 0 -0.00043475734108654239 -0.00040732366617411535 0 -0.00039879941000402897 -0.00045046080829714603 0 -0.00043475734108654239 -0.00040732366617411535 0 -0.00039879941000402897 -0.00045046080829714603 0 -0.00047833369632465137 -0.00045917735656610239 0 -0.00039879941000402897 -0.00045046080829714603 0 -0.0003709202365243503 -0.00050310440121366807 0 -0.00046513530192608357 -0.00052422805955369982 0 -0.00039879941000402897 -0.00045046080829714603 0 -0.00047833369632465137 -0.00045917735656610239 0 -0.00046513530192608357 -0.00052422805955369982 0 -0.00047833369632465137 -0.00045917735656610239 0 -0.0005619549687723948 -0.00049139865205372936 0 -0.00046513530192608357 -0.00052422805955369982 0 -0.00053376380843370283 -0.00041697589178506695 0 -0.00047833369632465137 -0.00045917735656610239 0 -0.0005619549687723948 -0.00049139865205372936 0 -0.0005619549687723948 -0.00049139865205372936 0 -0.00061692386934944195 -0.00043292841828978048 0 -0.00065028651822916772 -0.00048723999346191981 0 -0.00053376380843370283 -0.00041697589178506695 0 -0.0005619549687723948 -0.00049139865205372936 0 -0.00061692386934944195 -0.00043292841828978048 0 -0.00065028651822916772 -0.00048723999346191981 0 -0.00070053256048202258 -0.00042644045377406486 0 -0.0007504939162557686 -0.00048139639241176767 0 -0.00061692386934944195 -0.00043292841828978048 0 -0.00065028651822916772 -0.00048723999346191981 0 -0.00070053256048202258 -0.00042644045377406486 0 -0.00070053256048202258 -0.00042644045377406486 0 -0.00063073083611609978 -0.00035635190752926482 0 -0.00076083652134750258 -0.00036131115913335749 0 -0.00063073083611609978 -0.00035635190752926482 0 -0.00070880834993597137 -0.00028936191003878795 0 -0.00076083652134750258 -0.00036131115913335749 0 -0.00061692386934944195 -0.00043292841828978048 0 -0.00070053256048202258 -0.00042644045377406486 0 -0.00063073083611609978 -0.00035635190752926482 0 -0.00053376380843370283 -0.00041697589178506695 0 -0.00063073083611609978 -0.00035635190752926482 0 -0.00050274167257710807 -0.0003339919667677048 0 -0.00053376380843370283 -0.00041697589178506695 0 -0.00061692386934944195 -0.00043292841828978048 0 -0.00063073083611609978 -0.00035635190752926482 0 -0.00063073083611609978 -0.00035635190752926482 0 -0.00059152598881815938 -0.00023729504524767992 0 -0.00050274167257710807 -0.0003339919667677048 0 -0.00059152598881815938 -0.00023729504524767992 0 -0.00043877463578165948 -0.00024034520201309052 0 -0.00050274167257710807 -0.0003339919667677048 0 -0.00063073083611609978 -0.00035635190752926482 0 -0.00070880834993597137 -0.00028936191003878795 0 -0.00059152598881815938 -0.00023729504524767992 0 -0.00059152598881815938 -0.00023729504524767992 0 -0.00074606706107838649 -0.0001876689320458497 0 -0.00062764759319583702 -9.5683720166723401e-05 0 -0.00070880834993597137 -0.00028936191003878795 0 -0.00059152598881815938 -0.00023729504524767992 0 -0.00074606706107838649 -0.0001876689320458497 0 -0.00059152598881815938 -0.00023729504524767992 0 -0.00043877463578165948 -0.00024034520201309052 0 -0.00050324195449240479 -0.00013824008326866259 0 -0.00043475734108654239 -0.00040732366617411535 0 -0.00050274167257710807 -0.0003339919667677048 0 -0.00039282757523111984 -0.0003167661376339419 0 -0.00043877463578165948 -0.00024034520201309052 0 -0.00050274167257710807 -0.0003339919667677048 0 -0.00039282757523111984 -0.0003167661376339419 0 -0.00039282757523111984 -0.0003167661376339419 0 -0.00032818673302139749 -0.00022990587801195175 0 -0.00029959718115672571 -0.00030171566629564722 0 -0.00035047310088350057 -0.00037748232743452334 0 -0.00039282757523111984 -0.0003167661376339419 0 -0.00029959718115672571 -0.00030171566629564722 0 -0.00043877463578165948 -0.00024034520201309052 0 -0.00032818673302139749 -0.00022990587801195175 0 -0.0003671282796073254 -0.00011833192507083455 0 -0.00043877463578165948 -0.00024034520201309052 0 -0.00039282757523111984 -0.0003167661376339419 0 -0.00032818673302139749 -0.00022990587801195175 0 -0.00032818673302139749 -0.00022990587801195175 0 -0.00023084808730054049 -0.00021579393303013954 0 -0.00029959718115672571 -0.00030171566629564722 0 -0.00032818673302139749 -0.00022990587801195175 0 -0.00023084808730054049 -0.00021579393303013954 0 -0.00025957867129331488 -0.00015752383084808411 0 -0.00023084808730054049 -0.00021579393303013954 0 -0.00021559764794615662 -0.00027520966264790183 0 -0.00029959718115672571 -0.00030171566629564722 0 -0.00023084808730054049 -0.00021579393303013954 0 -0.00021559764794615662 -0.00027520966264790183 0 -0.00018647466601876916 -0.00023511992505973812 0 -0.00021559764794615662 -0.00027520966264790183 0 -0.00018647466601876916 -0.00023511992505973812 0 -0.0001575898885852084 -0.00025791071800070926 0 -0.00018647466601876916 -0.00023511992505973812 0 -0.00015823140094609032 -0.00019851902674537054 0 -0.0001575898885852084 -0.00025791071800070926 0 -0.00023084808730054049 -0.00021579393303013954 0 -0.00018647466601876916 -0.00023511992505973812 0 -0.00015823140094609032 -0.00019851902674537054 0 -0.00026792690263789632 -0.0003254584723202795 0 -0.00020076433806817377 -0.00023578604975123092 0 -0.00028724292875402497 -0.00033239979435085868 0 -0.00024496242550336891 -0.00031965319284371976 0 -0.00027673747585118765 -0.00029012941482571574 0 -0.00015823140094609032 -0.00019851902674537054 0 -0.0001575898885852084 -0.00025791071800070926 0 -0.00011079529691746689 -0.00016114976245421589 0 -0.0003495826659358705 -0.00040412620590519598 0 -0.00036360833451823106 -0.00045708496863736456 0 -0.00032606619423411801 -0.0004650210120197033 0 -0.00026792690263789632 -0.0003254584723202795 0 -0.00030022205482139525 -0.00043753108425021879 0 -0.00028724292875402497 -0.00033239979435085868 0 -0.0002408570757173387 -0.00035483246276516177 0 -0.00026130334302832087 -0.0003906564906198887 0 -0.00021559764794615662 -0.00027520966264790183 0 -0.00029959718115672571 -0.00030171566629564722 0 -0.00025821109429699789 -0.00038938349288067668 0 -0.00021559764794615662 -0.00027520966264790183 0 -0.0001575898885852084 -0.00025791071800070926 0 -0.00025821109429699789 -0.00038938349288067668 0 -0.00026792690263789632 -0.0003254584723202795 0 -0.00031009458710821113 -0.00041988286341405065 0 -0.00035047310088350057 -0.00037748232743452334 0 -0.00029959718115672571 -0.00030171566629564722 0 -0.00025821109429699789 -0.00038938349288067668 0 -0.00028724292875402497 -0.00033239979435085868 0 -0.00024496242550336891 -0.00031965319284371976 0 -0.0002408570757173387 -0.00035483246276516177 0 -0.00020329438462785305 -0.00033135974984433055 0 -0.00024496242550336891 -0.00031965319284371976 0 -0.0002239689019343417 -0.00028186820414573656 0 -0.00020329438462785305 -0.00033135974984433055 0 -0.00024496242550336891 -0.00031965319284371976 0 -0.0002408570757173387 -0.00035483246276516177 0 -0.00016716391970085498 -0.00036215682186694877 0 -0.00020329438462785305 -0.00033135974984433055 0 -0.00020986877548584515 -0.00039749845276942545 0 -0.00020329438462785305 -0.00033135974984433055 0 -0.0002408570757173387 -0.00035483246276516177 0 -0.00020986877548584515 -0.00039749845276942545 0 -0.0002408570757173387 -0.00035483246276516177 0 -0.00020986877548584515 -0.00039749845276942545 0 -0.00026130334302832087 -0.0003906564906198887 0 -0.00020986877548584515 -0.00039749845276942545 0 -0.00026130334302832087 -0.0003906564906198887 0 -0.0002335934126950395 -0.00044339550979023744 0 -0.00030022205482139525 -0.00043753108425021879 0 -0.00026006600415986986 -0.00047201350980465316 0 -0.00020986877548584515 -0.00039749845276942545 0 -0.00020994407470417635 -0.00045273113308567616 0 -0.0002335934126950395 -0.00044339550979023744 0 -0.00035047310088350057 -0.00037748232743452334 0 -0.00039879941000402897 -0.00045046080829714603 0 -0.00025821109429699789 -0.00038938349288067668 0 -0.00031009458710821113 -0.00041988286341405065 0 -0.00035998806326966723 -0.00049438327901097062 0 -0.00039879941000402897 -0.00045046080829714603 0 -0.00025821109429699789 -0.00038938349288067668 0 -0.0003709202365243503 -0.00050310440121366807 0 -0.00036360833451823106 -0.00045708496863736456 0 -0.00032606619423411801 -0.0004650210120197033 0 -0.00034387559058160488 -0.00049760576444751541 0 -0.00034387559058160488 -0.00049760576444751541 0 -0.00034902136094515596 -0.00053766200153763542 0 -0.00029963566496587894 -0.00052995604783831734 0 -0.00032606619423411801 -0.0004650210120197033 0 -0.00034387559058160488 -0.00049760576444751541 0 -0.00029963566496587894 -0.00052995604783831734 0 -0.00034387559058160488 -0.00049760576444751541 0 -0.0003709202365243503 -0.00050310440121366807 0 -0.00034902136094515596 -0.00053766200153763542 0 -0.00036360833451823106 -0.00045708496863736456 0 -0.00034387559058160488 -0.00049760576444751541 0 -0.0003709202365243503 -0.00050310440121366807 0 -0.0003709202365243503 -0.00050310440121366807 0 -0.00039482906173764296 -0.00056878946777481063 0 -0.00042100729362575028 -0.00054728160801344921 0 -0.0003709202365243503 -0.00050310440121366807 0 -0.00039482906173764296 -0.00056878946777481063 0 -0.00034902136094515596 -0.00053766200153763542 0 -0.00039482906173764296 -0.00056878946777481063 0 -0.00045709144113905911 -0.00059318983065020676 0 -0.00042100729362575028 -0.00054728160801344921 0 -0.00039482906173764296 -0.00056878946777481063 0 -0.00034902136094515596 -0.00053766200153763542 0 -0.00036446062456058569 -0.00060107825726149402 0 -0.00034902136094515596 -0.00053766200153763542 0 -0.00036446062456058569 -0.00060107825726149402 0 -0.00030845582493821346 -0.00058707751117523146 0 -0.00034908419293793483 -0.00053974298882026402 0 -0.00030246187688688539 -0.00058180472393567692 0 -0.00036446062456058569 -0.00060107825726149402 0 -0.00033483962963313558 -0.00062545853889856419 0 -0.00030845582493821346 -0.00058707751117523146 0 -0.00036446062456058569 -0.00060107825726149402 0 -0.00033483962963313558 -0.00062545853889856419 0 -0.00037659120653350553 -0.0006538674855416861 0 -0.00036446062456058569 -0.00060107825726149402 0 -0.00041913227059371747 -0.0006318386570591082 0 -0.00037659120653350553 -0.0006538674855416861 0 -0.00041913227059371747 -0.0006318386570591082 0 -0.0004767678549141595 -0.0006642666773370513 0 -0.00045709144113905911 -0.00059318983065020676 0 -0.00039482906173764296 -0.00056878946777481063 0 -0.00041913227059371747 -0.0006318386570591082 0 -0.00045709144113905911 -0.00059318983065020676 0 -0.00039482906173764296 -0.00056878946777481063 0 -0.00036446062456058569 -0.00060107825726149402 0 -0.00041913227059371747 -0.0006318386570591082 0 -0.00020994407470417635 -0.00045273113308567616 0 -0.0002335934126950395 -0.00044339550979023744 0 -0.00021263181495565593 -0.00044658266694608842 0 -0.00034902136094515596 -0.00053766200153763542 0 -0.00029963566496587894 -0.00052995604783831734 0 -0.00030937540939094044 -0.00056797251260946055 0 -0.00033483962963313558 -0.00062545853889856419 0 -0.00030845582493821346 -0.00058707751117523146 0 -0.00024994326038553413 -0.00063552459993388018 0 -0.00026006600415986986 -0.00047201350980465316 0 -0.0002953286531922224 -0.00058738042080997994 0 -0.00029963566496587894 -0.00052995604783831734 0 -0.00030937540939094044 -0.00056797251260946055 0 -0.00027088681604264261 -0.00059958674129051079 0 -0.00030246187688688539 -0.00058180472393567692 0 -0.0002953286531922224 -0.00058738042080997994 0 -0.00022469855269725234 -0.00044263398929533522 0 -0.00020994407470417635 -0.00045273113308567616 0 -0.00021263181495565593 -0.00044658266694608842 0 -0.0002953286531922224 -0.00058738042080997994 0 -0.00027544500963153101 -0.0007077323304629519 0 -0.00031656067360314252 -0.0005422888137390715 0 -0.0002953286531922224 -0.00058738042080997994 0 -0.00045004622531429804 -0.00064565600747600645 0 -0.00039064939403882871 -0.0006911603231177511 0 -0.00042295267111821627 -0.00062207984247453804 0 -0.00024994326038553413 -0.00063552459993388018 0 -0.00030200456415252117 -0.00073480122130038165 0 -0.00021018840765801207 -0.00073092504165718096 0 -0.00033483962963313558 -0.00062545853889856419 0 -0.00024994326038553413 -0.00063552459993388018 0 -0.00033479117798483924 -0.00067496900635002726 0 -0.00033479117798483924 -0.00067496900635002726 0 -0.00030200456415252117 -0.00073480122130038165 0 -0.00037614852529700222 -0.00071110868339760425 0 -0.00024994326038553413 -0.00063552459993388018 0 -0.00033479117798483924 -0.00067496900635002726 0 -0.00030200456415252117 -0.00073480122130038165 0 -0.00027059513288952983 -0.00080555165808023944 0 -0.00030200456415252117 -0.00073480122130038165 0 -0.00036623817773516606 -0.00077835443125855359 0 -0.00016947790568987842 -0.00083263571769946049 0 -0.00027059513288952983 -0.00080555165808023944 0 -0.00021018840765801207 -0.00073092504165718096 0 -0.00027059513288952983 -0.00080555165808023944 0 -0.00030200456415252117 -0.00073480122130038165 0 -0.00021018840765801207 -0.00073092504165718096 0 -0.00042953364995680404 -0.00068534330138833339 0 -0.00043288215046374064 -0.00074104494094944212 0 -0.00047876357213196593 -0.00072044737279388911 0 -0.00042953364995680404 -0.00068534330138833339 0 -0.00047876357213196593 -0.00072044737279388911 0 -0.0004767678549141595 -0.0006642666773370513 0 -0.00041913227059371747 -0.0006318386570591082 0 -0.00042953364995680404 -0.00068534330138833339 0 -0.0004767678549141595 -0.0006642666773370513 0 -0.00041913227059371747 -0.0006318386570591082 0 -0.00042953364995680404 -0.00068534330138833339 0 -0.00037659120653350553 -0.0006538674855416861 0 -0.00033483962963313558 -0.00062545853889856419 0 -0.00033479117798483924 -0.00067496900635002726 0 -0.00037659120653350553 -0.0006538674855416861 0 -0.00033479117798483924 -0.00067496900635002726 0 -0.00037659120653350553 -0.0006538674855416861 0 -0.00037614852529700222 -0.00071110868339760425 0 -0.00042953364995680404 -0.00068534330138833339 0 -0.00037659120653350553 -0.0006538674855416861 0 -0.00037614852529700222 -0.00071110868339760425 0 -0.00042953364995680404 -0.00068534330138833339 0 -0.00037614852529700222 -0.00071110868339760425 0 -0.00043288215046374064 -0.00074104494094944212 0 -0.00037614852529700222 -0.00071110868339760425 0 -0.00036623817773516606 -0.00077835443125855359 0 -0.00043288215046374064 -0.00074104494094944212 0 -0.00030200456415252117 -0.00073480122130038165 0 -0.00037614852529700222 -0.00071110868339760425 0 -0.00036623817773516606 -0.00077835443125855359 0 -0.00044255873448837562 -0.00079058775855908407 0 -0.00036623817773516606 -0.00077835443125855359 0 -0.00043288215046374064 -0.00074104494094944212 0 -0.00044255873448837562 -0.00079058775855908407 0 -0.00043288215046374064 -0.00074104494094944212 0 -0.00048421968778661323 -0.00077369678022832307 0 -0.00043288215046374064 -0.00074104494094944212 0 -0.00047876357213196593 -0.00072044737279388911 0 -0.00048421968778661323 -0.00077369678022832307 0 -0.00052036977158883971 -0.00081775565681034155 0 -0.00048421968778661323 -0.00077369678022832307 0 -0.00052394909944443804 -0.00076735665617922236 0 -0.0005621125423629624 -0.00078519915472988547 0 -0.00052394909944443804 -0.00076735665617922236 0 -0.00055644725257734549 -0.00074593519974013359 0 -0.00052394909944443804 -0.00076735665617922236 0 -0.00055644725257734549 -0.00074593519974013359 0 -0.00052021834883895601 -0.00071471213817760114 0 -0.00047876357213196593 -0.00072044737279388911 0 -0.00052394909944443804 -0.00076735665617922236 0 -0.00052021834883895601 -0.00071471213817760114 0 -0.00047876357213196593 -0.00072044737279388911 0 -0.00048421968778661323 -0.00077369678022832307 0 -0.00052394909944443804 -0.00076735665617922236 0 -0.00059700096730216251 -0.00077805640974102231 0 -0.00059055994811910324 -0.00073741078168196978 0 -0.00062051018004474268 -0.00074859185706346724 0 -0.00059700096730216251 -0.00077805640974102231 0 -0.00055644725257734549 -0.00074593519974013359 0 -0.00059055994811910324 -0.00073741078168196978 0 -0.0005621125423629624 -0.00078519915472988547 0 -0.00059700096730216251 -0.00077805640974102231 0 -0.00055644725257734549 -0.00074593519974013359 0 -0.00055644725257734549 -0.00074593519974013359 0 -0.00059055994811910324 -0.00073741078168196978 0 -0.00055977471904825288 -0.00070654458450016878 0 -0.00055644725257734549 -0.00074593519974013359 0 -0.00055977471904825288 -0.00070654458450016878 0 -0.00052021834883895601 -0.00071471213817760114 0 -0.00059055994811910324 -0.00073741078168196978 0 -0.00055977471904825288 -0.00070654458450016878 0 -0.00061276991655953962 -0.00070321945719903464 0 -0.00055977471904825288 -0.00070654458450016878 0 -0.00055788895434082152 -0.00066056243579043592 0 -0.00061276991655953962 -0.00070321945719903464 0 -0.00055788895434082152 -0.00066056243579043592 0 -0.00052398928549935797 -0.00067564867598226338 0 -0.00050834468031723927 -0.00063666879112191837 0 -0.00055977471904825288 -0.00070654458450016878 0 -0.00055788895434082152 -0.00066056243579043592 0 -0.00052398928549935797 -0.00067564867598226338 0 -0.00055788895434082152 -0.00066056243579043592 0 -0.00059472268925824716 -0.00063462517341970523 0 -0.00061276991655953962 -0.00070321945719903464 0 -0.00047876357213196593 -0.00072044737279388911 0 -0.00052021834883895601 -0.00071471213817760114 0 -0.0004767678549141595 -0.0006642666773370513 0 -0.00052021834883895601 -0.00071471213817760114 0 -0.00052398928549935797 -0.00067564867598226338 0 -0.0004767678549141595 -0.0006642666773370513 0 -0.00055977471904825288 -0.00070654458450016878 0 -0.00052021834883895601 -0.00071471213817760114 0 -0.00052398928549935797 -0.00067564867598226338 0 -0.00052398928549935797 -0.00067564867598226338 0 -0.0004767678549141595 -0.0006642666773370513 0 -0.00050834468031723927 -0.00063666879112191837 0 -0.0004767678549141595 -0.0006642666773370513 0 -0.00045709144113905911 -0.00059318983065020676 0 -0.00050834468031723927 -0.00063666879112191837 0 -0.00045709144113905911 -0.00059318983065020676 0 -0.00050834468031723927 -0.00063666879112191837 0 -0.00052661217087469545 -0.00059605920710780814 0 -0.00052661217087469545 -0.00059605920710780814 0 -0.000570576439929679 -0.0005570876593549431 0 -0.00059472268925824716 -0.00063462517341970523 0 -0.00055788895434082152 -0.00066056243579043592 0 -0.00050834468031723927 -0.00063666879112191837 0 -0.00052661217087469545 -0.00059605920710780814 0 -0.00055788895434082152 -0.00066056243579043592 0 -0.00052661217087469545 -0.00059605920710780814 0 -0.00059472268925824716 -0.00063462517341970523 0 -0.0005619549687723948 -0.00049139865205372936 0 -0.00046513530192608357 -0.00052422805955369982 0 -0.000570576439929679 -0.0005570876593549431 0 -0.00052661217087469545 -0.00059605920710780814 0 -0.00046513530192608357 -0.00052422805955369982 0 -0.000570576439929679 -0.0005570876593549431 0 -0.00045709144113905911 -0.00059318983065020676 0 -0.00046513530192608357 -0.00052422805955369982 0 -0.00042100729362575028 -0.00054728160801344921 0 -0.0003709202365243503 -0.00050310440121366807 0 -0.00046513530192608357 -0.00052422805955369982 0 -0.00042100729362575028 -0.00054728160801344921 0 -0.00045709144113905911 -0.00059318983065020676 0 -0.00052661217087469545 -0.00059605920710780814 0 -0.00046513530192608357 -0.00052422805955369982 0 -0.00065028651822916772 -0.00048723999346191981 0 -0.00071318034669543625 -0.00055895198397687429 0 -0.0007504939162557686 -0.00048139639241176767 0 -0.00065028651822916772 -0.00048723999346191981 0 -0.00071318034669543625 -0.00055895198397687429 0 -0.00064433634946403878 -0.0005455165214118241 0 -0.0005619549687723948 -0.00049139865205372936 0 -0.00065028651822916772 -0.00048723999346191981 0 -0.00064433634946403878 -0.0005455165214118241 0 -0.0005619549687723948 -0.00049139865205372936 0 -0.000570576439929679 -0.0005570876593549431 0 -0.00064433634946403878 -0.0005455165214118241 0 -0.000570576439929679 -0.0005570876593549431 0 -0.00064433634946403878 -0.0005455165214118241 0 -0.00062036284699115241 -0.00058928604133152095 0 -0.000570576439929679 -0.0005570876593549431 0 -0.00062036284699115241 -0.00058928604133152095 0 -0.00059472268925824716 -0.00063462517341970523 0 -0.00064433634946403878 -0.0005455165214118241 0 -0.00062036284699115241 -0.00058928604133152095 0 -0.0006649456509979925 -0.0006214545379231958 0 -0.00062036284699115241 -0.00058928604133152095 0 -0.00059472268925824716 -0.00063462517341970523 0 -0.0006649456509979925 -0.0006214545379231958 0 -0.00059472268925824716 -0.00063462517341970523 0 -0.0006649456509979925 -0.0006214545379231958 0 -0.00064424955811940503 -0.00066907270589796643 0 -0.00071318034669543625 -0.00055895198397687429 0 -0.00064433634946403878 -0.0005455165214118241 0 -0.0006649456509979925 -0.0006214545379231958 0 -0.00071318034669543625 -0.00055895198397687429 0 -0.0006649456509979925 -0.0006214545379231958 0 -0.00072485681519254515 -0.00063401050027473772 0 -0.00072485681519254515 -0.00063401050027473772 0 -0.00068625837494700349 -0.00067354370401747157 0 -0.00073169228718543606 -0.00069004060954608282 0 -0.0006649456509979925 -0.0006214545379231958 0 -0.00068625837494700349 -0.00067354370401747157 0 -0.00064424955811940503 -0.00066907270589796643 0 -0.0006649456509979925 -0.0006214545379231958 0 -0.00072485681519254515 -0.00063401050027473772 0 -0.00068625837494700349 -0.00067354370401747157 0 -0.00068625837494700349 -0.00067354370401747157 0 -0.00065831602170122669 -0.00070409962186503486 0 -0.00069674006599333303 -0.0007197635739718864 0 -0.00068625837494700349 -0.00067354370401747157 0 -0.00073169228718543606 -0.00069004060954608282 0 -0.00069674006599333303 -0.0007197635739718864 0 -0.00073169228718543606 -0.00069004060954608282 0 -0.0007351995898791146 -0.00073024515798022886 0 -0.00069674006599333303 -0.0007197635739718864 0 -0.00059472268925824716 -0.00063462517341970523 0 -0.00064424955811940503 -0.00066907270589796643 0 -0.00061276991655953962 -0.00070321945719903464 0 -0.00065831602170122669 -0.00070409962186503486 0 -0.00061276991655953962 -0.00070321945719903464 0 -0.0006536251385105159 -0.00074052478199585436 0 -0.00064424955811940503 -0.00066907270589796643 0 -0.00065831602170122669 -0.00070409962186503486 0 -0.00061276991655953962 -0.00070321945719903464 0 -0.00068625837494700349 -0.00067354370401747157 0 -0.00064424955811940503 -0.00066907270589796643 0 -0.00065831602170122669 -0.00070409962186503486 0 -0.00061276991655953962 -0.00070321945719903464 0 -0.00062051018004474268 -0.00074859185706346724 0 -0.0006536251385105159 -0.00074052478199585436 0 -0.00059055994811910324 -0.00073741078168196978 0 -0.00061276991655953962 -0.00070321945719903464 0 -0.00062051018004474268 -0.00074859185706346724 0 -0.00065831602170122669 -0.00070409962186503486 0 -0.0006536251385105159 -0.00074052478199585436 0 -0.00069674006599333303 -0.0007197635739718864 0 -0.0006536251385105159 -0.00074052478199585436 0 -0.00063953514864709951 -0.00077746239603323434 0 -0.00068386854933561803 -0.00076533338609843251 0 -0.00062051018004474268 -0.00074859185706346724 0 -0.0006536251385105159 -0.00074052478199585436 0 -0.00063953514864709951 -0.00077746239603323434 0 -0.00059700096730216251 -0.00077805640974102231 0 -0.00062051018004474268 -0.00074859185706346724 0 -0.00063953514864709951 -0.00077746239603323434 0 -0.0007351995898791146 -0.00073024515798022886 0 -0.00072278396177078569 -0.00076292949636736027 0 -0.00076372566265043359 -0.00076183854067714166 0 -0.0007351995898791146 -0.00073024515798022886 0 -0.00069674006599333303 -0.0007197635739718864 0 -0.00072278396177078569 -0.00076292949636736027 0 -0.00069674006599333303 -0.0007197635739718864 0 -0.00068386854933561803 -0.00076533338609843251 0 -0.00072278396177078569 -0.00076292949636736027 0 -0.0006536251385105159 -0.00074052478199585436 0 -0.00069674006599333303 -0.0007197635739718864 0 -0.00068386854933561803 -0.00076533338609843251 0 -0.00070797551459490478 -0.00079451191385177357 0 -0.00068386854933561803 -0.00076533338609843251 0 -0.00072278396177078569 -0.00076292949636736027 0 -0.00074394286969005385 -0.00079057090428250086 0 -0.00070797551459490478 -0.00079451191385177357 0 -0.00072278396177078569 -0.00076292949636736027 0 -0.00074394286969005385 -0.00079057090428250086 0 -0.00072278396177078569 -0.00076292949636736027 0 -0.00076372566265043359 -0.00076183854067714166 0 -0.00079342893316387592 -0.00080455663945498712 0 -0.00074394286969005385 -0.00079057090428250086 0 -0.00076372566265043359 -0.00076183854067714166 0 -0.00079342893316387592 -0.00080455663945498712 0 -0.00076372566265043359 -0.00076183854067714166 0 -0.00080920716196074749 -0.00075085846086968971 0 -0.00079342893316387592 -0.00080455663945498712 0 -0.00080920716196074749 -0.00075085846086968971 0 -0.00088061951035382639 -0.00074797765752315803 0 -0.00080920716196074749 -0.00075085846086968971 0 -0.00077692944352073065 -0.00072006368317628026 0 -0.00082640461911601593 -0.00070536383417202071 0 -0.0007351995898791146 -0.00073024515798022886 0 -0.00076372566265043359 -0.00076183854067714166 0 -0.00077692944352073065 -0.00072006368317628026 0 -0.00076372566265043359 -0.00076183854067714166 0 -0.00080920716196074749 -0.00075085846086968971 0 -0.00077692944352073065 -0.00072006368317628026 0 -0.00073169228718543606 -0.00069004060954608282 0 -0.00077692944352073065 -0.00072006368317628026 0 -0.00077891728018226461 -0.00066406304724133032 0 -0.00073169228718543606 -0.00069004060954608282 0 -0.0007351995898791146 -0.00073024515798022886 0 -0.00077692944352073065 -0.00072006368317628026 0 -0.00077692944352073065 -0.00072006368317628026 0 -0.00082640461911601593 -0.00070536383417202071 0 -0.00077891728018226461 -0.00066406304724133032 0 -0.00082640461911601593 -0.00070536383417202071 0 -0.00077891728018226461 -0.00066406304724133032 0 -0.00083994970398956759 -0.00065355138736229571 0 -0.00077891728018226461 -0.00066406304724133032 0 -0.00083994970398956759 -0.00065355138736229571 0 -0.0007867162703839428 -0.00060045790420848422 0 -0.00072485681519254515 -0.00063401050027473772 0 -0.00073169228718543606 -0.00069004060954608282 0 -0.00077891728018226461 -0.00066406304724133032 0 -0.00088487783508809303 -0.00069705553497859888 0 -0.00090730043767059117 -0.00076645234494947831 0 -0.00095665349322501705 -0.00066585098402280525 0 -0.0009028572937038378 -0.00063251876721984103 0 -0.00088487783508809303 -0.00069705553497859888 0 -0.00095665349322501705 -0.00066585098402280525 0 -0.0009028572937038378 -0.00063251876721984103 0 -0.00083994970398956759 -0.00065355138736229571 0 -0.00088487783508809303 -0.00069705553497859888 0 -0.00082640461911601593 -0.00070536383417202071 0 -0.00088487783508809303 -0.00069705553497859888 0 -0.00088061951035382639 -0.00074797765752315803 0 -0.00082640461911601593 -0.00070536383417202071 0 -0.00083994970398956759 -0.00065355138736229571 0 -0.00088487783508809303 -0.00069705553497859888 0 -0.00088487783508809303 -0.00069705553497859888 0 -0.00088061951035382639 -0.00074797765752315803 0 -0.00090730043767059117 -0.00076645234494947831 0 -0.001293681381703265 -0.00080716807019778263 0 -0.0017689195150978794 -0.00088679124016630823 0 -0.00083175310272050383 -0.00080124186278892489 0 -0.00088061951035382639 -0.00074797765752315803 0 -0.00090730043767059117 -0.00076645234494947831 0 -0.00080920716196074749 -0.00075085846086968971 0 -0.00082640461911601593 -0.00070536383417202071 0 -0.00088061951035382639 -0.00074797765752315803 0 -0.001293681381703265 -0.00080716807019778263 0 -0.00076628453391138873 -0.00081883732845178063 0 -0.0024742486174430208 -0.00099024549944320647 0 -0.0024974491121821595 -0.0010347421562885192 0 -0.0024066279259022114 -0.0010804173829048129 0 -0.002422618852530842 -0.00097884100952340229 0 -0.0024742486174430208 -0.00099024549944320647 0 -0.0024066279259022114 -0.0010804173829048129 0 -0.0017689195150978794 -0.00088679124016630823 0 -0.0017229365630450604 -0.00090480185553735645 0 -0.0023253535045284495 -0.00099265753601280411 0 -0.002422618852530842 -0.00097884100952340229 0 -0.0024066279259022114 -0.0010804173829048129 0 -0.0023253535045284495 -0.00099265753601280411 0 -0.0024066279259022114 -0.0010804173829048129 0 -0.0023139711587291966 -0.0011239991950096856 0 -0.0017229365630450604 -0.00090480185553735645 0 -0.0016538326152810072 -0.00079184158769306939 0 -0.001034799726797419 -0.00071630571670427696 0 -0.0010653111021626874 -0.00060285743759506613 0 -0.0011993856005510803 -0.00063508061483199933 0 -0.001034799726797419 -0.00071630571670427696 0 -0.00095665349322501705 -0.00066585098402280525 0 -0.0010653111021626874 -0.00060285743759506613 0 -0.00090730043767059117 -0.00076645234494947831 0 -0.001034799726797419 -0.00071630571670427696 0 -0.00095665349322501705 -0.00066585098402280525 0 -0.0009028572937038378 -0.00063251876721984103 0 -0.00095665349322501705 -0.00066585098402280525 0 -0.00097092168087473476 -0.00056153108081820162 0 -0.00095665349322501705 -0.00066585098402280525 0 -0.00097092168087473476 -0.00056153108081820162 0 -0.0010653111021626874 -0.00060285743759506613 0 -0.001074673208579083 -0.00052568966728320642 0 -0.0012031779788066372 -0.00053289034614051203 0 -0.0011190041458188815 -0.00048209296282155712 0 -0.0010653111021626874 -0.00060285743759506613 0 -0.001074673208579083 -0.00052568966728320642 0 -0.0012031779788066372 -0.00053289034614051203 0 -0.00097092168087473476 -0.00056153108081820162 0 -0.0010653111021626874 -0.00060285743759506613 0 -0.001074673208579083 -0.00052568966728320642 0 -0.00097092168087473476 -0.00056153108081820162 0 -0.001074673208579083 -0.00052568966728320642 0 -0.0010265752656893209 -0.00046869972431341572 0 -0.0010265752656893209 -0.00046869972431341572 0 -0.0011190041458188815 -0.00048209296282155712 0 -0.0011111411904846426 -0.00042174171499552437 0 -0.001074673208579083 -0.00052568966728320642 0 -0.0010265752656893209 -0.00046869972431341572 0 -0.0011190041458188815 -0.00048209296282155712 0 -0.00097092168087473476 -0.00056153108081820162 0 -0.0010265752656893209 -0.00046869972431341572 0 -0.00089535211045469766 -0.00046830506805879652 0 -0.00097092168087473476 -0.00056153108081820162 0 -0.00089535211045469766 -0.00046830506805879652 0 -0.00086879989822010741 -0.00058004427086136789 0 -0.00089535211045469766 -0.00046830506805879652 0 -0.00081129770484442024 -0.00052300788195750402 0 -0.00086879989822010741 -0.00058004427086136789 0 -0.00089535211045469766 -0.00046830506805879652 0 -0.00081129770484442024 -0.00052300788195750402 0 -0.00080858281711354964 -0.00042957858700736119 0 -0.00081129770484442024 -0.00052300788195750402 0 -0.0007504939162557686 -0.00048139639241176767 0 -0.00080858281711354964 -0.00042957858700736119 0 -0.00071318034669543625 -0.00055895198397687429 0 -0.00081129770484442024 -0.00052300788195750402 0 -0.0007504939162557686 -0.00048139639241176767 0 -0.00081129770484442024 -0.00052300788195750402 0 -0.0007867162703839428 -0.00060045790420848422 0 -0.00086879989822010741 -0.00058004427086136789 0 -0.00071318034669543625 -0.00055895198397687429 0 -0.00081129770484442024 -0.00052300788195750402 0 -0.0007867162703839428 -0.00060045790420848422 0 -0.00071318034669543625 -0.00055895198397687429 0 -0.00072485681519254515 -0.00063401050027473772 0 -0.0007867162703839428 -0.00060045790420848422 0 -0.00072485681519254515 -0.00063401050027473772 0 -0.00077891728018226461 -0.00066406304724133032 0 -0.0007867162703839428 -0.00060045790420848422 0 -0.0009028572937038378 -0.00063251876721984103 0 -0.00097092168087473476 -0.00056153108081820162 0 -0.00086879989822010741 -0.00058004427086136789 0 -0.0009028572937038378 -0.00063251876721984103 0 -0.00083994970398956759 -0.00065355138736229571 0 -0.00086879989822010741 -0.00058004427086136789 0 -0.00083994970398956759 -0.00065355138736229571 0 -0.0007867162703839428 -0.00060045790420848422 0 -0.00086879989822010741 -0.00058004427086136789 0 -0.0013895159161261077 -0.00042747443306275244 0 -0.0013869602194876425 -0.00044855029735348535 0 -0.001364807995762093 -0.00041932338220351361 0 -0.0014098287209903517 -0.00043984144102073708 0 -0.0013895159161261077 -0.00042747443306275244 0 -0.0013869602194876425 -0.00044855029735348535 0 -0.0014321999323354123 -0.00048644757809794905 0 -0.0013989488455432401 -0.00045553755279212316 0 -0.0014226163829001038 -0.00053255946949799099 0 -0.0014321999323354123 -0.00048644757809794905 0 -0.001477923610144508 -0.00053900062257918014 0 -0.0014730442963538366 -0.00052918980541256564 0 -0.0014282064510159017 -0.00053541228560289515 0 -0.0014681915967481817 -0.00054105444507129396 0 -0.001477923610144508 -0.00053900062257918014 0 -0.0014282064510159017 -0.00053541228560289515 0 -0.0014282064510159017 -0.00053541228560289515 0 -0.0014362624979992703 -0.00049222801494689023 0 -0.0013805230547044556 -0.00048976817791033958 0 -0.0014730442963538366 -0.00052918980541256564 0 -0.0014282064510159017 -0.00053541228560289515 0 -0.0014362624979992703 -0.00049222801494689023 0 -0.0014282064510159017 -0.00053541228560289515 0 -0.0013616135063266796 -0.00052303793371906177 0 -0.0013733289031338106 -0.00053934750537000542 0 -0.0014282064510159017 -0.00053541228560289515 0 -0.0013616135063266796 -0.00052303793371906177 0 -0.0013805230547044556 -0.00048976817791033958 0 -0.0013616135063266796 -0.00052303793371906177 0 -0.0013210228637881845 -0.00050827402368661156 0 -0.0013805230547044556 -0.00048976817791033958 0 -0.0013616135063266796 -0.00052303793371906177 0 -0.0012784277808520351 -0.00053777442143736827 0 -0.0013210228637881845 -0.00050827402368661156 0 -0.0013616135063266796 -0.00052303793371906177 0 -0.0013733289031338106 -0.00053934750537000542 0 -0.0012784277808520351 -0.00053777442143736827 0 -0.0014228497748922603 -0.00054520390508004538 0 -0.0014469228013306152 -0.00054282667244771095 0 -0.0013733289031338106 -0.00053934750537000542 0 -0.0014469228013306152 -0.00054282667244771095 0 -0.0014282064510159017 -0.00053541228560289515 0 -0.0013733289031338106 -0.00053934750537000542 0 -0.0014228497748922603 -0.00054520390508004538 0 -0.0013733289031338106 -0.00053934750537000542 0 -0.0013006646819211098 -0.00053477116414739085 0 -0.0019004912720902614 -0.00076867266661950176 0 -0.0016538326152810072 -0.00079184158769306939 0 -0.0013733289031338106 -0.00053934750537000542 0 -0.0012784277808520351 -0.00053777442143736827 0 -0.0013006646819211098 -0.00053477116414739085 0 -0.0012784277808520351 -0.00053777442143736827 0 -0.0012497879479849627 -0.00053798862318426546 0 -0.0013210228637881845 -0.00050827402368661156 0 -0.0012784277808520351 -0.00053777442143736827 0 -0.0012497879479849627 -0.00053798862318426546 0 -0.0012509359443897627 -0.00054924537559317523 0 -0.0015078967905601695 -0.00077730774043082199 0 -0.0016538326152810072 -0.00079184158769306939 0 -0.0012497879479849627 -0.00053798862318426546 0 -0.0012888234383931082 -0.0003791652753385774 0 -0.0013279649907677615 -0.00045787918346125721 0 -0.0012392613389336576 -0.0005327467462237955 0 -0.0012322832239356439 -0.00043105394481820255 0 -0.0012497879479849627 -0.00053798862318426546 0 -0.0012031779788066372 -0.00053289034614051203 0 -0.0011696197973166125 -0.00047394611852918749 0 -0.0012497879479849627 -0.00053798862318426546 0 -0.0012509359443897627 -0.00054924537559317523 0 -0.0012031779788066372 -0.00053289034614051203 0 -0.0010653111021626874 -0.00060285743759506613 0 -0.0011993856005510803 -0.00063508061483199933 0 -0.0012031779788066372 -0.00053289034614051203 0 -0.0016538326152810072 -0.00079184158769306939 0 -0.001409777944511576 -0.00053628960103531116 0 -0.0011190041458188815 -0.00048209296282155712 0 -0.0011696197973166125 -0.00047394611852918749 0 -0.0011111411904846426 -0.00042174171499552437 0 -0.0012031779788066372 -0.00053289034614051203 0 -0.0011190041458188815 -0.00048209296282155712 0 -0.0011696197973166125 -0.00047394611852918749 0 -0.0012888234383931082 -0.0003791652753385774 0 -0.0013279649907677615 -0.00045787918346125721 0 -0.0013501999353527049 -0.00039555492386250484 0 -0.0013279649907677615 -0.00045787918346125721 0 -0.0013805230547044556 -0.00048976817791033958 0 -0.0013501999353527049 -0.00039555492386250484 0 -0.0012497879479849627 -0.00053798862318426546 0 -0.0013279649907677615 -0.00045787918346125721 0 -0.0013210228637881845 -0.00050827402368661156 0 -0.0013279649907677615 -0.00045787918346125721 0 -0.0013210228637881845 -0.00050827402368661156 0 -0.0013805230547044556 -0.00048976817791033958 0 -0.0013989488455432401 -0.00045553755279212316 0 -0.0013575334958789945 -0.0004007284284019426 0 -0.001364807995762093 -0.00041932338220351361 0 -0.0013501999353527049 -0.00039555492386250484 0 -0.0013678645231446542 -0.00038251450488874196 0 -0.0014362624979992703 -0.00049222801494689023 0 -0.0013805230547044556 -0.00048976817791033958 0 -0.0013501999353527049 -0.00039555492386250484 0 -0.0013501999353527049 -0.00039555492386250484 0 -0.0013678645231446542 -0.00038251450488874196 0 -0.0013330409667740781 -0.00034296866282187126 0 -0.0012888234383931082 -0.0003791652753385774 0 -0.0013501999353527049 -0.00039555492386250484 0 -0.0013330409667740781 -0.00034296866282187126 0 -0.0013985173717428676 -0.0004018039590965885 0 -0.0013678645231446542 -0.00038251450488874196 0 -0.0013851867684745794 -0.00034055674618482508 0 -0.0013985173717428676 -0.0004018039590965885 0 -0.001364807995762093 -0.00041932338220351361 0 -0.0013678645231446542 -0.00038251450488874196 0 -0.0013985173717428676 -0.0004018039590965885 0 -0.0013895159161261077 -0.00042747443306275244 0 -0.001364807995762093 -0.00041932338220351361 0 -0.001333297406604728 -0.000294801070181541 0 -0.0013851867684745794 -0.00034055674618482508 0 -0.0013373469941529656 -0.00023275538074315325 0 -0.0013771972901980352 -0.00025091229736263793 0 -0.0013670188632559054 -0.00027904793997024659 0 -0.0013373469941529656 -0.00023275538074315325 0 -0.001373743380674429 -0.00030880794164896272 0 -0.0013427783024215028 -0.00023687250222957355 0 -0.001333297406604728 -0.000294801070181541 0 -0.0012933513350996974 -0.00025479156308377192 0 -0.0013373469941529656 -0.00023275538074315325 0 -0.0013678645231446542 -0.00038251450488874196 0 -0.0013851867684745794 -0.00034055674618482508 0 -0.0013330409667740781 -0.00034296866282187126 0 -0.001333297406604728 -0.000294801070181541 0 -0.0013851867684745794 -0.00034055674618482508 0 -0.0013330409667740781 -0.00034296866282187126 0 -0.001333297406604728 -0.000294801070181541 0 -0.0013330409667740781 -0.00034296866282187126 0 -0.0012739090781024986 -0.00030517497275453113 0 -0.0012933513350996974 -0.00025479156308377192 0 -0.0012739090781024986 -0.00030517497275453113 0 -0.0012414882369355638 -0.00020670504790586133 0 -0.001333297406604728 -0.000294801070181541 0 -0.0012933513350996974 -0.00025479156308377192 0 -0.0012739090781024986 -0.00030517497275453113 0 -0.0012362370976540975 -0.00032443189408585583 0 -0.0012470897148215076 -0.0002138207806421629 0 -0.0011997631982019023 -0.00035455916696165235 0 -0.0011308019011445885 -0.0002914301287951806 0 -0.0012414882369355638 -0.00020670504790586133 0 -0.0011696197973166125 -0.00047394611852918749 0 -0.0011997631982019023 -0.00035455916696165235 0 -0.0011111411904846426 -0.00042174171499552437 0 -0.0012322832239356439 -0.00043105394481820255 0 -0.0012362370976540975 -0.00032443189408585583 0 -0.0012888234383931082 -0.0003791652753385774 0 -0.0013330409667740781 -0.00034296866282187126 0 -0.0012739090781024986 -0.00030517497275453113 0 -0.0011997631982019023 -0.00035455916696165235 0 -0.0011111411904846426 -0.00042174171499552437 0 -0.0010705897575484784 -0.00035118435963730913 0 -0.0011997631982019023 -0.00035455916696165235 0 -0.0010705897575484784 -0.00035118435963730913 0 -0.0011308019011445885 -0.0002914301287951806 0 -0.0010705897575484784 -0.00035118435963730913 0 -0.0011308019011445885 -0.0002914301287951806 0 -0.00097430004457858962 -0.00017554195926720409 0 -0.0011308019011445885 -0.0002914301287951806 0 -0.001149658383929122 -0.00019441013382062559 0 -0.00097430004457858962 -0.00017554195926720409 0 -0.001149658383929122 -0.00019441013382062559 0 -0.00097430004457858962 -0.00017554195926720409 0 -0.0010557976400795213 -6.281503350377102e-05 0 -0.0011469024028256886 -0.00018813567831123162 0 -0.0011771272715732529 -5.1502761967051137e-05 0 -0.001149658383929122 -0.00019441013382062559 0 -0.0012414882369355638 -0.00020670504790586133 0 -0.0011915220568152792 -7.2448742852005503e-05 0 -0.001149658383929122 -0.00019441013382062559 0 -0.001165436423827191 -2.5150378965795517e-05 0 -0.0010557976400795213 -6.281503350377102e-05 0 -0.0011308019011445885 -0.0002914301287951806 0 -0.001149658383929122 -0.00019441013382062559 0 -0.0012414882369355638 -0.00020670504790586133 0 -0.0012414882369355638 -0.00020670504790586133 0 -0.0012642045245235146 -0.00013595549538604124 0 -0.0013373469941529656 -0.00023275538074315325 0 -0.0012933513350996974 -0.00025479156308377192 0 -0.0012414882369355638 -0.00020670504790586133 0 -0.0013373469941529656 -0.00023275538074315325 0 -0.0012414882369355638 -0.00020670504790586133 0 -0.0012642045245235146 -0.00013595549538604124 0 -0.0011915220568152792 -7.2448742852005503e-05 0 -0.0013396085065869021 -0.00015562013545632276 0 -0.0012642045245235146 -0.00013595549538604124 0 -0.0012663018524193908 -6.1340059222492855e-05 0 -0.0013396085065869021 -0.00015562013545632276 0 -0.0012642045245235146 -0.00013595549538604124 0 -0.0013373469941529656 -0.00023275538074315325 0 -0.00087869633817378541 -0.00035262067116814395 0 -0.00076083652134750258 -0.00036131115913335749 0 -0.00080858281711354964 -0.00042957858700736119 0 -0.00087869633817378541 -0.00035262067116814395 0 -0.00076083652134750258 -0.00036131115913335749 0 -0.00080179021200040077 -0.00028926233439487424 0 -0.00070053256048202258 -0.00042644045377406486 0 -0.0007504939162557686 -0.00048139639241176767 0 -0.00080858281711354964 -0.00042957858700736119 0 -0.00070053256048202258 -0.00042644045377406486 0 -0.00076083652134750258 -0.00036131115913335749 0 -0.00080858281711354964 -0.00042957858700736119 0 -0.00089535211045469766 -0.00046830506805879652 0 -0.00087869633817378541 -0.00035262067116814395 0 -0.00080858281711354964 -0.00042957858700736119 0 -0.0010265752656893209 -0.00046869972431341572 0 -0.00089535211045469766 -0.00046830506805879652 0 -0.00099675373427357853 -0.00039202999630844331 0 -0.00089535211045469766 -0.00046830506805879652 0 -0.00087869633817378541 -0.00035262067116814395 0 -0.00099675373427357853 -0.00039202999630844331 0 -0.0011111411904846426 -0.00042174171499552437 0 -0.0010705897575484784 -0.00035118435963730913 0 -0.00099675373427357853 -0.00039202999630844331 0 -0.0010265752656893209 -0.00046869972431341572 0 -0.0011111411904846426 -0.00042174171499552437 0 -0.00099675373427357853 -0.00039202999630844331 0 -0.0010705897575484784 -0.00035118435963730913 0 -0.00099675373427357853 -0.00039202999630844331 0 -0.00097391983595333592 -0.00031243235517024691 0 -0.00087869633817378541 -0.00035262067116814395 0 -0.00099675373427357853 -0.00039202999630844331 0 -0.00097391983595333592 -0.00031243235517024691 0 -0.00087869633817378541 -0.00035262067116814395 0 -0.00097391983595333592 -0.00031243235517024691 0 -0.00088648786774159097 -0.00022662705152028001 0 -0.00097391983595333592 -0.00031243235517024691 0 -0.0010203867552155456 -0.00023197699752308559 0 -0.00088648786774159097 -0.00022662705152028001 0 -0.0010642345354569987 -0.00034381753124413056 0 -0.0009996175999973328 -0.00020411981903061793 0 -0.0010705897575484784 -0.00035118435963730913 0 -0.00097391983595333592 -0.00031243235517024691 0 -0.0010203867552155456 -0.00023197699752308559 0 -0.0009996175999973328 -0.00020411981903061793 0 -0.00094151594844279042 -4.7751728045681749e-05 0 -0.00097430004457858962 -0.00017554195926720409 0 -0.00091821679116171212 -1.6639570090200881e-05 0 -0.0010557976400795213 -6.281503350377102e-05 0 -0.0010203867552155456 -0.00023197699752308559 0 -0.00088648786774159097 -0.00022662705152028001 0 -0.0009651784848415955 -7.795804880819097e-05 0 -0.00088648786774159097 -0.00022662705152028001 0 -0.00074606706107838649 -0.0001876689320458497 0 -0.00081422804249137312 -6.8592801020040008e-05 0 -0.00088648786774159097 -0.00022662705152028001 0 -0.00080179021200040077 -0.00028926233439487424 0 -0.00074606706107838649 -0.0001876689320458497 0 -0.00087869633817378541 -0.00035262067116814395 0 -0.00088648786774159097 -0.00022662705152028001 0 -0.00080179021200040077 -0.00028926233439487424 0 -0.00070880834993597137 -0.00028936191003878795 0 -0.00080179021200040077 -0.00028926233439487424 0 -0.00074606706107838649 -0.0001876689320458497 0 -0.00070880834993597137 -0.00028936191003878795 0 -0.00076083652134750258 -0.00036131115913335749 0 -0.00080179021200040077 -0.00028926233439487424 0 -0.00081422804249137312 -6.8592801020040008e-05 0 -0.00072609922447205196 5.492491589935126e-05 0 -0.00059921574184944098 -8.1023076038328168e-05 0 -0.00074606706107838649 -0.0001876689320458497 0 -0.00081422804249137312 -6.8592801020040008e-05 0 -0.00059921574184944098 -8.1023076038328168e-05 0 -0.00081422804249137312 -6.8592801020040008e-05 0 -0.00090006050267718389 9.3946053411906569e-05 0 -0.00072609922447205196 5.492491589935126e-05 0 -0.00091821679116171212 -1.6639570090200881e-05 0 -0.00097755895313077234 0.00014180723488454991 0 -0.0010631699765249461 7.0168028571768754e-05 0 -0.00088648786774159097 -0.00022662705152028001 0 -0.00081422804249137312 -6.8592801020040008e-05 0 -0.0009651784848415955 -7.795804880819097e-05 0 -0.00091821679116171212 -1.6639570090200881e-05 0 -0.00087325010893876307 0.00011392773809242294 0 -0.00097755895313077234 0.00014180723488454991 0 -0.00081422804249137312 -6.8592801020040008e-05 0 -0.0009651784848415955 -7.795804880819097e-05 0 -0.00090006050267718389 9.3946053411906569e-05 0 -0.00094151594844279042 -4.7751728045681749e-05 0 -0.00088588968923784491 0.00010518667181430245 0 -0.00087325010893876307 0.00011392773809242294 0 -0.00097755895313077234 0.00014180723488454991 0 -0.00090834921801255216 0.00020366023050815262 0 -0.00097755895313077234 0.00014180723488454991 0 -0.00090834921801255216 0.00020366023050815262 0 -0.0010009149412837899 0.00022316885028010415 0 -0.00087325010893876307 0.00011392773809242294 0 -0.00090834921801255216 0.00020366023050815262 0 -0.00082654331394255479 0.00025974324945731098 0 -0.00088588968923784491 0.00010518667181430245 0 -0.00083024474809148844 0.000251503387403775 0 -0.00090006050267718389 9.3946053411906569e-05 0 -0.00075613528086954172 0.00017388620557241805 0 -0.00082654331394255479 0.00025974324945731098 0 -0.00075613528086954172 0.00017388620557241805 0 -0.00072037908846826369 0.00028200358468595923 0 -0.00064813795801816699 0.00023266551524086558 0 -0.00075613528086954172 0.00017388620557241805 0 -0.00064813795801816699 0.00023266551524086558 0 -0.00060391184129419376 0.00012585184719345033 0 -0.00075613528086954172 0.00017388620557241805 0 -0.00072037908846826369 0.00028200358468595923 0 -0.00082654331394255479 0.00025974324945731098 0 -0.00075613528086954172 0.00017388620557241805 0 -0.00072609922447205196 5.492491589935126e-05 0 -0.00060391184129419376 0.00012585184719345033 0 -0.00090006050267718389 9.3946053411906569e-05 0 -0.00075613528086954172 0.00017388620557241805 0 -0.00072609922447205196 5.492491589935126e-05 0 -0.0012813026621461511 2.1478954671010217e-05 0 -0.0012663018524193908 -6.1340059222492855e-05 0 -0.0011950481159673232 6.3640134541181372e-05 0 -0.0012813026621461511 2.1478954671010217e-05 0 -0.0013346381130695136 -8.1786979117415664e-05 0 -0.0012663018524193908 -6.1340059222492855e-05 0 -0.0012642045245235146 -0.00013595549538604124 0 -0.0012663018524193908 -6.1340059222492855e-05 0 -0.0011915220568152792 -7.2448742852005503e-05 0 -0.0011771272715732529 -5.1502761967051137e-05 0 -0.0011865235638927006 8.8524661550763194e-05 0 -0.0012663018524193908 -6.1340059222492855e-05 0 -0.0011915220568152792 -7.2448742852005503e-05 0 -0.0011950481159673232 6.3640134541181372e-05 0 -0.001165436423827191 -2.5150378965795517e-05 0 -0.0010631699765249461 7.0168028571768754e-05 0 -0.0011780586302522896 0.0001070963509192707 0 -0.001165436423827191 -2.5150378965795517e-05 0 -0.0010557976400795213 -6.281503350377102e-05 0 -0.0010631699765249461 7.0168028571768754e-05 0 -0.00091821679116171212 -1.6639570090200881e-05 0 -0.0010557976400795213 -6.281503350377102e-05 0 -0.0010631699765249461 7.0168028571768754e-05 0 -0.0010631699765249461 7.0168028571768754e-05 0 -0.0010768553556548457 0.00018556440228995527 0 -0.0011780586302522896 0.0001070963509192707 0 -0.00097755895313077234 0.00014180723488454991 0 -0.0010631699765249461 7.0168028571768754e-05 0 -0.0010768553556548457 0.00018556440228995527 0 -0.00097755895313077234 0.00014180723488454991 0 -0.0010768553556548457 0.00018556440228995527 0 -0.0010009149412837899 0.00022316885028010415 0 -0.0011780586302522896 0.0001070963509192707 0 -0.0011905631452208214 0.00021870766728456997 0 -0.0011342993025260709 0.0002344001309943603 0 -0.0010768553556548457 0.00018556440228995527 0 -0.0011780586302522896 0.0001070963509192707 0 -0.0011342993025260709 0.0002344001309943603 0 -0.0011865235638927006 8.8524661550763194e-05 0 -0.0011960826822544307 0.00021152677625040306 0 -0.0012683422007864163 0.00011657150397289973 0 -0.0011950481159673232 6.3640134541181372e-05 0 -0.0011905631452208214 0.00021870766728456997 0 -0.0012813026621461511 2.1478954671010217e-05 0 -0.0012683422007864163 0.00011657150397289973 0 -0.0011950481159673232 6.3640134541181372e-05 0 -0.0011927232913312535 0.0002859171742097193 0 -0.0011566803210463212 0.00030955946340033806 0 -0.0011370339118296248 0.0002954287475416966 0 -0.0011927232913312535 0.0002859171742097193 0 -0.0011370339118296248 0.0002954287475416966 0 -0.0011342993025260709 0.0002344001309943603 0 -0.0011927232913312535 0.0002859171742097193 0 -0.0011905631452208214 0.00021870766728456997 0 -0.0011342993025260709 0.0002344001309943603 0 -0.0011342993025260709 0.0002344001309943603 0 -0.0010993890949639869 0.00027245121632238773 0 -0.0010822007119520257 0.00024313229287104343 0 -0.0011370339118296248 0.0002954287475416966 0 -0.0010993890949639869 0.00027245121632238773 0 -0.0011057282601577489 0.00030289154118793123 0 -0.0011370339118296248 0.0002954287475416966 0 -0.0011342993025260709 0.0002344001309943603 0 -0.0010993890949639869 0.00027245121632238773 0 -0.0010993890949639869 0.00027245121632238773 0 -0.0010880585486382306 0.00029174854092937566 0 -0.0011057282601577489 0.00030289154118793123 0 -0.0010993890949639869 0.00027245121632238773 0 -0.0010880585486382306 0.00029174854092937566 0 -0.0010640081682282475 0.00029455368068620919 0 -0.0010993890949639869 0.00027245121632238773 0 -0.0010640081682282475 0.00029455368068620919 0 -0.0010552840229655558 0.00027319257396375988 0 -0.0010993890949639869 0.00027245121632238773 0 -0.0010552840229655558 0.00027319257396375988 0 -0.0010822007119520257 0.00024313229287104343 0 -0.0010640081682282475 0.00029455368068620919 0 -0.0010484453820241183 0.00029388053391452983 0 -0.0010552840229655558 0.00027319257396375988 0 -0.0010484453820241183 0.00029388053391452983 0 -0.0010552840229655558 0.00027319257396375988 0 -0.0010326370069704818 0.00029428208584353853 0 -0.0010768553556548457 0.00018556440228995527 0 -0.0011342993025260709 0.0002344001309943603 0 -0.0010822007119520257 0.00024313229287104343 0 -0.0010768553556548457 0.00018556440228995527 0 -0.0010822007119520257 0.00024313229287104343 0 -0.0010446278655946337 0.00024039198156355896 0 -0.0010552840229655558 0.00027319257396375988 0 -0.0010822007119520257 0.00024313229287104343 0 -0.0010446278655946337 0.00024039198156355896 0 -0.0010768553556548457 0.00018556440228995527 0 -0.0010009149412837899 0.00022316885028010415 0 -0.0010446278655946337 0.00024039198156355896 0 -0.0010009149412837899 0.00022316885028010415 0 -0.0010178888679070405 0.00027025140945877553 0 -0.00097891928032556503 0.00026714436595897799 0 -0.0010009149412837899 0.00022316885028010415 0 -0.0010446278655946337 0.00024039198156355896 0 -0.0010178888679070405 0.00027025140945877553 0 -0.0010552840229655558 0.00027319257396375988 0 -0.0010446278655946337 0.00024039198156355896 0 -0.0010178888679070405 0.00027025140945877553 0 -0.0010178888679070405 0.00027025140945877553 0 -0.0010326370069704818 0.00029428208584353853 0 -0.0010137463942071234 0.00029282940828611069 0 -0.0010552840229655558 0.00027319257396375988 0 -0.0010178888679070405 0.00027025140945877553 0 -0.0010326370069704818 0.00029428208584353853 0 -0.0010178888679070405 0.00027025140945877553 0 -0.0010137463942071234 0.00029282940828611069 0 -0.0009963181216677006 0.00028698149674689802 0 -0.0010137463942071234 0.00029282940828611069 0 -0.0010006997787312781 0.00030616378639554539 0 -0.0009963181216677006 0.00028698149674689802 0 -0.00094093288384356757 0.00012198043422261158 0 -0.00080284910820904774 7.7185919071024581e-05 0 -0.00087711859720040943 -0.00012688870400251462 0 -0.00079289012385542449 -6.6088913076138212e-05 0 -0.00063496317383491987 -0.00016685453936380218 0 -0.0010006997787312781 0.00030616378639554539 0 -0.0010365984973878305 0.00031834819808610409 0 -0.00095838260901357235 0.00031987761360238167 0 -0.0010137463942071234 0.00029282940828611069 0 -0.0010006997787312781 0.00030616378639554539 0 -0.0010216420405390113 0.00030627643701090746 0 -0.0010326370069704818 0.00029428208584353853 0 -0.001030917814429775 0.00030769966114440071 0 -0.0010216420405390113 0.00030627643701090746 0 -0.0010006997787312781 0.00030616378639554539 0 -0.0010216420405390113 0.00030627643701090746 0 -0.0010365984973878305 0.00031834819808610409 0 -0.0010326370069704818 0.00029428208584353853 0 -0.0010137463942071234 0.00029282940828611069 0 -0.0010216420405390113 0.00030627643701090746 0 -0.0010326370069704818 0.00029428208584353853 0 -0.001030917814429775 0.00030769966114440071 0 -0.0010396569373187046 0.00030392375343862968 0 -0.001030917814429775 0.00030769966114440071 0 -0.0010367657655334414 0.00031254056214550309 0 -0.0010396569373187046 0.00030392375343862968 0 -0.001030917814429775 0.00030769966114440071 0 -0.0010216420405390113 0.00030627643701090746 0 -0.0010365984973878305 0.00031834819808610409 0 -0.001030917814429775 0.00030769966114440071 0 -0.0010367657655334414 0.00031254056214550309 0 -0.0010365984973878305 0.00031834819808610409 0 -0.00094102892377836403 0.0001504213348921731 0 -0.00094093288384356757 0.00012198043422261158 0 -0.00087711859720040943 -0.00012688870400251462 0 -0.00079289012385542449 -6.6088913076138212e-05 0 -0.00083573555407014436 8.0098870785115121e-05 0 -0.001018995682473255 0.00030097254937295527 0 -0.0010095011333056114 0.00032111975484264182 0 -0.00096046557114636488 0.00035980486398055688 0 -0.00094093288384356757 0.00012198043422261158 0 -0.00089817811786021737 0.00021403046332573635 0 -0.00079289012385542449 -6.6088913076138212e-05 0 -0.00077943497479184009 1.0673778448896167e-05 0 -0.00083573555407014436 8.0098870785115121e-05 0 -0.0010095011333056114 0.00032111975484264182 0 -0.00099457139496095378 0.00033979454858925495 0 -0.00096046557114636488 0.00035980486398055688 0 -0.00079289012385542449 -6.6088913076138212e-05 0 -0.00077943497479184009 1.0673778448896167e-05 0 -0.00072995030414316686 -2.3010433790640515e-05 0 -0.0010095011333056114 0.00032111975484264182 0 -0.0010332472868648803 0.00031371033866216849 0 -0.0010226837892386622 0.00031115769883187356 0 -0.0010271502666763608 0.0003235945309595996 0 -0.0010095011333056114 0.00032111975484264182 0 -0.0010332472868648803 0.00031371033866216849 0 -0.0010271502666763608 0.0003235945309595996 0 -0.0010095011333056114 0.00032111975484264182 0 -0.0010117514428013544 0.00032949056791902305 0 -0.00099457139496095378 0.00033979454858925495 0 -0.0010308847857913325 0.00033721494219348004 0 -0.00099602566693232034 0.00035148854230518959 0 -0.0010271502666763608 0.0003235945309595996 0 -0.0010117514428013544 0.00032949056791902305 0 -0.0010308847857913325 0.00033721494219348004 0 -0.00099457139496095378 0.00033979454858925495 0 -0.0010117514428013544 0.00032949056791902305 0 -0.0010308847857913325 0.00033721494219348004 0 -0.0010095011333056114 0.00032111975484264182 0 -0.00099457139496095378 0.00033979454858925495 0 -0.0010117514428013544 0.00032949056791902305 0 -0.0010271502666763608 0.0003235945309595996 0 -0.0010308847857913325 0.00033721494219348004 0 -0.0010557856879315354 0.00031810217236935063 0 -0.0010271502666763608 0.0003235945309595996 0 -0.0010557856879315354 0.00031810217236935063 0 -0.0010332472868648803 0.00031371033866216849 0 -0.0010308847857913325 0.00033721494219348004 0 -0.0010557856879315354 0.00031810217236935063 0 -0.0010775212488208703 0.00032521826385419745 0 -0.0010557856879315354 0.00031810217236935063 0 -0.0010506393626310742 0.00031012212633268387 0 -0.0010332472868648803 0.00031371033866216849 0 -0.0010557856879315354 0.00031810217236935063 0 -0.0010506393626310742 0.00031012212633268387 0 -0.0010763279548679238 0.00030556033731149175 0 -0.0010332472868648803 0.00031371033866216849 0 -0.0010318992906397594 0.00030753366359089336 0 -0.0010407740541041137 0.00030853980137055366 0 -0.0010506393626310742 0.00031012212633268387 0 -0.0010332472868648803 0.00031371033866216849 0 -0.0010407740541041137 0.00030853980137055366 0 -0.001018995682473255 0.00030097254937295527 0 -0.0010095011333056114 0.00032111975484264182 0 -0.0010226837892386622 0.00031115769883187356 0 -0.0010332472868648803 0.00031371033866216849 0 -0.0010226837892386622 0.00031115769883187356 0 -0.0010318992906397594 0.00030753366359089336 0 -0.00094093288384356757 0.00012198043422261158 0 -0.0009895562161026058 0.00015531203920428943 0 -0.001018995682473255 0.00030097254937295527 0 -0.0010226837892386622 0.00031115769883187356 0 -0.0010318992906397594 0.00030753366359089336 0 -0.0010367657655334414 0.00031254056214550309 0 -0.0010318992906397594 0.00030753366359089336 0 -0.0010393179021282299 0.00030843113509185433 0 -0.0010367657655334414 0.00031254056214550309 0 -0.0010375290333796176 0.0003089420551135256 0 -0.0010318992906397594 0.00030753366359089336 0 -0.0010506393626310742 0.00031012212633268387 0 -0.0010407740541041137 0.00030853980137055366 0 -0.001048999006646842 0.00030388048775418483 0 -0.0010318992906397594 0.00030753366359089336 0 -0.0010393179021282299 0.00030843113509185433 0 -0.0010407740541041137 0.00030853980137055366 0 -0.0010393179021282299 0.00030843113509185433 0 -0.0010407740541041137 0.00030853980137055366 0 -0.001048999006646842 0.00030388048775418483 0 -0.0010393179021282299 0.00030843113509185433 0 -0.001048999006646842 0.00030388048775418483 0 -0.0010396569373187046 0.00030392375343862968 0 -0.0010367657655334414 0.00031254056214550309 0 -0.0010393179021282299 0.00030843113509185433 0 -0.0010396569373187046 0.00030392375343862968 0 -0.0010484453820241183 0.00029388053391452983 0 -0.0010326370069704818 0.00029428208584353853 0 -0.0010396569373187046 0.00030392375343862968 0 -0.0010484453820241183 0.00029388053391452983 0 -0.001048999006646842 0.00030388048775418483 0 -0.0010396569373187046 0.00030392375343862968 0 -0.0010640081682282475 0.00029455368068620919 0 -0.0010484453820241183 0.00029388053391452983 0 -0.001048999006646842 0.00030388048775418483 0 -0.0010640081682282475 0.00029455368068620919 0 -0.001048999006646842 0.00030388048775418483 0 -0.0010598253155486895 0.00030388352335245227 0 -0.0010640081682282475 0.00029455368068620919 0 -0.0010598253155486895 0.00030388352335245227 0 -0.0010763279548679238 0.00030556033731149175 0 -0.0010506393626310742 0.00031012212633268387 0 -0.0010598253155486895 0.00030388352335245227 0 -0.0010763279548679238 0.00030556033731149175 0 -0.0010506393626310742 0.00031012212633268387 0 -0.001048999006646842 0.00030388048775418483 0 -0.0010598253155486895 0.00030388352335245227 0 -0.0010880585486382306 0.00029174854092937566 0 -0.0010763279548679238 0.00030556033731149175 0 -0.0011057282601577489 0.00030289154118793123 0 -0.0010880585486382306 0.00029174854092937566 0 -0.0010640081682282475 0.00029455368068620919 0 -0.0010763279548679238 0.00030556033731149175 0 -0.0010763279548679238 0.00030556033731149175 0 -0.0011057282601577489 0.00030289154118793123 0 -0.0010928132576271093 0.000316675824594638 0 -0.0011057282601577489 0.00030289154118793123 0 -0.0010928132576271093 0.000316675824594638 0 -0.0011240041757017618 0.00031499523101315949 0 -0.0010557856879315354 0.00031810217236935063 0 -0.0010763279548679238 0.00030556033731149175 0 -0.0010928132576271093 0.000316675824594638 0 -0.0010557856879315354 0.00031810217236935063 0 -0.0010928132576271093 0.000316675824594638 0 -0.0010775212488208703 0.00032521826385419745 0 -0.0010308847857913325 0.00033721494219348004 0 -0.0010775212488208703 0.00032521826385419745 0 -0.001080089879525423 0.00033732888597009559 0 -0.0010928132576271093 0.000316675824594638 0 -0.0010775212488208703 0.00032521826385419745 0 -0.00111071517279118 0.00032903645720972353 0 -0.0010775212488208703 0.00032521826385419745 0 -0.001080089879525423 0.00033732888597009559 0 -0.00111071517279118 0.00032903645720972353 0 -0.0011263736918523551 0.00033634678268154187 0 -0.00111071517279118 0.00032903645720972353 0 -0.0011021506979548208 0.00034577662160401983 0 -0.0011396499733859926 0.00032492866165838503 0 -0.0011263736918523551 0.00033634678268154187 0 -0.00111071517279118 0.00032903645720972353 0 -0.001080089879525423 0.00033732888597009559 0 -0.00111071517279118 0.00032903645720972353 0 -0.0011021506979548208 0.00034577662160401983 0 -0.0011396499733859926 0.00032492866165838503 0 -0.00111071517279118 0.00032903645720972353 0 -0.0011240041757017618 0.00031499523101315949 0 -0.0010928132576271093 0.000316675824594638 0 -0.00111071517279118 0.00032903645720972353 0 -0.0011240041757017618 0.00031499523101315949 0 -0.0011370339118296248 0.0002954287475416966 0 -0.0011057282601577489 0.00030289154118793123 0 -0.0011240041757017618 0.00031499523101315949 0 -0.0011566803210463212 0.00030955946340033806 0 -0.0011370339118296248 0.0002954287475416966 0 -0.0011240041757017618 0.00031499523101315949 0 -0.0011566803210463212 0.00030955946340033806 0 -0.0011396499733859926 0.00032492866165838503 0 -0.0011240041757017618 0.00031499523101315949 0 -0.00082999965008503701 0.00025110539608022531 0 -0.0008802140956364568 0.0002681388909812526 0 -0.00092634559383141066 0.00023189266652808789 0 -0.00082999965008503701 0.00025110539608022531 0 -0.0008802140956364568 0.0002681388909812526 0 -0.00085053288018782701 0.00030913811449402866 0 -0.0008802140956364568 0.0002681388909812526 0 -0.00091164445119679615 0.00028406794656923591 0 -0.00085053288018782701 0.00030913811449402866 0 -0.00081430580714775215 0.00031795529460200135 0 -0.0005720581718122031 0.00022117059785004253 0 -0.00077296940959041809 0.00035898256561415343 0 -0.00066936000346815515 0.00034966686563775033 0 -0.00061415427565383082 0.00042667137338353979 0 -0.00082999965008503701 0.00025110539608022531 0 -0.00085053288018782701 0.00030913811449402866 0 -0.00072114325065613456 0.00028514028576896212 0 -0.00065404007837636588 4.1228215363876715e-05 0 -0.0005720581718122031 0.00022117059785004253 0 -0.00047747148991182707 -0.00017628121472622779 0 -0.00038142336567827145 -0.00014769086187830214 0 -0.00035976820229642907 -0.00018890266319844515 0 -0.00077296940959041809 0.00035898256561415343 0 -0.00066936000346815515 0.00034966686563775033 0 -0.00072037908846826369 0.00028200358468595923 0 -0.00066936000346815515 0.00034966686563775033 0 -0.00072037908846826369 0.00028200358468595923 0 -0.0006279843732070429 0.00031096841049611221 0 -0.00077296940959041809 0.00035898256561415343 0 -0.00072037908846826369 0.00028200358468595923 0 -0.00082654331394255479 0.00025974324945731098 0 -0.00081430580714775215 0.00031795529460200135 0 -0.00090953616327251179 0.0002592394604400713 0 -0.00077296940959041809 0.00035898256561415343 0 -0.00082654331394255479 0.00025974324945731098 0 -0.0009014258022121554 0.00028751755075411971 0 -0.00090834921801255216 0.00020366023050815262 0 -0.00082654331394255479 0.00025974324945731098 0 -0.0009014258022121554 0.00028751755075411971 0 -0.00090834921801255216 0.00020366023050815262 0 -0.0010009149412837899 0.00022316885028010415 0 -0.0009014258022121554 0.00028751755075411971 0 -0.00099488044047239214 0.00022697870265941247 0 -0.00090953616327251179 0.0002592394604400713 0 -0.0010009149412837899 0.00022316885028010415 0 -0.00092634559383141066 0.00023189266652808789 0 -0.00097891928032556503 0.00026714436595897799 0 -0.00092634559383141066 0.00023189266652808789 0 -0.00097891928032556503 0.00026714436595897799 0 -0.00094951014263027671 0.00028594630461283406 0 -0.0010178888679070405 0.00027025140945877553 0 -0.00097891928032556503 0.00026714436595897799 0 -0.0009963181216677006 0.00028698149674689802 0 -0.00097891928032556503 0.00026714436595897799 0 -0.00094951014263027671 0.00028594630461283406 0 -0.00097750495572230395 0.0002935074595956206 0 -0.00094951014263027671 0.00028594630461283406 0 -0.00097750495572230395 0.0002935074595956206 0 -0.00095838260901357235 0.00031987761360238167 0 -0.00097891928032556503 0.00026714436595897799 0 -0.00097750495572230395 0.0002935074595956206 0 -0.0009963181216677006 0.00028698149674689802 0 -0.0010006997787312781 0.00030616378639554539 0 -0.00097750495572230395 0.0002935074595956206 0 -0.0009963181216677006 0.00028698149674689802 0 -0.0008802140956364568 0.0002681388909812526 0 -0.00092634559383141066 0.00023189266652808789 0 -0.00091164445119679615 0.00028406794656923591 0 -0.00091164445119679615 0.00028406794656923591 0 -0.00095838260901357235 0.00031987761360238167 0 -0.00085053288018782701 0.00030913811449402866 0 -0.00092634559383141066 0.00023189266652808789 0 -0.00094951014263027671 0.00028594630461283406 0 -0.00091164445119679615 0.00028406794656923591 0 -0.00094951014263027671 0.00028594630461283406 0 -0.00091164445119679615 0.00028406794656923591 0 -0.00095838260901357235 0.00031987761360238167 0 -0.00080284910820904774 7.7185919071024581e-05 0 -0.00065404007837636588 4.1228215363876715e-05 0 -0.00058543660563509963 -0.00010420645957044394 0 -0.00063496317383491987 -0.00016685453936380218 0 -0.00047747148991182707 -0.00017628121472622779 0 -0.00079289012385542449 -6.6088913076138212e-05 0 -0.00063496317383491987 -0.00016685453936380218 0 -0.00067573736661038792 -7.44770087829781e-05 0 -0.0010006997787312781 0.00030616378639554539 0 -0.00097750495572230395 0.0002935074595956206 0 -0.00095838260901357235 0.00031987761360238167 0 -0.00058543660563509963 -0.00010420645957044394 0 -0.00063496317383491987 -0.00016685453936380218 0 -0.00067573736661038792 -7.44770087829781e-05 0 -0.00079289012385542449 -6.6088913076138212e-05 0 -0.00067573736661038792 -7.44770087829781e-05 0 -0.00072995030414316686 -2.3010433790640515e-05 0 -0.00067573736661038792 -7.44770087829781e-05 0 -0.00064113645789480773 -7.8549928032881594e-06 0 -0.00072995030414316686 -2.3010433790640515e-05 0 -0.00058543660563509963 -0.00010420645957044394 0 -0.00067573736661038792 -7.44770087829781e-05 0 -0.00064113645789480773 -7.8549928032881594e-06 0 -0.00064113645789480773 -7.8549928032881594e-06 0 -0.00072995030414316686 -2.3010433790640515e-05 0 -0.00073610548242910472 5.7902601383966099e-05 0 -0.00077943497479184009 1.0673778448896167e-05 0 -0.00072995030414316686 -2.3010433790640515e-05 0 -0.00073610548242910472 5.7902601383966099e-05 0 -0.00058543660563509963 -0.00010420645957044394 0 -0.00053350838763532654 -1.6049048833799904e-05 0 -0.00044592348726254301 -6.5345065833601935e-05 0 -0.00058543660563509963 -0.00010420645957044394 0 -0.00064113645789480773 -7.8549928032881594e-06 0 -0.00053350838763532654 -1.6049048833799904e-05 0 -0.00064113645789480773 -7.8549928032881594e-06 0 -0.00053350838763532654 -1.6049048833799904e-05 0 -0.00055961121869212843 6.5139514743751652e-05 0 -0.00053350838763532654 -1.6049048833799904e-05 0 -0.00043871873159381385 5.6502751926544238e-05 0 -0.00055961121869212843 6.5139514743751652e-05 0 -0.00053350838763532654 -1.6049048833799904e-05 0 -0.00044592348726254301 -6.5345065833601935e-05 0 -0.00043871873159381385 5.6502751926544238e-05 0 -0.00032669359489253478 -3.6354344693396308e-05 0 -0.00044592348726254301 -6.5345065833601935e-05 0 -0.00043871873159381385 5.6502751926544238e-05 0 -0.00032669359489253478 -3.6354344693396308e-05 0 -0.00044592348726254301 -6.5345065833601935e-05 0 -0.00035986458751065855 -0.00017667586563037893 0 -0.00058543660563509963 -0.00010420645957044394 0 -0.00047422251317589327 -0.00012832152664627418 0 -0.00047747148991182707 -0.00017628121472622779 0 -0.00058543660563509963 -0.00010420645957044394 0 -0.00044592348726254301 -6.5345065833601935e-05 0 -0.00035986458751065855 -0.00017667586563037893 0 -0.00056777821636238169 -0.00011069784897419631 0 -0.00042871230514143413 -0.0001470654934185218 0 -0.00035986458751065855 -0.00017667586563037893 0 -0.00021822946762157291 -0.00011258823113807111 0 -0.00012133896952520725 -0.00023948465465044685 0 -0.00042871230514143413 -0.0001470654934185218 0 -0.00020782926082060243 -0.00022597126849445201 0 -0.00047422251317589327 -0.00012832152664627418 0 -0.00047747148991182707 -0.00017628121472622779 0 -0.00038142336567827145 -0.00014769086187830214 0 -0.00021822946762157291 -0.00011258823113807111 0 -8.5604973546780778e-05 -9.5068723169872732e-05 0 -0.00012133896952520725 -0.00023948465465044685 0 -0.00021822946762157291 -0.00011258823113807111 0 -0.00018746855955184368 1.0407751785559275e-05 0 -8.5604973546780778e-05 -9.5068723169872732e-05 0 -0.00032669359489253478 -3.6354344693396308e-05 0 -0.00021822946762157291 -0.00011258823113807111 0 -0.00018746855955184368 1.0407751785559275e-05 0 -0.00032669359489253478 -3.6354344693396308e-05 0 -0.00035986458751065855 -0.00017667586563037893 0 -0.00021822946762157291 -0.00011258823113807111 0 -0.00032669359489253478 -3.6354344693396308e-05 0 -0.00018746855955184368 1.0407751785559275e-05 0 -0.00029309885851537581 9.8469282688120601e-05 0 -0.00018746855955184368 1.0407751785559275e-05 0 -8.5604973546780778e-05 -9.5068723169872732e-05 0 -2.6529173056178159e-05 6.0401642834020674e-05 0 -8.5604973546780778e-05 -9.5068723169872732e-05 0 6.8280153106183795e-05 -6.3568322706535307e-05 0 3.4320181141210094e-05 -0.00016938629831449897 0 -8.5604973546780778e-05 -9.5068723169872732e-05 0 6.8280153106183795e-05 -6.3568322706535307e-05 0 -2.6529173056178159e-05 6.0401642834020674e-05 0 6.8280153106183795e-05 -6.3568322706535307e-05 0 0.00025834204403410655 5.675752115806743e-06 0 0.00010524113301878336 8.0273218636425691e-05 0 6.8280153106183795e-05 -6.3568322706535307e-05 0 0.00018599986777049804 -0.0001520525013504002 0 0.00025834204403410655 5.675752115806743e-06 0 6.8280153106183795e-05 -6.3568322706535307e-05 0 0.00010524113301878336 8.0273218636425691e-05 0 -2.6529173056178159e-05 6.0401642834020674e-05 0 6.8280153106183795e-05 -6.3568322706535307e-05 0 3.4320181141210094e-05 -0.00016938629831449897 0 0.00018599986777049804 -0.0001520525013504002 0 3.4320181141210094e-05 -0.00016938629831449897 0 0.00018599986777049804 -0.0001520525013504002 0 0.00012406656801467632 -0.00029591616341362748 0 3.4320181141210094e-05 -0.00016938629831449897 0 -0.00012133896952520725 -0.00023948465465044685 0 0.00012406656801467632 -0.00029591616341362748 0 -0.00020782926082060243 -0.00022597126849445201 0 -0.00025083421309382244 9.5737814604028026e-05 0 -8.5604973546780778e-05 -9.5068723169872732e-05 0 3.4320181141210094e-05 -0.00016938629831449897 0 -0.00012133896952520725 -0.00023948465465044685 0 0.00029080929570895504 0.00018970059281461535 0 0.00032288657745387322 0.00018128638933753762 0 0.00034234267891570104 0.00021804530969638604 0 0.00028299210541788246 5.7687543815210377e-05 0 4.4819213425098001e-05 0.00016635596537734889 0 0.00029080929570895504 0.00018970059281461535 0 0.00024596096273648752 0.00020212541571507832 0 0.00025056034574257383 0.00024241449883358386 0 0.00029080929570895504 0.00018970059281461535 0 0.00024596096273648752 0.00020212541571507832 0 0.00027846984103222264 0.00015351123218734138 0 0.00018599986777049804 -0.0001520525013504002 0 0.00033704303270137685 -0.00022113972730406615 0 0.00012406656801467632 -0.00029591616341362748 0 4.4819213425098001e-05 0.00016635596537734889 0 -0.00025083421309382244 9.5737814604028026e-05 0 0.00018599986777049804 -0.0001520525013504002 0 0.00025834204403410655 5.675752115806743e-06 0 0.00033704303270137685 -0.00022113972730406615 0 -0.00036956270383093725 0.00049876438044018257 0 -0.00041544433803187241 0.00044451625903675521 0 -0.00048061592304392563 0.00045718553906415115 0 0.00029080929570895504 0.00018970059281461535 0 0.00027846984103222264 0.00015351123218734138 0 0.00032288657745387322 0.00018128638933753762 0 0.00015533254448706573 0.00019114832856942951 0 0.00021066720629189594 0.0002113544167916669 0 0.00020726700998346489 0.00016267787400630032 0 4.4819213425098001e-05 0.00016635596537734889 0 0.00029468125070771916 0.00020340038202616687 0 0.00015533254448706573 0.00019114832856942951 0 0.00020726700998346489 0.00016267787400630032 0 0.00017245415207956278 0.00012796710640331554 0 0.00020726700998346489 0.00016267787400630032 0 0.00017245415207956278 0.00012796710640331554 0 0.00020351167730583698 0.00013713909092439317 0 4.4819213425098001e-05 0.00016635596537734889 0 -9.4816833256930965e-05 0.00028074060601659663 0 -0.00036956270383093725 0.00049876438044018257 0 -0.00041544433803187241 0.00044451625903675521 0 -0.00030719125391395362 0.00034779663008843405 0 -0.00041544433803187241 0.00044451625903675521 0 -0.00040696586265245714 0.00034736675282656069 0 -0.00030719125391395362 0.00034779663008843405 0 -0.00041544433803187241 0.00044451625903675521 0 -0.00040696586265245714 0.00034736675282656069 0 -0.00048315206136098079 0.00038717836794569899 0 -0.00040696586265245714 0.00034736675282656069 0 -0.00047039832031351174 0.00029553220512322428 0 -0.00036234667021783668 0.00026161968175345977 0 -0.00040696586265245714 0.00034736675282656069 0 -0.00030719125391395362 0.00034779663008843405 0 -0.00036234667021783668 0.00026161968175345977 0 0.00017245415207956278 0.00012796710640331554 0 0.0001247007836464654 9.218619633646575e-05 0 0.00017374623251610976 0.00011287401188568397 0 -0.00038142336567827145 -0.00014769086187830214 0 -0.00035976820229642907 -0.00018890266319844515 0 -0.00029386553154577124 -0.00016344290723436462 0 -0.00061258456683044023 0.00042701520630905588 0 -0.00057327396671828302 0.00041958032177318684 0 -0.00049756116718139155 0.00046578946718283006 0 -0.0005720581718122031 0.00022117059785004253 0 -0.00025083421309382244 9.5737814604028026e-05 0 -0.0006096068422650156 0.00037144048420239769 0 -0.00057327396671828302 0.00041958032177318684 0 -0.00055542711351028293 0.00034185599997197877 0 -0.0006096068422650156 0.00037144048420239769 0 -0.00061415427565383082 0.00042667137338353979 0 -0.00057327396671828302 0.00041958032177318684 0 -0.00066936000346815515 0.00034966686563775033 0 -0.0006096068422650156 0.00037144048420239769 0 -0.00061415427565383082 0.00042667137338353979 0 -0.0005720581718122031 0.00022117059785004253 0 -0.00059885314655740748 0.00028043015309598876 0 -0.00057327396671828302 0.00041958032177318684 0 -0.00049756116718139155 0.00046578946718283006 0 -0.00048315206136098079 0.00038717836794569899 0 -0.00041544433803187241 0.00044451625903675521 0 -0.00049756116718139155 0.00046578946718283006 0 -0.00048315206136098079 0.00038717836794569899 0 -0.00050875015106151289 0.00038603573907814928 0 -0.00025083421309382244 9.5737814604028026e-05 0 -0.00057327396671828302 0.00041958032177318684 0 -0.00048315206136098079 0.00038717836794569899 0 -0.00055542711351028293 0.00034185599997197877 0 -0.00048315206136098079 0.00038717836794569899 0 -0.00055542711351028293 0.00034185599997197877 0 -0.00047039832031351174 0.00029553220512322428 0 -0.00040696586265245714 0.00034736675282656069 0 -0.00048315206136098079 0.00038717836794569899 0 -0.00047039832031351174 0.00029553220512322428 0 -0.00055542711351028293 0.00034185599997197877 0 -0.00047039832031351174 0.00029553220512322428 0 -0.0005610381371046315 0.00024960403717892634 0 -0.0006279843732070429 0.00031096841049611221 0 -0.00064813795801816699 0.00023266551524086558 0 -0.0005610381371046315 0.00024960403717892634 0 -0.00055542711351028293 0.00034185599997197877 0 -0.0006279843732070429 0.00031096841049611221 0 -0.0005610381371046315 0.00024960403717892634 0 -0.0006096068422650156 0.00037144048420239769 0 -0.00055542711351028293 0.00034185599997197877 0 -0.0006279843732070429 0.00031096841049611221 0 -0.00066936000346815515 0.00034966686563775033 0 -0.0006096068422650156 0.00037144048420239769 0 -0.0006279843732070429 0.00031096841049611221 0 -0.00072037908846826369 0.00028200358468595923 0 -0.0006279843732070429 0.00031096841049611221 0 -0.00064813795801816699 0.00023266551524086558 0 -0.00064813795801816699 0.00023266551524086558 0 -0.0005610381371046315 0.00024960403717892634 0 -0.00060391184129419376 0.00012585184719345033 0 -0.00060391184129419376 0.00012585184719345033 0 -0.00045998643534182862 0.00018976104690661627 0 -0.00045408016007555865 3.4635489951091881e-05 0 -0.0005610381371046315 0.00024960403717892634 0 -0.00060391184129419376 0.00012585184719345033 0 -0.00045998643534182862 0.00018976104690661627 0 -0.00047039832031351174 0.00029553220512322428 0 -0.0005610381371046315 0.00024960403717892634 0 -0.00045998643534182862 0.00018976104690661627 0 -0.00047039832031351174 0.00029553220512322428 0 -0.00045998643534182862 0.00018976104690661627 0 -0.00036234667021783668 0.00026161968175345977 0 -0.00045998643534182862 0.00018976104690661627 0 -0.00036234667021783668 0.00026161968175345977 0 -0.00030896639516801396 0.00016817888383888273 0 -0.00030719125391395362 0.00034779663008843405 0 -0.00036234667021783668 0.00026161968175345977 0 -0.00022575781787104182 0.0002010638509137732 0 -9.4816833256930965e-05 0.00028074060601659663 0 -4.6301695745409143e-05 0.00012261164972156803 0 -0.00036234667021783668 0.00026161968175345977 0 -0.00022575781787104182 0.0002010638509137732 0 -0.00030896639516801396 0.00016817888383888273 0 -0.00030896639516801396 0.00016817888383888273 0 -0.00024580396560788445 7.2943357981510398e-05 0 -0.00033863353778291398 2.4570932012345085e-05 0 -0.00022575781787104182 0.0002010638509137732 0 -0.00030896639516801396 0.00016817888383888273 0 -0.00024580396560788445 7.2943357981510398e-05 0 -0.00030896639516801396 0.00016817888383888273 0 -0.00048305824733645044 2.7634376391682416e-05 0 -0.00033863353778291398 2.4570932012345085e-05 0 -0.00031922790165718956 0.00015985764380208322 0 -0.00046605076247987635 3.3532890714000404e-05 0 -0.00045998643534182862 0.00018976104690661627 0 -0.00030896639516801396 0.00016817888383888273 0 -0.00045408016007555865 3.4635489951091881e-05 0 -0.00048305824733645044 2.7634376391682416e-05 0 -0.00033863353778291398 2.4570932012345085e-05 0 -0.0003671282796073254 -0.00011833192507083455 0 -0.00033863353778291398 2.4570932012345085e-05 0 -0.00024572942383899675 -5.2063645185640454e-05 0 -0.0003671282796073254 -0.00011833192507083455 0 -0.00024580396560788445 7.2943357981510398e-05 0 -0.00033863353778291398 2.4570932012345085e-05 0 -0.00024572942383899675 -5.2063645185640454e-05 0 -0.00032818673302139749 -0.00022990587801195175 0 -0.00025957867129331488 -0.00015752383084808411 0 -0.0003671282796073254 -0.00011833192507083455 0 -0.00024572942383899675 -5.2063645185640454e-05 0 -0.00025957867129331488 -0.00015752383084808411 0 -0.0003671282796073254 -0.00011833192507083455 0 -0.00043877463578165948 -0.00024034520201309052 0 -0.0003671282796073254 -0.00011833192507083455 0 -0.00050324195449240479 -0.00013824008326866259 0 -0.00048305824733645044 2.7634376391682416e-05 0 -0.0003671282796073254 -0.00011833192507083455 0 -0.00050324195449240479 -0.00013824008326866259 0 -0.00048305824733645044 2.7634376391682416e-05 0 -0.00050324195449240479 -0.00013824008326866259 0 -0.00062764759319583702 -9.5683720166723401e-05 0 -0.00059152598881815938 -0.00023729504524767992 0 -0.00050324195449240479 -0.00013824008326866259 0 -0.00062764759319583702 -9.5683720166723401e-05 0 -0.00073701678531456496 -0.00018319686640436936 0 -0.00061534449338609021 -8.8826768447479443e-05 0 -0.00072609922447205196 5.492491589935126e-05 0 -0.00060391184129419376 0.00012585184719345033 0 -0.00059921574184944098 -8.1023076038328168e-05 0 -0.00060391184129419376 0.00012585184719345033 0 -0.00045408016007555865 3.4635489951091881e-05 0 -0.00059921574184944098 -8.1023076038328168e-05 0 -0.00046605076247987635 3.3532890714000404e-05 0 -0.00061534449338609021 -8.8826768447479443e-05 0 -0.0002239689019343417 -0.00028186820414573656 0 -0.00026521477546523483 -0.00024711976000824939 0 -0.00021318963090676013 -0.00020794354683366294 0 -0.00017019658599023101 -0.00026744573597298611 0 -0.0002239689019343417 -0.00028186820414573656 0 -0.00021318963090676013 -0.00020794354683366294 0 -0.00017019658599023101 -0.00026744573597298611 0 -0.00020329438462785305 -0.00033135974984433055 0 -0.0002239689019343417 -0.00028186820414573656 0 -0.00024496242550336891 -0.00031965319284371976 0 -0.0002239689019343417 -0.00028186820414573656 0 -0.00027673747585118765 -0.00029012941482571574 0 -0.0002239689019343417 -0.00028186820414573656 0 -0.00027673747585118765 -0.00029012941482571574 0 -0.00026521477546523483 -0.00024711976000824939 0 -0.00011079529691746689 -0.00016114976245421589 0 -0.00012635297807513451 -0.00014601392743939653 0 -0.00010300247185009777 -0.00013371144650585606 0 -0.00020076433806817377 -0.00023578604975123092 0 -2.0335770792892865e-05 -0.00012797810026547978 0 -0.00015823140094609032 -0.00019851902674537054 0 -0.00011079529691746689 -0.00016114976245421589 0 -0.00012635297807513451 -0.00014601392743939653 0 -0.00023084808730054049 -0.00021579393303013954 0 -0.00025957867129331488 -0.00015752383084808411 0 -0.00012635297807513451 -0.00014601392743939653 0 -0.00023084808730054049 -0.00021579393303013954 0 -0.00015823140094609032 -0.00019851902674537054 0 -0.00012635297807513451 -0.00014601392743939653 0 -0.00024572942383899675 -5.2063645185640454e-05 0 -0.00025957867129331488 -0.00015752383084808411 0 -0.00012635297807513451 -0.00014601392743939653 0 -0.00012635297807513451 -0.00014601392743939653 0 -6.0229633222155126e-05 -1.8119240148573225e-05 0 0.00015589829647835767 -4.8423157013429948e-05 0 -0.00024572942383899675 -5.2063645185640454e-05 0 -0.00012635297807513451 -0.00014601392743939653 0 -6.0229633222155126e-05 -1.8119240148573225e-05 0 -0.00024580396560788445 7.2943357981510398e-05 0 -0.00024572942383899675 -5.2063645185640454e-05 0 -6.0229633222155126e-05 -1.8119240148573225e-05 0 -6.0229633222155126e-05 -1.8119240148573225e-05 0 0.00015589829647835767 -4.8423157013429948e-05 0 9.2553490778553261e-05 4.1198308981434318e-05 0 -8.6783349638852375e-05 -0.00013004081486853506 0 -2.0335770792892865e-05 -0.00012797810026547978 0 -2.0335770792892865e-05 -0.00012797810026547978 0 0.00014554912873604144 4.4145149770762271e-05 0 0.00019561048454791899 2.1852585644792434e-05 0 9.2553490778553261e-05 4.1198308981434318e-05 0 0.00017293822840030472 6.3326250781650502e-05 0 0.00019561048454791899 2.1852585644792434e-05 0 0.00017293822840030472 6.3326250781650502e-05 0 0.0002365481257829938 8.4637234570714452e-05 0 0.00015589829647835767 -4.8423157013429948e-05 0 0.00019561048454791899 2.1852585644792434e-05 0 9.2553490778553261e-05 4.1198308981434318e-05 0 9.2553490778553261e-05 4.1198308981434318e-05 0 0.00017293822840030472 6.3326250781650502e-05 0 0.00016185187872012939 8.9805539578717263e-05 0 9.2553490778553261e-05 4.1198308981434318e-05 0 9.5416939115709252e-05 6.7692153121974168e-05 0 0.00016185187872012939 8.9805539578717263e-05 0 -6.0229633222155126e-05 -1.8119240148573225e-05 0 9.2553490778553261e-05 4.1198308981434318e-05 0 9.5416939115709252e-05 6.7692153121974168e-05 0 -4.6301695745409143e-05 0.00012261164972156803 0 -4.792481166867947e-05 -1.5011475096544892e-05 0 0.0001247007836464654 9.218619633646575e-05 0 -6.0229633222155126e-05 -1.8119240148573225e-05 0 9.5416939115709252e-05 6.7692153121974168e-05 0 -0.00022575781787104182 0.0002010638509137732 0 -0.00024580396560788445 7.2943357981510398e-05 0 -6.0229633222155126e-05 -1.8119240148573225e-05 0 0.0001247007836464654 9.218619633646575e-05 0 9.5416939115709252e-05 6.7692153121974168e-05 0 0.00013800694556897133 9.2717097225334365e-05 0 9.5416939115709252e-05 6.7692153121974168e-05 0 0.00013800694556897133 9.2717097225334365e-05 0 0.00016185187872012939 8.9805539578717263e-05 0 0.00013800694556897133 9.2717097225334365e-05 0 0.00016185187872012939 8.9805539578717263e-05 0 0.00017374623251610976 0.00011287401188568397 0 0.0001247007836464654 9.218619633646575e-05 0 0.00013800694556897133 9.2717097225334365e-05 0 0.00017374623251610976 0.00011287401188568397 0 0.00016185187872012939 8.9805539578717263e-05 0 0.00017374623251610976 0.00011287401188568397 0 0.00023342545443739204 0.00012310725044058874 0 0.00017293822840030472 6.3326250781650502e-05 0 0.00016185187872012939 8.9805539578717263e-05 0 0.0002365481257829938 8.4637234570714452e-05 0 0.00016185187872012939 8.9805539578717263e-05 0 0.0002365481257829938 8.4637234570714452e-05 0 0.00023342545443739204 0.00012310725044058874 0 0.0002365481257829938 8.4637234570714452e-05 0 0.00029789895815964982 4.3152584190216224e-05 0 0.0003125759702786235 9.7310611568819365e-05 0 0.0002365481257829938 8.4637234570714452e-05 0 0.00027668702861983265 0.00011737122342322054 0 0.00023342545443739204 0.00012310725044058874 0 0.0002365481257829938 8.4637234570714452e-05 0 0.0003125759702786235 9.7310611568819365e-05 0 0.00027668702861983265 0.00011737122342322054 0 0.00019561048454791899 2.1852585644792434e-05 0 0.0002365481257829938 8.4637234570714452e-05 0 0.00029789895815964982 4.3152584190216224e-05 0 0.00017940785143925959 -3.4472484329278646e-05 0 0.00019561048454791899 2.1852585644792434e-05 0 0.00029789895815964982 4.3152584190216224e-05 0 -2.0335770792892865e-05 -0.00012797810026547978 0 3.9572415273236161e-05 -8.5501077714498987e-05 0 0.00036662313737020912 9.5884206030532308e-05 0 0.00029789895815964982 4.3152584190216224e-05 0 0.0003125759702786235 9.7310611568819365e-05 0 8.9115473638884043e-05 -3.0274259388450641e-05 0 3.9572415273236161e-05 -8.5501077714498987e-05 0 0.00036662313737020912 9.5884206030532308e-05 0 0.0003125759702786235 9.7310611568819365e-05 0 0.00034060331907148384 0.00011898993679740383 0 0.0003125759702786235 9.7310611568819365e-05 0 0.00034060331907148384 0.00011898993679740383 0 0.00031715275732179134 0.00013162741061954213 0 0.00034060331907148384 0.00011898993679740383 0 0.00034161278988670881 0.00014289071312969612 0 0.00031715275732179134 0.00013162741061954213 0 0.00034161278988670881 0.00014289071312969612 0 0.00031715275732179134 0.00013162741061954213 0 0.00033101670164412551 0.00015309095142136396 0 0.00031715275732179134 0.00013162741061954213 0 0.00029625443858526026 0.00014518021852581679 0 0.00033101670164412551 0.00015309095142136396 0 0.0003125759702786235 9.7310611568819365e-05 0 0.00031715275732179134 0.00013162741061954213 0 0.00027668702861983265 0.00011737122342322054 0 0.00027668702861983265 0.00011737122342322054 0 0.00029625443858526026 0.00014518021852581679 0 0.00023342545443739204 0.00012310725044058874 0 0.00031715275732179134 0.00013162741061954213 0 0.00027668702861983265 0.00011737122342322054 0 0.00029625443858526026 0.00014518021852581679 0 0.00029625443858526026 0.00014518021852581679 0 0.00027627406331713188 0.00015449399829082049 0 0.0003369734328749122 0.00017243772773509067 0 0.00029625443858526026 0.00014518021852581679 0 0.00033101670164412551 0.00015309095142136396 0 0.0003369734328749122 0.00017243772773509067 0 0.0003513662665198995 0.0001594949721927817 0 0.00034161278988670881 0.00014289071312969612 0 0.00033101670164412551 0.00015309095142136396 0 0.0003513662665198995 0.0001594949721927817 0 0.00033101670164412551 0.00015309095142136396 0 0.0003369734328749122 0.00017243772773509067 0 0.00064548474655539247 -3.7219787406941438e-05 0 0.00022652874262392306 0.00023063249724106065 0 0.00017245415207956278 0.00012796710640331554 0 0.00017374623251610976 0.00011287401188568397 0 0.00020351167730583698 0.00013713909092439317 0 0.00017374623251610976 0.00011287401188568397 0 0.00022485882326020966 0.00013648965733546086 0 0.00020351167730583698 0.00013713909092439317 0 0.00017374623251610976 0.00011287401188568397 0 0.00022485882326020966 0.00013648965733546086 0 0.00023342545443739204 0.00012310725044058874 0 0.00022485882326020966 0.00013648965733546086 0 0.00023342545443739204 0.00012310725044058874 0 0.00027627406331713188 0.00015449399829082049 0 0.00029625443858526026 0.00014518021852581679 0 0.00023342545443739204 0.00012310725044058874 0 0.00027627406331713188 0.00015449399829082049 0 0.00027627406331713188 0.00015449399829082049 0 0.00030974841353414377 0.0001842913154988139 0 0.0003369734328749122 0.00017243772773509067 0 0.00027627406331713188 0.00015449399829082049 0 0.00024695132856545802 0.00015704831081075359 0 0.00030974841353414377 0.0001842913154988139 0 0.00022485882326020966 0.00013648965733546086 0 0.00027627406331713188 0.00015449399829082049 0 0.00024695132856545802 0.00015704831081075359 0 0.00022485882326020966 0.00013648965733546086 0 0.00024695132856545802 0.00015704831081075359 0 0.00020351167730583698 0.00013713909092439317 0 0.00020726700998346489 0.00016267787400630032 0 0.00024695132856545802 0.00015704831081075359 0 0.00026559993000426131 0.00018243330320392303 0 0.00020726700998346489 0.00016267787400630032 0 0.00024695132856545802 0.00015704831081075359 0 0.00020351167730583698 0.00013713909092439317 0 0.00021066720629189594 0.0002113544167916669 0 0.00026559993000426131 0.00018243330320392303 0 0.00032874892048321891 0.00021175454589370346 0 0.00029468125070771916 0.00020340038202616687 0 0.00030671000112414344 0.00020612171938845042 0 0.00021066720629189594 0.0002113544167916669 0 0.00020726700998346489 0.00016267787400630032 0 0.00026559993000426131 0.00018243330320392303 0 0.00024695132856545802 0.00015704831081075359 0 0.00026559993000426131 0.00018243330320392303 0 0.00030974841353414377 0.0001842913154988139 0 0.00026559993000426131 0.00018243330320392303 0 0.00030974841353414377 0.0001842913154988139 0 0.00032874892048321891 0.00021175454589370346 0 0.00030974841353414377 0.0001842913154988139 0 0.00032874892048321891 0.00021175454589370346 0 0.00036786730329693365 0.0002173396941178006 0 0.00032874892048321891 0.00021175454589370346 0 0.00036786730329693365 0.0002173396941178006 0 0.00038618829528983624 0.00023496488452320506 0 0.00032288657745387322 0.00018128638933753762 0 0.00032874892048321891 0.00021175454589370346 0 0.00034234267891570104 0.00021804530969638604 0 0.00032874892048321891 0.00021175454589370346 0 0.00038618829528983624 0.00023496488452320506 0 0.00034234267891570104 0.00021804530969638604 0 0.00064548474655539247 -3.7219787406941438e-05 0 0.00073989547910564227 -4.8485533001346232e-06 0 0.00044077659223518595 0.00014060319485508578 0 0.0003369734328749122 0.00017243772773509067 0 0.00039471080976123847 0.00021924688094481819 0 0.00030974841353414377 0.0001842913154988139 0 0.0003369734328749122 0.00017243772773509067 0 0.00036786730329693365 0.0002173396941178006 0 0.0003369734328749122 0.00017243772773509067 0 0.00036786730329693365 0.0002173396941178006 0 0.00039471080976123847 0.00021924688094481819 0 0.00036786730329693365 0.0002173396941178006 0 0.00039471080976123847 0.00021924688094481819 0 0.00044193053020397772 0.00025441114842451136 0 0.001222749200243856 -0.00018804236132675289 0 0.0010131848420960104 -0.00017340325527645059 0 0.0010294820990225625 6.7236320156331193e-05 0 0.0010131848420960104 -0.00017340325527645059 0 0.0010294820990225625 6.7236320156331193e-05 0 0.00080031153110468405 8.2899781076982112e-05 0 0.0016271568709283325 -0.00024226972541058792 0 0.001676810256258301 -0.0001921827763622521 0 0.0016886430859575988 -0.0001936214759201346 0 0.001676810256258301 -0.0001921827763622521 0 0.0017048434809624779 -0.00013003812066588301 0 0.0016886430859575988 -0.0001936214759201346 0 0.00073989547910564227 -4.8485533001346232e-06 0 0.00061366869502003625 0.00018780274808253867 0 0.0010294820990225625 6.7236320156331193e-05 0 0.00080031153110468405 8.2899781076982112e-05 0 0.0008414283316238682 0.00033133759259941086 0 0.00080031153110468405 8.2899781076982112e-05 0 0.00058193951408867686 0.00035240981820843908 0 0.0008414283316238682 0.00033133759259941086 0 0.0013485986591361095 -6.7543047419052409e-05 0 0.0012031275620889733 0.00014186382138432343 0 0.0017048434809624779 -0.00013003812066588301 0 0.0015673107838016071 -4.8865160219865797e-05 0 0.0017343619711921781 -3.9402876582841517e-05 0 0.001676810256258301 -0.0001921827763622521 0 0.0017048434809624779 -0.00013003812066588301 0 0.0015673107838016071 -4.8865160219865797e-05 0 0.00038618829528983624 0.00023496488452320506 0 0.00043317801633590593 0.00027024045899797194 0 0.00034234267891570104 0.00021804530969638604 0 0.00036786730329693365 0.0002173396941178006 0 0.00044193053020397772 0.00025441114842451136 0 0.00038618829528983624 0.00023496488452320506 0 0.00044193053020397772 0.00025441114842451136 0 0.00038618829528983624 0.00023496488452320506 0 0.00043317801633590593 0.00027024045899797194 0 0.00044193053020397772 0.00025441114842451136 0 0.00043317801633590593 0.00027024045899797194 0 0.00058193951408867686 0.00035240981820843908 0 0.00061366869502003625 0.00018780274808253867 0 0.00057476093309440589 0.00034489406576278654 0 0.00043317801633590593 0.00027024045899797194 0 0.00042028728509440499 0.00032568331262882046 0 0.00032027780220283931 0.00023375870129078036 0 0.00043317801633590593 0.00027024045899797194 0 0.00042028728509440499 0.00032568331262882046 0 0.00058193951408867686 0.00035240981820843908 0 0.00045027951891926627 0.00043837348969278376 0 0.00042028728509440499 0.00032568331262882046 0 0.00058193951408867686 0.00035240981820843908 0 0.00045027951891926627 0.00043837348969278376 0 0.00058193951408867686 0.00035240981820843908 0 0.00057271158089475293 0.00048205947633146533 0 0.00058193951408867686 0.00035240981820843908 0 0.00073081137915806773 0.00056724672622757491 0 0.00057271158089475293 0.00048205947633146533 0 0.00073081137915806773 0.00056724672622757491 0 0.00057271158089475293 0.00048205947633146533 0 0.00053521113231349052 0.00057435766284982099 0 0.00045027951891926627 0.00043837348969278376 0 0.00057271158089475293 0.00048205947633146533 0 0.00053521113231349052 0.00057435766284982099 0 0.00045027951891926627 0.00043837348969278376 0 0.00053521113231349052 0.00057435766284982099 0 0.00038365262876018048 0.00056551640318646323 0 0.0015673107838016071 -4.8865160219865797e-05 0 0.0017471281119983237 0.00017025499675720057 0 0.0017343619711921781 -3.9402876582841517e-05 0 0.00058193951408867686 0.00035240981820843908 0 0.00073081137915806773 0.00056724672622757491 0 0.0008414283316238682 0.00033133759259941086 0 0.0010115815202259174 0.00042341060375856749 0 0.0012031275620889733 0.00014186382138432343 0 0.0012985289263001151 0.00023831006309188449 0 0.0015673107838016071 -4.8865160219865797e-05 0 0.0017471281119983237 0.00017025499675720057 0 0.0017471281119983237 0.00017025499675720057 0 0.0018991067486758269 0.00048167292949829668 0 0.0014552151989770002 0.0005175401674864425 0 0.0018991067486758269 0.00048167292949829668 0 0.0018039969940603217 0.00068885816353816617 0 0.0014552151989770002 0.0005175401674864425 0 0.0018039969940603217 0.00068885816353816617 0 0.0019839314418687872 0.00074236059419021457 0 0.0020569382180664407 0.00067920708136208778 0 0.0018991067486758269 0.00048167292949829668 0 0.0018039969940603217 0.00068885816353816617 0 0.0020569382180664407 0.00067920708136208778 0 0.0018039969940603217 0.00068885816353816617 0 0.0014552151989770002 0.0005175401674864425 0 0.00095885353783877207 0.00084309840900364662 0 0.0017806712260568229 0.00070369040409663634 0 0.0013776143968128179 0.00077319233187698945 0 0.0018039969940603217 0.00068885816353816617 0 0.0018193295540799542 0.0007240146052325295 0 0.001805212620857006 0.00071963938387876319 0 0.0018039969940603217 0.00068885816353816617 0 0.0018193295540799542 0.0007240146052325295 0 0.0018759840746337046 0.00076610891735663851 0 0.0012985289263001151 0.00023831006309188449 0 0.0017471281119983237 0.00017025499675720057 0 0.0014552151989770002 0.0005175401674864425 0 0.00073081137915806773 0.00056724672622757491 0 0.00061346141291789675 0.00069807653404340808 0 0.00082016549441177213 0.00083316123915801166 0 0.0012985289263001151 0.00023831006309188449 0 0.00082016549441177213 0.00083316123915801166 0 0.00095885353783877207 0.00084309840900364662 0 0.0012985289263001151 0.00023831006309188449 0 0.0014552151989770002 0.0005175401674864425 0 0.00095885353783877207 0.00084309840900364662 0 0.0010115815202259174 0.00042341060375856749 0 0.00081815779184058021 0.00082345823637700185 0 0.00073081137915806773 0.00056724672622757491 0 0.00053521113231349052 0.00057435766284982099 0 0.00061346141291789675 0.00069807653404340808 0 0.00061346141291789675 0.00069807653404340808 0 0.00040801810885371452 0.00088138965763614845 0 0.0004370219284959603 0.00067954977076193246 0 0.00053521113231349052 0.00057435766284982099 0 0.00061346141291789675 0.00069807653404340808 0 0.0004370219284959603 0.00067954977076193246 0 0.0013776143968128179 0.00077319233187698945 0 0.0010828249907162797 0.00079936336510260156 0 0.00061346141291789675 0.00069807653404340808 0 0.00082016549441177213 0.00083316123915801166 0 0.00040801810885371452 0.00088138965763614845 0 0.001805212620857006 0.00071963938387876319 0 0.0017524219081378333 0.00079269209380461924 0 0.0016783979101354515 0.00071193341032142581 0 0.00082016549441177213 0.00083316123915801166 0 0.00095885353783877207 0.00084309840900364662 0 0.00040801810885371452 0.00088138965763614845 0 0.001805212620857006 0.00071963938387876319 0 0.0018104783236301755 0.00074185117118522731 0 0.0017969111723557083 0.00076576249173451424 0 0.0018193295540799542 0.0007240146052325295 0 0.001805212620857006 0.00071963938387876319 0 0.0018104783236301755 0.00074185117118522731 0 0.001805212620857006 0.00071963938387876319 0 0.0017969111723557083 0.00076576249173451424 0 0.0017524219081378333 0.00079269209380461924 0 0.0018104783236301755 0.00074185117118522731 0 0.0017969111723557083 0.00076576249173451424 0 0.001822102105222264 0.00077351326157499786 0 0.0017969111723557083 0.00076576249173451424 0 0.0017524219081378333 0.00079269209380461924 0 0.0017983598909981917 0.00080882356941339249 0 0.0017969111723557083 0.00076576249173451424 0 0.0017983598909981917 0.00080882356941339249 0 0.001822102105222264 0.00077351326157499786 0 0.0017524219081378333 0.00079269209380461924 0 0.0016547427886519192 0.00080366115992910273 0 0.0016783979101354515 0.00071193341032142581 0 0.0017524219081378333 0.00079269209380461924 0 0.0017921153226963496 0.00085480754693010252 0 0.0017789192649482431 0.00087327085466083591 0 0.0017542010513652666 0.00079770796641391009 0 0.0017217855686815335 0.00088072789140645124 0 0.0017921153226963496 0.00085480754693010252 0 0.0017983598909981917 0.00080882356941339249 0 0.0018395609746699579 0.00084512164077421201 0 0.0017524219081378333 0.00079269209380461924 0 0.0017921153226963496 0.00085480754693010252 0 0.0017983598909981917 0.00080882356941339249 0 0.0017983598909981917 0.00080882356941339249 0 0.0018395609746699579 0.00084512164077421201 0 0.001822102105222264 0.00077351326157499786 0 0.0018395609746699579 0.00084512164077421201 0 0.001937055717188518 0.00084742384150211217 0 0.0018759840746337046 0.00076610891735663851 0 0.001937055717188518 0.00084742384150211217 0 0.0019839314418687872 0.00074236059419021457 0 0.0021418813584325124 0.00080699381330727048 0 0.001937055717188518 0.00084742384150211217 0 0.0019251235003079944 0.00093268135435536643 0 0.0021418813584325124 0.00080699381330727048 0 0.0021600774561838956 0.00086199693861851176 0 0.0021574293159900603 0.00080444039011817465 0 0.001937055717188518 0.00084742384150211217 0 0.0019839314418687872 0.00074236059419021457 0 0.0018759840746337046 0.00076610891735663851 0 0.0018039969940603217 0.00068885816353816617 0 0.0019839314418687872 0.00074236059419021457 0 0.0018759840746337046 0.00076610891735663851 0 0.0018395609746699579 0.00084512164077421201 0 0.001822102105222264 0.00077351326157499786 0 0.0018759840746337046 0.00076610891735663851 0 0.0018193295540799542 0.0007240146052325295 0 0.0018104783236301755 0.00074185117118522731 0 0.001822102105222264 0.00077351326157499786 0 0.0018193295540799542 0.0007240146052325295 0 0.001822102105222264 0.00077351326157499786 0 0.0018759840746337046 0.00076610891735663851 0 0.00094697133033221754 0.00085013318613328347 0 0.00068294718662513315 0.00075602816233003955 0 0.00012790690030086601 0.00091948608143360678 0 0.00012128260960453475 0.0011051563258998129 0 0.00016961445184083537 0.00086263364625452008 0 0.00010393492219618346 0.00096382301300870191 0 0.00012790690030086601 0.00091948608143360678 0 0.00012128260960453475 0.0011051563258998129 0 8.3268856292231569e-05 0.0010191362536502372 0 5.2188134658774673e-05 0.0010315888283876406 0 5.5163173978587918e-05 0.000975635583015666 0 8.3268856292231569e-05 0.0010191362536502372 0 0.00010393492219618346 0.00096382301300870191 0 5.5163173978587918e-05 0.000975635583015666 0 5.2188134658774673e-05 0.0010315888283876406 0 5.5163173978587918e-05 0.000975635583015666 0 -7.9810195758568321e-06 0.0010307531311490991 0 0.00014569805521875525 0.00083468700758763698 0 0.00045209768328038664 0.00076389253552468412 0 8.3268856292231569e-05 0.0010191362536502372 0 0.00010393492219618346 0.00096382301300870191 0 0.00012128260960453475 0.0011051563258998129 0 0.00012790690030086601 0.00091948608143360678 0 7.5164035877404292e-05 0.00092962877946234628 0 9.0081539185748899e-05 0.00088965878094456302 0 0.00010393492219618346 0.00096382301300870191 0 0.00012790690030086601 0.00091948608143360678 0 7.5164035877404292e-05 0.00092962877946234628 0 7.5164035877404292e-05 0.00092962877946234628 0 5.5163173978587918e-05 0.000975635583015666 0 2.3408503076787822e-05 0.00090159602130698456 0 7.5164035877404292e-05 0.00092962877946234628 0 2.3408503076787822e-05 0.00090159602130698456 0 9.0081539185748899e-05 0.00088965878094456302 0 5.5163173978587918e-05 0.000975635583015666 0 -7.9810195758568321e-06 0.0010307531311490991 0 2.3408503076787822e-05 0.00090159602130698456 0 0.00010393492219618346 0.00096382301300870191 0 7.5164035877404292e-05 0.00092962877946234628 0 5.5163173978587918e-05 0.000975635583015666 0 -7.9810195758568321e-06 0.0010307531311490991 0 -5.9651678616755958e-05 0.00087715186385003974 0 -0.00018160348803308789 0.00092982486131156839 0 0.00045209768328038664 0.00076389253552468412 0 7.0715627634689084e-05 0.00076682192107794991 0 -7.9810195758568321e-06 0.0010307531311490991 0 2.3408503076787822e-05 0.00090159602130698456 0 -5.9651678616755958e-05 0.00087715186385003974 0 0.0010705237702892435 0.00051383438888914703 0 0.0010533404798878183 0.0005314034290565821 0 0.0010271434994255043 0.00051208544457561191 0 0.0010705237702892435 0.00051383438888914703 0 0.0010533404798878183 0.0005314034290565821 0 0.0010714274855326926 0.00053641983772341603 0 0.0010533404798878183 0.0005314034290565821 0 0.0010714274855326926 0.00053641983772341603 0 0.001059159299014389 0.00054956057161007648 0 0.0010714274855326926 0.00053641983772341603 0 0.0010939812671832499 0.00052766983384760818 0 0.0010790235752969025 0.00055561242326702379 0 0.0010705237702892435 0.00051383438888914703 0 0.0010714274855326926 0.00053641983772341603 0 0.0010939812671832499 0.00052766983384760818 0 5.2188134658774673e-05 0.0010315888283876406 0 -2.276117809840705e-06 0.0010282123402467276 0 0.00012128260960453475 0.0011051563258998129 0 0.00045209768328038664 0.00076389253552468412 0 0.00094697133033221754 0.00085013318613328347 0 8.3268856292231569e-05 0.0010191362536502372 0 5.2188134658774673e-05 0.0010315888283876406 0 0.00012128260960453475 0.0011051563258998129 0 0.001510171987303283 0.00085445326997357672 0 0.0015316874940691943 0.00086544926692152082 0 0.0015457602024527299 0.00084429064203146232 0 0.00094697133033221754 0.00085013318613328347 0 0.0011835347636685225 0.00094019704722151883 0 0.0015162556844836414 0.00085654796206528858 0 0.0015316874940691943 0.00086544926692152082 0 0.0015434101950426041 0.00090811891711152005 0 0.0015316874940691943 0.00086544926692152082 0 0.0015669763523311544 0.00087138009786452469 0 0.0015434101950426041 0.00090811891711152005 0 0.0015669763523311544 0.00087138009786452469 0 0.001610991579296123 0.00085375251112962012 0 0.001591081408124259 0.00090588623863090058 0 0.0015669763523311544 0.00087138009786452469 0 0.0015737630396518744 0.00083338100701161504 0 0.001610991579296123 0.00085375251112962012 0 0.0015737630396518744 0.00083338100701161504 0 0.001610991579296123 0.00085375251112962012 0 0.001605788529991695 0.00079964860601887226 0 0.001510171987303283 0.00085445326997357672 0 0.0015457602024527299 0.00084429064203146232 0 0.0015432899082178887 0.00079339162448470891 0 0.0015669763523311544 0.00087138009786452469 0 0.0015737630396518744 0.00083338100701161504 0 0.0015457602024527299 0.00084429064203146232 0 0.0015737630396518744 0.00083338100701161504 0 0.0015457602024527299 0.00084429064203146232 0 0.0015432899082178887 0.00079339162448470891 0 0.0015316874940691943 0.00086544926692152082 0 0.0015669763523311544 0.00087138009786452469 0 0.0015457602024527299 0.00084429064203146232 0 0.001610991579296123 0.00085375251112962012 0 0.0016547427886519192 0.00080366115992910273 0 0.001655224999784422 0.00090407895626825761 0 0.0017524219081378333 0.00079269209380461924 0 0.0016547427886519192 0.00080366115992910273 0 0.001655224999784422 0.00090407895626825761 0 0.001610991579296123 0.00085375251112962012 0 0.001655224999784422 0.00090407895626825761 0 0.001591081408124259 0.00090588623863090058 0 0.0016547427886519192 0.00080366115992910273 0 0.001625700487840118 0.0007554193787658504 0 0.0016783979101354515 0.00071193341032142581 0 0.001610991579296123 0.00085375251112962012 0 0.0016547427886519192 0.00080366115992910273 0 0.001605788529991695 0.00079964860601887226 0 0.0016547427886519192 0.00080366115992910273 0 0.001625700487840118 0.0007554193787658504 0 0.001605788529991695 0.00079964860601887226 0 0.001625700487840118 0.0007554193787658504 0 0.0015789361920319938 0.00076615428175941269 0 0.001530009346462694 0.00071932752190031785 0 0.001510171987303283 0.00085445326997357672 0 0.0015432899082178887 0.00079339162448470891 0 0.001530009346462694 0.00071932752190031785 0 0.0015737630396518744 0.00083338100701161504 0 0.0015432899082178887 0.00079339162448470891 0 0.001605788529991695 0.00079964860601887226 0 0.0015432899082178887 0.00079339162448470891 0 0.001605788529991695 0.00079964860601887226 0 0.0015789361920319938 0.00076615428175941269 0 0.001625700487840118 0.0007554193787658504 0 0.001605788529991695 0.00079964860601887226 0 0.0015789361920319938 0.00076615428175941269 0 0.0015432899082178887 0.00079339162448470891 0 0.0015789361920319938 0.00076615428175941269 0 0.001530009346462694 0.00071932752190031785 0 0.00016484860377240516 0.00086101207169771295 0 0.00027160907297587059 0.00077710258350322903 0 0.00040801810885371452 0.00088138965763614845 0 0.00068294718662513315 0.00075602816233003955 0 0.0010828249907162797 0.00079936336510260156 0 0.00015152063418295324 0.00086351913019643706 0 0.00016961445184083537 0.00086263364625452008 0 0.00013572773863359326 0.00088473866424424754 0 0.00015152063418295324 0.00086351913019643706 0 0.00016851906982482775 0.00086206320143009877 0 0.00015106751525960769 0.00082447722992442011 0 0.00061397191934841179 0.00076308600843566054 0 0.00068294718662513315 0.00075602816233003955 0 0.00016484860377240516 0.00086101207169771295 0 0.00027160907297587059 0.00077710258350322903 0 0.00018048829901541651 0.0007929735942360539 0 0.00018048829901541651 0.0007929735942360539 0 0.00015106751525960769 0.00082447722992442011 0 0.00012688232378097874 0.00078853139149852791 0 0.00068294718662513315 0.00075602816233003955 0 0.00044524431008682234 0.00086445951721687299 0 0.00016851906982482775 0.00086206320143009877 0 0.00018048829901541651 0.0007929735942360539 0 0.00015106751525960769 0.00082447722992442011 0 0.001625700487840118 0.0007554193787658504 0 0.001530009346462694 0.00071932752190031785 0 0.0016783979101354515 0.00071193341032142581 0 0.00040801810885371452 0.00088138965763614845 0 0.0004370219284959603 0.00067954977076193246 0 0.00035709533503849508 0.00075181512664093263 0 0.00027160907297587059 0.00077710258350322903 0 0.00040801810885371452 0.00088138965763614845 0 0.00035709533503849508 0.00075181512664093263 0 0.00027160907297587059 0.00077710258350322903 0 0.00035709533503849508 0.00075181512664093263 0 0.00031893310150603641 0.0006708965887426096 0 0.0004370219284959603 0.00067954977076193246 0 0.00035709533503849508 0.00075181512664093263 0 0.00031893310150603641 0.0006708965887426096 0 0.00031893310150603641 0.0006708965887426096 0 0.00038365262876018048 0.00056551640318646323 0 0.00026108093533360263 0.00057606133798220993 0 0.0004370219284959603 0.00067954977076193246 0 0.00031893310150603641 0.0006708965887426096 0 0.00038365262876018048 0.00056551640318646323 0 0.00053521113231349052 0.00057435766284982099 0 0.0004370219284959603 0.00067954977076193246 0 0.00038365262876018048 0.00056551640318646323 0 0.00018048829901541651 0.0007929735942360539 0 0.00021618565959864787 0.00069162822477426443 0 0.00012952504830714636 0.00071901048912449911 0 0.00027160907297587059 0.00077710258350322903 0 0.00031893310150603641 0.0006708965887426096 0 0.00021618565959864787 0.00069162822477426443 0 0.00027160907297587059 0.00077710258350322903 0 0.00018048829901541651 0.0007929735942360539 0 0.00021618565959864787 0.00069162822477426443 0 0.00031893310150603641 0.0006708965887426096 0 0.00021618565959864787 0.00069162822477426443 0 0.00026108093533360263 0.00057606133798220993 0 0.00021618565959864787 0.00069162822477426443 0 0.00012952504830714636 0.00071901048912449911 0 0.00015007037462104553 0.00060592721379862532 0 0.00021618565959864787 0.00069162822477426443 0 0.00026108093533360263 0.00057606133798220993 0 0.00015007037462104553 0.00060592721379862532 0 4.1197708376970145e-05 0.00066109224967897471 0 0.00012952504830714636 0.00071901048912449911 0 0.00015007037462104553 0.00060592721379862532 0 4.1197708376970145e-05 0.00066109224967897471 0 7.0144136825289351e-05 0.00076929845734433132 0 -3.218597626859835e-05 0.00073802324180750195 0 4.1197708376970145e-05 0.00066109224967897471 0 0.00012952504830714636 0.00071901048912449911 0 7.0144136825289351e-05 0.00076929845734433132 0 0.00018048829901541651 0.0007929735942360539 0 0.00012952504830714636 0.00071901048912449911 0 0.00012688232378097874 0.00078853139149852791 0 0.00015106751525960769 0.00082447722992442011 0 0.00012688232378097874 0.00078853139149852791 0 0.00010224891676118895 0.00083587923983182799 0 0.00012688232378097874 0.00078853139149852791 0 7.0144136825289351e-05 0.00076929845734433132 0 0.00010224891676118895 0.00083587923983182799 0 0.00012952504830714636 0.00071901048912449911 0 0.00012688232378097874 0.00078853139149852791 0 7.0144136825289351e-05 0.00076929845734433132 0 7.0144136825289351e-05 0.00076929845734433132 0 3.2471168589445614e-05 0.00083521632574835056 0 -3.218597626859835e-05 0.00073802324180750195 0 7.0144136825289351e-05 0.00076929845734433132 0 3.2471168589445614e-05 0.00083521632574835056 0 0.00010224891676118895 0.00083587923983182799 0 3.2471168589445614e-05 0.00083521632574835056 0 9.0081539185748899e-05 0.00088965878094456302 0 0.00010224891676118895 0.00083587923983182799 0 3.2471168589445614e-05 0.00083521632574835056 0 2.3408503076787822e-05 0.00090159602130698456 0 9.0081539185748899e-05 0.00088965878094456302 0 9.0081539185748899e-05 0.00088965878094456302 0 0.00013572773863359326 0.00088473866424424754 0 0.00011682163590309579 0.00086782400682775278 0 0.00012790690030086601 0.00091948608143360678 0 9.0081539185748899e-05 0.00088965878094456302 0 0.00013572773863359326 0.00088473866424424754 0 0.00012790690030086601 0.00091948608143360678 0 0.00016961445184083537 0.00086263364625452008 0 0.00013572773863359326 0.00088473866424424754 0 0.00015152063418295324 0.00086351913019643706 0 0.00013572773863359326 0.00088473866424424754 0 0.00011682163590309579 0.00086782400682775278 0 0.00015152063418295324 0.00086351913019643706 0 0.00015106751525960769 0.00082447722992442011 0 0.00010224891676118895 0.00083587923983182799 0 0.00015152063418295324 0.00086351913019643706 0 0.00011682163590309579 0.00086782400682775278 0 0.00010224891676118895 0.00083587923983182799 0 9.0081539185748899e-05 0.00088965878094456302 0 0.00011682163590309579 0.00086782400682775278 0 0.00010224891676118895 0.00083587923983182799 0 -5.9651678616755958e-05 0.00087715186385003974 0 -3.218597626859835e-05 0.00073802324180750195 0 -0.00020794574823954141 0.00081188977537563337 0 3.2471168589445614e-05 0.00083521632574835056 0 2.3408503076787822e-05 0.00090159602130698456 0 -5.9651678616755958e-05 0.00087715186385003974 0 3.2471168589445614e-05 0.00083521632574835056 0 -5.9651678616755958e-05 0.00087715186385003974 0 -3.218597626859835e-05 0.00073802324180750195 0 -3.218597626859835e-05 0.00073802324180750195 0 -6.901056983454994e-05 0.00063105454101270884 0 -0.0002113710003526992 0.00068850191518891315 0 4.1197708376970145e-05 0.00066109224967897471 0 -3.218597626859835e-05 0.00073802324180750195 0 -6.901056983454994e-05 0.00063105454101270884 0 -6.901056983454994e-05 0.00063105454101270884 0 -0.00015960072751839316 0.00056052799657118062 0 -0.0002113710003526992 0.00068850191518891315 0 -6.901056983454994e-05 0.00063105454101270884 0 -3.6760331560613099e-05 0.00053411889550532884 0 -0.00015960072751839316 0.00056052799657118062 0 -3.6760331560613099e-05 0.00053411889550532884 0 -0.0001502446360407442 0.00042111012966561043 0 -0.00015960072751839316 0.00056052799657118062 0 4.1197708376970145e-05 0.00066109224967897471 0 -6.901056983454994e-05 0.00063105454101270884 0 -3.6760331560613099e-05 0.00053411889550532884 0 4.1197708376970145e-05 0.00066109224967897471 0 -3.6760331560613099e-05 0.00053411889550532884 0 8.6573456995415766e-05 0.00051339503401618075 0 8.6573456995415766e-05 0.00051339503401618075 0 0.00015007037462104553 0.00060592721379862532 0 0.00019599985126390117 0.00048080495008887431 0 4.1197708376970145e-05 0.00066109224967897471 0 8.6573456995415766e-05 0.00051339503401618075 0 0.00015007037462104553 0.00060592721379862532 0 8.6573456995415766e-05 0.00051339503401618075 0 0.00013533706874320451 0.00039208320222905646 0 0.00019599985126390117 0.00048080495008887431 0 -3.6760331560613099e-05 0.00053411889550532884 0 8.6573456995415766e-05 0.00051339503401618075 0 2.2229544273133206e-05 0.00042600752960486105 0 8.6573456995415766e-05 0.00051339503401618075 0 2.2229544273133206e-05 0.00042600752960486105 0 0.00013533706874320451 0.00039208320222905646 0 0.00013533706874320451 0.00039208320222905646 0 6.4033911328637556e-05 0.00035633770121126649 0 0.00010945585195339934 0.00031351606169460381 0 2.2229544273133206e-05 0.00042600752960486105 0 0.00013533706874320451 0.00039208320222905646 0 6.4033911328637556e-05 0.00035633770121126649 0 2.2229544273133206e-05 0.00042600752960486105 0 6.4033911328637556e-05 0.00035633770121126649 0 -3.1932584504222623e-05 0.0003350041432648155 0 6.4033911328637556e-05 0.00035633770121126649 0 -3.1932584504222623e-05 0.0003350041432648155 0 3.4924912273187791e-05 0.00027876484131450794 0 2.2229544273133206e-05 0.00042600752960486105 0 -3.1932584504222623e-05 0.0003350041432648155 0 -0.0001502446360407442 0.00042111012966561043 0 -3.6760331560613099e-05 0.00053411889550532884 0 2.2229544273133206e-05 0.00042600752960486105 0 -0.0001502446360407442 0.00042111012966561043 0 0.00045027951891926627 0.00043837348969278376 0 0.00038365262876018048 0.00056551640318646323 0 0.00030569550566331491 0.0004672016922479863 0 0.00038365262876018048 0.00056551640318646323 0 0.00030569550566331491 0.0004672016922479863 0 0.00026108093533360263 0.00057606133798220993 0 0.00030569550566331491 0.0004672016922479863 0 0.00026108093533360263 0.00057606133798220993 0 0.00019599985126390117 0.00048080495008887431 0 0.00026108093533360263 0.00057606133798220993 0 0.00015007037462104553 0.00060592721379862532 0 0.00019599985126390117 0.00048080495008887431 0 0.00013533706874320451 0.00039208320222905646 0 0.00019599985126390117 0.00048080495008887431 0 0.00023404359312445054 0.00039614969839364483 0 0.00013533706874320451 0.00039208320222905646 0 0.00023404359312445054 0.00039614969839364483 0 0.00020594608796783742 0.0002948260508201179 0 0.00013533706874320451 0.00039208320222905646 0 0.00020594608796783742 0.0002948260508201179 0 0.00010945585195339934 0.00031351606169460381 0 0.00023404359312445054 0.00039614969839364483 0 0.00032347396438206581 0.00035052508561584343 0 0.00020594608796783742 0.0002948260508201179 0 0.00030569550566331491 0.0004672016922479863 0 0.00019599985126390117 0.00048080495008887431 0 0.00023404359312445054 0.00039614969839364483 0 0.00030569550566331491 0.0004672016922479863 0 0.00023404359312445054 0.00039614969839364483 0 0.00032347396438206581 0.00035052508561584343 0 0.00045027951891926627 0.00043837348969278376 0 0.00030569550566331491 0.0004672016922479863 0 0.00032347396438206581 0.00035052508561584343 0 0.00045027951891926627 0.00043837348969278376 0 0.00042028728509440499 0.00032568331262882046 0 0.00032347396438206581 0.00035052508561584343 0 0.00042223491413082069 0.00026833577126277237 0 0.00030898055046527936 0.00025921943707902384 0 0.00042028728509440499 0.00032568331262882046 0 0.00032347396438206581 0.00035052508561584343 0 0.00032027780220283931 0.00023375870129078036 0 0.00032027780220283931 0.00023375870129078036 0 0.00020594608796783742 0.0002948260508201179 0 0.0001024585432143506 0.00020510614588103919 0 0.00032347396438206581 0.00035052508561584343 0 0.00032027780220283931 0.00023375870129078036 0 0.00020594608796783742 0.0002948260508201179 0 0.00030044628923167702 0.00028644489686866978 0 0.00018252153831718686 0.00026052049105240168 0 0.00017330795713241533 0.00027576992495568901 0 0.00030898055046527936 0.00025921943707902384 0 0.000135287411592553 0.0002412198323969225 0 0.00024596096273648752 0.00020212541571507832 0 0.00025056034574257383 0.00024241449883358386 0 0.00018252153831718686 0.00026052049105240168 0 0.00030044628923167702 0.00028644489686866978 0 0.00025056034574257383 0.00024241449883358386 0 0.00018252153831718686 0.00026052049105240168 0 0.00043317801633590593 0.00027024045899797194 0 0.00030044628923167702 0.00028644489686866978 0 0.00034234267891570104 0.00021804530969638604 0 0.00030044628923167702 0.00028644489686866978 0 0.00025056034574257383 0.00024241449883358386 0 0.00034234267891570104 0.00021804530969638604 0 0.00029080929570895504 0.00018970059281461535 0 0.00025056034574257383 0.00024241449883358386 0 0.00034234267891570104 0.00021804530969638604 0 -0.00012218045482241511 0.00025303066957839583 0 0.00017330795713241533 0.00027576992495568901 0 6.7823578929096588e-05 0.00018314995704923908 0 -0.0001285979283039078 0.00022618394063215222 0 0.000135287411592553 0.0002412198323969225 0 -3.1932584504222623e-05 0.0003350041432648155 0 -0.0001502446360407442 0.00042111012966561043 0 -0.00013475266600391386 0.00020043909518003801 0 -3.1932584504222623e-05 0.0003350041432648155 0 -0.00013475266600391386 0.00020043909518003801 0 3.4924912273187791e-05 0.00027876484131450794 0 -0.00013475266600391386 0.00020043909518003801 0 3.4924912273187791e-05 0.00027876484131450794 0 0.0001024585432143506 0.00020510614588103919 0 6.4033911328637556e-05 0.00035633770121126649 0 3.4924912273187791e-05 0.00027876484131450794 0 0.00010945585195339934 0.00031351606169460381 0 0.00020594608796783742 0.0002948260508201179 0 0.00010945585195339934 0.00031351606169460381 0 0.00010809395018796867 0.00026809757151930889 0 0.00020594608796783742 0.0002948260508201179 0 0.00010809395018796867 0.00026809757151930889 0 0.0001024585432143506 0.00020510614588103919 0 3.4924912273187791e-05 0.00027876484131450794 0 0.00010809395018796867 0.00026809757151930889 0 0.0001024585432143506 0.00020510614588103919 0 3.4924912273187791e-05 0.00027876484131450794 0 0.00010945585195339934 0.00031351606169460381 0 0.00010809395018796867 0.00026809757151930889 0 0.00018252153831718686 0.00026052049105240168 0 0.00017330795713241533 0.00027576992495568901 0 6.7823578929096588e-05 0.00018314995704923908 0 0.00018252153831718686 0.00026052049105240168 0 6.7823578929096588e-05 0.00018314995704923908 0 0.00010524113301878336 8.0273218636425691e-05 0 0.00025834204403410655 5.675752115806743e-06 0 0.00018252153831718686 0.00026052049105240168 0 0.00010524113301878336 8.0273218636425691e-05 0 0.00028299210541788246 5.7687543815210377e-05 0 0.00017788974366189363 0.00027357672176301506 0 6.7823578929096588e-05 0.00018314995704923908 0 0.00010524113301878336 8.0273218636425691e-05 0 -2.6529173056178159e-05 6.0401642834020674e-05 0 -0.00012218045482241511 0.00025303066957839583 0 6.7823578929096588e-05 0.00018314995704923908 0 -2.6529173056178159e-05 6.0401642834020674e-05 0 -0.00018746855955184368 1.0407751785559275e-05 0 -0.00012218045482241511 0.00025303066957839583 0 -2.6529173056178159e-05 6.0401642834020674e-05 0 -0.00018746855955184368 1.0407751785559275e-05 0 -0.00012218045482241511 0.00025303066957839583 0 -0.00029309885851537581 9.8469282688120601e-05 0 -0.00012218045482241511 0.00025303066957839583 0 -0.00029309885851537581 9.8469282688120601e-05 0 -0.00037414756321779718 0.0002113423072182436 0 -0.0001285979283039078 0.00022618394063215222 0 -0.0003549870575656079 0.00021455000849185808 0 -0.00013475266600391386 0.00020043909518003801 0 -0.00037414756321779718 0.0002113423072182436 0 -0.00028767474411945282 0.00034089389362923955 0 -0.0001502446360407442 0.00042111012966561043 0 -0.00013475266600391386 0.00020043909518003801 0 -0.00028767474411945282 0.00034089389362923955 0 -0.00037414756321779718 0.0002113423072182436 0 -0.00057671590343711071 0.00030512588746568693 0 -0.00042328203480018355 0.00040948922035297959 0 -0.00037414756321779718 0.0002113423072182436 0 -0.00028767474411945282 0.00034089389362923955 0 -0.00042328203480018355 0.00040948922035297959 0 -0.00029309885851537581 9.8469282688120601e-05 0 -0.00037414756321779718 0.0002113423072182436 0 -0.00043871873159381385 5.6502751926544238e-05 0 -0.00037414756321779718 0.0002113423072182436 0 -0.00043871873159381385 5.6502751926544238e-05 0 -0.0005460466254548162 0.00016470580383246328 0 -0.00032669359489253478 -3.6354344693396308e-05 0 -0.00029309885851537581 9.8469282688120601e-05 0 -0.00043871873159381385 5.6502751926544238e-05 0 -0.00043871873159381385 5.6502751926544238e-05 0 -0.00055961121869212843 6.5139514743751652e-05 0 -0.0005460466254548162 0.00016470580383246328 0 -0.00064113645789480773 -7.8549928032881594e-06 0 -0.00055961121869212843 6.5139514743751652e-05 0 -0.00064771008924256854 0.00011896383616937443 0 -0.00055961121869212843 6.5139514743751652e-05 0 -0.0005460466254548162 0.00016470580383246328 0 -0.00064771008924256854 0.00011896383616937443 0 -0.00064113645789480773 -7.8549928032881594e-06 0 -0.00073610548242910472 5.7902601383966099e-05 0 -0.00064771008924256854 0.00011896383616937443 0 -0.00064771008924256854 0.00011896383616937443 0 -0.00073729140270884712 0.00015542814397586136 0 -0.00067146692849245004 0.00023526847415001484 0 -0.0005460466254548162 0.00016470580383246328 0 -0.00064771008924256854 0.00011896383616937443 0 -0.00067146692849245004 0.00023526847415001484 0 -0.00073610548242910472 5.7902601383966099e-05 0 -0.00064771008924256854 0.00011896383616937443 0 -0.00073729140270884712 0.00015542814397586136 0 -0.00067146692849245004 0.00023526847415001484 0 -0.00057671590343711071 0.00030512588746568693 0 -0.00071389799951419712 0.00036817048690687394 0 -0.00067146692849245004 0.00023526847415001484 0 -0.00071389799951419712 0.00036817048690687394 0 -0.00079515809960232565 0.00028743704382930871 0 -0.00073729140270884712 0.00015542814397586136 0 -0.00067146692849245004 0.00023526847415001484 0 -0.00079515809960232565 0.00028743704382930871 0 -0.0005460466254548162 0.00016470580383246328 0 -0.00067146692849245004 0.00023526847415001484 0 -0.00057671590343711071 0.00030512588746568693 0 -0.00037414756321779718 0.0002113423072182436 0 -0.0005460466254548162 0.00016470580383246328 0 -0.00057671590343711071 0.00030512588746568693 0 -0.00057882831456839714 0.00030463917610896562 0 -0.00060806819357106274 0.00050194883692254624 0 -0.00057671590343711071 0.00030512588746568693 0 -0.0005864186895276907 0.00049443129226798828 0 -0.00042328203480018355 0.00040948922035297959 0 -0.00071389799951419712 0.00036817048690687394 0 -0.00078734676357930945 0.000473173687693083 0 -0.00079515809960232565 0.00028743704382930871 0 -0.00057671590343711071 0.00030512588746568693 0 -0.00071389799951419712 0.00036817048690687394 0 -0.0006244432531415286 0.00044736558376067784 0 -0.00071389799951419712 0.00036817048690687394 0 -0.00070516175540523472 0.00044792339656425472 0 -0.0006244432531415286 0.00044736558376067784 0 -0.00071178516292208732 0.00050461727591543846 0 -0.00084421597016827064 0.00049238698696926514 0 -0.00064645252496171163 0.00062202523795966121 0 -0.00071178516292208732 0.00050461727591543846 0 -0.0006244432531415286 0.00044736558376067784 0 -0.00064645252496171163 0.00062202523795966121 0 -0.00088823225808418844 0.0004063962466535247 0 -0.00059526990227200575 0.000472334387979279 0 -0.00071389799951419712 0.00036817048690687394 0 -0.00078734676357930945 0.000473173687693083 0 -0.00070516175540523472 0.00044792339656425472 0 -0.00078734676357930945 0.000473173687693083 0 -0.00070516175540523472 0.00044792339656425472 0 -0.00071178516292208732 0.00050461727591543846 0 -0.00070516175540523472 0.00044792339656425472 0 -0.00071178516292208732 0.00050461727591543846 0 -0.0006244432531415286 0.00044736558376067784 0 -0.00078734676357930945 0.000473173687693083 0 -0.00071178516292208732 0.00050461727591543846 0 -0.00084421597016827064 0.00049238698696926514 0 -0.0005864186895276907 0.00049443129226798828 0 -0.00053558298497169876 0.00061781212058571581 0 -0.00060312947213997977 0.00067609477361019416 0 -0.00060806819357106274 0.00050194883692254624 0 -0.00059526990227200575 0.000472334387979279 0 -0.0005864186895276907 0.00049443129226798828 0 -0.00045385809197679989 0.00057676290518125773 0 -0.00042328203480018355 0.00040948922035297959 0 -0.0005864186895276907 0.00049443129226798828 0 -0.00045385809197679989 0.00057676290518125773 0 -0.00053558298497169876 0.00061781212058571581 0 -0.00045385809197679989 0.00057676290518125773 0 -0.00030088393131175189 0.00053381482473823503 0 -0.00042328203480018355 0.00040948922035297959 0 -0.00045385809197679989 0.00057676290518125773 0 -0.00030088393131175189 0.00053381482473823503 0 -0.00038890128444993792 0.00069656009803893356 0 -0.00015960072751839316 0.00056052799657118062 0 -0.00030088393131175189 0.00053381482473823503 0 -0.0002113710003526992 0.00068850191518891315 0 -0.0001502446360407442 0.00042111012966561043 0 -0.00015960072751839316 0.00056052799657118062 0 -0.00030088393131175189 0.00053381482473823503 0 -0.0001502446360407442 0.00042111012966561043 0 -0.00030088393131175189 0.00053381482473823503 0 -0.00028767474411945282 0.00034089389362923955 0 -0.00030088393131175189 0.00053381482473823503 0 -0.00028767474411945282 0.00034089389362923955 0 -0.00042328203480018355 0.00040948922035297959 0 -0.00091888182982630714 0.00037728956295920383 0 -0.00091745100669377445 0.00037586634523976243 0 -0.00091934831779344581 0.000375622729915889 0 -0.001114743306915512 0.00034836017094191788 0 -0.0010919052853556159 0.00038103652060070639 0 -0.0011188275299530326 0.00034362445740858594 0 -0.0010057627207212224 0.00038392769330349664 0 -0.0010084801486501692 0.00031523985301870584 0 -0.0011263736918523551 0.00033634678268154187 0 -0.001114743306915512 0.00034836017094191788 0 -0.0011021506979548208 0.00034577662160401983 0 -0.001114743306915512 0.00034836017094191788 0 -0.0011021506979548208 0.00034577662160401983 0 -0.0010919052853556159 0.00038103652060070639 0 -0.0011021506979548208 0.00034577662160401983 0 -0.0010548700571522678 0.00035482350855818654 0 -0.0010919052853556159 0.00038103652060070639 0 -0.001080089879525423 0.00033732888597009559 0 -0.0011021506979548208 0.00034577662160401983 0 -0.0010548700571522678 0.00035482350855818654 0 -0.0010308847857913325 0.00033721494219348004 0 -0.001080089879525423 0.00033732888597009559 0 -0.0010548700571522678 0.00035482350855818654 0 -0.00091888182982630714 0.00037728956295920383 0 -0.0009271530149404355 0.00037234210483171873 0 -0.00092153150565943052 0.00037528574027323886 0 -0.00091888182982630714 0.00037728956295920383 0 -0.00092153150565943052 0.00037528574027323886 0 -0.00091745100669377445 0.00037586634523976243 0 -0.00091888182982630714 0.00037728956295920383 0 -0.0009271530149404355 0.00037234210483171873 0 -0.00095508238076494984 0.00037016755500065039 0 -0.0009271530149404355 0.00037234210483171873 0 -0.00092541690132022254 0.00036913727023520288 0 -0.00091411808755043913 0.00038183267661340216 0 -0.0009271530149404355 0.00037234210483171873 0 -0.00095508238076494984 0.00037016755500065039 0 -0.00092541690132022254 0.00036913727023520288 0 -0.0010548700571522678 0.00035482350855818654 0 -0.00099602566693232034 0.00035148854230518959 0 -0.00095508238076494984 0.00037016755500065039 0 -0.0010057627207212224 0.00038392769330349664 0 -0.00095461461423230261 0.0003681849611088638 0 -0.0010548700571522678 0.00035482350855818654 0 -0.0010919052853556159 0.00038103652060070639 0 -0.00095508238076494984 0.00037016755500065039 0 -0.0010308847857913325 0.00033721494219348004 0 -0.0010548700571522678 0.00035482350855818654 0 -0.00099602566693232034 0.00035148854230518959 0 -0.00095508238076494984 0.00037016755500065039 0 -0.00096046557114636488 0.00035980486398055688 0 -0.00092541690132022254 0.00036913727023520288 0 -0.00099457139496095378 0.00033979454858925495 0 -0.00099602566693232034 0.00035148854230518959 0 -0.00096046557114636488 0.00035980486398055688 0 -0.00099602566693232034 0.00035148854230518959 0 -0.00095508238076494984 0.00037016755500065039 0 -0.00096046557114636488 0.00035980486398055688 0 -0.00073610548242910472 5.7902601383966099e-05 0 -0.00073729140270884712 0.00015542814397586136 0 -0.00083573555407014436 8.0098870785115121e-05 0 -0.00077943497479184009 1.0673778448896167e-05 0 -0.00073610548242910472 5.7902601383966099e-05 0 -0.00083573555407014436 8.0098870785115121e-05 0 -0.00096046557114636488 0.00035980486398055688 0 -0.00092541690132022254 0.00036913727023520288 0 -0.00088899703427547958 0.00036921885274228741 0 -0.00089817811786021737 0.00021403046332573635 0 -0.00084057209894918081 0.00033785588925234995 0 -0.00073729140270884712 0.00015542814397586136 0 -0.00083573555407014436 8.0098870785115121e-05 0 -0.00079515809960232565 0.00028743704382930871 0 -0.00092541690132022254 0.00036913727023520288 0 -0.00088899703427547958 0.00036921885274228741 0 -0.00091411808755043913 0.00038183267661340216 0 -0.00078734676357930945 0.000473173687693083 0 -0.00088899703427547958 0.00036921885274228741 0 -0.0008775781949466471 0.00041640795661258915 0 -0.00079264801845778344 0.00046923985065916354 0 -0.00084057209894918081 0.00033785588925234995 0 -0.00088899703427547958 0.00036921885274228741 0 -0.0008775781949466471 0.00041640795661258915 0 -0.00091411808755043913 0.00038183267661340216 0 -0.00087363214683271705 0.00033688069359643166 0 -0.00090534704881565511 0.00036373189817195679 0 -0.00085699481457459118 0.00030890973665656236 0 -0.00078734676357930945 0.000473173687693083 0 -0.0008775781949466471 0.00041640795661258915 0 -0.00084421597016827064 0.00049238698696926514 0 -0.0008775781949466471 0.00041640795661258915 0 -0.00084421597016827064 0.00049238698696926514 0 -0.00091890226995716402 0.00037860633267996818 0 -0.00088823225808418844 0.0004063962466535247 0 -0.00089714914068727918 0.00038987949402200195 0 -0.00087363214683271705 0.00033688069359643166 0 -0.00090534704881565511 0.00036373189817195679 0 -0.00091890226995716402 0.00037860633267996818 0 -0.0008775781949466471 0.00041640795661258915 0 -0.00091890226995716402 0.00037860633267996818 0 -0.00091411808755043913 0.00038183267661340216 0 -0.0009271530149404355 0.00037234210483171873 0 -0.00091411808755043913 0.00038183267661340216 0 -0.00092153150565943052 0.00037528574027323886 0 -0.00091890226995716402 0.00037860633267996818 0 -0.00091411808755043913 0.00038183267661340216 0 -0.00092153150565943052 0.00037528574027323886 0 -0.00091890226995716402 0.00037860633267996818 0 -0.00092153150565943052 0.00037528574027323886 0 -0.00091745100669377445 0.00037586634523976243 0 -0.00090534704881565511 0.00036373189817195679 0 -0.00091890226995716402 0.00037860633267996818 0 -0.00091745100669377445 0.00037586634523976243 0 -0.00082233138911524712 0.00027157686908094625 0 -0.00084034596455576983 0.0002373443601241639 0 -0.00083653140926610685 0.00026507521949285166 0 -0.00087040926678364817 0.0003131209711546773 0 -0.0008600367344385755 0.00030727149733850124 0 -0.00084034596455576983 0.0002373443601241639 0 -0.00083653140926610685 0.00026507521949285166 0 -0.00086787845486577286 0.00025081438547929467 0 -0.0008600367344385755 0.00030727149733850124 0 -0.0010084801486501692 0.00031523985301870584 0 -0.00083136330703526581 0.00027021512794264728 0 -0.00084935572916394568 0.0002612178717603835 0 -0.00084353313733548157 0.00026388652707530713 0 -0.00081814089278924951 0.00024291645020898004 0 -0.00086572618152967718 0.00030977460075103569 0 -0.00083136330703526581 0.00027021512794264728 0 -0.00085213978220285318 0.00024691467632482138 0 -0.00084353313733548157 0.00026388652707530713 0 -0.00083653140926610685 0.00026507521949285166 0 -0.00086787845486577286 0.00025081438547929467 0 -0.00084935572916394568 0.0002612178717603835 0 -0.00083136330703526581 0.00027021512794264728 0 -0.00083653140926610685 0.00026507521949285166 0 -0.00082568927753964025 0.0002728606658263971 0 -0.00083136330703526581 0.00027021512794264728 0 -0.00083653140926610685 0.00026507521949285166 0 -0.00084935572916394568 0.0002612178717603835 0 -0.00083653140926610685 0.00026507521949285166 0 -0.00082673092235573771 0.00027573146802877723 0 -0.00082568927753964025 0.0002728606658263971 0 -0.00082233138911524712 0.00027157686908094625 0 -0.00083653140926610685 0.00026507521949285166 0 -0.00082673092235573771 0.00027573146802877723 0 -0.00082673092235573771 0.00027573146802877723 0 -0.00082568927753964025 0.0002728606658263971 0 -0.00082385853658438262 0.00027574722511465078 0 -0.00083136330703526581 0.00027021512794264728 0 -0.00082568927753964025 0.0002728606658263971 0 -0.00081504740071241047 0.00026744904859510478 0 -0.00082568927753964025 0.0002728606658263971 0 -0.00082385853658438262 0.00027574722511465078 0 -0.00081504740071241047 0.00026744904859510478 0 -0.00082385853658438262 0.00027574722511465078 0 -0.00082381560396901064 0.00026803073907605084 0 -0.00081504740071241047 0.00026744904859510478 0 -0.00082385853658438262 0.00027574722511465078 0 -0.000831143421412655 0.00028517977743795618 0 -0.00083976779684039288 0.00028162978420513441 0 -0.00082385853658438262 0.00027574722511465078 0 -0.00083976779684039288 0.00028162978420513441 0 -0.00082381560396901064 0.00026803073907605084 0 -0.00082233138911524712 0.00027157686908094625 0 -0.000831143421412655 0.00028517977743795618 0 -0.00085699481457459118 0.00030890973665656236 0 -0.00087040926678364817 0.0003131209711546773 0 -0.00086189548650318333 0.00030771389448096384 0 -0.00082673092235573771 0.00027573146802877723 0 -0.00082385853658438262 0.00027574722511465078 0 -0.000831143421412655 0.00028517977743795618 0 -0.00082233138911524712 0.00027157686908094625 0 -0.00082673092235573771 0.00027573146802877723 0 -0.000831143421412655 0.00028517977743795618 0 -0.000831143421412655 0.00028517977743795618 0 -0.00085699481457459118 0.00030890973665656236 0 -0.00083976779684039288 0.00028162978420513441 0 -0.00085699481457459118 0.00030890973665656236 0 -0.00083976779684039288 0.00028162978420513441 0 -0.00086389900669047066 0.00029332018201417372 0 -0.00083976779684039288 0.00028162978420513441 0 -0.00086389900669047066 0.00029332018201417372 0 -0.00085762012369884817 0.00027306921955203657 0 -0.00083976779684039288 0.00028162978420513441 0 -0.00083894899317890419 0.00025796507094524694 0 -0.00082381560396901064 0.00026803073907605084 0 -0.00083976779684039288 0.00028162978420513441 0 -0.00083894899317890419 0.00025796507094524694 0 -0.00085762012369884817 0.00027306921955203657 0 -0.00083894899317890419 0.00025796507094524694 0 -0.00083534736771048029 0.00023853240425379758 0 -0.00084087765587846522 0.00025913465932853014 0 -0.00083894899317890419 0.00025796507094524694 0 -0.00083534736771048029 0.00023853240425379758 0 -0.00081423422827311845 0.00025649416577862966 0 -0.0007939674731148429 0.00024354934186625316 0 -0.00085380276387735717 0.00022727234340635572 0 -0.00083534736771048029 0.00023853240425379758 0 -0.00081423422827311845 0.00025649416577862966 0 -0.00078456534723552005 0.0001934898859788604 0 -0.00083894899317890419 0.00025796507094524694 0 -0.00081423422827311845 0.00025649416577862966 0 -0.00082381560396901064 0.00026803073907605084 0 -0.00081423422827311845 0.00025649416577862966 0 -0.00082381560396901064 0.00026803073907605084 0 -0.00081504740071241047 0.00026744904859510478 0 -0.00081504740071241047 0.00026744904859510478 0 -0.00080832825798057969 0.00025205890675135048 0 -0.00080455837531397394 0.00026282015899797351 0 -0.00083136330703526581 0.00027021512794264728 0 -0.00081504740071241047 0.00026744904859510478 0 -0.00080455837531397394 0.00026282015899797351 0 -0.00081423422827311845 0.00025649416577862966 0 -0.00081504740071241047 0.00026744904859510478 0 -0.00080832825798057969 0.00025205890675135048 0 -0.00081423422827311845 0.00025649416577862966 0 -0.00080832825798057969 0.00025205890675135048 0 -0.00081169641933934698 0.00023465099639982071 0 -0.00080832825798057969 0.00025205890675135048 0 -0.00080055507135183622 0.00024137983668972801 0 -0.00081169641933934698 0.00023465099639982071 0 -0.00080832825798057969 0.00025205890675135048 0 -0.00080055507135183622 0.00024137983668972801 0 -0.00079578853161442367 0.00024908628593217955 0 -0.00080832825798057969 0.00025205890675135048 0 -0.00079578853161442367 0.00024908628593217955 0 -0.00080455837531397394 0.00026282015899797351 0 -0.00079578853161442367 0.00024908628593217955 0 -0.00078776995077690156 0.00025370948190240141 0 -0.00080455837531397394 0.00026282015899797351 0 -0.00078776995077690156 0.00025370948190240141 0 -0.00079481448833189328 0.00026545010617443077 0 -0.00076557242694552934 0.00024788850050208708 0 -0.00079578853161442367 0.00024908628593217955 0 -0.00077877078022613037 0.00024054249555443942 0 -0.00078665426817468907 0.00023026770752375224 0 -0.00080055507135183622 0.00024137983668972801 0 -0.00079578853161442367 0.00024908628593217955 0 -0.00078665426817468907 0.00023026770752375224 0 -0.00079578853161442367 0.00024908628593217955 0 -0.00077877078022613037 0.00024054249555443942 0 -0.00078776995077690156 0.00025370948190240141 0 -0.00077877078022613037 0.00024054249555443942 0 -0.00078776995077690156 0.00025370948190240141 0 -0.00076557242694552934 0.00024788850050208708 0 -0.00078776995077690156 0.00025370948190240141 0 -0.00080455837531397394 0.00026282015899797351 0 -0.00079481448833189328 0.00026545010617443077 0 -0.00083136330703526581 0.00027021512794264728 0 -0.00080455837531397394 0.00026282015899797351 0 -0.00079481448833189328 0.00026545010617443077 0 0.00032320774366664118 0.00057624775866520596 0 0.00031275585195951564 0.00060691690103029528 0 0.00038841027574898165 0.00061930807929588361 0 0.00030195759808550804 0.00057356698322214429 0 0.00031275585195951564 0.00060691690103029528 0 0.00024692843761503524 0.00062598346398962665 0 -4.317768146559283e-06 0.00071138258172597369 0 -0.00017779892272309567 0.00055214484474190627 0 0.00032320774366664118 0.00057624775866520596 0 0.00030195759808550804 0.00057356698322214429 0 0.00021661489809268825 0.00050882850102552306 0 0.00032320774366664118 0.00057624775866520596 0 0.00030195759808550804 0.00057356698322214429 0 0.00031275585195951564 0.00060691690103029528 0 -0.00035467793396937365 0.0008279640416993839 0 -0.00020794574823954141 0.00081188977537563337 0 -0.00018160348803308789 0.00092982486131156839 0 -4.317768146559283e-06 0.00071138258172597369 0 7.0715627634689084e-05 0.00076682192107794991 0 -5.9651678616755958e-05 0.00087715186385003974 0 -0.00020794574823954141 0.00081188977537563337 0 -0.00018160348803308789 0.00092982486131156839 0 -0.00035467793396937365 0.0008279640416993839 0 -0.00020794574823954141 0.00081188977537563337 0 -0.0002113710003526992 0.00068850191518891315 0 -0.00030088393131175189 0.00053381482473823503 0 -0.0002113710003526992 0.00068850191518891315 0 -0.00038890128444993792 0.00069656009803893356 0 -3.218597626859835e-05 0.00073802324180750195 0 -0.00020794574823954141 0.00081188977537563337 0 -0.0002113710003526992 0.00068850191518891315 0 -0.00035467793396937365 0.0008279640416993839 0 -0.00038890128444993792 0.00069656009803893356 0 -0.00052820220262940845 0.00072332602457464467 0 -0.00035467793396937365 0.0008279640416993839 0 -0.0002113710003526992 0.00068850191518891315 0 -0.00038890128444993792 0.00069656009803893356 0 -0.00045385809197679989 0.00057676290518125773 0 -0.00038890128444993792 0.00069656009803893356 0 -0.00047547756105838918 0.00066020063994770063 0 -0.00024253319892637452 0.00049685620498074662 0 -0.0002540265051954171 0.00048899517199526882 0 -0.00023602192714848586 0.00046754327185848441 0 -0.00045385809197679989 0.00057676290518125773 0 -0.00047547756105838918 0.00066020063994770063 0 -0.00053558298497169876 0.00061781212058571581 0 -0.00047547756105838918 0.00066020063994770063 0 -0.00053536794794687619 0.00066561545782768238 0 -0.00052629584716337317 0.00070826977991276326 0 -0.00047547756105838918 0.00066020063994770063 0 -0.00053558298497169876 0.00061781212058571581 0 -0.00053536794794687619 0.00066561545782768238 0 -0.00060312947213997977 0.00067609477361019416 0 -0.00053536794794687619 0.00066561545782768238 0 -0.00052629584716337317 0.00070826977991276326 0 -0.00053558298497169876 0.00061781212058571581 0 -0.00060312947213997977 0.00067609477361019416 0 -0.00053536794794687619 0.00066561545782768238 0 -0.00059526990227200575 0.000472334387979279 0 -0.00017779892272309567 0.00055214484474190627 0 -0.00060312947213997977 0.00067609477361019416 0 -0.00052629584716337317 0.00070826977991276326 0 -0.00052832424342201078 0.0007230215473089652 0 -0.00038890128444993792 0.00069656009803893356 0 -0.00047547756105838918 0.00066020063994770063 0 -0.00052820220262940845 0.00072332602457464467 0 -0.00047547756105838918 0.00066020063994770063 0 -0.00052629584716337317 0.00070826977991276326 0 -0.00052820220262940845 0.00072332602457464467 0 -0.00018866530140108573 0.00057072092759898865 0 -0.00017779892272309567 0.00055214484474190627 0 -0.00085699481457459118 0.00030890973665656236 0 -0.0008828704941152677 0.0003137299868908265 0 -0.00086389900669047066 0.00029332018201417372 0 -0.00087363214683271705 0.00033688069359643166 0 -0.00085699481457459118 0.00030890973665656236 0 -0.0008828704941152677 0.0003137299868908265 0 -0.00059526990227200575 0.000472334387979279 0 -0.00055794555739828347 0.00036007996788918999 0 -0.0008828704941152677 0.0003137299868908265 0 -0.00086389900669047066 0.00029332018201417372 0 -0.00087654215488390682 0.00028543357496276075 0 -0.00086389900669047066 0.00029332018201417372 0 -0.00087654215488390682 0.00028543357496276075 0 -0.00085762012369884817 0.00027306921955203657 0 0.00030195759808550804 0.00057356698322214429 0 0.00021661489809268825 0.00050882850102552306 0 0.00019394819132331753 0.00065631805035720075 0 0.0002968004295779733 0.00059409313858010417 0 0.00018998209779091845 0.00056129732045505604 0 -0.00017779892272309567 0.00055214484474190627 0 0.00018998209779091845 0.00056129732045505604 0 -0.0002540265051954171 0.00048899517199526882 0 -0.00023602192714848586 0.00046754327185848441 0 -0.00024464100206835908 0.00044817935447399925 0 0.00024692843761503524 0.00062598346398962665 0 0.00024416352160930608 0.00064776610676790596 0 0.00029606397144951474 0.00063015559407130655 0 0.00031275585195951564 0.00060691690103029528 0 0.00024692843761503524 0.00062598346398962665 0 0.00029606397144951474 0.00063015559407130655 0 0.00018998209779091845 0.00056129732045505604 0 0.0006015746341264792 0.00055089128768483718 0 0.00024868403584057188 0.00041902965625101291 0 0.00023957276722734596 0.00047994006806588625 0 0.00016353677011383746 0.00047601008110030206 0 -0.00083894899317890419 0.00025796507094524694 0 -0.00085762012369884817 0.00027306921955203657 0 -0.00086784005313353646 0.00025540956171851481 0 -0.00087654215488390682 0.00028543357496276075 0 -0.00085762012369884817 0.00027306921955203657 0 -0.00086784005313353646 0.00025540956171851481 0 -0.0010986652718990599 0.0002487887006597551 0 -6.768249668346002e-05 0.00043258408637062746 0 -0.00023602192714848586 0.00046754327185848441 0 -0.00024464100206835908 0.00044817935447399925 0 -0.00022940531105714279 0.00043782286432763023 0 -0.00055794555739828347 0.00036007996788918999 0 -6.768249668346002e-05 0.00043258408637062746 0 0.00018998209779091845 0.00056129732045505604 0 -6.768249668346002e-05 0.00043258408637062746 0 0.00092770957956544791 0.00064907954858828992 0 0.00094772308101647449 0.00064132562332780137 0 0.0009449473588988667 0.00065032334796871533 0 0.0006015746341264792 0.00055089128768483718 0 -6.768249668346002e-05 0.00043258408637062746 0 8.2119785217476358e-05 0.00048941082315612195 0 -6.768249668346002e-05 0.00043258408637062746 0 9.2757890987592171e-05 0.00043256757768966333 0 -6.768249668346002e-05 0.00043258408637062746 0 0.00092770957956544791 0.00064907954858828992 0 0.00094772308101647449 0.00064132562332780137 0 0.00096024246892980009 0.00061600166179459127 0 0.00092770957956544791 0.00064907954858828992 0 0.00096024246892980009 0.00061600166179459127 0 0.00095290548459564333 0.00058861582372874289 0 0.0009915416130636416 0.00061685655001274687 0 0.00094772308101647449 0.00064132562332780137 0 0.00094490984879578666 0.00064996665267824107 0 0.0009915416130636416 0.00061685655001274687 0 0.00094772308101647449 0.00064132562332780137 0 0.00096024246892980009 0.00061600166179459127 0 0.00099087876585636329 0.00051302156688852289 0 0.0009993077586395358 0.00052984667051919165 0 0.00099395879661921317 0.00054351881827374867 0 0.00099087876585636329 0.00051302156688852289 0 0.0009993077586395358 0.00052984667051919165 0 0.0010271434994255043 0.00051208544457561191 0 0.0006015746341264792 0.00055089128768483718 0 0.0010248912109379962 0.00056874064853020771 0 0.0010271434994255043 0.00051208544457561191 0 0.0010359623579454563 0.00054119163577828549 0 0.0010142887513728293 0.0005392562328037356 0 0.0009993077586395358 0.00052984667051919165 0 0.0010271434994255043 0.00051208544457561191 0 0.0010142887513728293 0.0005392562328037356 0 0.0006015746341264792 0.00055089128768483718 0 0.00075823946570899488 0.00056515785670447922 0 0.00024416352160930608 0.00064776610676790596 0 0.00029606397144951474 0.00063015559407130655 0 0.00034754512357727699 0.00065499659580466692 0 0.00031275585195951564 0.00060691690103029528 0 0.00029606397144951474 0.00063015559407130655 0 0.00034754512357727699 0.00065499659580466692 0 0.00045209768328038664 0.00076389253552468412 0 0.00075823946570899488 0.00056515785670447922 0 0.00031275585195951564 0.00060691690103029528 0 0.00038841027574898165 0.00061930807929588361 0 0.00034754512357727699 0.00065499659580466692 0 0.00045545672391771567 0.0006631606875754009 0 0.00038841027574898165 0.00061930807929588361 0 0.00034754512357727699 0.00065499659580466692 0 0.0010533404798878183 0.0005314034290565821 0 0.0010271434994255043 0.00051208544457561191 0 0.0010359623579454563 0.00054119163577828549 0 0.0010533404798878183 0.0005314034290565821 0 0.0010359623579454563 0.00054119163577828549 0 0.001059159299014389 0.00054956057161007648 0 0.0010359623579454563 0.00054119163577828549 0 0.0010410272765631063 0.00055922053765473749 0 0.0010224339120038872 0.00055475187108172664 0 0.0010410272765631063 0.00055922053765473749 0 0.001059159299014389 0.00054956057161007648 0 0.0010552908137175627 0.0005637828290084078 0 0.0010359623579454563 0.00054119163577828549 0 0.0010410272765631063 0.00055922053765473749 0 0.001059159299014389 0.00054956057161007648 0 0.0010410272765631063 0.00055922053765473749 0 0.0010224339120038872 0.00055475187108172664 0 0.0010382113749919924 0.00058276104091654912 0 0.0010410272765631063 0.00055922053765473749 0 0.0010382113749919924 0.00058276104091654912 0 0.0010552908137175627 0.0005637828290084078 0 0.0012159342024277069 0.00053837279591994027 0 0.0010848645234444872 0.00057483121203502337 0 0.0010382113749919924 0.00058276104091654912 0 0.0010552908137175627 0.0005637828290084078 0 0.0010618927112933149 0.00057783337503115872 0 0.0009860422626624195 0.00054555268734939369 0 0.0012159342024277069 0.00053837279591994027 0 0.0010113288167531845 0.00056674309834887915 0 0.0010224339120038872 0.00055475187108172664 0 0.0010382113749919924 0.00058276104091654912 0 0.0010113288167531845 0.00056674309834887915 0 0.0010224339120038872 0.00055475187108172664 0 0.0010037546436451569 0.0005473900837651318 0 0.0010224339120038872 0.00055475187108172664 0 0.0010142887513728293 0.0005392562328037356 0 0.0010037546436451569 0.0005473900837651318 0 0.0010359623579454563 0.00054119163577828549 0 0.0010224339120038872 0.00055475187108172664 0 0.0010142887513728293 0.0005392562328037356 0 0.0009993077586395358 0.00052984667051919165 0 0.0010142887513728293 0.0005392562328037356 0 0.0010021874551624705 0.00054019910625499688 0 0.0010142887513728293 0.0005392562328037356 0 0.0010021874551624705 0.00054019910625499688 0 0.0010037546436451569 0.0005473900837651318 0 0.0009993077586395358 0.00052984667051919165 0 0.0010021874551624705 0.00054019910625499688 0 0.00099395879661921317 0.00054351881827374867 0 0.0010021874551624705 0.00054019910625499688 0 0.0010037546436451569 0.0005473900837651318 0 0.00099395879661921317 0.00054351881827374867 0 0.0010037546436451569 0.0005473900837651318 0 0.00099395879661921317 0.00054351881827374867 0 0.00099427329010443478 0.00054495334720159 0 0.0009915416130636416 0.00061685655001274687 0 0.00096024246892980009 0.00061600166179459127 0 0.00097926724616426934 0.00058611129400387154 0 0.00096024246892980009 0.00061600166179459127 0 0.00095290548459564333 0.00058861582372874289 0 0.00097926724616426934 0.00058611129400387154 0 0.00095290548459564333 0.00058861582372874289 0 0.00097926724616426934 0.00058611129400387154 0 0.00097899640784809535 0.00056756178131756388 0 0.00095290548459564333 0.00058861582372874289 0 0.00097899640784809535 0.00056756178131756388 0 0.0009900564025159314 0.0005472198376566843 0 0.00099395879661921317 0.00054351881827374867 0 0.00099427329010443478 0.00054495334720159 0 0.0009900564025159314 0.0005472198376566843 0 0.0010248912109379962 0.00056874064853020771 0 0.00097338927410559398 0.00054995172849826976 0 0.00097926724616426934 0.00058611129400387154 0 0.00097899640784809535 0.00056756178131756388 0 0.00099295941452092308 0.00056499619615877402 0 0.00097899640784809535 0.00056756178131756388 0 0.00098992193536970394 0.0005548744815962026 0 0.00099295941452092308 0.00056499619615877402 0 0.00097899640784809535 0.00056756178131756388 0 0.00098992193536970394 0.0005548744815962026 0 0.0009900564025159314 0.0005472198376566843 0 0.0010113288167531845 0.00056674309834887915 0 0.0010037546436451569 0.0005473900837651318 0 0.00099427329010443478 0.00054495334720159 0 0.0009860422626624195 0.00054555268734939369 0 0.0010079394863493957 0.0005501948481302332 0 0.00099427329010443478 0.00054495334720159 0 0.0010004657148845731 0.00054598504223450162 0 0.0009900564025159314 0.0005472198376566843 0 0.0010159946513156924 0.00053922106426618568 0 0.00099427329010443478 0.00054495334720159 0 0.0010004657148845731 0.00054598504223450162 0 0.0010159946513156924 0.00053922106426618568 0 0.0010004657148845731 0.00054598504223450162 0 0.0010069349414099276 0.00055677514282509606 0 0.0010004657148845731 0.00054598504223450162 0 0.0010069349414099276 0.00055677514282509606 0 0.0009900564025159314 0.0005472198376566843 0 0.0018344220478843057 0.00045196660726655615 0 0.001401879344640671 0.00044731869397083391 0 0.0019092371321789148 0.00034390932069394589 0 0.0019717601887406437 0.00033147748924195901 0 0.0019914281766776356 0.0003058344516931281 0 0.0018344220478843057 0.00045196660726655615 0 0.0028382592141785552 8.5195901209780806e-05 0 0.00098992193536970394 0.0005548744815962026 0 0.00099220323865483536 0.00054813716779759437 0 0.001000069653441224 0.00054927127202078355 0 0.00098992193536970394 0.0005548744815962026 0 0.00099220323865483536 0.00054813716779759437 0 0.0009900564025159314 0.0005472198376566843 0 0.0010069349414099276 0.00055677514282509606 0 0.0009900564025159314 0.0005472198376566843 0 0.00099120379184975153 0.00054747702218092386 0 0.00099220323865483536 0.00054813716779759437 0 0.0009900564025159314 0.0005472198376566843 0 0.00099120379184975153 0.00054747702218092386 0 0.0019717601887406437 0.00033147748924195901 0 0.0019914281766776356 0.0003058344516931281 0 0.0020311660497435132 0.00031865256081090634 0 0.001401879344640671 0.00044731869397083391 0 0.0016728557427517032 0.00029308233046223718 0 0.00099120379184975153 0.00054747702218092386 0 0.0010057603749942822 0.00053382088809866347 0 0.00099784301056284096 0.00054385816272513278 0 0.00099220323865483536 0.00054813716779759437 0 0.00099120379184975153 0.00054747702218092386 0 0.00099784301056284096 0.00054385816272513278 0 0.0028382592141785552 8.5195901209780806e-05 0 0.0033549011036294271 -7.9845205775607036e-05 0 0.003660722058001979 -0.00054291443729981845 0 0.0038839414733221676 -0.00046427483239495611 0 0.0036995922476743539 -0.00035344774282084298 0 0.0027110974134511353 0.0003557860502152654 0 0.00278158245655752 0.00032478289248747799 0 0.0027156324706004461 0.00030293043617322842 0 0.0027110974134511353 0.0003557860502152654 0 0.0027156324706004461 0.00030293043617322842 0 0.00267291728522199 0.00032981363248584634 0 0.0033549011036294271 -7.9845205775607036e-05 0 0.0034038991509009187 -6.4060925470496685e-05 0 0.0027156324706004461 0.00030293043617322842 0 0.00267291728522199 0.00032981363248584634 0 0.0026500735380903338 0.0002790383029250717 0 0.00267291728522199 0.00032981363248584634 0 0.0026054465260026602 0.00034442997140943661 0 0.0026500735380903338 0.0002790383029250717 0 0.0026054465260026602 0.00034442997140943661 0 0.0026500735380903338 0.0002790383029250717 0 0.0025736281081558399 0.00031447974330510767 0 0.0026054465260026602 0.00034442997140943661 0 0.0026433450381479992 0.00036737678311690893 0 0.0025703012867375665 0.00037871137350547107 0 0.0017975832439440511 0.00049027115353177564 0 0.0018128206934229913 0.00047186406185311162 0 0.0017698497325011379 0.0004805497467579294 0 0.0023618998405072508 0.00040105138409716014 0 0.0019049763693992543 0.00050765529619747473 0 0.0011792902572056254 0.00054700259419465311 0 0.0011391790531967466 0.00056072088643207478 0 0.0011446933607166011 0.00053519250516664493 0 0.0012159342024277069 0.00053837279591994027 0 0.0019049763693992543 0.00050765529619747473 0 0.0018344220478843057 0.00045196660726655615 0 0.0023618998405072508 0.00040105138409716014 0 0.0018565271703796394 0.00046349313601748112 0 0.0017975832439440511 0.00049027115353177564 0 0.0018128206934229913 0.00047186406185311162 0 0.00267291728522199 0.00032981363248584634 0 0.0026054465260026602 0.00034442997140943661 0 0.0026433450381479992 0.00036737678311690893 0 0.0027110974134511353 0.0003557860502152654 0 0.00267291728522199 0.00032981363248584634 0 0.0026433450381479992 0.00036737678311690893 0 0.0018344220478843057 0.00045196660726655615 0 0.0012159342024277069 0.00053837279591994027 0 0.0010159946513156924 0.00053922106426618568 0 0.0010069349414099276 0.00055677514282509606 0 0.0010432158048203067 0.00054813901497692086 0 -0.00075879316798193263 0.00021799374997597576 0 -0.00078496772843842223 0.0001957588492371917 0 -0.00075599155544898999 0.00017741137991340549 0 0.00042045366016173398 0.00011131338462306998 0 0.00069369843271701692 7.4831263634486423e-05 0 -2.5974185192884163e-05 0.00035383134406764062 0 0.00069369843271701692 7.4831263634486423e-05 0 -0.00075879316798193263 0.00021799374997597576 0 -0.00078665426817468907 0.00023026770752375224 0 -0.00078496772843842223 0.0001957588492371917 0 -0.00077877078022613037 0.00024054249555443942 0 -0.00075879316798193263 0.00021799374997597576 0 -0.00078665426817468907 0.00023026770752375224 0 -0.00078665426817468907 0.00023026770752375224 0 -0.00081169641933934698 0.00023465099639982071 0 -0.00078496772843842223 0.0001957588492371917 0 -0.00075699209230406365 0.00020918972030009928 0 -0.00069568167203384608 0.00013257080764432174 0 -0.00078456534723552005 0.0001934898859788604 0 -0.00085380276387735717 0.00022727234340635572 0 -2.5974185192884163e-05 0.00035383134406764062 0 -0.00080055507135183622 0.00024137983668972801 0 -0.00078665426817468907 0.00023026770752375224 0 -0.00081169641933934698 0.00023465099639982071 0 -2.5974185192884163e-05 0.00035383134406764062 0 0.00015976689918475645 0.00037932311182533685 0 0.0010906894007524249 0.00055554729111094371 0 0.0010308269098851929 0.00055093752834197069 0 0.0010312878441111398 0.00059157251174942881 0 0.0010906894007524249 0.00055554729111094371 0 0.0010308269098851929 0.00055093752834197069 0 0.001081120622786423 0.00051077896072477982 0 0.0010308269098851929 0.00055093752834197069 0 0.0010312878441111398 0.00059157251174942881 0 0.0010045205686738581 0.00057830855032816393 0 0.0010308269098851929 0.00055093752834197069 0 0.0010081756863654224 0.00055775837875730817 0 0.0010162566640819085 0.00054531931150058222 0 0.0010308269098851929 0.00055093752834197069 0 0.0010045205686738581 0.00057830855032816393 0 0.0010081756863654224 0.00055775837875730817 0 -0.00081423422827311845 0.00025649416577862966 0 -0.00075699209230406365 0.00020918972030009928 0 -0.00078456534723552005 0.0001934898859788604 0 9.2757890987592171e-05 0.00043256757768966333 0 0.00015976689918475645 0.00037932311182533685 0 0.0009915416130636416 0.00061685655001274687 0 0.0010312878441111398 0.00059157251174942881 0 0.0010045205686738581 0.00057830855032816393 0 0.0009915416130636416 0.00061685655001274687 0 0.00097926724616426934 0.00058611129400387154 0 0.0010045205686738581 0.00057830855032816393 0 0.00097926724616426934 0.00058611129400387154 0 0.0010045205686738581 0.00057830855032816393 0 0.00099295941452092308 0.00056499619615877402 0 0.0010045205686738581 0.00057830855032816393 0 0.00099295941452092308 0.00056499619615877402 0 0.0010081756863654224 0.00055775837875730817 0 0.00099295941452092308 0.00056499619615877402 0 0.0010081756863654224 0.00055775837875730817 0 0.001000069653441224 0.00054927127202078355 0 0.00098992193536970394 0.0005548744815962026 0 0.00099295941452092308 0.00056499619615877402 0 0.001000069653441224 0.00054927127202078355 0 0.00099220323865483536 0.00054813716779759437 0 0.001000069653441224 0.00054927127202078355 0 0.00099784301056284096 0.00054385816272513278 0 0.001000069653441224 0.00054927127202078355 0 0.0010118236595987537 0.00053991496761506973 0 0.0010050721334266763 0.00054048269771736978 0 0.001000069653441224 0.00054927127202078355 0 0.0010050721334266763 0.00054048269771736978 0 0.00099784301056284096 0.00054385816272513278 0 0.001000069653441224 0.00054927127202078355 0 0.0010162566640819085 0.00054531931150058222 0 0.0010118236595987537 0.00053991496761506973 0 0.0010081756863654224 0.00055775837875730817 0 0.001000069653441224 0.00054927127202078355 0 0.0010162566640819085 0.00054531931150058222 0 0.0010118236595987537 0.00053991496761506973 0 0.0010101831322571104 0.00053397330474871517 0 0.0010050721334266763 0.00054048269771736978 0 0.0010118236595987537 0.00053991496761506973 0 0.0010101831322571104 0.00053397330474871517 0 0.0010232983108671495 0.00052961487943785379 0 0.0010101831322571104 0.00053397330474871517 0 0.0010077226099166928 0.00053300322008195146 0 0.0010232983108671495 0.00052961487943785379 0 0.0010162566640819085 0.00054531931150058222 0 0.0010118236595987537 0.00053991496761506973 0 0.0010232983108671495 0.00052961487943785379 0 0.0015554816904886639 0.00027884610461159393 0 0.0016728557427517032 0.00029308233046223718 0 0.0010101831322571104 0.00053397330474871517 0 0.0010057603749942822 0.00053382088809866347 0 0.0010050721334266763 0.00054048269771736978 0 0.0010057603749942822 0.00053382088809866347 0 0.0010050721334266763 0.00054048269771736978 0 0.00099784301056284096 0.00054385816272513278 0 0.0025040310591196002 7.850286902970848e-05 0 0.0023441255535429028 1.9895381536428487e-05 0 0.0022095217187122458 0.00019196129819587306 0 0.0028382592141785552 8.5195901209780806e-05 0 0.0016728557427517032 0.00029308233046223718 0 0.003660722058001979 -0.00054291443729981845 0 0.0034395786613202607 -0.00045575588387519029 0 0.0036995922476743539 -0.00035344774282084298 0 0.0028382592141785552 8.5195901209780806e-05 0 0.0027635768046012569 -0.00021589583893514742 0 0.0016728557427517032 0.00029308233046223718 0 0.0017252190737525048 0.00025041770091927668 0 0.0023441255535429028 1.9895381536428487e-05 0 0.0022095217187122458 0.00019196129819587306 0 0.0021588951657394635 4.3048435348729206e-05 0 0.0017252190737525048 0.00025041770091927668 0 0.0016696951956666254 0.00011915564455274721 0 0.0026374398908390944 -0.00028062014785785907 0 0.002444471658494222 -7.0994610641659503e-05 0 0.0022867509371422329 -0.00023796544670215744 0 0.0027635768046012569 -0.00021589583893514742 0 0.0017252190737525048 0.00025041770091927668 0 0.0026374398908390944 -0.00028062014785785907 0 0.0025828271233526759 -1.6556551570677907e-05 0 0.002444471658494222 -7.0994610641659503e-05 0 0.0027091642941543402 -6.7418671385617075e-05 0 0.0026374398908390944 -0.00028062014785785907 0 0.0025828271233526759 -1.6556551570677907e-05 0 0.0027635768046012569 -0.00021589583893514742 0 0.0026317595762698578 -0.00012031198746790818 0 0.0025828271233526759 -1.6556551570677907e-05 0 0.002444471658494222 -7.0994610641659503e-05 0 0.0024477874273579332 0.00013973591953586121 0 0.0010308269098851929 0.00055093752834197069 0 0.0010146913734767544 0.00047876913353748612 0 0.0010467869309041637 0.00050432823911366481 0 0.0010308269098851929 0.00055093752834197069 0 0.0010162566640819085 0.00054531931150058222 0 0.0010232983108671495 0.00052961487943785379 0 0.0009392309227692358 0.00058743947931155218 0 0.0017252190737525048 0.00025041770091927668 0 0.0010146913734767544 0.00047876913353748612 0 0.0010467869309041637 0.00050432823911366481 0 0.0010667026305386635 0.00047191200917637407 0 0.001081120622786423 0.00051077896072477982 0 0.0010667026305386635 0.00047191200917637407 0 0.001121371765837852 0.00046218567689404266 0 0.0010308269098851929 0.00055093752834197069 0 0.0010467869309041637 0.00050432823911366481 0 0.001081120622786423 0.00051077896072477982 0 0.0010467869309041637 0.00050432823911366481 0 0.001081120622786423 0.00051077896072477982 0 0.0010667026305386635 0.00047191200917637407 0 0.0016696951956666254 0.00011915564455274721 0 0.0016858865274977327 8.5727228781806394e-05 0 0.0022867509371422329 -0.00023796544670215744 0 0.0021298960320776756 -5.7651085011024832e-05 0 0.0019319375699629814 -0.00019213122971643769 0 0.0022867509371422329 -0.00023796544670215744 0 0.0021298960320776756 -5.7651085011024832e-05 0 0.0022638002446784366 4.6792517751024151e-05 0 0.002444471658494222 -7.0994610641659503e-05 0 0.0022867509371422329 -0.00023796544670215744 0 0.0022638002446784366 4.6792517751024151e-05 0 0.0019526475656996742 7.4241804222306327e-05 0 0.0018126824676993288 0.00025050266263537175 0 0.0020389581574678066 0.00033987937933808489 0 0.0021298960320776756 -5.7651085011024832e-05 0 0.0019319375699629814 -0.00019213122971643769 0 0.0020418572757209133 0.00020228962726871372 0 0.0016463011974393697 0.000120779020249402 0 0.0016428350564963907 0.00012626300716399704 0 0.0016392742704288445 0.00013906032221148014 0 0.0016858865274977327 8.5727228781806394e-05 0 0.0020500765345002388 0.00026280221807714361 0 0.0016858865274977327 8.5727228781806394e-05 0 0.0016943826526454823 0.00012868578528420769 0 0.0019526475656996742 7.4241804222306327e-05 0 0.0018126824676993288 0.00025050266263537175 0 0.0016392742704288445 0.00013906032221148014 0 0.0016463011974393697 0.000120779020249402 0 0.0016428350564963907 0.00012626300716399704 0 0.0016427215940893033 0.00011991922991711965 0 0.0016428350564963907 0.00012626300716399704 0 0.0016579704599169569 8.1922722328978728e-05 0 0.0016151546068120259 8.2153073473476256e-05 0 0.0016167937156127854 2.498194501453177e-05 0 0.0012060172961985826 0.00021273164916199371 0 -2.5974185192884163e-05 0.00035383134406764062 0 0.0012060172961985826 0.00021273164916199371 0 0.00038612203396729754 0.00050793522828705673 0 0.00070696389350968141 -4.3151905629891236e-05 0 0.00077444928106133628 0.00020892348545925116 0 0.0010906894007524249 0.00055554729111094371 0 0.001081120622786423 0.00051077896072477982 0 0.001128821708355626 0.00050195169584130118 0 0.0016858865274977327 8.5727228781806394e-05 0 0.0012060172961985826 0.00021273164916199371 0 0.001081120622786423 0.00051077896072477982 0 0.001121371765837852 0.00046218567689404266 0 0.001128821708355626 0.00050195169584130118 0 0.00069369843271701692 7.4831263634486423e-05 0 0.0016443843810757641 -0.00012920511813988307 0 0.0016579704599169569 8.1922722328978728e-05 0 0.0016478879280566237 5.4832185886287428e-05 0 0.0016151546068120259 8.2153073473476256e-05 0 0.0012060172961985826 0.00021273164916199371 0 0.00069369843271701692 7.4831263634486423e-05 0 0.003135681919719446 0.00034612795078655555 0 0.003637533836613251 -7.4968271579415657e-07 0 0.0019637844218905356 0.00053349555551136395 0 0.0021000996677988347 0.00070482449699888242 0 0.0017616990833644174 0.00061870663835566087 0 0.0019637844218905356 0.00053349555551136395 0 0.0020389581574678066 0.00033987937933808489 0 0.0021524477331958444 0.00060662288024376776 0 0.0019637844218905356 0.00053349555551136395 0 0.0017828109064063902 0.00040880227778263922 0 0.0017616990833644174 0.00061870663835566087 0 0.0019637844218905356 0.00053349555551136395 0 0.0020389581574678066 0.00033987937933808489 0 0.0017828109064063902 0.00040880227778263922 0 0.0018126824676993288 0.00025050266263537175 0 0.0020389581574678066 0.00033987937933808489 0 0.0017828109064063902 0.00040880227778263922 0 0.0020418572757209133 0.00020228962726871372 0 0.0022187259336089544 0.00027526049794429137 0 0.0021524477331958444 0.00060662288024376776 0 0.0021298960320776756 -5.7651085011024832e-05 0 0.0020418572757209133 0.00020228962726871372 0 0.0022638002446784366 4.6792517751024151e-05 0 0.0020418572757209133 0.00020228962726871372 0 0.0022638002446784366 4.6792517751024151e-05 0 0.0022187259336089544 0.00027526049794429137 0 0.0022638002446784366 4.6792517751024151e-05 0 0.0022187259336089544 0.00027526049794429137 0 0.0024477874273579332 0.00013973591953586121 0 0.0022187259336089544 0.00027526049794429137 0 0.0022789422402780691 0.000455230140959441 0 0.002423210886548427 0.00033723730397768726 0 0.0022187259336089544 0.00027526049794429137 0 0.002423210886548427 0.00033723730397768726 0 0.0024477874273579332 0.00013973591953586121 0 0.0022789422402780691 0.000455230140959441 0 0.0023500272480524334 0.00056119218173094352 0 0.002423210886548427 0.00033723730397768726 0 0.0023500272480524334 0.00056119218173094352 0 0.0025722088311612239 0.0008056606750655649 0 0.0021000996677988347 0.00070482449699888242 0 0.0020500765345002388 0.00026280221807714361 0 0.0021391518852037134 0.00058217189092554962 0 0.0022187259336089544 0.00027526049794429137 0 0.0022789422402780691 0.000455230140959441 0 0.0021524477331958444 0.00060662288024376776 0 0.0021524477331958444 0.00060662288024376776 0 0.0023500272480524334 0.00056119218173094352 0 0.0021000996677988347 0.00070482449699888242 0 0.0019637844218905356 0.00053349555551136395 0 0.0021524477331958444 0.00060662288024376776 0 0.0021000996677988347 0.00070482449699888242 0 0.0022789422402780691 0.000455230140959441 0 0.0021524477331958444 0.00060662288024376776 0 0.0023500272480524334 0.00056119218173094352 0 0.0023500272480524334 0.00056119218173094352 0 0.0025716755676869684 0.00046654927203446865 0 0.0025722088311612239 0.0008056606750655649 0 0.0025716755676869684 0.00046654927203446865 0 0.0028850407676440639 0.00041232489590467374 0 0.0025722088311612239 0.0008056606750655649 0 0.0025716755676869684 0.00046654927203446865 0 0.0026273626221961941 0.00021693607346286807 0 0.0028850407676440639 0.00041232489590467374 0 0.0023500272480524334 0.00056119218173094352 0 0.0025716755676869684 0.00046654927203446865 0 0.002423210886548427 0.00033723730397768726 0 0.002423210886548427 0.00033723730397768726 0 0.0024477874273579332 0.00013973591953586121 0 0.0026273626221961941 0.00021693607346286807 0 0.0025716755676869684 0.00046654927203446865 0 0.002423210886548427 0.00033723730397768726 0 0.0026273626221961941 0.00021693607346286807 0 0.002444471658494222 -7.0994610641659503e-05 0 0.0022638002446784366 4.6792517751024151e-05 0 0.0024477874273579332 0.00013973591953586121 0 0.0025828271233526759 -1.6556551570677907e-05 0 0.0024477874273579332 0.00013973591953586121 0 0.0026273626221961941 0.00021693607346286807 0 0.0027189942396533963 -7.052565563813972e-05 0 0.0025828271233526759 -1.6556551570677907e-05 0 0.0026273626221961941 0.00021693607346286807 0 0.0027635768046012569 -0.00021589583893514742 0 0.0031974927859808287 0.00011849679732534851 0 0.0027189942396533963 -7.052565563813972e-05 0 0.0026273626221961941 0.00021693607346286807 0 0.0028850407676440639 0.00041232489590467374 0 0.0034395786613202607 -0.00045575588387519029 0 0.0035267776720767775 -0.00021353616600930145 0 0.0036995922476743539 -0.00035344774282084298 0 0.0035267776720767775 -0.00021353616600930145 0 0.0036123710141315497 2.8491375790350608e-05 0 0.0036919732672710498 -6.9778127861973012e-05 0 0.0031974927859808287 0.00011849679732534851 0 0.0037697594757919524 0.00029585233158768872 0 0.0037697594757919524 0.00029585233158768872 0 0.0035078303184184986 0.00040949922159959595 0 0.0044210834763208293 4.2943522580695788e-06 0 0.0044189879990237397 4.2296593459557265e-06 0 0.0044092744536769245 -1.144890288452548e-05 0 0.0044210834763208293 4.2943522580695788e-06 0 0.0044237519733285957 3.1990672111785852e-06 0 0.0044092744536769245 -1.144890288452548e-05 0 0.0028850407676440639 0.00041232489590467374 0 0.0030519482760930734 0.0008962442825854529 0 0.0025722088311612239 0.0008056606750655649 0 0.0044210834763208293 4.2943522580695788e-06 0 0.0044237519733285957 3.1990672111785852e-06 0 0.0044257413399598645 1.1661343522910463e-05 0 0.0044210834763208293 4.2943522580695788e-06 0 0.0044267360536985462 1.1246764698195667e-05 0 0.0044257413399598645 1.1661343522910463e-05 0 0.0044189879990237397 4.2296593459557265e-06 0 0.0044186425633339389 7.3090074691769457e-06 0 0.0044276027107502279 1.0507731084362187e-05 0 0.0044267360536985462 1.1246764698195667e-05 0 0.0044189879990237397 4.2296593459557265e-06 0 0.0044276027107502279 1.0507731084362187e-05 0 0.0044210834763208293 4.2943522580695788e-06 0 0.0044267360536985462 1.1246764698195667e-05 0 0.0044189879990237397 4.2296593459557265e-06 0 0.0044189879990237397 4.2296593459557265e-06 0 0.0044059029996028438 -3.0754601416124969e-06 0 0.0044186425633339389 7.3090074691769457e-06 0 0.0044059029996028438 -3.0754601416124969e-06 0 0.0044095903812017912 5.1855269709748349e-06 0 0.0044186425633339389 7.3090074691769457e-06 0 0.0044189879990237397 4.2296593459557265e-06 0 0.0044092744536769245 -1.144890288452548e-05 0 0.0044059029996028438 -3.0754601416124969e-06 0 0.0044092744536769245 -1.144890288452548e-05 0 0.0043859350903810304 -2.9328416307349417e-05 0 0.0044059029996028438 -3.0754601416124969e-06 0 0.0043859350903810304 -2.9328416307349417e-05 0 0.0044059029996028438 -3.0754601416124969e-06 0 0.0043891618678645597 -1.1179444027024888e-05 0 0.0035078303184184986 0.00040949922159959595 0 0.003135681919719446 0.00034612795078655555 0 0.0044059029996028438 -3.0754601416124969e-06 0 0.0044095903812017912 5.1855269709748349e-06 0 0.004397545102693726 3.8719999047930626e-06 0 0.0044059029996028438 -3.0754601416124969e-06 0 0.0043891618678645597 -1.1179444027024888e-05 0 0.004397545102693726 3.8719999047930626e-06 0 0.004397545102693726 3.8719999047930626e-06 0 0.0043625465250615083 -1.3703993221632664e-06 0 0.0043939495081342312 1.2489751426476259e-05 0 0.0043891618678645597 -1.1179444027024888e-05 0 0.004397545102693726 3.8719999047930626e-06 0 0.0043625465250615083 -1.3703993221632664e-06 0 0.0043859350903810304 -2.9328416307349417e-05 0 0.0043891618678645597 -1.1179444027024888e-05 0 0.0043381100249535254 -3.9465189689758302e-05 0 0.0046018639262288942 3.2565078333944919e-05 0 0.003637533836613251 -7.4968271579415657e-07 0 0.0043891618678645597 -1.1179444027024888e-05 0 0.0043477073821601795 -7.3646849395105161e-05 0 0.0043625465250615083 -1.3703993221632664e-06 0 0.0040007908526570671 -0.00016671433228720889 0 0.0041482333384143203 -0.00011198358320814543 0 0.0041907782224150395 -0.00021637739635274337 0 0.0040007908526570671 -0.00016671433228720889 0 0.0041482333384143203 -0.00011198358320814543 0 0.0040529934981984282 -2.521145852744376e-05 0 0.0041482333384143203 -0.00011198358320814543 0 0.004270657884884249 -0.00013534937987958446 0 0.0042011052048305372 -1.1751006775807891e-05 0 0.0041482333384143203 -0.00011198358320814543 0 0.004270657884884249 -0.00013534937987958446 0 0.0041907782224150395 -0.00021637739635274337 0 0.004270657884884249 -0.00013534937987958446 0 0.0041907782224150395 -0.00021637739635274337 0 0.0043034554412322438 -0.00018812691436125993 0 0.0041907782224150395 -0.00021637739635274337 0 0.0043034554412322438 -0.00018812691436125993 0 0.0043068670185501794 -0.00030200562247647737 0 0.0041148125341125257 -0.00015846423922756046 0 0.0038978090999132178 4.7508663800820395e-05 0 0.0041907782224150395 -0.00021637739635274337 0 0.0041011830043037401 -0.00038316936841704198 0 0.0043068670185501794 -0.00030200562247647737 0 0.0026500735380903338 0.0002790383029250717 0 0.0025826306597825947 0.00025445375620138403 0 0.0025736281081558399 0.00031447974330510767 0 0.0034038991509009187 -6.4060925470496685e-05 0 0.0031608996132507874 0.00025268739447480436 0 0.0038839414733221676 -0.00046427483239495611 0 0.0041011830043037401 -0.00038316936841704198 0 0.0038962867744428832 -0.00029973638503748778 0 0.0040007908526570671 -0.00016671433228720889 0 0.0041907782224150395 -0.00021637739635274337 0 0.0041011830043037401 -0.00038316936841704198 0 0.0040007908526570671 -0.00016671433228720889 0 0.0041011830043037401 -0.00038316936841704198 0 0.0038962867744428832 -0.00029973638503748778 0 0.0038962867744428832 -0.00029973638503748778 0 0.0036995922476743539 -0.00035344774282084298 0 0.0037875397255367257 -0.00016196621999922854 0 0.0038839414733221676 -0.00046427483239495611 0 0.0038962867744428832 -0.00029973638503748778 0 0.0036995922476743539 -0.00035344774282084298 0 0.0035267776720767775 -0.00021353616600930145 0 0.0036995922476743539 -0.00035344774282084298 0 0.0037875397255367257 -0.00016196621999922854 0 0.0035267776720767775 -0.00021353616600930145 0 0.0037875397255367257 -0.00016196621999922854 0 0.0036919732672710498 -6.9778127861973012e-05 0 0.0040007908526570671 -0.00016671433228720889 0 0.0037875397255367257 -0.00016196621999922854 0 0.0038401295891478909 6.6543302185367688e-05 0 0.0040007908526570671 -0.00016671433228720889 0 0.0038962867744428832 -0.00029973638503748778 0 0.0037875397255367257 -0.00016196621999922854 0 0.0040007908526570671 -0.00016671433228720889 0 0.0038401295891478909 6.6543302185367688e-05 0 0.0040529934981984282 -2.521145852744376e-05 0 0.00417159271126194 3.6339789155939955e-05 0 0.0042288095511617422 7.4829939751625677e-05 0 0.0037875397255367257 -0.00016196621999922854 0 0.0038401295891478909 6.6543302185367688e-05 0 0.0036919732672710498 -6.9778127861973012e-05 0 0.0036123710141315497 2.8491375790350608e-05 0 0.0038401295891478909 6.6543302185367688e-05 0 0.0036919732672710498 -6.9778127861973012e-05 0 0.0044240480610585886 1.1850318489612592e-05 0 0.0044260503220578873 2.7058085202786986e-05 0 0.004426936725537324 1.9009812953793541e-05 0 0.0037697594757919524 0.00029585233158768872 0 0.00417159271126194 3.6339789155939955e-05 0 0.0044240480610585886 1.1850318489612592e-05 0 0.0044257413399598645 1.1661343522910463e-05 0 0.004426936725537324 1.9009812953793541e-05 0 0.0037697594757919524 0.00029585233158768872 0 0.0039968684855732116 0.00015974416678698607 0 0.0044267360536985462 1.1246764698195667e-05 0 0.0044257413399598645 1.1661343522910463e-05 0 0.004426936725537324 1.9009812953793541e-05 0 0.004426936725537324 1.9009812953793541e-05 0 0.0044291778071777624 1.4563079664668326e-05 0 0.0044275576859697258 2.1905001270676491e-05 0 0.0044267360536985462 1.1246764698195667e-05 0 0.0044291778071777624 1.4563079664668326e-05 0 0.0044276027107502279 1.0507731084362187e-05 0 0.0044267360536985462 1.1246764698195667e-05 0 0.004426936725537324 1.9009812953793541e-05 0 0.0044291778071777624 1.4563079664668326e-05 0 0.0044260503220578873 2.7058085202786986e-05 0 0.0044275576859697258 2.1905001270676491e-05 0 0.0044113972272895501 5.5175617401101238e-05 0 0.0044260503220578873 2.7058085202786986e-05 0 0.004426936725537324 1.9009812953793541e-05 0 0.0044275576859697258 2.1905001270676491e-05 0 0.0044113972272895501 5.5175617401101238e-05 0 0.004379903359626792 4.5203563831683776e-05 0 0.0044079327965498251 1.9956577113375121e-05 0 0.0044275576859697258 2.1905001270676491e-05 0 0.0044113972272895501 5.5175617401101238e-05 0 0.0044079327965498251 1.9956577113375121e-05 0 0.0038401295891478909 6.6543302185367688e-05 0 0.0040709352868602538 0.00010085542308754347 0 0.0040529934981984282 -2.521145852744376e-05 0 0.0040709352868602538 0.00010085542308754347 0 0.0040529934981984282 -2.521145852744376e-05 0 0.0042011052048305372 -1.1751006775807891e-05 0 0.0041482333384143203 -0.00011198358320814543 0 0.0040529934981984282 -2.521145852744376e-05 0 0.0042011052048305372 -1.1751006775807891e-05 0 0.004270657884884249 -0.00013534937987958446 0 0.0043057997923320801 9.5784515622259465e-05 0 0.0042991253212793217 -0.00018349714215135841 0 0.004270657884884249 -0.00013534937987958446 0 0.0042011052048305372 -1.1751006775807891e-05 0 0.0043057997923320801 9.5784515622259465e-05 0 0.0040709352868602538 0.00010085542308754347 0 0.0042011052048305372 -1.1751006775807891e-05 0 0.0042357945147935474 5.9816496735209848e-05 0 0.0042011052048305372 -1.1751006775807891e-05 0 0.0043057997923320801 9.5784515622259465e-05 0 0.0042357945147935474 5.9816496735209848e-05 0 0.0044113972272895501 5.5175617401101238e-05 0 0.0043140014392306133 8.8796070880302328e-05 0 0.004379903359626792 4.5203563831683776e-05 0 0.0043057997923320801 9.5784515622259465e-05 0 0.0043140014392306133 8.8796070880302328e-05 0 0.0042357945147935474 5.9816496735209848e-05 0 0.0042659369748174825 0.00023805702146035366 0 0.004419280854283435 0.00013702608066632651 0 0.0042288095511617422 7.4829939751625677e-05 0 0.0043038225198491356 8.781223954139401e-05 0 0.0040709352868602538 0.00010085542308754347 0 0.0043140014392306133 8.8796070880302328e-05 0 0.0042357945147935474 5.9816496735209848e-05 0 0.004379903359626792 4.5203563831683776e-05 0 0.0043570680152633275 4.4790325627209438e-05 0 0.0043782941699951582 2.7338774497889685e-05 0 0.0043140014392306133 8.8796070880302328e-05 0 0.0043570680152633275 4.4790325627209438e-05 0 0.0043506762662073361 2.2450229164031749e-05 0 0.0043140014392306133 8.8796070880302328e-05 0 0.004379903359626792 4.5203563831683776e-05 0 0.0043570680152633275 4.4790325627209438e-05 0 0.0042659369748174825 0.00023805702146035366 0 0.0043743215113253454 6.2689196713994558e-06 0 0.0043057997923320801 9.5784515622259465e-05 0 0.0043140014392306133 8.8796070880302328e-05 0 0.0043506762662073361 2.2450229164031749e-05 0 0.0044230190705722853 0.00057559423519464958 0 0.0043502051800752926 0.00034826289044516612 0 0.0044445429080380806 0.00021765996550788906 0 0.0044230190705722853 0.00057559423519464958 0 0.0042405893144658348 0.0004008406518658938 0 0.0043502051800752926 0.00034826289044516612 0 0.0044230190705722853 0.00057559423519464958 0 0.0042405893144658348 0.0004008406518658938 0 0.0041780403310651892 0.00066523670146912599 0 0.0042405893144658348 0.0004008406518658938 0 0.0040168873814284758 0.00049814383146707059 0 0.0041780403310651892 0.00066523670146912599 0 0.0040168873814284758 0.00049814383146707059 0 0.0039868916419758139 0.00072270024916912137 0 0.0041780403310651892 0.00066523670146912599 0 0.0039746388413594447 0.00052169652466125302 0 0.0037547960442305636 0.00071245340849035118 0 0.0039868916419758139 0.00072270024916912137 0 0.003883028166773547 0.00084763163002156297 0 0.003764522421739296 0.00073330911243667349 0 0.0040168873814284758 0.00049814383146707059 0 0.0039868916419758139 0.00072270024916912137 0 0.003764522421739296 0.00073330911243667349 0 0.0039868916419758139 0.00072270024916912137 0 0.0040676237633966907 0.00088142515280765956 0 0.0041780403310651892 0.00066523670146912599 0 0.0039868916419758139 0.00072270024916912137 0 0.0040676237633966907 0.00088142515280765956 0 0.003883028166773547 0.00084763163002156297 0 0.0042659369748174825 0.00023805702146035366 0 0.0041429510532508219 0.00069830238012007499 0 0.0042659369748174825 0.00023805702146035366 0 0.0038978090999132178 4.7508663800820395e-05 0 0.0039575015907367863 0.00016777171652125619 0 0.0038990831550787912 0.0003652823395433209 0 0.0039185858257917983 0.00047194968968339919 0 0.0044230190705722853 0.00057559423519464958 0 0.0041780403310651892 0.00066523670146912599 0 0.0043328101802607944 0.00091886216683244033 0 0.0040676237633966907 0.00088142515280765956 0 0.0041780403310651892 0.00066523670146912599 0 0.0043328101802607944 0.00091886216683244033 0 0.0041429510532508219 0.00069830238012007499 0 0.0031545659549695472 0.00059068517444740474 0 0.0038990831550787912 0.0003652823395433209 0 0.0039185858257917983 0.00047194968968339919 0 0.0038394997724338397 0.00056355945856186431 0 0.0043328101802607944 0.00091886216683244033 0 0.004138444497681722 0.0010541040579483984 0 0.0042439110077798327 0.0012579798719098252 0 0.0038978090999132178 4.7508663800820395e-05 0 0.0031545659549695472 0.00059068517444740474 0 0.0040676237633966907 0.00088142515280765956 0 0.0043328101802607944 0.00091886216683244033 0 0.004138444497681722 0.0010541040579483984 0 0.003883028166773547 0.00084763163002156297 0 0.0038963188063817471 0.0011369458478908492 0 0.0037700456471624131 0.00096034390152835132 0 0.004138444497681722 0.0010541040579483984 0 0.0038963188063817471 0.0011369458478908492 0 0.0042439110077798327 0.0012579798719098252 0 0.0040676237633966907 0.00088142515280765956 0 0.004138444497681722 0.0010541040579483984 0 0.0038963188063817471 0.0011369458478908492 0 0.0040676237633966907 0.00088142515280765956 0 0.003883028166773547 0.00084763163002156297 0 0.0038963188063817471 0.0011369458478908492 0 0.0018852614763903573 0.00086000988170149427 0 0.0019239795497171899 0.00085060817661959318 0 0.0019002683391472484 0.00087302691078231583 0 0.0018874031786016146 0.00084163128164277932 0 0.0018852614763903573 0.00086000988170149427 0 0.0019239795497171899 0.00085060817661959318 0 0.0028855510033447313 0.001018082180034509 0 0.0031545659549695472 0.00059068517444740474 0 0.0018852614763903573 0.00086000988170149427 0 0.0018644074414322714 0.00086417976039731116 0 0.0018750722087656072 0.00087613106272209232 0 0.0018874031786016146 0.00084163128164277932 0 0.0019256156201700623 0.00084723841488050587 0 0.0019239795497171899 0.00085060817661959318 0 0.0027089898979149162 0.00067279238388913453 0 0.0019547540047649783 0.00083972758582976053 0 0.0021905336104956225 0.00049926523538478147 0 0.0021252384836570192 0.00075453683754800956 0 0.0020329345719533273 0.00071892028338364289 0 0.0027089898979149162 0.00067279238388913453 0 0.0022314006600357042 0.00061317876811429952 0 0.0031608996132507874 0.00025268739447480436 0 0.0024852143347150286 0.00045045999321440683 0 0.0024146965812932384 0.00041064084533437302 0 0.0023574712856792128 0.00040794080593848633 0 0.0023213583345598667 0.0005372208186120187 0 0.0035406683204434763 0.00011586393385019533 0 0.003516893540355706 0.00046707268157023034 0 0.003321782277702788 0.00039567221291549802 0 0.0038978090999132178 4.7508663800820395e-05 0 0.0031608996132507874 0.00025268739447480436 0 0.0031608996132507874 0.00025268739447480436 0 0.0031545659549695472 0.00059068517444740474 0 0.0024146965812932384 0.00041064084533437302 0 0.0023619012275021833 0.00039165459387118396 0 0.0023574712856792128 0.00040794080593848633 0 0.0031545659549695472 0.00059068517444740474 0 0.0027089898979149162 0.00067279238388913453 0 0.0018567125301078356 0.00085750030697903028 0 0.0018542017001632314 0.00086843317207123383 0 0.0018412529946799365 0.00087637409278164215 0 0.0018567125301078356 0.00085750030697903028 0 0.0018552942535837577 0.00086739564084486033 0 0.0018635984864212771 0.00089403862118869184 0 0.0018595398431993963 0.000852916140105062 0 0.0018567125301078356 0.00085750030697903028 0 0.0018552942535837577 0.00086739564084486033 0 0.0018567125301078356 0.00085750030697903028 0 0.0018644074414322714 0.00086417976039731116 0 0.0018542017001632314 0.00086843317207123383 0 0.0018852614763903573 0.00086000988170149427 0 0.0018644074414322714 0.00086417976039731116 0 0.0018684771509633591 0.00085108092900303578 0 0.0018874031786016146 0.00084163128164277932 0 0.0018852614763903573 0.00086000988170149427 0 0.0018684771509633591 0.00085108092900303578 0 0.0018567125301078356 0.00085750030697903028 0 0.0018644074414322714 0.00086417976039731116 0 0.0018684771509633591 0.00085108092900303578 0 0.0018595398431993963 0.000852916140105062 0 0.0018567125301078356 0.00085750030697903028 0 0.0018684771509633591 0.00085108092900303578 0 0.0038963188063817471 0.0011369458478908492 0 0.0037700456471624131 0.00096034390152835132 0 0.0035349010944993788 0.0010099382579094956 0 0.0018874031786016146 0.00084163128164277932 0 0.0018684771509633591 0.00085108092900303578 0 0.0018626732424959198 0.00084095575764362406 0 0.0028855510033447313 0.001018082180034509 0 0.002779655076246675 0.00091926499966063144 0 0.0018595398431993963 0.000852916140105062 0 0.0018684771509633591 0.00085108092900303578 0 0.0018626732424959198 0.00084095575764362406 0 0.0037700456471624131 0.00096034390152835132 0 0.0035349010944993788 0.0010099382579094956 0 0.0037379192402189234 0.0008877340221407989 0 0.0018595398431993963 0.000852916140105062 0 0.0018626732424959198 0.00084095575764362406 0 0.0018552942535837577 0.00086739564084486033 0 0.0030297366210664321 0.00087073601668742769 0 0.0026378000532042826 0.00075953309061361086 0 0.002779655076246675 0.00091926499966063144 0 0.0020940567555876484 0.00084389009191476348 0 0.0025203145424191882 0.00078935604163278517 0 0.0025243986554741478 0.00079099155601896525 0 0.0025057465398307501 0.00080047188492329716 0 0.0030297366210664321 0.00087073601668742769 0 0.002779655076246675 0.00091926499966063144 0 0.0034057838587615852 0.00095963988124294014 0 0.0033966978934956873 0.00069499401694102757 0 0.0028893942135259903 0.00066942601452200207 0 0.0034057838587615852 0.00095963988124294014 0 0.0033966978934956873 0.00069499401694102757 0 0.0037089384711951269 0.00072529646625706307 0 0.0033966978934956873 0.00069499401694102757 0 0.0037089384711951269 0.00072529646625706307 0 0.0035676689357084933 0.00056809003091207318 0 0.003883028166773547 0.00084763163002156297 0 0.0037379192402189234 0.0008877340221407989 0 0.003764522421739296 0.00073330911243667349 0 0.003883028166773547 0.00084763163002156297 0 0.0037700456471624131 0.00096034390152835132 0 0.0037379192402189234 0.0008877340221407989 0 0.0035349010944993788 0.0010099382579094956 0 0.0037379192402189234 0.0008877340221407989 0 0.003764522421739296 0.00073330911243667349 0 0.0030297366210664321 0.00087073601668742769 0 0.0037547960442305636 0.00071245340849035118 0 0.0033595657745394856 0.0010234486130225359 0 0.0034854021807653865 0.0010697920305345028 0 0.0037117700410299478 0.00072781033675231555 0 0.002779655076246675 0.00091926499966063144 0 0.0038641400431283623 0.00068783147550972726 0 0.0034854021807653865 0.0010697920305345028 0 0.003764522421739296 0.00073330911243667349 0 0.0037117700410299478 0.00072781033675231555 0 0.0040168873814284758 0.00049814383146707059 0 0.003764522421739296 0.00073330911243667349 0 0.0037117700410299478 0.00072781033675231555 0 0.0040168873814284758 0.00049814383146707059 0 0.003734144625354627 0.00054266006935802143 0 0.0036436536897033736 0.00038371321243850861 0 0.0040168873814284758 0.00049814383146707059 0 0.0037089384711951269 0.00072529646625706307 0 0.003734144625354627 0.00054266006935802143 0 0.0037089384711951269 0.00072529646625706307 0 0.003734144625354627 0.00054266006935802143 0 0.0035676689357084933 0.00056809003091207318 0 0.003734144625354627 0.00054266006935802143 0 0.0035676689357084933 0.00056809003091207318 0 0.0036436536897033736 0.00038371321243850861 0 0.0035676689357084933 0.00056809003091207318 0 0.0036436536897033736 0.00038371321243850861 0 0.0032888034060050472 0.00049409029045410606 0 0.0033966978934956873 0.00069499401694102757 0 0.0035676689357084933 0.00056809003091207318 0 0.0032888034060050472 0.00049409029045410606 0 0.0032888034060050472 0.00049409029045410606 0 0.0028893942135259903 0.00066942601452200207 0 0.0030030903356543224 0.00033135471929655554 0 0.0028893942135259903 0.00066942601452200207 0 0.0027539507242195127 0.00038642518862224193 0 0.0030030903356543224 0.00033135471929655554 0 0.0033966978934956873 0.00069499401694102757 0 0.0032888034060050472 0.00049409029045410606 0 0.0028893942135259903 0.00066942601452200207 0 0.0030297366210664321 0.00087073601668742769 0 0.0029477774426513964 0.00067791968378900873 0 0.0026368701808665595 0.00051195174928705381 0 0.0025071684909776385 0.00046256122608248032 0 0.0025273813651464469 0.00057742258995277236 0 0.0026368701808665595 0.00051195174928705381 0 0.0025535745414139153 0.00030627959028356033 0 0.0025071684909776385 0.00046256122608248032 0 0.0028893942135259903 0.00066942601452200207 0 0.0026368701808665595 0.00051195174928705381 0 0.0027539507242195127 0.00038642518862224193 0 0.0028893942135259903 0.00066942601452200207 0 0.0026368701808665595 0.00051195174928705381 0 0.0026448432793153777 0.0006402751202903977 0 0.0026368701808665595 0.00051195174928705381 0 0.0026448432793153777 0.0006402751202903977 0 0.0025273813651464469 0.00057742258995277236 0 0.0025414681814434404 0.000673260076525356 0 0.0026448432793153777 0.0006402751202903977 0 0.0025615815750136663 0.00073165174966061618 0 0.0025414681814434404 0.000673260076525356 0 0.0026448432793153777 0.0006402751202903977 0 0.0025273813651464469 0.00057742258995277236 0 0.0026448432793153777 0.0006402751202903977 0 0.0025615815750136663 0.00073165174966061618 0 0.0027392064628515896 0.00069144863928482375 0 0.0025615815750136663 0.00073165174966061618 0 0.0027392064628515896 0.00069144863928482375 0 0.0027118078789150888 0.00077635556107884186 0 0.0025414681814434404 0.000673260076525356 0 0.0025615815750136663 0.00073165174966061618 0 0.0024657352501596093 0.00069506324347209773 0 0.0025203145424191882 0.00078935604163278517 0 0.00250565298885678 0.00079804744822454762 0 0.0025057465398307501 0.00080047188492329716 0 0.0028825488503268996 0.0006844444680860404 0 0.0028695519805468184 0.00068691800465365811 0 0.0028601242389228623 0.00072102757466254342 0 0.0028825488503268996 0.0006844444680860404 0 0.0028893942135259903 0.00066942601452200207 0 0.0028695519805468184 0.00068691800465365811 0 0.0028695519805468184 0.00068691800465365811 0 0.0028349111798815349 0.00068674712829476341 0 0.0028601242389228623 0.00072102757466254342 0 0.0028893942135259903 0.00066942601452200207 0 0.0028695519805468184 0.00068691800465365811 0 0.0028349111798815349 0.00068674712829476341 0 0.0028349111798815349 0.00068674712829476341 0 0.0027392064628515896 0.00069144863928482375 0 0.0028601242389228623 0.00072102757466254342 0 0.0028893942135259903 0.00066942601452200207 0 0.0028349111798815349 0.00068674712829476341 0 0.0027392064628515896 0.00069144863928482375 0 0.0028893942135259903 0.00066942601452200207 0 0.0026448432793153777 0.0006402751202903977 0 0.0027392064628515896 0.00069144863928482375 0 0.0026378000532042826 0.00075953309061361086 0 0.0026173890557179007 0.0007770890750966687 0 0.0027392064628515896 0.00069144863928482375 0 0.0028601242389228623 0.00072102757466254342 0 0.0027118078789150888 0.00077635556107884186 0 0.00250565298885678 0.00079804744822454762 0 0.0025057465398307501 0.00080047188492329716 0 0.0025077256343230153 0.00079710807568571305 0 0.0025057465398307501 0.00080047188492329716 0 0.0025029044377733408 0.00079070131382712986 0 0.0025077256343230153 0.00079710807568571305 0 0.0018552942535837577 0.00086739564084486033 0 0.0018635984864212771 0.00089403862118869184 0 0.001854974425914673 0.00090711257629628138 0 0.0020940567555876484 0.00084389009191476348 0 0.0021947515997675876 0.00084129917025609307 0 0.0025029044377733408 0.00079070131382712986 0 0.0025077256343230153 0.00079710807568571305 0 0.0025222577500439575 0.00078430800044020782 0 0.001854974425914673 0.00090711257629628138 0 0.0018614634079285063 0.0009332881851926725 0 0.0018625370034303533 0.00094490979439574544 0 0.0021947515997675876 0.00084129917025609307 0 0.0021762749415869293 0.00086447725244526066 0 0.0018387382479365239 0.00088866265853051703 0 0.0018334500451017905 0.00091545799096810017 0 0.001814117151739488 0.00088090225126935919 0 0.0018055686446921508 0.000897039247686736 0 0.0018109556524385478 0.00089415916726650116 0 0.0018635984864212771 0.00089403862118869184 0 0.001854974425914673 0.00090711257629628138 0 0.0018614634079285063 0.0009332881851926725 0 0.0025615815750136663 0.00073165174966061618 0 0.0025222577500439575 0.00078430800044020782 0 0.002463336318280105 0.00076649102677132409 0 0.0025615815750136663 0.00073165174966061618 0 0.002463336318280105 0.00076649102677132409 0 0.0024492742231032776 0.00073801595787416189 0 0.0026173890557179007 0.0007770890750966687 0 0.0025377209184135763 0.00078887464677245022 0 0.0025615815750136663 0.00073165174966061618 0 0.0027118078789150888 0.00077635556107884186 0 0.0025222577500439575 0.00078430800044020782 0 0.0025222577500439575 0.00078430800044020782 0 0.0024312371052708287 0.00077923881497389308 0 0.0024953329064719121 0.0007846817942036607 0 0.0025029044377733408 0.00079070131382712986 0 0.0025222577500439575 0.00078430800044020782 0 0.0024953329064719121 0.0007846817942036607 0 0.002463336318280105 0.00076649102677132409 0 0.0024312371052708287 0.00077923881497389308 0 0.0023818125340792336 0.0007691692197422397 0 0.0025222577500439575 0.00078430800044020782 0 0.002463336318280105 0.00076649102677132409 0 0.0024312371052708287 0.00077923881497389308 0 0.0024312371052708287 0.00077923881497389308 0 0.0023862516492030223 0.00081711436465760692 0 0.0023462079452413768 0.00078965805169397369 0 0.0024312371052708287 0.00077923881497389308 0 0.0024953329064719121 0.0007846817942036607 0 0.0023862516492030223 0.00081711436465760692 0 0.0021762749415869293 0.00086447725244526066 0 0.0021600774561838956 0.00086199693861851176 0 0.001937055717188518 0.00084742384150211217 0 0.0018696083388354675 0.00094009234010059397 0 0.0019251235003079944 0.00093268135435536643 0 0.0018395609746699579 0.00084512164077421201 0 0.001937055717188518 0.00084742384150211217 0 0.0018386023524927747 0.00089237685321854308 0 0.0018625370034303533 0.00094490979439574544 0 0.0018696083388354675 0.00094009234010059397 0 0.0019251235003079944 0.00093268135435536643 0 0.0019311493473120052 0.00084831640170814884 0 0.0018584136685987046 0.00091222094243230021 0 0.0023862516492030223 0.00081711436465760692 0 0.0023462079452413768 0.00078965805169397369 0 0.0022603770738529468 0.00080383227133552239 0 0.0017990504391919753 0.00088593745126799319 0 0.0017789192649482431 0.00087327085466083591 0 0.0018109556524385478 0.00089415916726650116 0 0.0018055686446921508 0.000897039247686736 0 0.0017990504391919753 0.00088593745126799319 0 0.0018109556524385478 0.00089415916726650116 0 0.0018614634079285063 0.0009332881851926725 0 0.0018625370034303533 0.00094490979439574544 0 0.0018696083388354675 0.00094009234010059397 0 0.0018055686446921508 0.000897039247686736 0 0.0018116097450563945 0.0008839900629524374 0 0.0017990504391919753 0.00088593745126799319 0 0.0018334500451017905 0.00091545799096810017 0 0.0018584136685987046 0.00091222094243230021 0 0.0018055686446921508 0.000897039247686736 0 0.0018386023524927747 0.00089237685321854308 0 0.0018116097450563945 0.0008839900629524374 0 0.0017921153226963496 0.00085480754693010252 0 0.0018116097450563945 0.0008839900629524374 0 0.0017990504391919753 0.00088593745126799319 0 0.0017921153226963496 0.00085480754693010252 0 0.0018395609746699579 0.00084512164077421201 0 0.0018116097450563945 0.0008839900629524374 0 0.0018395609746699579 0.00084512164077421201 0 0.0018386023524927747 0.00089237685321854308 0 0.0018116097450563945 0.0008839900629524374 0 0.0017921153226963496 0.00085480754693010252 0 0.0017990504391919753 0.00088593745126799319 0 0.0017789192649482431 0.00087327085466083591 0 0.0017217855686815335 0.00088072789140645124 0 0.0016886819171825153 0.00094776435704472292 0 0.001655224999784422 0.00090407895626825761 0 0.0015812746963127808 0.00098652584961671577 0 0.001591081408124259 0.00090588623863090058 0 0.0017789192649482431 0.00087327085466083591 0 0.001819709555020048 0.00089519131600557559 0 0.0018109556524385478 0.00089415916726650116 0 0.0015812746963127808 0.00098652584961671577 0 0.0015434101950426041 0.00090811891711152005 0 0.0015054228613360253 0.00095749270348573939 0 0.0015812746963127808 0.00098652584961671577 0 0.001591081408124259 0.00090588623863090058 0 0.0015434101950426041 0.00090811891711152005 0 0.0015669763523311544 0.00087138009786452469 0 0.001591081408124259 0.00090588623863090058 0 0.0015434101950426041 0.00090811891711152005 0 0.00094697133033221754 0.00085013318613328347 0 0.001298488054656842 0.00072017438754379216 0 0.0010939812671832499 0.00052766983384760818 0 0.0010790235752969025 0.00055561242326702379 0 0.0010900530210166269 0.00057042426990140834 0 0.0015162556844836414 0.00085654796206528858 0 0.0015434101950426041 0.00090811891711152005 0 0.0015054228613360253 0.00095749270348573939 0 0.0010790235752969025 0.00055561242326702379 0 0.0010957956557727847 0.00056644718255737295 0 0.0010900530210166269 0.00057042426990140834 0 0.0010714274855326926 0.00053641983772341603 0 0.001059159299014389 0.00054956057161007648 0 0.0010790235752969025 0.00055561242326702379 0 0.0010790235752969025 0.00055561242326702379 0 0.0010703546132386037 0.00056171348215569323 0 0.0010957956557727847 0.00056644718255737295 0 0.001059159299014389 0.00054956057161007648 0 0.0010790235752969025 0.00055561242326702379 0 0.0010703546132386037 0.00056171348215569323 0 0.001059159299014389 0.00054956057161007648 0 0.0010552908137175627 0.0005637828290084078 0 0.0010703546132386037 0.00056171348215569323 0 0.0010552908137175627 0.0005637828290084078 0 0.0010703546132386037 0.00056171348215569323 0 0.0010618927112933149 0.00057783337503115872 0 0.0010703546132386037 0.00056171348215569323 0 0.0010618927112933149 0.00057783337503115872 0 0.0010957956557727847 0.00056644718255737295 0 0.0010848645234444872 0.00057483121203502337 0 0.0011027227527706108 0.00056542215749967584 0 0.0011391790531967466 0.00056072088643207478 0 0.0010957956557727847 0.00056644718255737295 0 0.0011396083029591585 0.00053892060600500065 0 0.0010957956557727847 0.00056644718255737295 0 0.0010900530210166269 0.00057042426990140834 0 0.0011162780208851032 0.000529746600999341 0 0.0015054228613360253 0.00095749270348573939 0 0.0015260877526492003 0.0010076872629750299 0 0.0014930984717111634 0.0010434209442433829 0 0.0015812746963127808 0.00098652584961671577 0 0.0015054228613360253 0.00095749270348573939 0 0.0015260877526492003 0.0010076872629750299 0 0.001298488054656842 0.00072017438754379216 0 0.0016961738887157495 0.00083807213306462945 0 0.0020638381960843017 0.0010086986376578112 0 0.0018813286728257025 0.00093815634288293569 0 0.0020266864165000317 0.00086656856096866959 0 0.0016961738887157495 0.00083807213306462945 0 0.0017714236915060101 0.00094512394042435251 0 0.0015260877526492003 0.0010076872629750299 0 0.0014930984717111634 0.0010434209442433829 0 0.0015280695102068971 0.0010571251595994349 0 0.0019278755844466017 0.00053803779644658295 0 0.0024852143347150286 0.00045045999321440683 0 0.0010957956557727847 0.00056644718255737295 0 0.0011162780208851032 0.000529746600999341 0 0.0011396083029591585 0.00053892060600500065 0 0.0026054465260026602 0.00034442997140943661 0 0.0025641368359595046 0.00037656804485350565 0 0.0025736281081558399 0.00031447974330510767 0 0.0011391790531967466 0.00056072088643207478 0 0.0011446933607166011 0.00053519250516664493 0 0.0011396083029591585 0.00053892060600500065 0 0.0019049763693992543 0.00050765529619747473 0 0.0019278755844466017 0.00053803779644658295 0 0.0011446933607166011 0.00053519250516664493 0 0.0011396083029591585 0.00053892060600500065 0 0.0011408248519483152 0.00053380985209362818 0 0.0018961519966610744 0.00054317673680917143 0 0.0019278755844466017 0.00053803779644658295 0 0.0011162780208851032 0.000529746600999341 0 0.0011396083029591585 0.00053892060600500065 0 0.0011402958228934608 0.00053530188624992823 0 0.0022873672029285171 0.00066614110287851666 0 0.0023834282788111421 0.00070274866609469774 0 0.0023406839006412197 0.00060962884994654085 0 0.0016961738887157495 0.00083807213306462945 0 0.0019278755844466017 0.00053803779644658295 0 0.0026054465260026602 0.00034442997140943661 0 0.0025703012867375665 0.00037871137350547107 0 0.0025641368359595046 0.00037656804485350565 0 0.0024146965812932384 0.00041064084533437302 0 0.0023213583345598667 0.0005372208186120187 0 0.0023982015511698537 0.00055722818768278424 0 0.0023834282788111421 0.00070274866609469774 0 0.0023406839006412197 0.00060962884994654085 0 0.0023982015511698537 0.00055722818768278424 0 0.0023406839006412197 0.00060962884994654085 0 0.0023213583345598667 0.0005372208186120187 0 0.0023982015511698537 0.00055722818768278424 0 0.0020638381960843017 0.0010086986376578112 0 0.0021252384836570192 0.00075453683754800956 0 0.0020266864165000317 0.00086656856096866959 0 0.0022873672029285171 0.00066614110287851666 0 0.0023406839006412197 0.00060962884994654085 0 0.0023213583345598667 0.0005372208186120187 0 0.0016961738887157495 0.00083807213306462945 0 0.0022314006600357042 0.00061317876811429952 0 0.0018757172830165061 0.00089497589211704029 0 0.0019002683391472484 0.00087302691078231583 0 0.0018750722087656072 0.00087613106272209232 0 0.0018757172830165061 0.00089497589211704029 0 0.0018750722087656072 0.00087613106272209232 0 0.0018582993065375988 0.00088691127038300168 0 0.0017714236915060101 0.00094512394042435251 0 0.0018317356533374717 0.00093620519249774123 0 0.0018813286728257025 0.00093815634288293569 0 0.0020266864165000317 0.00086656856096866959 0 0.0020329345719533273 0.00071892028338364289 0 0.0017714236915060101 0.00094512394042435251 0 0.0019547540047649783 0.00083972758582976053 0 0.0021252384836570192 0.00075453683754800956 0 0.0020266864165000317 0.00086656856096866959 0 0.0020329345719533273 0.00071892028338364289 0 0.0018852614763903573 0.00086000988170149427 0 0.0019002683391472484 0.00087302691078231583 0 0.0018750722087656072 0.00087613106272209232 0 0.0018644074414322714 0.00086417976039731116 0 0.0018750722087656072 0.00087613106272209232 0 0.0018551607387348699 0.00087662368497262635 0 0.0018551607387348699 0.00087662368497262635 0 0.0018582993065375988 0.00088691127038300168 0 0.0018433189124803565 0.00088332558357183096 0 0.0018750722087656072 0.00087613106272209232 0 0.0018551607387348699 0.00087662368497262635 0 0.0018582993065375988 0.00088691127038300168 0 0.0018551607387348699 0.00087662368497262635 0 0.0018433189124803565 0.00088332558357183096 0 0.0018412529946799365 0.00087637409278164215 0 0.0018551607387348699 0.00087662368497262635 0 0.0018542017001632314 0.00086843317207123383 0 0.0018412529946799365 0.00087637409278164215 0 0.0018644074414322714 0.00086417976039731116 0 0.0018551607387348699 0.00087662368497262635 0 0.0018542017001632314 0.00086843317207123383 0 0.0018543733588199736 0.00086166206156775504 0 0.0018387382479365239 0.00088866265853051703 0 0.0018567125301078356 0.00085750030697903028 0 0.001814117151739488 0.00088090225126935919 0 0.0018412529946799365 0.00087637409278164215 0 0.001814117151739488 0.00088090225126935919 0 0.0018412529946799365 0.00087637409278164215 0 0.0018280101034808156 0.00088620425334150199 0 0.0018433189124803565 0.00088332558357183096 0 0.0018412529946799365 0.00087637409278164215 0 0.0018280101034808156 0.00088620425334150199 0 0.0018109556524385478 0.00089415916726650116 0 0.0018280101034808156 0.00088620425334150199 0 0.0018357211658636718 0.00088976029866346523 0 0.001819709555020048 0.00089519131600557559 0 0.0018109556524385478 0.00089415916726650116 0 0.0018357211658636718 0.00088976029866346523 0 0.001814117151739488 0.00088090225126935919 0 0.0018109556524385478 0.00089415916726650116 0 0.0018280101034808156 0.00088620425334150199 0 0.0018627396890998711 0.00088949540469345726 0 0.0018582993065375988 0.00088691127038300168 0 0.0018357211658636718 0.00088976029866346523 0 0.0015812746963127808 0.00098652584961671577 0 0.0015260877526492003 0.0010076872629750299 0 0.0015280695102068971 0.0010571251595994349 0 0.001819709555020048 0.00089519131600557559 0 0.0018627396890998711 0.00088949540469345726 0 0.0018357211658636718 0.00088976029866346523 0 0.0016886819171825153 0.00094776435704472292 0 0.0017714236915060101 0.00094512394042435251 0 0.0018433189124803565 0.00088332558357183096 0 0.0018280101034808156 0.00088620425334150199 0 0.0018357211658636718 0.00088976029866346523 0 0.0018582993065375988 0.00088691127038300168 0 0.0018433189124803565 0.00088332558357183096 0 0.0018357211658636718 0.00088976029866346523 0 0.0015355595548437915 3.8806079496364075e-05 0 0.0015246944841173869 9.2125065507873583e-06 0 0.0015365419285956836 7.3376444271029724e-05 0 0.0015355595548437915 3.8806079496364075e-05 0 0.0015312032304695424 7.116947015069524e-05 0 0.0015365419285956836 7.3376444271029724e-05 0 0.0015355595548437915 3.8806079496364075e-05 0 0.0015465989281753091 3.8935173740721455e-05 0 0.0015312032304695424 7.116947015069524e-05 0 0.0012597592315894198 2.2512993147389361e-05 0 0.0011893490501084041 4.2508762906322277e-05 0 0.0010581775652609687 -2.7371212392159713e-08 0 0.0010317064749161967 -1.3107824883159379e-05 0 0.0007587368379365566 6.8644400215111201e-06 0 0.0012597592315894198 2.2512993147389361e-05 0 0.0013490585799188018 6.1227787248033302e-08 0 0.0015246944841173869 9.2125065507873583e-06 0 0.0015308202176953602 8.1791469973139785e-06 0 0.0013498328457236225 -2.7007714129329719e-08 0 0.0010581775652609687 -2.7371212392159713e-08 0 0.0010317064749161967 -1.3107824883159379e-05 0 0.001348987165971984 -5.0093771365932687e-08 0 0.0015308202176953602 8.1791469973139785e-06 0 0.0015465989281753091 3.8935173740721455e-05 0 0.0015549743175019008 1.6277786430065424e-05 0 0.0015355595548437915 3.8806079496364075e-05 0 0.0015246944841173869 9.2125065507873583e-06 0 0.0015308202176953602 8.1791469973139785e-06 0 0.0015355595548437915 3.8806079496364075e-05 0 0.0015308202176953602 8.1791469973139785e-06 0 0.0015465989281753091 3.8935173740721455e-05 0 0.0015465989281753091 3.8935173740721455e-05 0 0.0015605877997128806 3.7967260724458541e-05 0 0.0015549743175019008 1.6277786430065424e-05 0 0.0015605877997128806 3.7967260724458541e-05 0 0.0015573470402026638 5.155002309745985e-05 0 0.0015462478688238741 6.152516353079194e-05 0 0.0015573470402026638 5.155002309745985e-05 0 0.0015462478688238741 6.152516353079194e-05 0 0.0015389501223961387 8.2573599059151728e-05 0 0.0015465989281753091 3.8935173740721455e-05 0 0.0015605877997128806 3.7967260724458541e-05 0 0.0015462478688238741 6.152516353079194e-05 0 0.0015405233246123568 5.4343258952430074e-05 0 0.001440912692998718 0.00013270725783539296 0 0.0015360300157323044 2.3180413269594431e-05 0 0.0015573470402026638 5.155002309745985e-05 0 0.0015405233246123568 5.4343258952430074e-05 0 0.0015313568700798948 8.2391927377373656e-05 0 0.0015573470402026638 5.155002309745985e-05 0 0.0015389501223961387 8.2573599059151728e-05 0 0.0015313568700798948 8.2391927377373656e-05 0 0.0015389501223961387 8.2573599059151728e-05 0 0.0015313568700798948 8.2391927377373656e-05 0 0.0015210028708093034 0.00011543187656549429 0 0.0015405233246123568 5.4343258952430074e-05 0 0.0015313568700798948 8.2391927377373656e-05 0 0.001440912692998718 0.00013270725783539296 0 0.0015313568700798948 8.2391927377373656e-05 0 0.0015210028708093034 0.00011543187656549429 0 0.001440912692998718 0.00013270725783539296 0 0.0015292278041004088 0.00010075343108359688 0 0.0015223189058459672 8.3481301161288638e-05 0 0.0015223325424781745 0.00014641712334336312 0 0.0015210028708093034 0.00011543187656549429 0 0.0015292278041004088 0.00010075343108359688 0 0.0015223325424781745 0.00014641712334336312 0 0.0015389501223961387 8.2573599059151728e-05 0 0.0015210028708093034 0.00011543187656549429 0 0.0015292278041004088 0.00010075343108359688 0 0.0015292278041004088 0.00010075343108359688 0 0.0015312032304695424 7.116947015069524e-05 0 0.0015223189058459672 8.3481301161288638e-05 0 0.0015465989281753091 3.8935173740721455e-05 0 0.0015462478688238741 6.152516353079194e-05 0 0.0015312032304695424 7.116947015069524e-05 0 0.0015462478688238741 6.152516353079194e-05 0 0.0015389501223961387 8.2573599059151728e-05 0 0.0015292278041004088 0.00010075343108359688 0 0.0015462478688238741 6.152516353079194e-05 0 0.0015292278041004088 0.00010075343108359688 0 0.0015312032304695424 7.116947015069524e-05 0 0.0015312032304695424 7.116947015069524e-05 0 0.0015223189058459672 8.3481301161288638e-05 0 0.0015365419285956836 7.3376444271029724e-05 0 0.00026831986877198051 5.1396980700122165e-05 0 0.00017600438046303874 -1.4250918120569143e-05 0 0.00021639467864553014 -7.1741692825944906e-05 0 0.00092184253427851756 8.812881094006058e-05 0 0.00085035316191581179 3.2172473801339874e-05 0 0.00026831986877198051 5.1396980700122165e-05 0 0.00020389613863040947 0.0001266304544380624 0 0.00015339257539515294 6.8517283803718205e-05 0 0.00026831986877198051 5.1396980700122165e-05 0 0.00020389613863040947 0.0001266304544380624 0 0.00023789090665311244 0.00012896413383382653 0 0.00026831986877198051 5.1396980700122165e-05 0 0.00028522015709592382 0.00011909390826567302 0 0.00023789090665311244 0.00012896413383382653 0 0.00092184253427851756 8.812881094006058e-05 0 0.00075854492075805367 1.8307260757110182e-05 0 0.0015223189058459672 8.3481301161288638e-05 0 0.0015365419285956836 7.3376444271029724e-05 0 0.0015237522546227102 8.7040815619023851e-05 0 0.0007587368379365566 6.8644400215111201e-06 0 0.00061446830103102418 7.8092854248676103e-06 0 0.00062179840613771917 5.5334788927937467e-06 0 0.0011893490501084041 4.2508762906322277e-05 0 0.00075854492075805367 1.8307260757110182e-05 0 0.0010581775652609687 -2.7371212392159713e-08 0 0.0007587368379365566 6.8644400215111201e-06 0 0.00076741770821849205 5.1777942366505145e-08 0 0.0007587368379365566 6.8644400215111201e-06 0 0.00076741770821849205 5.1777942366505145e-08 0 0.00061446830103102418 7.8092854248676103e-06 0 0.00076741770821849205 5.1777942366505145e-08 0 0.00061446830103102418 7.8092854248676103e-06 0 0.0004766564355968843 -2.2159142821489616e-08 0 0.00061446830103102418 7.8092854248676103e-06 0 0.0004766564355968843 -2.2159142821489616e-08 0 0.00045392402255755898 -9.5132998607607982e-06 0 0.00061446830103102418 7.8092854248676103e-06 0 0.00062179840613771917 5.5334788927937467e-06 0 0.00045392402255755898 -9.5132998607607982e-06 0 0.00031905000365468802 -0.00016261799382796488 0 0.00045392402255755898 -9.5132998607607982e-06 0 0.00023940741220360959 1.0345783631699049e-05 0 0.00075854492075805367 1.8307260757110182e-05 0 0.00038831980605610482 -7.8951883726937274e-05 0 0.00033444781646822173 4.8233078147099323e-05 0 0.00045392402255755898 -9.5132998607607982e-06 0 0.00023940741220360959 1.0345783631699049e-05 0 0.00033444781646822173 4.8233078147099323e-05 0 0.00045392402255755898 -9.5132998607607982e-06 0 0.00035354911408233205 2.7127404493586412e-05 0 0.00033444781646822173 4.8233078147099323e-05 0 0.00027273317572910281 8.2718788802298249e-05 0 0.00023940741220360959 1.0345783631699049e-05 0 0.0004766564355968843 -2.2159142821489616e-08 0 0.00035354911408233205 2.7127404493586412e-05 0 0.00018582962359117854 1.9363995047643788e-07 0 0.0004766564355968843 -2.2159142821489616e-08 0 0.00045392402255755898 -9.5132998607607982e-06 0 0.00035354911408233205 2.7127404493586412e-05 0 0.00035354911408233205 2.7127404493586412e-05 0 0.00018582962359117854 1.9363995047643788e-07 0 0.00027589637568756843 5.7495147718313578e-05 0 0.00027273317572910281 8.2718788802298249e-05 0 0.00027589637568756843 5.7495147718313578e-05 0 0.00022499248256888145 0.00016681177097629797 0 0.00033444781646822173 4.8233078147099323e-05 0 0.00035354911408233205 2.7127404493586412e-05 0 0.00027589637568756843 5.7495147718313578e-05 0 0.00033444781646822173 4.8233078147099323e-05 0 0.00027273317572910281 8.2718788802298249e-05 0 0.00027589637568756843 5.7495147718313578e-05 0 0.00027589637568756843 5.7495147718313578e-05 0 0.00023482424947254854 9.8923589897809099e-06 0 0.00015638312670712091 1.1978965666522306e-05 0 0.00027589637568756843 5.7495147718313578e-05 0 0.00023482424947254854 9.8923589897809099e-06 0 0.00027091934915435435 6.1796824758398386e-06 0 0.00018653122560898487 -4.349336955983297e-05 0 0.00023482424947254854 9.8923589897809099e-06 0 0.00027091934915435435 6.1796824758398386e-06 0 0.00045099309101036137 3.1236147048652521e-05 0 -0.00019634938618225389 9.8500142460675142e-05 0 -3.9650655240522537e-06 -3.1367445315940074e-05 0 -0.00043339609182210245 -5.0902867736921923e-05 0 0.00018653122560898487 -4.349336955983297e-05 0 0.00023482424947254854 9.8923589897809099e-06 0 0.00015638312670712091 1.1978965666522306e-05 0 0.00018582962359117854 1.9363995047643788e-07 0 0.00027589637568756843 5.7495147718313578e-05 0 0.00015638312670712091 1.1978965666522306e-05 0 -0.00010463071388379951 -2.5325754825741012e-07 0 0.00018582962359117854 1.9363995047643788e-07 0 0.00015638312670712091 1.1978965666522306e-05 0 -0.00086780352759006061 0.00015424068688264209 0 -0.00019634938618225389 9.8500142460675142e-05 0 0.00014024537482339598 0.00012552356900797276 0 0.00011903181632075243 0.0001654363757840244 0 8.0468355367975907e-05 0.00015025505512816293 0 0.00020438953459877546 0.00018745563474038148 0 -0.00019634938618225389 9.8500142460675142e-05 0 0.00019362130882176836 0.00016321094922153227 0 0.00022499248256888145 0.00016681177097629797 0 0.00021669669143702892 0.00013240994162594681 0 -0.0013278784634966699 9.0874634078653513e-05 0 -0.0013419707312432696 0.00012969623859922493 0 -0.0013049724848111716 0.00015045230197723085 0 0.00027589637568756843 5.7495147718313578e-05 0 0.00027091934915435435 6.1796824758398386e-06 0 0.00027883988912252226 8.711216683653769e-06 0 -0.00043339609182210245 -5.0902867736921923e-05 0 -0.00019634938618225389 9.8500142460675142e-05 0 0.00027273317572910281 8.2718788802298249e-05 0 0.00021669669143702892 0.00013240994162594681 0 0.00023940741220360959 1.0345783631699049e-05 0 0.00027273317572910281 8.2718788802298249e-05 0 0.00022499248256888145 0.00016681177097629797 0 0.00021669669143702892 0.00013240994162594681 0 0.00019362130882176836 0.00016321094922153227 0 0.00021669669143702892 0.00013240994162594681 0 0.00019922151787826476 0.00015555789465414904 0 0.00019922151787826476 0.00015555789465414904 0 0.00019722868127613336 0.00016114970405600398 0 0.00024155779458948315 0.00015450938492663665 0 0.00022658121156023919 0.00011725832754205609 0 0.0002103967163083936 9.509456703374428e-05 0 0.00021669669143702892 0.00013240994162594681 0 0.00019922151787826476 0.00015555789465414904 0 0.00024155779458948315 0.00015450938492663665 0 0.00075854492075805367 1.8307260757110182e-05 0 0.0002103967163083936 9.509456703374428e-05 0 0.00028522015709592382 0.00011909390826567302 0 0.00024155779458948315 0.00015450938492663665 0 0.00023789090665311244 0.00012896413383382653 0 0.00020389613863040947 0.0001266304544380624 0 0.00019722868127613336 0.00016114970405600398 0 0.00023789090665311244 0.00012896413383382653 0 0.00019722868127613336 0.00016114970405600398 0 0.00024155779458948315 0.00015450938492663665 0 0.00023789090665311244 0.00012896413383382653 0 0.00020389613863040947 0.0001266304544380624 0 0.00019722868127613336 0.00016114970405600398 0 0.00014278600199721224 0.00019282476080621081 0 0.00014278600199721224 0.00019282476080621081 0 -4.7649377224971485e-05 0.00029137426119095212 0 -2.5887482601393802e-05 0.00012509383820948988 0 0.00014278600199721224 0.00019282476080621081 0 0.00017036708293505736 0.00017135843764565394 0 0.00016985714450655422 0.00016942687656432262 0 0.00013126047363800421 0.00021029950296420284 0 0.00016446259764804494 0.00032928516222460638 0 0.00014278600199721224 0.00019282476080621081 0 4.7598800399630648e-05 0.00049621712450442735 0 -4.7649377224971485e-05 0.00029137426119095212 0 0.00019722868127613336 0.00016114970405600398 0 0.00014278600199721224 0.00019282476080621081 0 0.00016985714450655422 0.00016942687656432262 0 0.00019922151787826476 0.00015555789465414904 0 0.00019722868127613336 0.00016114970405600398 0 0.00016985714450655422 0.00016942687656432262 0 0.00019922151787826476 0.00015555789465414904 0 0.00016985714450655422 0.00016942687656432262 0 0.00016412728647576541 0.0001697404812946853 0 0.00017036708293505736 0.00017135843764565394 0 0.00016985714450655422 0.00016942687656432262 0 0.00016412728647576541 0.0001697404812946853 0 0.00019362130882176836 0.00016321094922153227 0 0.00019922151787826476 0.00015555789465414904 0 0.00016412728647576541 0.0001697404812946853 0 0.00020438953459877546 0.00018745563474038148 0 0.00014542078576371527 0.00016111390463501428 0 0.00016412728647576541 0.0001697404812946853 0 0.00016801681210558563 0.00016411360898003596 0 0.00015337511244107094 0.00015482689890548265 0 0.00016446259764804494 0.00032928516222460638 0 -0.00051977126262257574 0.00035082201351940352 0 0.00017036708293505736 0.00017135843764565394 0 0.00016801681210558563 0.00016411360898003596 0 0.00017297893891139366 0.00016179640891065511 0 0.00017036708293505736 0.00017135843764565394 0 0.00016412728647576541 0.0001697404812946853 0 0.00016801681210558563 0.00016411360898003596 0 0.00016801681210558563 0.00016411360898003596 0 0.00016589077153151082 0.00014841984012637215 0 0.00015337511244107094 0.00015482689890548265 0 0.00016801681210558563 0.00016411360898003596 0 0.00016589077153151082 0.00014841984012637215 0 0.00017297893891139366 0.00016179640891065511 0 -0.00026722443878074393 0.00023700240923416036 0 -0.00051977126262257574 0.00035082201351940352 0 -0.00090391926473123985 0.00025849756939868093 0 -0.00084320418206712338 0.00022886920252142233 0 -0.00091752969671798272 0.00018797078341465596 0 0.00014024537482339598 0.00012552356900797276 0 0.00016589077153151082 0.00014841984012637215 0 0.00015337511244107094 0.00015482689890548265 0 0.00014024537482339598 0.00012552356900797276 0 0.00011903181632075243 0.0001654363757840244 0 0.00015337511244107094 0.00015482689890548265 0 0.00011903181632075243 0.0001654363757840244 0 0.00016412728647576541 0.0001697404812946853 0 0.00015337511244107094 0.00015482689890548265 0 -0.0010933433163787291 0.00024864693390365953 0 -0.0010889658769224193 0.0003243285725955816 0 -0.00099742401873261269 0.0003000386600328581 0 -0.0010068016194015792 0.00034637140284219894 0 -0.0010889658769224193 0.0003243285725955816 0 -0.0010299541262808961 0.0004229000571806383 0 -0.0010889658769224193 0.0003243285725955816 0 -0.0011888022738984442 0.00035276137383263227 0 -0.0010299541262808961 0.0004229000571806383 0 -0.0010068016194015792 0.00034637140284219894 0 -0.0010889658769224193 0.0003243285725955816 0 -0.00099742401873261269 0.0003000386600328581 0 -0.0011564926411535351 0.0002428343615323352 0 -0.0010889658769224193 0.0003243285725955816 0 -0.0011888022738984442 0.00035276137383263227 0 -0.0010958418601534393 0.00027728595403125954 0 -0.00051977126262257574 0.00035082201351940352 0 -0.00090391926473123985 0.00025849756939868093 0 -0.00096543786662640907 0.00028775916267465473 0 -0.00091752969671798272 0.00018797078341465596 0 -0.00051977126262257574 0.00035082201351940352 0 -0.00070588916584173912 0.00054196457373597109 0 -7.3660004830083744e-05 0.00078246815552227933 0 -0.00035961768319108336 0.00063607524571028876 0 -0.00018099296999172037 0.00045424305814310677 0 4.7598800399630648e-05 0.00049621712450442735 0 -7.3660004830083744e-05 0.00078246815552227933 0 -0.00018099296999172037 0.00045424305814310677 0 -0.00035961768319108336 0.00063607524571028876 0 -0.00040528251741328629 0.00036770560920895397 0 -0.00018099296999172037 0.00045424305814310677 0 -0.00040528251741328629 0.00036770560920895397 0 -0.00018099296999172037 0.00045424305814310677 0 -0.00021819638719697168 0.00024337456412972848 0 4.7598800399630648e-05 0.00049621712450442735 0 -0.00018099296999172037 0.00045424305814310677 0 -4.7649377224971485e-05 0.00029137426119095212 0 -0.00018099296999172037 0.00045424305814310677 0 -4.7649377224971485e-05 0.00029137426119095212 0 -0.00021819638719697168 0.00024337456412972848 0 -4.7649377224971485e-05 0.00029137426119095212 0 -0.00021819638719697168 0.00024337456412972848 0 -2.5887482601393802e-05 0.00012509383820948988 0 -0.00040528251741328629 0.00036770560920895397 0 -0.00021819638719697168 0.00024337456412972848 0 -0.00049279370523080154 0.00018265462150677872 0 -0.00026364261287022497 0.00012602193302522417 0 -0.00029967061568429384 2.3851892989534148e-05 0 -0.00049279370523080154 0.00018265462150677872 0 -0.00021819638719697168 0.00024337456412972848 0 -0.00026364261287022497 0.00012602193302522417 0 -0.00049279370523080154 0.00018265462150677872 0 -0.00026364261287022497 0.00012602193302522417 0 -0.00029967061568429384 2.3851892989534148e-05 0 -0.00011207923336199418 3.8702518480376284e-05 0 -0.00029967061568429384 2.3851892989534148e-05 0 -0.00011207923336199418 3.8702518480376284e-05 0 -0.00010978508471217862 -6.1620455811657105e-05 0 -0.00011207923336199418 3.8702518480376284e-05 0 5.4644468142324955e-05 -2.4330012744193449e-05 0 -0.00010978508471217862 -6.1620455811657105e-05 0 -0.00011207923336199418 3.8702518480376284e-05 0 -2.5887482601393802e-05 0.00012509383820948988 0 5.4644468142324955e-05 -2.4330012744193449e-05 0 -0.00026364261287022497 0.00012602193302522417 0 -0.00011207923336199418 3.8702518480376284e-05 0 -2.5887482601393802e-05 0.00012509383820948988 0 -0.00021819638719697168 0.00024337456412972848 0 -0.00026364261287022497 0.00012602193302522417 0 -2.5887482601393802e-05 0.00012509383820948988 0 0.00014278600199721224 0.00019282476080621081 0 -2.5887482601393802e-05 0.00012509383820948988 0 0.00015339257539515294 6.8517283803718205e-05 0 -2.5887482601393802e-05 0.00012509383820948988 0 0.00015339257539515294 6.8517283803718205e-05 0 5.4644468142324955e-05 -2.4330012744193449e-05 0 0.00020389613863040947 0.0001266304544380624 0 0.00014278600199721224 0.00019282476080621081 0 0.00015339257539515294 6.8517283803718205e-05 0 0.00026831986877198051 5.1396980700122165e-05 0 0.00015339257539515294 6.8517283803718205e-05 0 0.00017600438046303874 -1.4250918120569143e-05 0 0.00017600438046303874 -1.4250918120569143e-05 0 5.4644468142324955e-05 -2.4330012744193449e-05 0 0.00013591586579475676 -0.00010085666556714371 0 0.00015339257539515294 6.8517283803718205e-05 0 0.00017600438046303874 -1.4250918120569143e-05 0 5.4644468142324955e-05 -2.4330012744193449e-05 0 0.00013591586579475676 -0.00010085666556714371 0 0.00016122844838141248 -0.00021366530031150855 0 6.4906595930888517e-05 -0.00014485816110645249 0 5.4644468142324955e-05 -2.4330012744193449e-05 0 0.00013591586579475676 -0.00010085666556714371 0 6.4906595930888517e-05 -0.00014485816110645249 0 0.00017600438046303874 -1.4250918120569143e-05 0 0.00013591586579475676 -0.00010085666556714371 0 0.00021639467864553014 -7.1741692825944906e-05 0 0.00013591586579475676 -0.00010085666556714371 0 0.00021639467864553014 -7.1741692825944906e-05 0 0.00016122844838141248 -0.00021366530031150855 0 0.00085035316191581179 3.2172473801339874e-05 0 0.0006563383623710749 -5.7436839604755136e-05 0 0.0015210028708093034 0.00011543187656549429 0 0.0015223325424781745 0.00014641712334336312 0 0.001440912692998718 0.00013270725783539296 0 0.001440912692998718 0.00013270725783539296 0 0.0011900234783931067 0.00015996805754307024 0 0.0013359803883799658 -2.9108919508813037e-05 0 0.0014660657999899698 0.0001219400854295409 0 0.0016058917420844305 -1.6553190335553835e-05 0 0.001440912692998718 0.00013270725783539296 0 0.0015510484465459601 3.7819122389798888e-07 0 0.0013359803883799658 -2.9108919508813037e-05 0 0.0015223325424781745 0.00014641712334336312 0 0.001440912692998718 0.00013270725783539296 0 0.0011900234783931067 0.00015996805754307024 0 0.001440912692998718 0.00013270725783539296 0 0.0015510484465459601 3.7819122389798888e-07 0 0.0016805297594872149 -5.896282509951025e-05 0 0.00016122844838141248 -0.00021366530031150855 0 9.8453583903468735e-05 -0.00023824479820227267 0 6.4906595930888517e-05 -0.00014485816110645249 0 9.8453583903468735e-05 -0.00023824479820227267 0 -5.2140305198010106e-05 -0.00017692255874415116 0 -0.00013103023073834401 -0.00028342382426600819 0 9.8453583903468735e-05 -0.00023824479820227267 0 -5.2140305198010106e-05 -0.00017692255874415116 0 6.4906595930888517e-05 -0.00014485816110645249 0 -5.2140305198010106e-05 -0.00017692255874415116 0 -0.00013103023073834401 -0.00028342382426600819 0 -0.0003113887176552537 -0.00012635893698534188 0 -0.00029967061568429384 2.3851892989534148e-05 0 -0.00010978508471217862 -6.1620455811657105e-05 0 -0.0003113887176552537 -0.00012635893698534188 0 -5.2140305198010106e-05 -0.00017692255874415116 0 -0.00010978508471217862 -6.1620455811657105e-05 0 -0.0003113887176552537 -0.00012635893698534188 0 -5.2140305198010106e-05 -0.00017692255874415116 0 -0.00010978508471217862 -6.1620455811657105e-05 0 6.4906595930888517e-05 -0.00014485816110645249 0 5.4644468142324955e-05 -2.4330012744193449e-05 0 -0.00010978508471217862 -6.1620455811657105e-05 0 6.4906595930888517e-05 -0.00014485816110645249 0 -0.00058845249975273957 -0.00012151855810609007 0 -0.0003113887176552537 -0.00012635893698534188 0 -0.00048176896717594414 -4.0024577942184814e-06 0 -0.00013103023073834401 -0.00028342382426600819 0 -0.0003113887176552537 -0.00012635893698534188 0 -0.00045259655106426165 -0.00034067656597563847 0 -0.00058845249975273957 -0.00012151855810609007 0 -0.0003113887176552537 -0.00012635893698534188 0 -0.00045259655106426165 -0.00034067656597563847 0 -0.00058845249975273957 -0.00012151855810609007 0 -0.00074209995806932925 -0.00032440467816848597 0 -0.00045259655106426165 -0.00034067656597563847 0 -0.00058845249975273957 -0.00012151855810609007 0 -0.00080752905735377459 -7.1124421749318553e-05 0 -0.00074209995806932925 -0.00032440467816848597 0 -0.00080752905735377459 -7.1124421749318553e-05 0 -0.0009652825702255066 -0.00031520869797359074 0 -0.00074209995806932925 -0.00032440467816848597 0 -0.00058845249975273957 -0.00012151855810609007 0 -0.00080752905735377459 -7.1124421749318553e-05 0 -0.00069829941850870652 0.00011047278892609483 0 -0.00080752905735377459 -7.1124421749318553e-05 0 -0.00069829941850870652 0.00011047278892609483 0 -0.00087845776610115259 0.00015652276156364795 0 -0.00069829941850870652 0.00011047278892609483 0 -0.00086106343684020661 0.00026829234608088346 0 -0.00087845776610115259 0.00015652276156364795 0 -0.00069829941850870652 0.00011047278892609483 0 -0.00049279370523080154 0.00018265462150677872 0 -0.00076033421731494836 0.00030667775172116789 0 -0.00069829941850870652 0.00011047278892609483 0 -0.00048176896717594414 -4.0024577942184814e-06 0 -0.00049279370523080154 0.00018265462150677872 0 -0.00058845249975273957 -0.00012151855810609007 0 -0.00069829941850870652 0.00011047278892609483 0 -0.00048176896717594414 -4.0024577942184814e-06 0 -0.00029967061568429384 2.3851892989534148e-05 0 -0.00048176896717594414 -4.0024577942184814e-06 0 -0.00049279370523080154 0.00018265462150677872 0 -0.00029967061568429384 2.3851892989534148e-05 0 -0.0003113887176552537 -0.00012635893698534188 0 -0.00048176896717594414 -4.0024577942184814e-06 0 -0.00040528251741328629 0.00036770560920895397 0 -0.00049279370523080154 0.00018265462150677872 0 -0.00072612171112861295 0.00042309050403276772 0 -0.00049279370523080154 0.00018265462150677872 0 -0.00076033421731494836 0.00030667775172116789 0 -0.00072612171112861295 0.00042309050403276772 0 -0.00076033421731494836 0.00030667775172116789 0 -0.00072612171112861295 0.00042309050403276772 0 -0.00081095029220099783 0.00037549574623142826 0 -0.00035961768319108336 0.00063607524571028876 0 -0.00040528251741328629 0.00036770560920895397 0 -0.00072612171112861295 0.00042309050403276772 0 -0.0010299541262808961 0.0004229000571806383 0 -0.00072612171112861295 0.00042309050403276772 0 -0.00091063090783703585 0.00035423575613986388 0 -0.00070588916584173912 0.00054196457373597109 0 -0.00073534355720755598 0.00043165498398768659 0 -0.0010068016194015792 0.00034637140284219894 0 -0.0010299541262808961 0.0004229000571806383 0 -0.00091063090783703585 0.00035423575613986388 0 -0.00072612171112861295 0.00042309050403276772 0 -0.00081095029220099783 0.00037549574623142826 0 -0.00085389452439109468 0.00036591458200891118 0 -0.00072612171112861295 0.00042309050403276772 0 -0.00085389452439109468 0.00036591458200891118 0 -0.00091063090783703585 0.00035423575613986388 0 -0.00081095029220099783 0.00037549574623142826 0 -0.00085389452439109468 0.00036591458200891118 0 -0.00087537208996270484 0.00035731046201623669 0 -0.00085389452439109468 0.00036591458200891118 0 -0.00089143815194599033 0.00034431753102398717 0 -0.00087703522754370618 0.00035315288962522442 0 -0.00085389452439109468 0.00036591458200891118 0 -0.00089143815194599033 0.00034431753102398717 0 -0.00091063090783703585 0.00035423575613986388 0 -0.00087703522754370618 0.00035315288962522442 0 -0.00088880297698639094 0.00035306967394869022 0 -0.00087537208996270484 0.00035731046201623669 0 -0.00085389452439109468 0.00036591458200891118 0 -0.00087703522754370618 0.00035315288962522442 0 -0.00087537208996270484 0.00035731046201623669 0 -0.00088880297698639094 0.00035306967394869022 0 -0.00088199863750210183 0.00034622737467613463 0 -0.00087794983974071429 0.00034925756156351212 0 -0.00087703522754370618 0.00035315288962522442 0 -0.00088880297698639094 0.00035306967394869022 0 -0.00088199863750210183 0.00034622737467613463 0 -0.00089143815194599033 0.00034431753102398717 0 -0.00087703522754370618 0.00035315288962522442 0 -0.00088199863750210183 0.00034622737467613463 0 -0.00089143815194599033 0.00034431753102398717 0 -0.00088199863750210183 0.00034622737467613463 0 -0.00089744146134690384 0.0003240470315567166 0 -0.00086287773139565645 0.00031761216575221327 0 -0.00089744146134690384 0.0003240470315567166 0 -0.00088035581437232141 0.00033750007995510175 0 -0.00088199863750210183 0.00034622737467613463 0 -0.00089744146134690384 0.0003240470315567166 0 -0.00088035581437232141 0.00033750007995510175 0 -0.00088199863750210183 0.00034622737467613463 0 -0.00088035581437232141 0.00033750007995510175 0 -0.00087794983974071429 0.00034925756156351212 0 -0.00086287773139565645 0.00031761216575221327 0 -0.00088035581437232141 0.00033750007995510175 0 -0.00087794983974071429 0.00034925756156351212 0 -0.0011546571755904759 0.00034546659713519438 0 -0.0011300054084075618 0.00034625316660814404 0 -0.00089143815194599033 0.00034431753102398717 0 -0.00089744146134690384 0.0003240470315567166 0 -0.0009392358541376487 0.00031331434595010621 0 -0.0009392358541376487 0.00031331434595010621 0 -0.00099742401873261269 0.0003000386600328581 0 -0.00091063090783703585 0.00035423575613986388 0 -0.0010068016194015792 0.00034637140284219894 0 -0.00099742401873261269 0.0003000386600328581 0 -0.00091063090783703585 0.00035423575613986388 0 -0.00089143815194599033 0.00034431753102398717 0 -0.0009392358541376487 0.00031331434595010621 0 -0.00091063090783703585 0.00035423575613986388 0 -0.00096386926890303678 0.0003507858017096333 0 -0.00092373303611737096 0.00035011796785582223 0 -0.0009414171448233219 0.00033104048379876478 0 -0.00096386926890303678 0.0003507858017096333 0 -0.00099210161557383887 0.00034525066143154464 0 -0.0009414171448233219 0.00033104048379876478 0 -0.00099210161557383887 0.00034525066143154464 0 -0.0009414171448233219 0.00033104048379876478 0 -0.00098409733984953108 0.00033127618109810697 0 -0.0010211871331117519 0.00034790692237448011 0 -0.00099210161557383887 0.00034525066143154464 0 -0.0010023902951590243 0.0003547727333399518 0 -0.00096386926890303678 0.0003507858017096333 0 -0.0010023902951590243 0.0003547727333399518 0 -0.00097111008052009533 0.00035929180467872727 0 -0.00096386926890303678 0.0003507858017096333 0 -0.00099210161557383887 0.00034525066143154464 0 -0.0010023902951590243 0.0003547727333399518 0 -0.00099831794179636017 0.00036354499774652986 0 -0.00097111008052009533 0.00035929180467872727 0 -0.00093130967185423702 0.00035969147000378229 0 -0.00099831794179636017 0.00036354499774652986 0 -0.00099816270308502632 0.00036319582936642398 0 -0.00093130967185423702 0.00035969147000378229 0 -0.00099816270308502632 0.00036319582936642398 0 -0.0010061567362501123 0.00036465083046458106 0 -0.00093130967185423702 0.00035969147000378229 0 -0.00087009107254791345 0.00035480222987581362 0 -0.00087794983974071429 0.00034925756156351212 0 -0.00093130967185423702 0.00035969147000378229 0 -0.0011546571755904759 0.00034546659713519438 0 -0.00099920945514459327 0.00039731826078671738 0 -0.00088880297698639094 0.00035306967394869022 0 -0.00087794983974071429 0.00034925756156351212 0 -0.00093130967185423702 0.00035969147000378229 0 -0.00088880297698639094 0.00035306967394869022 0 -0.00093130967185423702 0.00035969147000378229 0 -0.00087537208996270484 0.00035731046201623669 0 -0.00093130967185423702 0.00035969147000378229 0 -0.00087537208996270484 0.00035731046201623669 0 -0.00092373303611737096 0.00035011796785582223 0 -0.00097111008052009533 0.00035929180467872727 0 -0.00093130967185423702 0.00035969147000378229 0 -0.00092373303611737096 0.00035011796785582223 0 -0.00096386926890303678 0.0003507858017096333 0 -0.00097111008052009533 0.00035929180467872727 0 -0.00092373303611737096 0.00035011796785582223 0 -0.00092373303611737096 0.00035011796785582223 0 -0.00086277561519566316 0.00034092984118150907 0 -0.0009414171448233219 0.00033104048379876478 0 -0.00081095029220099783 0.00037549574623142826 0 -0.00087537208996270484 0.00035731046201623669 0 -0.00086277561519566316 0.00034092984118150907 0 -0.00087537208996270484 0.00035731046201623669 0 -0.00092373303611737096 0.00035011796785582223 0 -0.00086277561519566316 0.00034092984118150907 0 -0.00086277561519566316 0.00034092984118150907 0 -0.0009414171448233219 0.00033104048379876478 0 -0.00090171451325886311 0.00030957515090867084 0 -0.0009414171448233219 0.00033104048379876478 0 -0.00090171451325886311 0.00030957515090867084 0 -0.00093803227537449935 0.00029018411380769637 0 -0.00090171451325886311 0.00030957515090867084 0 -0.00086106343684020661 0.00026829234608088346 0 -0.00093803227537449935 0.00029018411380769637 0 -0.00086277561519566316 0.00034092984118150907 0 -0.00090171451325886311 0.00030957515090867084 0 -0.00086106343684020661 0.00026829234608088346 0 -0.00076033421731494836 0.00030667775172116789 0 -0.00081095029220099783 0.00037549574623142826 0 -0.00086277561519566316 0.00034092984118150907 0 -0.00076033421731494836 0.00030667775172116789 0 -0.00086277561519566316 0.00034092984118150907 0 -0.00086106343684020661 0.00026829234608088346 0 -0.00069829941850870652 0.00011047278892609483 0 -0.00076033421731494836 0.00030667775172116789 0 -0.00086106343684020661 0.00026829234608088346 0 -0.00086106343684020661 0.00026829234608088346 0 -0.00093831261968299628 0.00024792045766568681 0 -0.00087845776610115259 0.00015652276156364795 0 -0.00093831261968299628 0.00024792045766568681 0 -0.00092538806719713194 0.00024582583921356108 0 -0.00092251769238301494 0.00022532974678041561 0 -0.00093831261968299628 0.00024792045766568681 0 -0.00098172254828354571 0.00025203011169142579 0 -0.00092538806719713194 0.00024582583921356108 0 -0.00086106343684020661 0.00026829234608088346 0 -0.00093831261968299628 0.00024792045766568681 0 -0.00093803227537449935 0.00029018411380769637 0 -0.00093831261968299628 0.00024792045766568681 0 -0.00098172254828354571 0.00025203011169142579 0 -0.00093803227537449935 0.00029018411380769637 0 -0.0009414171448233219 0.00033104048379876478 0 -0.00093803227537449935 0.00029018411380769637 0 -0.00097295794145816456 0.00030760787747063695 0 -0.00098172254828354571 0.00025203011169142579 0 -0.00093803227537449935 0.00029018411380769637 0 -0.00097295794145816456 0.00030760787747063695 0 -0.0009414171448233219 0.00033104048379876478 0 -0.00097295794145816456 0.00030760787747063695 0 -0.00098409733984953108 0.00033127618109810697 0 -0.00097295794145816456 0.00030760787747063695 0 -0.0010146123988840701 0.00031852639850724849 0 -0.00098409733984953108 0.00033127618109810697 0 -0.00098172254828354571 0.00025203011169142579 0 -0.0010436287835649738 0.0003009350850915903 0 -0.0010146123988840701 0.00031852639850724849 0 -0.00098172254828354571 0.00025203011169142579 0 -0.00097295794145816456 0.00030760787747063695 0 -0.0010146123988840701 0.00031852639850724849 0 -0.00098659062245228294 0.00024597848401551354 0 -0.0010031281500027661 0.00024364999604168709 0 -0.00098172254828354571 0.00025203011169142579 0 -0.0010436287835649738 0.0003009350850915903 0 -0.0010917676771045541 0.00026104067076004108 0 -0.0010436287835649738 0.0003009350850915903 0 -0.0010146123988840701 0.00031852639850724849 0 -0.0010587305116713977 0.00032607210830201992 0 -0.0010146123988840701 0.00031852639850724849 0 -0.0010587305116713977 0.00032607210830201992 0 -0.0010560841213010056 0.00033595964070681143 0 -0.0010587305116713977 0.00032607210830201992 0 -0.0010560841213010056 0.00033595964070681143 0 -0.0010936215962908018 0.00033547453127554016 0 -0.0010465795146569509 0.00034326456172272034 0 -0.0010560841213010056 0.00033595964070681143 0 -0.0010202225346607056 0.00033781563609404483 0 -0.0010211871331117519 0.00034790692237448011 0 -0.00099210161557383887 0.00034525066143154464 0 -0.0010202225346607056 0.00033781563609404483 0 -0.0010465795146569509 0.00034326456172272034 0 -0.0010211871331117519 0.00034790692237448011 0 -0.0010202225346607056 0.00033781563609404483 0 -0.00099210161557383887 0.00034525066143154464 0 -0.0010202225346607056 0.00033781563609404483 0 -0.00098409733984953108 0.00033127618109810697 0 -0.0010146123988840701 0.00031852639850724849 0 -0.0010560841213010056 0.00033595964070681143 0 -0.0010202225346607056 0.00033781563609404483 0 -0.0010146123988840701 0.00031852639850724849 0 -0.0010202225346607056 0.00033781563609404483 0 -0.00098409733984953108 0.00033127618109810697 0 -0.001114743306915512 0.00034836017094191788 0 -0.0011164900037588402 0.00033921736672344496 0 -0.0011188275299530326 0.00034362445740858594 0 -0.0011263736918523551 0.00033634678268154187 0 -0.001114743306915512 0.00034836017094191788 0 -0.0011164900037588402 0.00033921736672344496 0 -0.0011207569763965657 0.0003361003422052415 0 -0.0011164900037588402 0.00033921736672344496 0 -0.0010936215962908018 0.00033547453127554016 0 -0.0011164900037588402 0.00033921736672344496 0 -0.0010936215962908018 0.00033547453127554016 0 -0.0010954883095029033 0.00032634484103883163 0 -0.0010587305116713977 0.00032607210830201992 0 -0.0010936215962908018 0.00033547453127554016 0 -0.0010954883095029033 0.00032634484103883163 0 -0.0011318538546514622 0.00030901095477549594 0 -0.0010084801486501692 0.00031523985301870584 0 -0.0010954883095029033 0.00032634484103883163 0 -0.0010917676771045541 0.00026104067076004108 0 -0.0011578870655020105 0.00027859032535475339 0 -0.0010436287835649738 0.0003009350850915903 0 -0.0010587305116713977 0.00032607210830201992 0 -0.0010954883095029033 0.00032634484103883163 0 -0.0010436287835649738 0.0003009350850915903 0 -0.0010954883095029033 0.00032634484103883163 0 -0.0010917676771045541 0.00026104067076004108 0 -0.0010031281500027661 0.00024364999604168709 0 -0.0010084801486501692 0.00031523985301870584 0 -0.0011164900037588402 0.00033921736672344496 0 -0.0010954883095029033 0.00032634484103883163 0 -0.0011188275299530326 0.00034362445740858594 0 -0.00084034596455576983 0.0002373443601241639 0 -0.00088447836423516152 0.00023040625250560361 0 -0.00086787845486577286 0.00025081438547929467 0 -0.00084034596455576983 0.0002373443601241639 0 -0.00088288160152658437 0.00020334128490182615 0 -0.00088447836423516152 0.00023040625250560361 0 -0.00092189271459678691 0.00021528116655370927 0 -0.00088288160152658437 0.00020334128490182615 0 -0.00088447836423516152 0.00023040625250560361 0 -0.00098172254828354571 0.00025203011169142579 0 -0.00092189271459678691 0.00021528116655370927 0 -0.00092538806719713194 0.00024582583921356108 0 -0.00092189271459678691 0.00021528116655370927 0 -0.00088447836423516152 0.00023040625250560361 0 -0.00092538806719713194 0.00024582583921356108 0 -0.00092538806719713194 0.00024582583921356108 0 -0.00086787845486577286 0.00025081438547929467 0 -0.00086795014354074465 0.0002528906871805666 0 -0.00092538806719713194 0.00024582583921356108 0 -0.00086795014354074465 0.0002528906871805666 0 -0.00092251769238301494 0.00022532974678041561 0 -0.00088447836423516152 0.00023040625250560361 0 -0.00092538806719713194 0.00024582583921356108 0 -0.00086787845486577286 0.00025081438547929467 0 -0.00084935572916394568 0.0002612178717603835 0 -0.00084353313733548157 0.00026388652707530713 0 -0.00086795014354074465 0.0002528906871805666 0 -0.00086787845486577286 0.00025081438547929467 0 -0.00084935572916394568 0.0002612178717603835 0 -0.00086795014354074465 0.0002528906871805666 0 -0.00084353313733548157 0.00026388652707530713 0 -0.00082166053385796087 0.00025945347758446648 0 -0.00083343087772431578 0.0002472813869778396 0 -0.00084353313733548157 0.00026388652707530713 0 -0.00082166053385796087 0.00025945347758446648 0 -0.00086795014354074465 0.0002528906871805666 0 -0.00082166053385796087 0.00025945347758446648 0 -0.00086795014354074465 0.0002528906871805666 0 -0.00092251769238301494 0.00022532974678041561 0 -0.00093831261968299628 0.00024792045766568681 0 -0.00092251769238301494 0.00022532974678041561 0 -0.00087845776610115259 0.00015652276156364795 0 -0.00080752905735377459 -7.1124421749318553e-05 0 -0.00087845776610115259 0.00015652276156364795 0 -0.00099022151537456735 -2.2976304922597464e-05 0 -0.00092251769238301494 0.00022532974678041561 0 -0.00087845776610115259 0.00015652276156364795 0 -0.00099022151537456735 -2.2976304922597464e-05 0 -0.00091611226604778728 0.00021004123309718075 0 -0.00087027106130228111 0.00010278411650382518 0 -0.00082166053385796087 0.00025945347758446648 0 -0.00092251769238301494 0.00022532974678041561 0 -0.00075773720147069123 0.00025173695078824541 0 -0.00082166053385796087 0.00025945347758446648 0 -0.00075773720147069123 0.00025173695078824541 0 -0.00074909560755261257 0.00021573047484027937 0 -0.00080752905735377459 -7.1124421749318553e-05 0 -0.00099022151537456735 -2.2976304922597464e-05 0 -0.0009652825702255066 -0.00031520869797359074 0 -0.00087027106130228111 0.00010278411650382518 0 -0.00076956176929496203 -8.7558792022575892e-05 0 -0.00075773720147069123 0.00025173695078824541 0 -0.00074909560755261257 0.00021573047484027937 0 -0.00058144568480616207 0.00014072283336729095 0 -0.00074909560755261257 0.00021573047484027937 0 -0.00074521177345417231 0.00015438405791499843 0 -0.00058144568480616207 0.00014072283336729095 0 -0.00074909560755261257 0.00021573047484027937 0 -0.00074521177345417231 0.00015438405791499843 0 -0.00080351481673391885 0.0002178976783302666 0 -0.00074521177345417231 0.00015438405791499843 0 -0.00080539712136858533 0.00017230018888171996 0 -0.00080351481673391885 0.0002178976783302666 0 -0.00086572618152967718 0.00030977460075103569 0 4.0839672643717262e-05 0.00017232658872956777 0 -0.00080539712136858533 0.00017230018888171996 0 -0.00085023376116504336 0.00018125035958850512 0 -0.00082772884502347027 0.00019890332978854072 0 -0.00085213978220285318 0.00024691467632482138 0 -0.00084820112919621767 0.0001850714330107489 0 -0.00084498084657245282 0.00019327326604458072 0 4.0839672643717262e-05 0.00017232658872956777 0 -2.1198530624613479e-05 0.00014094960682968662 0 -0.00085023376116504336 0.00018125035958850512 0 -0.00084498084657245282 0.00019327326604458072 0 -0.00082772884502347027 0.00019890332978854072 0 -0.00084498084657245282 0.00019327326604458072 0 -0.00082772884502347027 0.00019890332978854072 0 -0.00083372882381908657 0.00022294299731862233 0 -0.00082772884502347027 0.00019890332978854072 0 -0.00083372882381908657 0.00022294299731862233 0 -0.00080351481673391885 0.0002178976783302666 0 -0.00080539712136858533 0.00017230018888171996 0 -0.00082772884502347027 0.00019890332978854072 0 -0.00080351481673391885 0.0002178976783302666 0 -0.00083372882381908657 0.00022294299731862233 0 -0.00083343087772431578 0.0002472813869778396 0 -0.00080351481673391885 0.0002178976783302666 0 -0.00085213978220285318 0.00024691467632482138 0 -0.00083372882381908657 0.00022294299731862233 0 -0.00083343087772431578 0.0002472813869778396 0 -0.00085213978220285318 0.00024691467632482138 0 -0.00084498084657245282 0.00019327326604458072 0 -0.00083372882381908657 0.00022294299731862233 0 -0.00085213978220285318 0.00024691467632482138 0 -0.00084353313733548157 0.00026388652707530713 0 -0.00083343087772431578 0.0002472813869778396 0 -0.00082166053385796087 0.00025945347758446648 0 -0.00083343087772431578 0.0002472813869778396 0 -0.00080351481673391885 0.0002178976783302666 0 -0.00082166053385796087 0.00025945347758446648 0 -0.00074909560755261257 0.00021573047484027937 0 -0.00080351481673391885 0.0002178976783302666 0 -0.00080185968924231105 5.9195329574637084e-05 0 -0.0006514135026651223 4.870872325488496e-05 0 -0.00071429741095482347 -9.9822380361356663e-05 0 0.00042914655303675689 -1.5116408687348644e-05 0 0.00029270495507435567 3.9863920400672589e-05 0 0.0015866046689256212 3.5459852381550753e-05 0 0.0015593477361627031 6.0230631455199508e-06 0 0.0015324871892267555 5.0506508331956098e-05 0 0.0015887579474676136 4.2809391990134098e-06 0 0.0016239707291805039 5.5381354675088592e-05 0 0.0015866046689256212 3.5459852381550753e-05 0 0.0015887579474676136 4.2809391990134098e-06 0 0.0015866046689256212 3.5459852381550753e-05 0 0.0015593477361627031 6.0230631455199508e-06 0 4.0839672643717262e-05 0.00017232658872956777 0 0.00042914655303675689 -1.5116408687348644e-05 0 0.0015887579474676136 4.2809391990134098e-06 0 0.0015586830915681762 -2.8804433854001472e-05 0 0.0015593477361627031 6.0230631455199508e-06 0 0.00042045366016173398 0.00011131338462306998 0 4.0839672643717262e-05 0.00017232658872956777 0 -0.00077877078022613037 0.00024054249555443942 0 -0.00075879316798193263 0.00021799374997597576 0 -0.00076557242694552934 0.00024788850050208708 0 -0.00080539712136858533 0.00017230018888171996 0 -0.00085023376116504336 0.00018125035958850512 0 -0.00080185968924231105 5.9195329574637084e-05 0 -0.00074521177345417231 0.00015438405791499843 0 -0.00080185968924231105 5.9195329574637084e-05 0 -0.0006514135026651223 4.870872325488496e-05 0 -0.00074521177345417231 0.00015438405791499843 0 -0.00080539712136858533 0.00017230018888171996 0 -0.00080185968924231105 5.9195329574637084e-05 0 -0.00074521177345417231 0.00015438405791499843 0 -0.00058144568480616207 0.00014072283336729095 0 -0.0006514135026651223 4.870872325488496e-05 0 -0.0009652825702255066 -0.00031520869797359074 0 -0.00090655628431477993 -0.00060921309726562909 0 -0.00074209995806932925 -0.00032440467816848597 0 -0.00058144568480616207 0.00014072283336729095 0 -0.0006514135026651223 4.870872325488496e-05 0 -0.00041832017755867552 -6.9172830093108448e-05 0 -0.00076956176929496203 -8.7558792022575892e-05 0 -0.0006831203038892155 -0.00037278938623516212 0 -0.0006514135026651223 4.870872325488496e-05 0 -0.00055786860887244312 -0.00011953321778808059 0 -0.00041832017755867552 -6.9172830093108448e-05 0 -0.0006514135026651223 4.870872325488496e-05 0 -0.00055786860887244312 -0.00011953321778808059 0 -0.00071429741095482347 -9.9822380361356663e-05 0 -0.00055786860887244312 -0.00011953321778808059 0 -0.00055822970624385738 -0.00023206169348621099 0 -0.00071429741095482347 -9.9822380361356663e-05 0 -0.00055786860887244312 -0.00011953321778808059 0 -0.00043978425264371539 -0.00025473459194999039 0 -0.00055822970624385738 -0.00023206169348621099 0 -0.00055786860887244312 -0.00011953321778808059 0 -0.00041832017755867552 -6.9172830093108448e-05 0 -0.00043978425264371539 -0.00025473459194999039 0 -0.0006831203038892155 -0.00037278938623516212 0 -0.00039995077078863489 -0.00047485916134275302 0 -0.00041832017755867552 -6.9172830093108448e-05 0 -0.00043978425264371539 -0.00025473459194999039 0 -0.00026981484333741428 -0.00033375392905142867 0 -0.00043978425264371539 -0.00025473459194999039 0 -0.00033751698160814893 -0.00036309537947858849 0 -0.00026981484333741428 -0.00033375392905142867 0 -0.00043978425264371539 -0.00025473459194999039 0 -0.00047621657809209487 -0.00036860549846543531 0 -0.00033751698160814893 -0.00036309537947858849 0 -0.00055822970624385738 -0.00023206169348621099 0 -0.0006021572901708758 -0.00028993601429650915 0 -0.00071429741095482347 -9.9822380361356663e-05 0 -0.00055822970624385738 -0.00023206169348621099 0 -0.00051803735880309731 -0.00028662194455629037 0 -0.00061059791127832726 -0.00028523082817067313 0 5.0541923813982461e-05 -0.00071382094444753666 0 0.0014653258465255514 -9.0655970499350471e-05 0 -0.00043978425264371539 -0.00025473459194999039 0 -0.00055822970624385738 -0.00023206169348621099 0 -0.00051803735880309731 -0.00028662194455629037 0 -0.00043978425264371539 -0.00025473459194999039 0 -0.00051803735880309731 -0.00028662194455629037 0 -0.00047621657809209487 -0.00036860549846543531 0 -0.00051803735880309731 -0.00028662194455629037 0 -0.00061059791127832726 -0.00028523082817067313 0 -0.00047621657809209487 -0.00036860549846543531 0 0.0014451389013816602 0.00017131609590302757 0 0.001552644230374649 0.00015792110713894219 0 0.0015324871892267555 5.0506508331956098e-05 0 0.0014451389013816602 0.00017131609590302757 0 0.001552644230374649 0.00015792110713894219 0 0.0015616124690571275 0.00036147338595385819 0 0.0014653258465255514 -9.0655970499350471e-05 0 0.00029270495507435567 3.9863920400672589e-05 0 0.001552644230374649 0.00015792110713894219 0 0.0015324871892267555 5.0506508331956098e-05 0 0.0015849305337439835 9.3534909319649393e-05 0 0.0015324871892267555 5.0506508331956098e-05 0 0.0015808277606381492 6.5293755248294066e-05 0 0.0015849305337439835 9.3534909319649393e-05 0 0.0015866046689256212 3.5459852381550753e-05 0 0.0015324871892267555 5.0506508331956098e-05 0 0.0015808277606381492 6.5293755248294066e-05 0 0.0015866046689256212 3.5459852381550753e-05 0 0.0015808277606381492 6.5293755248294066e-05 0 0.0016151546068120259 8.2153073473476256e-05 0 0.0016239707291805039 5.5381354675088592e-05 0 0.0015866046689256212 3.5459852381550753e-05 0 0.0016151546068120259 8.2153073473476256e-05 0 0.0015808277606381492 6.5293755248294066e-05 0 0.0015849305337439835 9.3534909319649393e-05 0 0.0016151546068120259 8.2153073473476256e-05 0 0.0015849305337439835 9.3534909319649393e-05 0 0.0016151546068120259 8.2153073473476256e-05 0 0.0016392742704288445 0.00013906032221148014 0 0.0016428350564963907 0.00012626300716399704 0 0.0016151546068120259 8.2153073473476256e-05 0 0.0016392742704288445 0.00013906032221148014 0 0.001552644230374649 0.00015792110713894219 0 0.0015849305337439835 9.3534909319649393e-05 0 0.0016392742704288445 0.00013906032221148014 0 0.001552644230374649 0.00015792110713894219 0 0.0016392742704288445 0.00013906032221148014 0 0.0016595988801321288 0.00025902191619997842 0 0.0018126824676993288 0.00025050266263537175 0 0.0016392742704288445 0.00013906032221148014 0 0.0016595988801321288 0.00025902191619997842 0 0.0018126824676993288 0.00025050266263537175 0 0.0016595988801321288 0.00025902191619997842 0 0.0017828109064063902 0.00040880227778263922 0 0.0016595988801321288 0.00025902191619997842 0 0.0017828109064063902 0.00040880227778263922 0 0.0015616124690571275 0.00036147338595385819 0 0.001552644230374649 0.00015792110713894219 0 0.0016595988801321288 0.00025902191619997842 0 0.0015616124690571275 0.00036147338595385819 0 0.0014653258465255514 -9.0655970499350471e-05 0 0.003030642981095376 0.0002123276491338027 0 0.0041895294665653957 -0.00019769683487799641 0 0.0042141791195556069 -0.00014517791990958007 0 0.0042657965805982974 -0.00013149631498490344 0 0.0042141791195556069 -0.00014517791990958007 0 0.0042657965805982974 -0.00013149631498490344 0 0.0042182252190772485 -0.00010257977941982944 0 0.0042657965805982974 -0.00013149631498490344 0 0.0042673244232868885 -9.3648372916149737e-05 0 0.0042182252190772485 -0.00010257977941982944 0 0.0042673244232868885 -9.3648372916149737e-05 0 0.0042347712027407444 -6.4600859016110371e-05 0 0.0042182252190772485 -0.00010257977941982944 0 0.0044949836974098331 -5.2817631450339986e-05 0 0.003637533836613251 -7.4968271579415657e-07 0 0.0017828109064063902 0.00040880227778263922 0 0.0015616124690571275 0.00036147338595385819 0 0.0017616990833644174 0.00061870663835566087 0 0.003030642981095376 0.0002123276491338027 0 0.003637533836613251 -7.4968271579415657e-07 0 0.0042657965805982974 -0.00013149631498490344 0 0.0042673244232868885 -9.3648372916149737e-05 0 0.00429413020534904 -8.6213071327127143e-05 0 0.0042673244232868885 -9.3648372916149737e-05 0 0.0043477073821601795 -7.3646849395105161e-05 0 0.0043041542399093876 -1.9557023686233556e-05 0 0.0043477073821601795 -7.3646849395105161e-05 0 0.0043041542399093876 -1.9557023686233556e-05 0 0.0043625465250615083 -1.3703993221632664e-06 0 0.0043041542399093876 -1.9557023686233556e-05 0 0.0042264470903202039 -2.7280757050326544e-05 0 0.0042347712027407444 -6.4600859016110371e-05 0 0.0042673244232868885 -9.3648372916149737e-05 0 0.0043041542399093876 -1.9557023686233556e-05 0 0.0042347712027407444 -6.4600859016110371e-05 0 0.004308483964181274 -2.0318574465628026e-05 0 0.0043094540351303716 3.1452877782592756e-05 0 0.0043041542399093876 -1.9557023686233556e-05 0 0.00421346763251596 1.9206820074256423e-05 0 0.0042623734926710583 5.748401454839105e-05 0 0.0043041542399093876 -1.9557023686233556e-05 0 0.0043625465250615083 -1.3703993221632664e-06 0 0.0043586684270698678 1.1481225887855398e-05 0 0.0041697342797875269 9.4086109485732367e-06 0 0.00421346763251596 1.9206820074256423e-05 0 0.0041970009889684082 -2.1281135500442767e-05 0 0.0041697342797875269 9.4086109485732367e-06 0 0.00421346763251596 1.9206820074256423e-05 0 0.0042060145002761392 5.6427949676697389e-05 0 0.0043299202326613226 0.00016330877878161055 0 0.0042362428703501534 0.00013648566259226319 0 0.0043041542399093876 -1.9557023686233556e-05 0 0.00421346763251596 1.9206820074256423e-05 0 0.0042264470903202039 -2.7280757050326544e-05 0 0.0041970009889684082 -2.1281135500442767e-05 0 0.0042264470903202039 -2.7280757050326544e-05 0 0.0042028246237799721 -4.8656800258960894e-05 0 0.00421346763251596 1.9206820074256423e-05 0 0.0041970009889684082 -2.1281135500442767e-05 0 0.0042264470903202039 -2.7280757050326544e-05 0 0.0042264470903202039 -2.7280757050326544e-05 0 0.0042347712027407444 -6.4600859016110371e-05 0 0.0042028246237799721 -4.8656800258960894e-05 0 0.0041970009889684082 -2.1281135500442767e-05 0 0.0042028246237799721 -4.8656800258960894e-05 0 0.0041761879552829825 -6.1325135027113175e-05 0 -0.00034712171122664516 -0.00090079488092852339 0 -5.9942643346478023e-05 -0.00090971665125296397 0 6.0556708874846932e-05 -0.0011676382819856466 0 0.0043299202326613226 0.00016330877878161055 0 0.0029864566980548667 3.2397192705407236e-05 0 0.004256575279908077 0.00034332577568053023 0 0.0041285662983942687 0.0005733042760458476 0 0.0043629310486784385 0.00042443697626495271 0 0.0041697342797875269 9.4086109485732367e-06 0 0.0041970009889684082 -2.1281135500442767e-05 0 0.0041761879552829825 -6.1325135027113175e-05 0 0.0029864566980548667 3.2397192705407236e-05 0 0.0019835529485549507 -0.00033308485485235788 0 -0.000197406189184914 -0.00078611954551086917 0 -7.5843787806465244e-05 -0.00066913428569219825 0 -5.9942643346478023e-05 -0.00090971665125296397 0 -0.000197406189184914 -0.00078611954551086917 0 -0.00034712171122664516 -0.00090079488092852339 0 -5.9942643346478023e-05 -0.00090971665125296397 0 -0.000197406189184914 -0.00078611954551086917 0 -0.00034712171122664516 -0.00090079488092852339 0 -0.00030788332349321307 -0.00066397176134189628 0 -0.00030788332349321307 -0.00066397176134189628 0 -0.00030947127823367212 -0.00050893990730093309 0 -7.5843787806465244e-05 -0.00066913428569219825 0 -0.000197406189184914 -0.00078611954551086917 0 -0.00030788332349321307 -0.00066397176134189628 0 -7.5843787806465244e-05 -0.00066913428569219825 0 0.0041628308122155198 -6.1136025425429942e-05 0 0.0041856698411131665 -7.6347592622617801e-05 0 0.0041816231514442484 -0.00012985198758802408 0 0.0029864566980548667 3.2397192705407236e-05 0 0.0018212749199181025 -0.00040896771012355457 0 -0.00034712171122664516 -0.00090079488092852339 0 -0.00030788332349321307 -0.00066397176134189628 0 -0.00050951319514258185 -0.00054164622919172594 0 0.0042347712027407444 -6.4600859016110371e-05 0 0.0042028246237799721 -4.8656800258960894e-05 0 0.0041856698411131665 -7.6347592622617801e-05 0 0.0042347712027407444 -6.4600859016110371e-05 0 0.0041856698411131665 -7.6347592622617801e-05 0 0.0042182252190772485 -0.00010257977941982944 0 0.0042028246237799721 -4.8656800258960894e-05 0 0.0041761879552829825 -6.1325135027113175e-05 0 0.0041856698411131665 -7.6347592622617801e-05 0 0.0029864566980548667 3.2397192705407236e-05 0 0.0038257891292755651 -0.00029201086633383268 0 0.0041856698411131665 -7.6347592622617801e-05 0 0.0042182252190772485 -0.00010257977941982944 0 0.0041816231514442484 -0.00012985198758802408 0 -0.00061059791127832726 -0.00028523082817067313 0 -0.00050951319514258185 -0.00054164622919172594 0 -0.00047621657809209487 -0.00036860549846543531 0 0.0041895294665653957 -0.00019769683487799641 0 0.0042141791195556069 -0.00014517791990958007 0 0.0041816231514442484 -0.00012985198758802408 0 0.0014653258465255514 -9.0655970499350471e-05 0 0.0018212749199181025 -0.00040896771012355457 0 0.0042141791195556069 -0.00014517791990958007 0 0.0042182252190772485 -0.00010257977941982944 0 0.0041816231514442484 -0.00012985198758802408 0 -0.00050951319514258185 -0.00054164622919172594 0 -0.00047621657809209487 -0.00036860549846543531 0 -0.00030947127823367212 -0.00050893990730093309 0 -0.00013093145748898467 -0.00047850858241796292 0 -0.00030947127823367212 -0.00050893990730093309 0 -7.5843787806465244e-05 -0.00066913428569219825 0 -0.00030788332349321307 -0.00066397176134189628 0 -0.00050951319514258185 -0.00054164622919172594 0 -0.00030947127823367212 -0.00050893990730093309 0 -0.00047621657809209487 -0.00036860549846543531 0 -0.00030947127823367212 -0.00050893990730093309 0 -0.00033751698160814893 -0.00036309537947858849 0 -0.00013093145748898467 -0.00047850858241796292 0 -0.00033751698160814893 -0.00036309537947858849 0 -6.532730064381615e-05 -0.00026725938573183563 0 -0.00024873465783686091 -0.00036289217916835308 0 -0.00039995077078863489 -0.00047485916134275302 0 -0.00013093145748898467 -0.00047850858241796292 0 -0.00030947127823367212 -0.00050893990730093309 0 -0.00033751698160814893 -0.00036309537947858849 0 0.00017211937677485229 -0.00050403831030161736 0 0.00041097520621587923 -0.00013434661532791878 0 -6.532730064381615e-05 -0.00026725938573183563 0 -0.00013093145748898467 -0.00047850858241796292 0 0.00017211937677485229 -0.00050403831030161736 0 -6.532730064381615e-05 -0.00026725938573183563 0 -0.00013093145748898467 -0.00047850858241796292 0 0.00017211937677485229 -0.00050403831030161736 0 -7.5843787806465244e-05 -0.00066913428569219825 0 0.00017211937677485229 -0.00050403831030161736 0 0.00059204093404593516 -0.00039088381090920986 0 0.00041097520621587923 -0.00013434661532791878 0 0.00017211937677485229 -0.00050403831030161736 0 0.00041911042888966547 -0.00072459184353136326 0 0.00059204093404593516 -0.00039088381090920986 0 0.00041911042888966547 -0.00072459184353136326 0 0.00035582507136601264 -0.0010804111378549259 0 0.00061233368243373903 -0.00091004541259133551 0 0.00017211937677485229 -0.00050403831030161736 0 0.00041911042888966547 -0.00072459184353136326 0 0.00016923749831476088 -0.00082435793505213041 0 0.00041911042888966547 -0.00072459184353136326 0 0.00016923749831476088 -0.00082435793505213041 0 0.00035582507136601264 -0.0010804111378549259 0 0.00017211937677485229 -0.00050403831030161736 0 -7.5843787806465244e-05 -0.00066913428569219825 0 0.00016923749831476088 -0.00082435793505213041 0 -7.5843787806465244e-05 -0.00066913428569219825 0 0.00016923749831476088 -0.00082435793505213041 0 -5.9942643346478023e-05 -0.00090971665125296397 0 0.00016923749831476088 -0.00082435793505213041 0 -5.9942643346478023e-05 -0.00090971665125296397 0 0.0001108461476789525 -0.00099259078958234201 0 6.0556708874846932e-05 -0.0011676382819856466 0 0.00035582507136601264 -0.0010804111378549259 0 0.00037381836530209916 -0.0013772521635911337 0 -5.9942643346478023e-05 -0.00090971665125296397 0 6.0556708874846932e-05 -0.0011676382819856466 0 0.0001108461476789525 -0.00099259078958234201 0 6.0556708874846932e-05 -0.0011676382819856466 0 0.0001108461476789525 -0.00099259078958234201 0 0.00035582507136601264 -0.0010804111378549259 0 0.00016923749831476088 -0.00082435793505213041 0 0.0001108461476789525 -0.00099259078958234201 0 0.00035582507136601264 -0.0010804111378549259 0 0.00035582507136601264 -0.0010804111378549259 0 0.00048256140899637269 -0.0013509247203601033 0 0.00083785638879101316 -0.0011313652901201749 0 0.00035582507136601264 -0.0010804111378549259 0 0.00048256140899637269 -0.0013509247203601033 0 0.00037381836530209916 -0.0013772521635911337 0 0.0044132076152381995 0.00026725400997087864 0 0.0043665089087623751 0.00028958616711041328 0 0.0046358740082119753 0.00022136988093421836 0 0.00048256140899637269 -0.0013509247203601033 0 0.00037381836530209916 -0.0013772521635911337 0 0.00087849525257552405 -0.0014561591063661646 0 0.0045643596525110283 0.00027273369129933407 0 0.0045305313759725716 0.0003033315968509454 0 0.0044728931274154336 0.00027887188768794082 0 0.0045643596525110283 0.00027273369129933407 0 0.0044728931274154336 0.00027887188768794082 0 0.0045397158029299774 0.00021841216533495847 0 0.0039849198673127997 -0.00011657658508439789 0 0.0029577994575490886 -0.00018189837771122468 0 0.004256575279908077 0.00034332577568053023 0 0.0044015048743991951 0.0002798108576433137 0 0.004387986311846428 0.00015507319496135512 0 0.0019835529485549507 -0.00033308485485235788 0 0.0029577994575490886 -0.00018189837771122468 0 0.0043629310486784385 0.00042443697626495271 0 0.0045305313759725716 0.0003033315968509454 0 0.0044728931274154336 0.00027887188768794082 0 0.0044728931274154336 0.00027887188768794082 0 0.0044015048743991951 0.0002798108576433137 0 0.0044783161821901575 0.00019934887630629249 0 0.004256575279908077 0.00034332577568053023 0 0.0043629310486784385 0.00042443697626495271 0 0.0044015048743991951 0.0002798108576433137 0 0.0043629310486784385 0.00042443697626495271 0 0.0044728931274154336 0.00027887188768794082 0 0.0044015048743991951 0.0002798108576433137 0 0.0017594567566299837 -0.001127964500273895 0 0.0014089203983515071 -0.0013557428004741666 0 0.0013385109643872129 -0.00084817833407676332 0 0.0017594567566299837 -0.001127964500273895 0 0.0016970774351035857 -0.0013856725549411439 0 0.0014089203983515071 -0.0013557428004741666 0 0.0017594567566299837 -0.001127964500273895 0 0.0018336161408420218 -0.0013182992758101824 0 0.0020643674095454675 -0.0014459114024475029 0 0.0017594567566299837 -0.001127964500273895 0 0.0018336161408420218 -0.0013182992758101824 0 0.0016970774351035857 -0.0013856725549411439 0 0.0018657185874691457 -0.0014335503183437127 0 0.0018440862057972705 -0.0015554709268217816 0 0.0016970774351035857 -0.0013856725549411439 0 0.0018336161408420218 -0.0013182992758101824 0 0.0018657185874691457 -0.0014335503183437127 0 0.0016970774351035857 -0.0013856725549411439 0 0.0018657185874691457 -0.0014335503183437127 0 0.0019399012411534624 -0.0014805210042609343 0 0.0020643674095454675 -0.0014459114024475029 0 0.0018336161408420218 -0.0013182992758101824 0 0.0018657185874691457 -0.0014335503183437127 0 0.0020643674095454675 -0.0014459114024475029 0 0.0019399012411534624 -0.0014805210042609343 0 0.0018440862057972705 -0.0015554709268217816 0 0.0020344473845600032 -0.0015099559595365302 0 0.0019399012411534624 -0.0014805210042609343 0 0.0020344473845600032 -0.0015099559595365302 0 0.0020643674095454675 -0.0014459114024475029 0 0.0018657185874691457 -0.0014335503183437127 0 0.0019399012411534624 -0.0014805210042609343 0 0.0018440862057972705 -0.0015554709268217816 0 0.0018440862057972705 -0.0015554709268217816 0 0.0015904180508183165 -0.0015975349870422076 0 0.0016970774351035857 -0.0013856725549411439 0 0.0015904180508183165 -0.0015975349870422076 0 0.0016970774351035857 -0.0013856725549411439 0 0.0014089203983515071 -0.0013557428004741666 0 0.0014089203983515071 -0.0013557428004741666 0 0.00087849525257552405 -0.0014561591063661646 0 0.0011829077595372111 -0.0017157154464629691 0 0.0015904180508183165 -0.0015975349870422076 0 0.0014089203983515071 -0.0013557428004741666 0 0.0011829077595372111 -0.0017157154464629691 0 0.00051930126894841726 -0.0013242546398265882 0 0.0010887479612713634 -0.00099975030314626481 0 0.0029577994575490886 -0.00018189837771122468 0 0.0028004639730835248 -0.00078199016825121611 0 0.00048256140899637269 -0.0013509247203601033 0 0.00087849525257552405 -0.0014561591063661646 0 0.0013385109643872129 -0.00084817833407676332 0 0.00037381836530209916 -0.0013772521635911337 0 0.00087849525257552405 -0.0014561591063661646 0 0.0011829077595372111 -0.0017157154464629691 0 0.0014089203983515071 -0.0013557428004741666 0 0.00087849525257552405 -0.0014561591063661646 0 0.0013385109643872129 -0.00084817833407676332 0 0.00035582507136601264 -0.0010804111378549259 0 0.00083785638879101316 -0.0011313652901201749 0 0.00061233368243373903 -0.00091004541259133551 0 0.00083785638879101316 -0.0011313652901201749 0 0.00061233368243373903 -0.00091004541259133551 0 0.0008938941447275701 -0.00083737421137221519 0 0.0017594567566299837 -0.001127964500273895 0 0.0021691090150035407 -0.00038079553993084359 0 0.0020643674095454675 -0.0014459114024475029 0 0.00083785638879101316 -0.0011313652901201749 0 0.0008938941447275701 -0.00083737421137221519 0 0.0012344658989082804 -0.00090510636485682393 0 0.0017594567566299837 -0.001127964500273895 0 0.0013385109643872129 -0.00084817833407676332 0 0.0021691090150035407 -0.00038079553993084359 0 0.0010887479612713634 -0.00099975030314626481 0 0.0016456043665379662 -0.00059228763420907896 0 0.0008938941447275701 -0.00083737421137221519 0 0.0010366691496122252 -0.00060819531945183842 0 0.0012344658989082804 -0.00090510636485682393 0 0.0008938941447275701 -0.00083737421137221519 0 0.0010366691496122252 -0.00060819531945183842 0 0.00074743427702860681 -0.00063047626593290042 0 0.00041911042888966547 -0.00072459184353136326 0 0.00061233368243373903 -0.00091004541259133551 0 0.00074743427702860681 -0.00063047626593290042 0 0.00061233368243373903 -0.00091004541259133551 0 0.0008938941447275701 -0.00083737421137221519 0 0.00074743427702860681 -0.00063047626593290042 0 0.00074743427702860681 -0.00063047626593290042 0 0.00059204093404593516 -0.00039088381090920986 0 0.0009240465686622245 -0.0003504271001741345 0 0.00041911042888966547 -0.00072459184353136326 0 0.00074743427702860681 -0.00063047626593290042 0 0.00059204093404593516 -0.00039088381090920986 0 0.0010366691496122252 -0.00060819531945183842 0 0.0009240465686622245 -0.0003504271001741345 0 0.0012897784643583759 -0.00033536330891508354 0 0.0010366691496122252 -0.00060819531945183842 0 0.00074743427702860681 -0.00063047626593290042 0 0.0009240465686622245 -0.0003504271001741345 0 0.00085973754394429169 -1.1077820724963433e-05 0 0.0012913981723876107 0.0001090147045047202 0 0.001162014798815001 -0.00017578046395692128 0 0.0009240465686622245 -0.0003504271001741345 0 0.001162014798815001 -0.00017578046395692128 0 0.0012897784643583759 -0.00033536330891508354 0 0.0009240465686622245 -0.0003504271001741345 0 0.00085973754394429169 -1.1077820724963433e-05 0 0.001162014798815001 -0.00017578046395692128 0 0.00019050037437947598 -0.00037127112096497556 0 0.00076202825488033048 -0.00051994337780394311 0 -0.00041019147592635021 -0.00076699253336263897 0 -0.00041913225282495239 -0.0005989941007684828 0 -0.00020091648025827928 -0.00070796564170573333 0 -0.00041019147592635021 -0.00076699253336263897 0 -0.00056302022275857408 -0.00068688853688873342 0 -0.00041913225282495239 -0.0005989941007684828 0 -0.00041019147592635021 -0.00076699253336263897 0 -0.00056302022275857408 -0.00068688853688873342 0 -0.00062713382399871528 -0.00082575365969805609 0 0.00019050037437947598 -0.00037127112096497556 0 -0.00011614199091439669 -0.0004937081178699004 0 0.00059204093404593516 -0.00039088381090920986 0 0.00085973754394429169 -1.1077820724963433e-05 0 0.00041097520621587923 -0.00013434661532791878 0 0.00059204093404593516 -0.00039088381090920986 0 0.0009240465686622245 -0.0003504271001741345 0 0.00085973754394429169 -1.1077820724963433e-05 0 -0.00011614199091439669 -0.0004937081178699004 0 -0.00039995077078863489 -0.00047485916134275302 0 -0.00062713382399871528 -0.00082575365969805609 0 -0.00084212583183077808 -0.00088800411627490297 0 -0.0007458812975263408 -0.00072096382226207118 0 -0.00090655628431477993 -0.00060921309726562909 0 -0.0007458812975263408 -0.00072096382226207118 0 -0.00064462925183217889 -0.00054644701160903788 0 -0.00090655628431477993 -0.00060921309726562909 0 -0.00084212583183077808 -0.00088800411627490297 0 -0.0007458812975263408 -0.00072096382226207118 0 -0.00056302022275857408 -0.00068688853688873342 0 -0.00062713382399871528 -0.00082575365969805609 0 -0.0007458812975263408 -0.00072096382226207118 0 -0.00056302022275857408 -0.00068688853688873342 0 -0.0007458812975263408 -0.00072096382226207118 0 -0.00064462925183217889 -0.00054644701160903788 0 -0.00090655628431477993 -0.00060921309726562909 0 -0.00064462925183217889 -0.00054644701160903788 0 -0.00074209995806932925 -0.00032440467816848597 0 -0.00064462925183217889 -0.00054644701160903788 0 -0.00074209995806932925 -0.00032440467816848597 0 -0.00045259655106426165 -0.00034067656597563847 0 -0.00013103023073834401 -0.00028342382426600819 0 -0.00045259655106426165 -0.00034067656597563847 0 -0.00027491274542572943 -0.0005109867550774364 0 -0.00045259655106426165 -0.00034067656597563847 0 -0.00027491274542572943 -0.0005109867550774364 0 -0.00041913225282495239 -0.0005989941007684828 0 -0.00027491274542572943 -0.0005109867550774364 0 -0.00041913225282495239 -0.0005989941007684828 0 -0.00020091648025827928 -0.00070796564170573333 0 -0.00056302022275857408 -0.00068688853688873342 0 -0.00064462925183217889 -0.00054644701160903788 0 -0.00041913225282495239 -0.0005989941007684828 0 -0.00064462925183217889 -0.00054644701160903788 0 -0.00045259655106426165 -0.00034067656597563847 0 -0.00041913225282495239 -0.0005989941007684828 0 0.00012322624180107259 -0.00081427382869725981 0 0.00028323266809757793 -0.00040197465088842815 0 0.0006098000051024203 -0.0010552721066393032 0 -0.00027491274542572943 -0.0005109867550774364 0 0.00012322624180107259 -0.00081427382869725981 0 -0.0001304290613093812 -0.0011801441751203776 0 -0.00027491274542572943 -0.0005109867550774364 0 0.00012322624180107259 -0.00081427382869725981 0 0.00028323266809757793 -0.00040197465088842815 0 -0.00046843235224939352 -0.00065430773728409296 0 0.00076202825488033048 -0.00051994337780394311 0 -0.00013103023073834401 -0.00028342382426600819 0 -0.00027491274542572943 -0.0005109867550774364 0 0.00028323266809757793 -0.00040197465088842815 0 0.00016122844838141248 -0.00021366530031150855 0 9.8453583903468735e-05 -0.00023824479820227267 0 0.00028323266809757793 -0.00040197465088842815 0 9.8453583903468735e-05 -0.00023824479820227267 0 -0.00013103023073834401 -0.00028342382426600819 0 0.00028323266809757793 -0.00040197465088842815 0 0.0011900234783931067 0.00015996805754307024 0 0.00028323266809757793 -0.00040197465088842815 0 0.0011652786252066443 -0.00026227931283253302 0 0.0006563383623710749 -5.7436839604755136e-05 0 0.00029271213034667479 -0.00039806214990633005 0 0.0011900234783931067 0.00015996805754307024 0 0.0011652786252066443 -0.00026227931283253302 0 0.0013359803883799658 -2.9108919508813037e-05 0 0.00028323266809757793 -0.00040197465088842815 0 0.0011652786252066443 -0.00026227931283253302 0 0.0010295818113082934 -0.00062973163473041538 0 0.0015510484465459601 3.7819122389798888e-07 0 0.0014887447219984883 -0.00026940979841508141 0 0.0017449915616193168 -0.00062916987777067641 0 0.0015759182510732804 -1.7745419868920705e-05 0 0.001746888649426394 -0.00036025702412484617 0 0.0011652786252066443 -0.00026227931283253302 0 0.0013359803883799658 -2.9108919508813037e-05 0 0.0014887447219984883 -0.00026940979841508141 0 0.0015510484465459601 3.7819122389798888e-07 0 0.0013359803883799658 -2.9108919508813037e-05 0 0.0014887447219984883 -0.00026940979841508141 0 0.0011652786252066443 -0.00026227931283253302 0 0.0014887447219984883 -0.00026940979841508141 0 0.0014717127157495855 -0.00049499921342428604 0 0.0014887447219984883 -0.00026940979841508141 0 0.0014717127157495855 -0.00049499921342428604 0 0.0017449915616193168 -0.00062916987777067641 0 0.0014717127157495855 -0.00049499921342428604 0 0.0016515730866838551 -0.00065961035687487745 0 0.0017449915616193168 -0.00062916987777067641 0 0.0014717127157495855 -0.00049499921342428604 0 0.0016515730866838551 -0.00065961035687487745 0 0.0010295818113082934 -0.00062973163473041538 0 0.0016515730866838551 -0.00065961035687487745 0 0.0017650002394222711 -0.00050693070101190353 0 0.0017449915616193168 -0.00062916987777067641 0 0.00028323266809757793 -0.00040197465088842815 0 0.0010295818113082934 -0.00062973163473041538 0 0.0006098000051024203 -0.0010552721066393032 0 0.0016515730866838551 -0.00065961035687487745 0 0.0010295818113082934 -0.00062973163473041538 0 0.0006098000051024203 -0.0010552721066393032 0 0.001608202062955395 -0.00067290921051731687 0 0.0013859286072382556 -0.00080609789136110068 0 0.0011652786252066443 -0.00026227931283253302 0 0.0014717127157495855 -0.00049499921342428604 0 0.0010295818113082934 -0.00062973163473041538 0 0.0016515730866838551 -0.00065961035687487745 0 0.0020515020568509018 -0.00052931430942344869 0 0.0018443062440124649 -0.00048078626693805009 0 0.0020515020568509018 -0.00052931430942344869 0 0.0018443062440124649 -0.00048078626693805009 0 0.0019653489276606315 -0.00038174438029401367 0 0.0020515020568509018 -0.00052931430942344869 0 0.0019653489276606315 -0.00038174438029401367 0 0.0021090592188850402 -0.00039115818931765656 0 0.0016515730866838551 -0.00065961035687487745 0 0.0017650002394222711 -0.00050693070101190353 0 0.0018443062440124649 -0.00048078626693805009 0 0.0017650002394222711 -0.00050693070101190353 0 0.0018443062440124649 -0.00048078626693805009 0 0.0018590671099763109 -0.00040023436212999181 0 0.0018443062440124649 -0.00048078626693805009 0 0.0018590671099763109 -0.00040023436212999181 0 0.0019653489276606315 -0.00038174438029401367 0 0.0017650002394222711 -0.00050693070101190353 0 0.0018590671099763109 -0.00040023436212999181 0 0.0018121768398117466 -0.00039104006662203633 0 0.0018590671099763109 -0.00040023436212999181 0 0.0018121768398117466 -0.00039104006662203633 0 0.0018683477885485375 -0.00030492372748012445 0 0.0018590671099763109 -0.00040023436212999181 0 0.0019373137925850921 -0.00028863277083915497 0 0.0018683477885485375 -0.00030492372748012445 0 0.0019373137925850921 -0.00028863277083915497 0 0.0018683477885485375 -0.00030492372748012445 0 0.0019329677497198277 -0.00020937628832604871 0 0.0018683477885485375 -0.00030492372748012445 0 0.0019329677497198277 -0.00020937628832604871 0 0.0019013351945679771 -0.00021225230979030676 0 0.0019653489276606315 -0.00038174438029401367 0 0.0020134035130830231 -0.00029014400161661932 0 0.0021090592188850402 -0.00039115818931765656 0 0.0018590671099763109 -0.00040023436212999181 0 0.0019373137925850921 -0.00028863277083915497 0 0.0019653489276606315 -0.00038174438029401367 0 0.0019373137925850921 -0.00028863277083915497 0 0.0019653489276606315 -0.00038174438029401367 0 0.0020134035130830231 -0.00029014400161661932 0 0.0019373137925850921 -0.00028863277083915497 0 0.0020134035130830231 -0.00029014400161661932 0 0.0019858335343596414 -0.00020862991981926096 0 0.0020134035130830231 -0.00029014400161661932 0 0.0020862750786751314 -0.00029642765848168816 0 0.0020673851447395213 -0.00023477829930224582 0 0.0020862750786751314 -0.00029642765848168816 0 0.0021090592188850402 -0.00039115818931765656 0 0.0021577151653913076 -0.00027502415752227112 0 0.0020134035130830231 -0.00029014400161661932 0 0.0020862750786751314 -0.00029642765848168816 0 0.0021090592188850402 -0.00039115818931765656 0 0.00012322624180107259 -0.00081427382869725981 0 0.0006098000051024203 -0.0010552721066393032 0 -0.0001304290613093812 -0.0011801441751203776 0 0.0013859286072382556 -0.00080609789136110068 0 0.00076202825488033048 -0.00051994337780394311 0 0.0020515020568509018 -0.00052931430942344869 0 0.0021090592188850402 -0.00039115818931765656 0 0.0022168636297864325 -0.00044405341707901892 0 0.0012913981723876107 0.0001090147045047202 0 0.001427894903925512 -0.00029179980613465477 0 0.001162014798815001 -0.00017578046395692128 0 0.0021090592188850402 -0.00039115818931765656 0 0.0022168636297864325 -0.00044405341707901892 0 0.0021577151653913076 -0.00027502415752227112 0 0.00076202825488033048 -0.00051994337780394311 0 0.0018673550704209748 -0.00025898343662016327 0 0.001427894903925512 -0.00029179980613465477 0 0.001162014798815001 -0.00017578046395692128 0 0.0012897784643583759 -0.00033536330891508354 0 0.0012897784643583759 -0.00033536330891508354 0 0.0014055001039980357 -0.00049305161724423532 0 0.0012599064773707207 -0.00078961372045878962 0 0.001427894903925512 -0.00029179980613465477 0 0.0012897784643583759 -0.00033536330891508354 0 0.0014055001039980357 -0.00049305161724423532 0 0.0018673550704209748 -0.00025898343662016327 0 0.0018968419952940638 -0.00033151116674557491 0 0.0020673851447395213 -0.00023477829930224582 0 0.0020231068847077261 -0.00016947081515533363 0 0.0020892638211454369 -0.00013039018811667862 0 0.0021577151653913076 -0.00027502415752227112 0 0.0020673851447395213 -0.00023477829930224582 0 0.0020892638211454369 -0.00013039018811667862 0 0.001427894903925512 -0.00029179980613465477 0 0.0014055001039980357 -0.00049305161724423532 0 0.0015387214081668326 -0.00063111635640652943 0 0.0020862750786751314 -0.00029642765848168816 0 0.0021577151653913076 -0.00027502415752227112 0 0.0020673851447395213 -0.00023477829930224582 0 0.0020673851447395213 -0.00023477829930224582 0 0.0020231068847077261 -0.00016947081515533363 0 0.0020224799519262008 -0.00021663821275609587 0 0.0018968419952940638 -0.00033151116674557491 0 0.0020112609819210479 -0.00011281869785826559 0 0.0020218260535219265 -0.00016537459585592472 0 0.002009581820184023 -0.00015195243133434418 0 0.0020040954323244345 -0.00015872015293351012 0 0.0020231068847077261 -0.00016947081515533363 0 0.0020218260535219265 -0.00016537459585592472 0 0.0020040954323244345 -0.00015872015293351012 0 0.0020683422632527034 -0.0001769146226632828 0 0.0018968419952940638 -0.00033151116674557491 0 0.0014055001039980357 -0.00049305161724423532 0 0.0015387214081668326 -0.00063111635640652943 0 0.0012599064773707207 -0.00078961372045878962 0 0.0020164418103865017 -0.0001865272481244658 0 0.0020432517573023058 -0.00017072339968355794 0 0.002024356175853447 -0.00015975635158720409 0 0.0018968419952940638 -0.00033151116674557491 0 0.0016456043665379662 -0.00059228763420907896 0 0.0011718760238814221 -0.00047356590287177415 0 0.0016456043665379662 -0.00059228763420907896 0 0.0010366691496122252 -0.00060819531945183842 0 0.0012897784643583759 -0.00033536330891508354 0 0.0012344658989082804 -0.00090510636485682393 0 0.0020432517573023058 -0.00017072339968355794 0 0.0020375781785596033 -0.00015005317609316125 0 0.0020496668714908681 -0.00013728851578394225 0 0.0016456043665379662 -0.00059228763420907896 0 0.0023964624974837532 -0.0005754615905615622 0 0.0020432517573023058 -0.00017072339968355794 0 0.0020375781785596033 -0.00015005317609316125 0 0.002024356175853447 -0.00015975635158720409 0 0.0020375781785596033 -0.00015005317609316125 0 0.002024356175853447 -0.00015975635158720409 0 0.0020131277040595832 -0.00014315741510845641 0 0.0020164418103865017 -0.0001865272481244658 0 0.002024356175853447 -0.00015975635158720409 0 0.002009581820184023 -0.00015195243133434418 0 0.002024356175853447 -0.00015975635158720409 0 0.002009581820184023 -0.00015195243133434418 0 0.0020131277040595832 -0.00014315741510845641 0 0.0023090781207592572 -1.9839562662841562e-05 0 0.0023087746420442754 -9.1857901072975449e-06 0 0.0022935596065562624 -1.0019127118481469e-05 0 0.0023090781207592572 -1.9839562662841562e-05 0 0.0023087746420442754 -9.1857901072975449e-06 0 0.0023217619810293796 -9.7457606766125556e-06 0 0.0024206915840884755 -2.0396282686059639e-05 0 0.0027606999586214315 -0.00021352999998722086 0 0.0023087746420442754 -9.1857901072975449e-06 0 0.0023217619810293796 -9.7457606766125556e-06 0 0.0023160911497062632 1.6478438016722224e-06 0 0.0020375781785596033 -0.00015005317609316125 0 0.0020131277040595832 -0.00014315741510845641 0 0.0020496668714908681 -0.00013728851578394225 0 0.0021343551736714207 -1.6391567465702327e-05 0 0.0023964624974837532 -0.0005754615905615622 0 0.0023217619810293796 -9.7457606766125556e-06 0 0.002341510329494255 -1.402254988600842e-05 0 0.0023160911497062632 1.6478438016722224e-06 0 0.0023090781207592572 -1.9839562662841562e-05 0 0.0023217619810293796 -9.7457606766125556e-06 0 0.002341510329494255 -1.402254988600842e-05 0 0.0023472745653133871 -0.00068254905075086083 0 0.0023964624974837532 -0.0005754615905615622 0 0.0022555117317262945 1.2127669770988748e-05 0 0.0022785433766216844 4.8687134265103135e-06 0 0.0022776616425090376 -4.0418572887302414e-05 0 0.0022555117317262945 1.2127669770988748e-05 0 0.0022785433766216844 4.8687134265103135e-06 0 0.0022737438578264886 1.2054184910363573e-05 0 0.0022785433766216844 4.8687134265103135e-06 0 0.0022935596065562624 -1.0019127118481469e-05 0 0.0022776616425090376 -4.0418572887302414e-05 0 0.0022785433766216844 4.8687134265103135e-06 0 0.0022935596065562624 -1.0019127118481469e-05 0 0.0022863259104189469 4.5208692690045227e-06 0 0.0023087746420442754 -9.1857901072975449e-06 0 0.0022935596065562624 -1.0019127118481469e-05 0 0.0022863259104189469 4.5208692690045227e-06 0 0.002009581820184023 -0.00015195243133434418 0 0.0020131277040595832 -0.00014315741510845641 0 0.0019744592157895911 -0.00015491315927101796 0 0.0021343551736714207 -1.6391567465702327e-05 0 0.0021268504988571908 -0.00010426725223678592 0 0.0023090781207592572 -1.9839562662841562e-05 0 0.0022935596065562624 -1.0019127118481469e-05 0 0.0022776616425090376 -4.0418572887302414e-05 0 0.002009581820184023 -0.00015195243133434418 0 0.0019744592157895911 -0.00015491315927101796 0 0.0020040954323244345 -0.00015872015293351012 0 0.0022555117317262945 1.2127669770988748e-05 0 0.0022776616425090376 -4.0418572887302414e-05 0 0.0021907259918370029 -8.0650605991853325e-06 0 0.0019744592157895911 -0.00015491315927101796 0 0.0019667414818471743 -0.00015864567235978323 0 0.0019740920319875812 -0.00013448086994994113 0 0.0019744592157895911 -0.00015491315927101796 0 0.0019667414818471743 -0.00015864567235978323 0 0.0019847399906387261 -0.00016068930882881576 0 0.0019744592157895911 -0.00015491315927101796 0 0.0020040954323244345 -0.00015872015293351012 0 0.0019847399906387261 -0.00016068930882881576 0 0.0020231068847077261 -0.00016947081515533363 0 0.0020040954323244345 -0.00015872015293351012 0 0.0019847399906387261 -0.00016068930882881576 0 0.0020231068847077261 -0.00016947081515533363 0 0.0019847399906387261 -0.00016068930882881576 0 0.0019858335343596414 -0.00020862991981926096 0 0.0020231068847077261 -0.00016947081515533363 0 0.0019858335343596414 -0.00020862991981926096 0 0.0020224799519262008 -0.00021663821275609587 0 0.0019667414818471743 -0.00015864567235978323 0 0.0019847399906387261 -0.00016068930882881576 0 0.0019858335343596414 -0.00020862991981926096 0 0.0020134035130830231 -0.00029014400161661932 0 0.0020673851447395213 -0.00023477829930224582 0 0.0020224799519262008 -0.00021663821275609587 0 0.0020134035130830231 -0.00029014400161661932 0 0.0019858335343596414 -0.00020862991981926096 0 0.0020224799519262008 -0.00021663821275609587 0 0.0019667414818471743 -0.00015864567235978323 0 0.0019329677497198277 -0.00020937628832604871 0 0.0019740920319875812 -0.00013448086994994113 0 0.0019667414818471743 -0.00015864567235978323 0 0.0019858335343596414 -0.00020862991981926096 0 0.0019329677497198277 -0.00020937628832604871 0 0.0019373137925850921 -0.00028863277083915497 0 0.0019858335343596414 -0.00020862991981926096 0 0.0019329677497198277 -0.00020937628832604871 0 0.0019329677497198277 -0.00020937628832604871 0 0.0019013351945679771 -0.00021225230979030676 0 0.0019740920319875812 -0.00013448086994994113 0 0.0019013351945679771 -0.00021225230979030676 0 0.0019786229014620792 -0.00010990435440924395 0 0.0017524918170378349 -0.0003566624902136076 0 0.0019013351945679771 -0.00021225230979030676 0 0.0019740920319875812 -0.00013448086994994113 0 0.0019786229014620792 -0.00010990435440924395 0 0.0019389431856816511 -6.0759299724722945e-05 0 0.001831567441243094 -6.8995211816669455e-05 0 0.0019786229014620792 -0.00010990435440924395 0 0.0019700046649506692 -5.8610274218105359e-05 0 0.0019274814517973556 -0.00014953946658150108 0 0.0019786229014620792 -0.00010990435440924395 0 0.0020605643233079351 -5.3521646532796787e-05 0 0.0019700046649506692 -5.8610274218105359e-05 0 0.0019786229014620792 -0.00010990435440924395 0 0.0020605643233079351 -5.3521646532796787e-05 0 0.0020589671949204861 -0.00010350803159744245 0 0.0020605643233079351 -5.3521646532796787e-05 0 0.0020589671949204861 -0.00010350803159744245 0 0.0021284998421045743 -3.4161308224860112e-05 0 0.0021268504988571908 -0.00010426725223678592 0 0.0020652408005664329 -0.00010327162474220566 0 0.0019744592157895911 -0.00015491315927101796 0 0.0019740920319875812 -0.00013448086994994113 0 0.0020589671949204861 -0.00010350803159744245 0 0.0019740920319875812 -0.00013448086994994113 0 0.0019786229014620792 -0.00010990435440924395 0 0.0020589671949204861 -0.00010350803159744245 0 0.0022776616425090376 -4.0418572887302414e-05 0 0.0020589671949204861 -0.00010350803159744245 0 0.0021907259918370029 -8.0650605991853325e-06 0 0.0020589671949204861 -0.00010350803159744245 0 0.0021907259918370029 -8.0650605991853325e-06 0 0.0021284998421045743 -3.4161308224860112e-05 0 0.0020605643233079351 -5.3521646532796787e-05 0 0.0021284998421045743 -3.4161308224860112e-05 0 0.0021515109862975238 -1.5828682148151691e-05 0 0.0021284998421045743 -3.4161308224860112e-05 0 0.0022159783792714354 3.5146659487990817e-06 0 0.0021515109862975238 -1.5828682148151691e-05 0 0.0021907259918370029 -8.0650605991853325e-06 0 0.0021284998421045743 -3.4161308224860112e-05 0 0.0022159783792714354 3.5146659487990817e-06 0 0.0022159783792714354 3.5146659487990817e-06 0 0.0022897363461273049 5.0730402065596532e-06 0 0.0023337295237585379 1.8858806932808965e-05 0 0.0022159783792714354 3.5146659487990817e-06 0 0.0022621638324042872 1.7490802562579203e-05 0 0.0023337295237585379 1.8858806932808965e-05 0 0.0021907259918370029 -8.0650605991853325e-06 0 0.0022159783792714354 3.5146659487990817e-06 0 0.0022621638324042872 1.7490802562579203e-05 0 0.0022555117317262945 1.2127669770988748e-05 0 0.0021907259918370029 -8.0650605991853325e-06 0 0.0022621638324042872 1.7490802562579203e-05 0 0.0022555117317262945 1.2127669770988748e-05 0 0.0022621638324042872 1.7490802562579203e-05 0 0.0022818756821956442 1.4792258782199501e-05 0 0.0023932874436992223 3.6945991771762522e-08 0 0.0022897363461273049 5.0730402065596532e-06 0 0.0024592402174007945 1.3322414069154031e-05 0 0.0022897363461273049 5.0730402065596532e-06 0 0.0024592402174007945 1.3322414069154031e-05 0 0.0023337295237585379 1.8858806932808965e-05 0 0.0022897363461273049 5.0730402065596532e-06 0 0.0021515109862975238 -1.5828682148151691e-05 0 0.0021236797671487988 -1.1832601272444695e-05 0 0.0022159783792714354 3.5146659487990817e-06 0 0.0022897363461273049 5.0730402065596532e-06 0 0.0021515109862975238 -1.5828682148151691e-05 0 0.0023932874436992223 3.6945991771762522e-08 0 0.0021322485454617966 -2.7712381301420588e-08 0 0.0021236797671487988 -1.1832601272444695e-05 0 0.0023932874436992223 3.6945991771762522e-08 0 0.0022897363461273049 5.0730402065596532e-06 0 0.0021236797671487988 -1.1832601272444695e-05 0 0.0021322485454617966 -2.7712381301420588e-08 0 0.0021236797671487988 -1.1832601272444695e-05 0 0.0019815889395358652 -1.7301790030610538e-05 0 0.0021236797671487988 -1.1832601272444695e-05 0 0.0019700046649506692 -5.8610274218105359e-05 0 0.0019815889395358652 -1.7301790030610538e-05 0 0.0020605643233079351 -5.3521646532796787e-05 0 0.0021515109862975238 -1.5828682148151691e-05 0 0.0021236797671487988 -1.1832601272444695e-05 0 0.0020605643233079351 -5.3521646532796787e-05 0 0.0021236797671487988 -1.1832601272444695e-05 0 0.0019700046649506692 -5.8610274218105359e-05 0 0.0019700046649506692 -5.8610274218105359e-05 0 0.0018449416520786499 -7.4912471096975673e-06 0 0.0017217522943408739 -2.123503278408886e-06 0 0.0019700046649506692 -5.8610274218105359e-05 0 0.0019815889395358652 -1.7301790030610538e-05 0 0.0018449416520786499 -7.4912471096975673e-06 0 0.0021322485454617966 -2.7712381301420588e-08 0 0.0019815889395358652 -1.7301790030610538e-05 0 0.001871281309106771 -1.5044782516732195e-08 0 0.0019815889395358652 -1.7301790030610538e-05 0 0.001871281309106771 -1.5044782516732195e-08 0 0.0018449416520786499 -7.4912471096975673e-06 0 0.001871281309106771 -1.5044782516732195e-08 0 0.0016100483703264882 9.0100180111537521e-08 0 0.001736956046940465 1.2479739603973196e-05 0 0.001871281309106771 -1.5044782516732195e-08 0 0.001736956046940465 1.2479739603973196e-05 0 0.0018449416520786499 -7.4912471096975673e-06 0 0.0016100483703264882 9.0100180111537521e-08 0 0.001736956046940465 1.2479739603973196e-05 0 0.0016647476999053581 2.3491770854969065e-05 0 0.001736956046940465 1.2479739603973196e-05 0 0.0016647476999053581 2.3491770854969065e-05 0 0.0017359727737495884 1.4272963688913184e-05 0 0.0016647476999053581 2.3491770854969065e-05 0 0.0017359727737495884 1.4272963688913184e-05 0 0.0016750392296656746 1.9623776749330618e-05 0 0.0017359727737495884 1.4272963688913184e-05 0 0.0018449416520786499 -7.4912471096975673e-06 0 0.0017217522943408739 -2.123503278408886e-06 0 0.001736956046940465 1.2479739603973196e-05 0 0.0017359727737495884 1.4272963688913184e-05 0 0.0018449416520786499 -7.4912471096975673e-06 0 0.0019786229014620792 -0.00010990435440924395 0 0.0019274814517973556 -0.00014953946658150108 0 0.0019059365276142162 -0.00016007746683679809 0 0.0019482012618955988 -0.00013422382231292068 0 0.0018424164610559525 -0.00026248178165469861 0 0.0018683477885485375 -0.00030492372748012445 0 0.0019013351945679771 -0.00021225230979030676 0 0.0017524918170378349 -0.0003566624902136076 0 0.0018121768398117466 -0.00039104006662203633 0 0.0018683477885485375 -0.00030492372748012445 0 0.0017524918170378349 -0.0003566624902136076 0 0.0018424164610559525 -0.00026248178165469861 0 0.001746888649426394 -0.00036025702412484617 0 0.0019059365276142162 -0.00016007746683679809 0 0.0017696384796541662 -0.00014201085573450187 0 0.0018507904317797011 -0.00015221242631020959 0 0.0017650002394222711 -0.00050693070101190353 0 0.0017524918170378349 -0.0003566624902136076 0 0.0017449915616193168 -0.00062916987777067641 0 0.0019274814517973556 -0.00014953946658150108 0 0.0019059365276142162 -0.00016007746683679809 0 0.0018507904317797011 -0.00015221242631020959 0 0.0017650002394222711 -0.00050693070101190353 0 0.0018121768398117466 -0.00039104006662203633 0 0.0017524918170378349 -0.0003566624902136076 0 0.001831567441243094 -6.8995211816669455e-05 0 0.0017304631539440086 -6.704022152184554e-05 0 0.0017217522943408739 -2.123503278408886e-06 0 0.0016750392296656746 1.9623776749330618e-05 0 0.0016133523491278523 2.1564362739428313e-05 0 0.0017359727737495884 1.4272963688913184e-05 0 0.0017217522943408739 -2.123503278408886e-06 0 0.0016750392296656746 1.9623776749330618e-05 0 0.0016647476999053581 2.3491770854969065e-05 0 0.0016750392296656746 1.9623776749330618e-05 0 0.0016241456483915043 3.1182082799415057e-05 0 0.0016241456483915043 3.1182082799415057e-05 0 0.0015881715685164652 2.7457560170097267e-05 0 0.0016133523491278523 2.1564362739428313e-05 0 0.0016750392296656746 1.9623776749330618e-05 0 0.0016241456483915043 3.1182082799415057e-05 0 0.0016133523491278523 2.1564362739428313e-05 0 0.0016241456483915043 3.1182082799415057e-05 0 0.0015881715685164652 2.7457560170097267e-05 0 0.0015843529102468664 2.8800813191352772e-05 0 0.0017304631539440086 -6.704022152184554e-05 0 0.0016058917420844305 -1.6553190335553835e-05 0 0.0015881715685164652 2.7457560170097267e-05 0 0.0016133523491278523 2.1564362739428313e-05 0 0.0015360300157323044 2.3180413269594431e-05 0 0.0017696384796541662 -0.00014201085573450187 0 0.0018507904317797011 -0.00015221242631020959 0 0.0016805297594872149 -5.896282509951025e-05 0 0.0015510484465459601 3.7819122389798888e-07 0 0.0017696384796541662 -0.00014201085573450187 0 0.0016805297594872149 -5.896282509951025e-05 0 0.0015881715685164652 2.7457560170097267e-05 0 0.0015660047250236366 3.5717311922313124e-05 0 0.0015360300157323044 2.3180413269594431e-05 0 0.0015405233246123568 5.4343258952430074e-05 0 0.0015660047250236366 3.5717311922313124e-05 0 0.0015360300157323044 2.3180413269594431e-05 0 0.0015573470402026638 5.155002309745985e-05 0 0.0015405233246123568 5.4343258952430074e-05 0 0.0015660047250236366 3.5717311922313124e-05 0 0.0015881715685164652 2.7457560170097267e-05 0 0.0015660047250236366 3.5717311922313124e-05 0 0.0015843529102468664 2.8800813191352772e-05 0 0.0015573470402026638 5.155002309745985e-05 0 0.0015660047250236366 3.5717311922313124e-05 0 0.0015843529102468664 2.8800813191352772e-05 0 0.0015605877997128806 3.7967260724458541e-05 0 0.0015573470402026638 5.155002309745985e-05 0 0.0015843529102468664 2.8800813191352772e-05 0 0.0015605877997128806 3.7967260724458541e-05 0 0.0015843529102468664 2.8800813191352772e-05 0 0.0015549743175019008 1.6277786430065424e-05 0 0.0015843529102468664 2.8800813191352772e-05 0 0.0015549743175019008 1.6277786430065424e-05 0 0.0015606281420059791 3.1880202988382559e-05 0 0.0015308202176953602 8.1791469973139785e-06 0 0.0015549743175019008 1.6277786430065424e-05 0 0.0013498328457236225 -2.7007714129329719e-08 0 0.0015549743175019008 1.6277786430065424e-05 0 0.0013498328457236225 -2.7007714129329719e-08 0 0.0015606281420059791 3.1880202988382559e-05 0 0.0016100483703264882 9.0100180111537521e-08 0 0.0016647476999053581 2.3491770854969065e-05 0 0.0015606281420059791 3.1880202988382559e-05 0 0.0016100483703264882 9.0100180111537521e-08 0 0.0013498328457236225 -2.7007714129329719e-08 0 0.0015606281420059791 3.1880202988382559e-05 0 0.0016647476999053581 2.3491770854969065e-05 0 0.0016241456483915043 3.1182082799415057e-05 0 0.0015606281420059791 3.1880202988382559e-05 0 0.0016241456483915043 3.1182082799415057e-05 0 0.0015843529102468664 2.8800813191352772e-05 0 0.0015606281420059791 3.1880202988382559e-05 0 0.0034814188659328662 -2.6572688096950268e-07 0 0.0038417293769770254 -4.0825046114785665e-05 0 0.0038302827036448286 1.026061847107361e-07 0 0.0036214681696268582 8.4305845218682533e-05 0 0.003849239846710038 5.016476323918697e-06 0 0.0036119671837249547 -5.4175634721048644e-05 0 0.0034811695123373012 1.0701742633796859e-08 0 0.003735659865170549 3.4425925560339048e-05 0 0.0034805718073891924 2.0087724015821125e-07 0 0.0036214681696268582 8.4305845218682533e-05 0 0.0036119671837249547 -5.4175634721048644e-05 0 0.0036214681696268582 8.4305845218682533e-05 0 0.003849239846710038 5.016476323918697e-06 0 0.0038112903825398801 0.00017082592189663644 0 0.003735659865170549 3.4425925560339048e-05 0 0.0039368819859493592 8.6351248511205565e-05 0 0.003849239846710038 5.016476323918697e-06 0 0.004033305125503552 8.7094670964295263e-05 0 0.0038112903825398801 0.00017082592189663644 0 0.003781619690312283 0.00021296127946624071 0 0.0039884410609646011 0.00037587211830824311 0 0.0038958080212495917 0.0002694999218098474 0 0.0037066430283430882 0.00042305667806710902 0 0.003993569135520578 0.00061496080316449152 0 0.0037066430283430882 0.00042305667806710902 0 0.0036839213925806556 0.00018324457424634974 0 0.0034289365281373061 0.00021246120434106753 0 0.003781619690312283 0.00021296127946624071 0 0.0035306044555564937 9.1244425051710797e-05 0 0.0038958080212495917 0.0002694999218098474 0 0.0037066430283430882 0.00042305667806710902 0 0.0036839213925806556 0.00018324457424634974 0 0.0036839213925806556 0.00018324457424634974 0 0.0035850796294902816 1.0965531982289117e-05 0 0.0034289365281373061 0.00021246120434106753 0 0.0036839213925806556 0.00018324457424634974 0 0.0038113421547051286 1.4984033003112561e-05 0 0.0035850796294902816 1.0965531982289117e-05 0 0.0038958080212495917 0.0002694999218098474 0 0.0038113421547051286 1.4984033003112561e-05 0 0.0040487754891118076 6.1953529616881066e-05 0 0.0038958080212495917 0.0002694999218098474 0 0.0036839213925806556 0.00018324457424634974 0 0.0038113421547051286 1.4984033003112561e-05 0 0.0038113421547051286 1.4984033003112561e-05 0 0.0037331890891206445 -0.00015864853754337738 0 0.0039470535888475444 -0.00016840331422966837 0 0.0038113421547051286 1.4984033003112561e-05 0 0.0039470535888475444 -0.00016840331422966837 0 0.0040487754891118076 6.1953529616881066e-05 0 0.0035850796294902816 1.0965531982289117e-05 0 0.0034953016884799464 -0.00021521419277472717 0 0.0037331890891206445 -0.00015864853754337738 0 0.0038113421547051286 1.4984033003112561e-05 0 0.0035850796294902816 1.0965531982289117e-05 0 0.0037331890891206445 -0.00015864853754337738 0 0.0035850796294902816 1.0965531982289117e-05 0 0.0033762651123653868 9.4193975592886859e-06 0 0.0034953016884799464 -0.00021521419277472717 0 0.0035850796294902816 1.0965531982289117e-05 0 0.0033762651123653868 9.4193975592886859e-06 0 0.0034289365281373061 0.00021246120434106753 0 0.0034805718073891924 2.0087724015821125e-07 0 0.0036119671837249547 -5.4175634721048644e-05 0 0.0032703057582495411 -2.7402616927369217e-07 0 0.0035306044555564937 9.1244425051710797e-05 0 0.0032698070402697207 3.4356721898577101e-08 0 0.0033762651123653868 9.4193975592886859e-06 0 0.0034289365281373061 0.00021246120434106753 0 0.0032691634040934734 3.7681065991121687e-07 0 0.0033762651123653868 9.4193975592886859e-06 0 0.0031770839971147747 -3.7595937353576876e-07 0 0.0034953016884799464 -0.00021521419277472717 0 0.0033762651123653868 9.4193975592886859e-06 0 0.0031770839971147747 -3.7595937353576876e-07 0 0.0032691634040934734 3.7681065991121687e-07 0 0.0031760936967785472 -3.7137064511384052e-07 0 0.0028810162493153792 -2.6048364761943803e-05 0 0.0029153984424971149 5.273070045741247e-08 0 0.0031760936967785472 -3.7137064511384052e-07 0 0.0028810162493153792 -2.6048364761943803e-05 0 0.0026546742722840439 -0.00010417017975702868 0 0.0031764505393642398 -4.3281080556458812e-08 0 0.0030785154955210751 -0.0001448977549265784 0 0.0028810162493153792 -2.6048364761943803e-05 0 0.0026546742722840439 -0.00010417017975702868 0 0.002741785664171565 -2.4074915927488012e-05 0 0.0026546742722840439 -0.00010417017975702868 0 0.002741785664171565 -2.4074915927488012e-05 0 0.0025922822497673943 -7.0376429153365343e-05 0 0.002741785664171565 -2.4074915927488012e-05 0 0.0025922822497673943 -7.0376429153365343e-05 0 0.0026173642283291243 -2.4715982088922717e-06 0 0.002741785664171565 -2.4074915927488012e-05 0 0.0029153984424971149 5.273070045741247e-08 0 0.0026173642283291243 -2.4715982088922717e-06 0 0.0028810162493153792 -2.6048364761943803e-05 0 0.002741785664171565 -2.4074915927488012e-05 0 0.0029153984424971149 5.273070045741247e-08 0 0.0029153984424971149 5.273070045741247e-08 0 0.0026173642283291243 -2.4715982088922717e-06 0 0.0026543213746104181 3.2606537165522867e-09 0 0.0026173642283291243 -2.4715982088922717e-06 0 0.0024592402174007945 1.3322414069154031e-05 0 0.0026543213746104181 3.2606537165522867e-09 0 0.0026173642283291243 -2.4715982088922717e-06 0 0.0024592402174007945 1.3322414069154031e-05 0 0.0024477527087585502 3.2075758541398501e-06 0 0.0025922822497673943 -7.0376429153365343e-05 0 0.0026173642283291243 -2.4715982088922717e-06 0 0.0024477527087585502 3.2075758541398501e-06 0 0.0024592402174007945 1.3322414069154031e-05 0 0.0023337295237585379 1.8858806932808965e-05 0 0.0024477527087585502 3.2075758541398501e-06 0 0.0023932874436992223 3.6945991771762522e-08 0 0.0024592402174007945 1.3322414069154031e-05 0 0.0026543213746104181 3.2606537165522867e-09 0 0.0022621638324042872 1.7490802562579203e-05 0 0.0023284972005859638 1.0190005103334184e-05 0 0.0022818756821956442 1.4792258782199501e-05 0 0.0023284972005859638 1.0190005103334184e-05 0 0.0022885749779103554 2.4888978133164706e-06 0 0.0022818756821956442 1.4792258782199501e-05 0 0.0022621638324042872 1.7490802562579203e-05 0 0.0023284972005859638 1.0190005103334184e-05 0 0.0023337295237585379 1.8858806932808965e-05 0 0.0023284972005859638 1.0190005103334184e-05 0 0.0023337295237585379 1.8858806932808965e-05 0 0.0024477527087585502 3.2075758541398501e-06 0 0.0025922822497673943 -7.0376429153365343e-05 0 0.0024477527087585502 3.2075758541398501e-06 0 0.0023169189187536928 -4.7332372604825127e-05 0 0.0023284972005859638 1.0190005103334184e-05 0 0.0024477527087585502 3.2075758541398501e-06 0 0.0023169189187536928 -4.7332372604825127e-05 0 0.0023284972005859638 1.0190005103334184e-05 0 0.0022885749779103554 2.4888978133164706e-06 0 0.0023169189187536928 -4.7332372604825127e-05 0 0.0026641385527484242 -0.00015307827648386999 0 0.00265140526611731 -6.3625697467999291e-05 0 0.0028645551056109965 -0.00012601159589067126 0 0.0025922822497673943 -7.0376429153365343e-05 0 0.0026641385527484242 -0.00015307827648386999 0 0.00265140526611731 -6.3625697467999291e-05 0 0.0026546742722840439 -0.00010417017975702868 0 0.0025922822497673943 -7.0376429153365343e-05 0 0.00265140526611731 -6.3625697467999291e-05 0 0.002575718515716403 -7.8802714098950797e-05 0 0.0025027876937372948 -9.6184615051381745e-05 0 0.0030785154955210751 -0.0001448977549265784 0 0.0032516098814025771 -0.0002291786122034553 0 0.0034953016884799464 -0.00021521419277472717 0 0.0038402947211314334 -0.00038771393397061936 0 0.0037331890891206445 -0.00015864853754337738 0 0.0038402947211314334 -0.00038771393397061936 0 0.0039470535888475444 -0.00016840331422966837 0 0.0040907687788557271 -0.00032291450325775642 0 0.0038402947211314334 -0.00038771393397061936 0 0.0037331890891206445 -0.00015864853754337738 0 0.0039470535888475444 -0.00016840331422966837 0 0.0039470535888475444 -0.00016840331422966837 0 0.0040907687788557271 -0.00032291450325775642 0 0.0042190478080411558 -0.00014039874461199987 0 0.0040907687788557271 -0.00032291450325775642 0 0.004317944771280887 -0.00035832878584545619 0 0.0042190478080411558 -0.00014039874461199987 0 0.004317944771280887 -0.00035832878584545619 0 0.0044160323990030783 -0.00021887406133119775 0 0.0042190478080411558 -0.00014039874461199987 0 0.004317944771280887 -0.00035832878584545619 0 0.0044713039784189425 -0.00038485777564567795 0 0.0044160323990030783 -0.00021887406133119775 0 0.0042017605014155537 -0.00055537305733559196 0 0.004317944771280887 -0.00035832878584545619 0 0.0044334250018715337 -0.00052341190034787578 0 0.0040907687788557271 -0.00032291450325775642 0 0.0042017605014155537 -0.00055537305733559196 0 0.004317944771280887 -0.00035832878584545619 0 0.0032516098814025771 -0.0002291786122034553 0 0.003527280155971702 -0.00034588329171312269 0 0.0038402947211314334 -0.00038771393397061936 0 0.0040907687788557271 -0.00032291450325775642 0 0.0042017605014155537 -0.00055537305733559196 0 0.0025027876937372948 -9.6184615051381745e-05 0 0.0025480336080666928 -0.00011722046346858281 0 0.0026641385527484242 -0.00015307827648386999 0 0.0028645551056109965 -0.00012601159589067126 0 0.0028531113590274243 -0.00025487764085431903 0 0.0022885749779103554 2.4888978133164706e-06 0 0.0023169189187536928 -4.7332372604825127e-05 0 0.002270434322468842 8.2691033810693623e-06 0 0.003527280155971702 -0.00034588329171312269 0 0.00387225034070948 -0.00043666355659796407 0 0.0028645551056109965 -0.00012601159589067126 0 0.0028531113590274243 -0.00025487764085431903 0 0.003110150153865831 -0.00022900534515100479 0 0.0025480336080666928 -0.00011722046346858281 0 0.0027606999586214315 -0.00021352999998722086 0 0.002270434322468842 8.2691033810693623e-06 0 0.0022863259104189469 4.5208692690045227e-06 0 0.0023115041141605905 9.4971845409080834e-06 0 0.002270434322468842 8.2691033810693623e-06 0 0.0022863259104189469 4.5208692690045227e-06 0 0.0022737438578264886 1.2054184910363573e-05 0 0.0022885749779103554 2.4888978133164706e-06 0 0.002270434322468842 8.2691033810693623e-06 0 0.0022737438578264886 1.2054184910363573e-05 0 0.0022785433766216844 4.8687134265103135e-06 0 0.0022863259104189469 4.5208692690045227e-06 0 0.0022737438578264886 1.2054184910363573e-05 0 0.0022555117317262945 1.2127669770988748e-05 0 0.0022818756821956442 1.4792258782199501e-05 0 0.0022737438578264886 1.2054184910363573e-05 0 0.0022885749779103554 2.4888978133164706e-06 0 0.0022818756821956442 1.4792258782199501e-05 0 0.0022737438578264886 1.2054184910363573e-05 0 0.0023964624974837532 -0.0005754615905615622 0 0.0027606999586214315 -0.00021352999998722086 0 0.00387225034070948 -0.00043666355659796407 0 0.0035719558447017429 -0.00066353217963524276 0 0.0031380856425879916 -0.0004825888889214029 0 0.0031833577747947266 -0.00053817496389475382 0 0.0030664782363790106 -0.00048820152300531371 0 0.0031380856425879916 -0.0004825888889214029 0 0.0030990172897811495 -0.00044840420260510523 0 0.0032035622483524615 -0.00045554721208898976 0 0.0030718149344662231 -0.00039817814714171776 0 0.0030990172897811495 -0.00044840420260510523 0 0.0032035622483524615 -0.00045554721208898976 0 0.0031380856425879916 -0.0004825888889214029 0 0.0030990172897811495 -0.00044840420260510523 0 0.0030664782363790106 -0.00048820152300531371 0 0.0023964624974837532 -0.0005754615905615622 0 0.0035719558447017429 -0.00066353217963524276 0 0.0020344473845600032 -0.0015099559595365302 0 0.0020649907999579324 -0.0014446762901681076 0 0.002011907442074154 -0.0020629061947945128 0 0.0030718149344662231 -0.00039817814714171776 0 0.0030990172897811495 -0.00044840420260510523 0 0.0030664782363790106 -0.00048820152300531371 0 0.0028531113590274243 -0.00025487764085431903 0 0.0030704601471241298 -0.00035662088650494138 0 0.003110150153865831 -0.00022900534515100479 0 0.0023087746420442754 -9.1857901072975449e-06 0 0.0022863259104189469 4.5208692690045227e-06 0 0.0023115041141605905 9.4971845409080834e-06 0 0.0031380856425879916 -0.0004825888889214029 0 0.0032035622483524615 -0.00045554721208898976 0 0.0031833577747947266 -0.00053817496389475382 0 0.0027606999586214315 -0.00021352999998722086 0 0.00387225034070948 -0.00043666355659796407 0 0.0042017605014155537 -0.00055537305733559196 0 0.0045653559478844681 -0.00071840247826734525 0 0.0044334250018715337 -0.00052341190034787578 0 0.00387225034070948 -0.00043666355659796407 0 0.0046987244882015673 -0.00033927992347512087 0 0.0046119921186483252 -0.00036501941308066582 0 0.0046906567725217042 -0.00032273221714856502 0 0.0047308216426837531 -0.00042098580607834618 0 0.0046906567725217042 -0.00032273221714856502 0 0.0047600946626103671 -0.00026258516007603703 0 0.0047308216426837531 -0.00042098580607834618 0 0.0046119921186483252 -0.00036501941308066582 0 0.0046906567725217042 -0.00032273221714856502 0 0.0046606521272610207 -0.00024421899254179006 0 0.0046606521272610207 -0.00024421899254179006 0 0.004730963881152273 -0.00019147623311896502 0 0.0047600946626103671 -0.00026258516007603703 0 0.0046906567725217042 -0.00032273221714856502 0 0.0046606521272610207 -0.00024421899254179006 0 0.0047600946626103671 -0.00026258516007603703 0 0.0045653559478844681 -0.00071840247826734525 0 0.0046529981363944654 -0.00045042527733822586 0 0.0044334250018715337 -0.00052341190034787578 0 0.0046529981363944654 -0.00045042527733822586 0 0.0044334250018715337 -0.00052341190034787578 0 0.0044713039784189425 -0.00038485777564567795 0 0.0046529981363944654 -0.00045042527733822586 0 0.0044713039784189425 -0.00038485777564567795 0 0.0045462146683518424 -0.00027686756419773858 0 0.004317944771280887 -0.00035832878584545619 0 0.0044334250018715337 -0.00052341190034787578 0 0.0044713039784189425 -0.00038485777564567795 0 0.0046529981363944654 -0.00045042527733822586 0 0.0045462146683518424 -0.00027686756419773858 0 0.0046406600515892515 -0.00020738092076564993 0 0.0044713039784189425 -0.00038485777564567795 0 0.0045462146683518424 -0.00027686756419773858 0 0.0044160323990030783 -0.00021887406133119775 0 0.0045462146683518424 -0.00027686756419773858 0 0.0046406600515892515 -0.00020738092076564993 0 0.0045395753430993108 -0.00010651592438706065 0 0.0046406600515892515 -0.00020738092076564993 0 0.0047088949753578717 -0.00013047082075181619 0 0.0045395753430993108 -0.00010651592438706065 0 0.0045462146683518424 -0.00027686756419773858 0 0.0044160323990030783 -0.00021887406133119775 0 0.0045395753430993108 -0.00010651592438706065 0 0.0046987244882015673 -0.00033927992347512087 0 0.0047233570073640626 -0.00016231760704412437 0 0.0046529981363944654 -0.00045042527733822586 0 0.0046406600515892515 -0.00020738092076564993 0 0.0047364655058180086 -0.00016871074944144223 0 0.0046606521272610207 -0.00024421899254179006 0 0.004730963881152273 -0.00019147623311896502 0 0.0047172485553562057 -0.00013808310400948305 0 0.0046406600515892515 -0.00020738092076564993 0 0.0047364655058180086 -0.00016871074944144223 0 0.0047088949753578717 -0.00013047082075181619 0 0.004730963881152273 -0.00019147623311896502 0 0.0047172485553562057 -0.00013808310400948305 0 0.0047807512632095225 -0.00012686995093828761 0 0.0047364655058180086 -0.00016871074944144223 0 0.0047088949753578717 -0.00013047082075181619 0 0.0047700287861904894 -7.5109440665435161e-05 0 0.0047088949753578717 -0.00013047082075181619 0 0.0047700287861904894 -7.5109440665435161e-05 0 0.0047701395371356906 -4.9136552799872574e-05 0 0.0047233570073640626 -0.00016231760704412437 0 0.004763546615693815 -7.9290352663179145e-05 0 0.0047172485553562057 -0.00013808310400948305 0 0.0047700287861904894 -7.5109440665435161e-05 0 0.0047807512632095225 -0.00012686995093828761 0 0.0047700287861904894 -7.5109440665435161e-05 0 0.0047849190079501036 -5.6160102284296848e-05 0 0.0047701395371356906 -4.9136552799872574e-05 0 0.004529498519224036 0.00022950193504161617 0 0.0044037165374454009 -2.6097176302404731e-05 0 0.0042787603171292954 0.00012617666255119786 0 0.0047088949753578717 -0.00013047082075181619 0 0.004529498519224036 0.00022950193504161617 0 0.0045395753430993108 -0.00010651592438706065 0 0.004529498519224036 0.00022950193504161617 0 0.0045395753430993108 -0.00010651592438706065 0 0.0044037165374454009 -2.6097176302404731e-05 0 0.0047111418942659133 -0.00012212028562094611 0 0.004650932384957316 8.0221973536767643e-05 0 0.0044160323990030783 -0.00021887406133119775 0 0.0045395753430993108 -0.00010651592438706065 0 0.0044037165374454009 -2.6097176302404731e-05 0 0.0044160323990030783 -0.00021887406133119775 0 0.0042190478080411558 -0.00014039874461199987 0 0.0044037165374454009 -2.6097176302404731e-05 0 0.0042190478080411558 -0.00014039874461199987 0 0.0044037165374454009 -2.6097176302404731e-05 0 0.0042787603171292954 0.00012617666255119786 0 0.0039470535888475444 -0.00016840331422966837 0 0.0042190478080411558 -0.00014039874461199987 0 0.0040487754891118076 6.1953529616881066e-05 0 0.0042190478080411558 -0.00014039874461199987 0 0.0040487754891118076 6.1953529616881066e-05 0 0.0042787603171292954 0.00012617666255119786 0 0.0038958080212495917 0.0002694999218098474 0 0.0040487754891118076 6.1953529616881066e-05 0 0.0041290941884846574 0.00032616625950528393 0 0.0040487754891118076 6.1953529616881066e-05 0 0.0042787603171292954 0.00012617666255119786 0 0.0041290941884846574 0.00032616625950528393 0 0.004529498519224036 0.00022950193504161617 0 0.0042787603171292954 0.00012617666255119786 0 0.0043165124701917785 0.00034332777234552503 0 0.0042787603171292954 0.00012617666255119786 0 0.0043165124701917785 0.00034332777234552503 0 0.0041290941884846574 0.00032616625950528393 0 0.0043165124701917785 0.00034332777234552503 0 0.0041290941884846574 0.00032616625950528393 0 0.0042143674123896104 0.00055020069127458828 0 0.0038958080212495917 0.0002694999218098474 0 0.0041290941884846574 0.00032616625950528393 0 0.003993569135520578 0.00061496080316449152 0 0.0041290941884846574 0.00032616625950528393 0 0.003993569135520578 0.00061496080316449152 0 0.0042143674123896104 0.00055020069127458828 0 0.003993569135520578 0.00061496080316449152 0 0.0042143674123896104 0.00055020069127458828 0 0.0042796553330392492 0.0007990399977554221 0 0.0042143674123896104 0.00055020069127458828 0 0.0043785675186702212 0.00056184348774333196 0 0.0042796553330392492 0.0007990399977554221 0 0.0043165124701917785 0.00034332777234552503 0 0.0042143674123896104 0.00055020069127458828 0 0.0043785675186702212 0.00056184348774333196 0 0.004818480350536997 -2.9952413402934288e-05 0 0.0048244832792333847 -3.0435316435443999e-05 0 0.0048382714987518973 -2.7524897864773208e-05 0 0.004818480350536997 -2.9952413402934288e-05 0 0.0048244832792333847 -3.0435316435443999e-05 0 0.0048006962180391936 -3.7998538856205768e-05 0 0.0048244832792333847 -3.0435316435443999e-05 0 0.0048176357429054245 -3.3993827185149591e-05 0 0.004841901394700276 -2.6009619100290779e-05 0 0.0048244832792333847 -3.0435316435443999e-05 0 0.0048176357429054245 -3.3993827185149591e-05 0 0.0048006962180391936 -3.7998538856205768e-05 0 0.0048176357429054245 -3.3993827185149591e-05 0 0.0048265258575619198 -3.2479390383019543e-05 0 0.004841901394700276 -2.6009619100290779e-05 0 0.0047849190079501036 -5.6160102284296848e-05 0 0.0047701395371356906 -4.9136552799872574e-05 0 0.0047968087612904938 -4.4383082726756481e-05 0 0.0048176357429054245 -3.3993827185149591e-05 0 0.0047968087612904938 -4.4383082726756481e-05 0 0.0048006962180391936 -3.7998538856205768e-05 0 0.0047701395371356906 -4.9136552799872574e-05 0 0.0047968087612904938 -4.4383082726756481e-05 0 0.0048006962180391936 -3.7998538856205768e-05 0 0.0048176357429054245 -3.3993827185149591e-05 0 0.0047968087612904938 -4.4383082726756481e-05 0 0.0048111261505220295 -4.0278956922609745e-05 0 0.0047849190079501036 -5.6160102284296848e-05 0 0.0047968087612904938 -4.4383082726756481e-05 0 0.0047978540957503918 -5.2351367178154154e-05 0 0.004650932384957316 8.0221973536767643e-05 0 0.0046051968465201437 0.00027520877340459079 0 0.0047701395371356906 -4.9136552799872574e-05 0 0.004818480350536997 -2.9952413402934288e-05 0 0.0048006962180391936 -3.7998538856205768e-05 0 0.004529498519224036 0.00022950193504161617 0 0.0043165124701917785 0.00034332777234552503 0 0.0043785675186702212 0.00056184348774333196 0 0.0048228090256607235 -4.0266012850576218e-05 0 0.0048104242635936371 -4.8969145232794566e-05 0 0.0048141117908708135 -4.270863162970632e-05 0 0.0048228090256607235 -4.0266012850576218e-05 0 0.0048209129177378485 -4.6232489004957079e-05 0 0.0048104242635936371 -4.8969145232794566e-05 0 0.0048228090256607235 -4.0266012850576218e-05 0 0.0048209129177378485 -4.6232489004957079e-05 0 0.004836183410234454 -3.4311782245786271e-05 0 0.0048209129177378485 -4.6232489004957079e-05 0 0.0048080583862983254 -5.4497967768434187e-05 0 0.0048104242635936371 -4.8969145232794566e-05 0 0.0048209129177378485 -4.6232489004957079e-05 0 0.0048080583862983254 -5.4497967768434187e-05 0 0.0048205924637792193 -5.2708517267468107e-05 0 0.0048104242635936371 -4.8969145232794566e-05 0 0.0048015493893478652 -5.3319681716743429e-05 0 0.0048141117908708135 -4.270863162970632e-05 0 0.0048080583862983254 -5.4497967768434187e-05 0 0.0048104242635936371 -4.8969145232794566e-05 0 0.0047979322059753882 -5.8432741377256507e-05 0 0.0048104242635936371 -4.8969145232794566e-05 0 0.0048015493893478652 -5.3319681716743429e-05 0 0.0047979322059753882 -5.8432741377256507e-05 0 0.0048015493893478652 -5.3319681716743429e-05 0 0.0047978540957503918 -5.2351367178154154e-05 0 0.0047915605538483737 -6.1926615682275158e-05 0 0.0048015493893478652 -5.3319681716743429e-05 0 0.0047978540957503918 -5.2351367178154154e-05 0 0.0048141117908708135 -4.270863162970632e-05 0 0.0047978540957503918 -5.2351367178154154e-05 0 0.0048111261505220295 -4.0278956922609745e-05 0 0.0048141117908708135 -4.270863162970632e-05 0 0.0047968087612904938 -4.4383082726756481e-05 0 0.0047978540957503918 -5.2351367178154154e-05 0 0.0048111261505220295 -4.0278956922609745e-05 0 0.0048141117908708135 -4.270863162970632e-05 0 0.0048265258575619198 -3.2479390383019543e-05 0 0.004831793199024023 -3.2468193928056551e-05 0 0.0048176357429054245 -3.3993827185149591e-05 0 0.0048111261505220295 -4.0278956922609745e-05 0 0.0048265258575619198 -3.2479390383019543e-05 0 0.0048111261505220295 -4.0278956922609745e-05 0 0.0048141117908708135 -4.270863162970632e-05 0 0.0048265258575619198 -3.2479390383019543e-05 0 0.0048265258575619198 -3.2479390383019543e-05 0 0.004831793199024023 -3.2468193928056551e-05 0 0.0048451849755779932 -2.4805977444582169e-05 0 0.0048228090256607235 -4.0266012850576218e-05 0 0.0048141117908708135 -4.270863162970632e-05 0 0.004831793199024023 -3.2468193928056551e-05 0 0.0048228090256607235 -4.0266012850576218e-05 0 0.004831793199024023 -3.2468193928056551e-05 0 0.004836183410234454 -3.4311782245786271e-05 0 0.004831793199024023 -3.2468193928056551e-05 0 0.004836183410234454 -3.4311782245786271e-05 0 0.0048487498751238305 -2.4334990885755417e-05 0 0.004836183410234454 -3.4311782245786271e-05 0 0.0048514125011761599 -2.5291447811666095e-05 0 0.0048487498751238305 -2.4334990885755417e-05 0 0.0048457421926766438 -3.4810894342957101e-05 0 0.004836183410234454 -3.4311782245786271e-05 0 0.0048514125011761599 -2.5291447811666095e-05 0 0.0048457421926766438 -3.4810894342957101e-05 0 0.004856881811161509 -2.6525934479614404e-05 0 0.0048514125011761599 -2.5291447811666095e-05 0 0.0048457421926766438 -3.4810894342957101e-05 0 0.004836183410234454 -3.4311782245786271e-05 0 0.0048355334667630244 -4.513328959871624e-05 0 0.0048457421926766438 -3.4810894342957101e-05 0 0.004856881811161509 -2.6525934479614404e-05 0 0.004853922753802504 -4.0665889448096831e-05 0 0.004856881811161509 -2.6525934479614404e-05 0 0.004853922753802504 -4.0665889448096831e-05 0 0.0048700641739589535 -2.3271860917353881e-05 0 0.004853922753802504 -4.0665889448096831e-05 0 0.0048355334667630244 -4.513328959871624e-05 0 0.0048433749637843181 -5.8470756156813224e-05 0 0.004853922753802504 -4.0665889448096831e-05 0 0.0048433749637843181 -5.8470756156813224e-05 0 0.0048593879364419454 -5.775983256943079e-05 0 0.0048209129177378485 -4.6232489004957079e-05 0 0.004836183410234454 -3.4311782245786271e-05 0 0.0048355334667630244 -4.513328959871624e-05 0 0.0048457421926766438 -3.4810894342957101e-05 0 0.004853922753802504 -4.0665889448096831e-05 0 0.0048355334667630244 -4.513328959871624e-05 0 0.0048355334667630244 -4.513328959871624e-05 0 0.0048266401791718389 -5.9821287076104081e-05 0 0.0048433749637843181 -5.8470756156813224e-05 0 0.0048355334667630244 -4.513328959871624e-05 0 0.0048205924637792193 -5.2708517267468107e-05 0 0.0048266401791718389 -5.9821287076104081e-05 0 0.0048209129177378485 -4.6232489004957079e-05 0 0.0048355334667630244 -4.513328959871624e-05 0 0.0048205924637792193 -5.2708517267468107e-05 0 0.0048266401791718389 -5.9821287076104081e-05 0 0.0048157190602155994 -6.9014955134420408e-05 0 0.0048082176018442863 -6.1424863699214281e-05 0 0.0048205924637792193 -5.2708517267468107e-05 0 0.0048266401791718389 -5.9821287076104081e-05 0 0.0048082176018442863 -6.1424863699214281e-05 0 0.0048060878674802297 -7.0275557346866684e-05 0 0.0048157190602155994 -6.9014955134420408e-05 0 0.0048082176018442863 -6.1424863699214281e-05 0 0.0048266401791718389 -5.9821287076104081e-05 0 0.0048318423548126457 -7.1025474761174823e-05 0 0.0048433749637843181 -5.8470756156813224e-05 0 0.0048266401791718389 -5.9821287076104081e-05 0 0.0048318423548126457 -7.1025474761174823e-05 0 0.0048157190602155994 -6.9014955134420408e-05 0 0.0048318423548126457 -7.1025474761174823e-05 0 0.0048158929190532792 -8.1905242455039182e-05 0 0.0048324895767874231 -8.4274063249055854e-05 0 0.0048060878674802297 -7.0275557346866684e-05 0 0.0048157190602155994 -6.9014955134420408e-05 0 0.0048158929190532792 -8.1905242455039182e-05 0 0.0048318423548126457 -7.1025474761174823e-05 0 0.0048157190602155994 -6.9014955134420408e-05 0 0.0048158929190532792 -8.1905242455039182e-05 0 0.0048060878674802297 -7.0275557346866684e-05 0 0.0048158929190532792 -8.1905242455039182e-05 0 0.0047843971810826091 -6.8800952276488315e-05 0 0.0048433749637843181 -5.8470756156813224e-05 0 0.0048477779814845414 -7.7008898127489973e-05 0 0.0048593879364419454 -5.775983256943079e-05 0 0.0048318423548126457 -7.1025474761174823e-05 0 0.0048433749637843181 -5.8470756156813224e-05 0 0.0048477779814845414 -7.7008898127489973e-05 0 0.0048318423548126457 -7.1025474761174823e-05 0 0.0048477779814845414 -7.7008898127489973e-05 0 0.0048324895767874231 -8.4274063249055854e-05 0 0.0048477779814845414 -7.7008898127489973e-05 0 0.0048381369680917524 -9.509687558130898e-05 0 0.0048546049951445659 -0.00010820538093918528 0 0.0048477779814845414 -7.7008898127489973e-05 0 0.0048381369680917524 -9.509687558130898e-05 0 0.0048324895767874231 -8.4274063249055854e-05 0 0.0048381369680917524 -9.509687558130898e-05 0 0.0048285945220393322 -9.5924099688513749e-05 0 0.0048326229540924578 -0.00010757412372920732 0 0.0048158929190532792 -8.1905242455039182e-05 0 0.0048285945220393322 -9.5924099688513749e-05 0 0.0048217977358991576 -0.00010761487104996098 0 0.0047656850602947167 -5.7833035503926622e-05 0 0.0047595591554974335 -9.9334438930626391e-05 0 0.0048158929190532792 -8.1905242455039182e-05 0 0.0047843971810826091 -6.8800952276488315e-05 0 0.0048217977358991576 -0.00010761487104996098 0 0.0048158929190532792 -8.1905242455039182e-05 0 0.0048324895767874231 -8.4274063249055854e-05 0 0.0048285945220393322 -9.5924099688513749e-05 0 0.0048381369680917524 -9.509687558130898e-05 0 0.0048324895767874231 -8.4274063249055854e-05 0 0.0048285945220393322 -9.5924099688513749e-05 0 0.0047124835030494762 -4.7183066631242704e-05 0 0.0047722246541868152 -6.0534316951865605e-05 0 0.004758728980927952 -5.3255928408942319e-05 0 0.0047054401191890301 -5.7766767620543866e-05 0 0.0047727629295547438 -7.109108588427185e-05 0 0.0046896335439424747 -7.0527746725281189e-05 0 0.0047843971810826091 -6.8800952276488315e-05 0 0.0046480706709983765 -6.8970317148601122e-05 0 0.0047124835030494762 -4.7183066631242704e-05 0 0.0047722246541868152 -6.0534316951865605e-05 0 0.0047886396917098603 -6.6915783774509398e-05 0 0.0047124835030494762 -4.7183066631242704e-05 0 0.004758728980927952 -5.3255928408942319e-05 0 0.0047381660827914415 -4.1991332829218218e-05 0 0.0046896335439424747 -7.0527746725281189e-05 0 0.0047886396917098603 -6.6915783774509398e-05 0 0.0047843971810826091 -6.8800952276488315e-05 0 0.0047722246541868152 -6.0534316951865605e-05 0 0.0047886396917098603 -6.6915783774509398e-05 0 0.0047915605538483737 -6.1926615682275158e-05 0 0.0047886396917098603 -6.6915783774509398e-05 0 0.0047979322059753882 -5.8432741377256507e-05 0 0.0047915605538483737 -6.1926615682275158e-05 0 0.0048015493893478652 -5.3319681716743429e-05 0 0.0047979322059753882 -5.8432741377256507e-05 0 0.0047915605538483737 -6.1926615682275158e-05 0 0.0047886396917098603 -6.6915783774509398e-05 0 0.0047979322059753882 -5.8432741377256507e-05 0 0.0047958009508295698 -6.1901815814807421e-05 0 0.0048080583862983254 -5.4497967768434187e-05 0 0.0047979322059753882 -5.8432741377256507e-05 0 0.0047958009508295698 -6.1901815814807421e-05 0 0.0048080583862983254 -5.4497967768434187e-05 0 0.0048205924637792193 -5.2708517267468107e-05 0 0.0048082176018442863 -6.1424863699214281e-05 0 0.0048080583862983254 -5.4497967768434187e-05 0 0.0047958009508295698 -6.1901815814807421e-05 0 0.0048082176018442863 -6.1424863699214281e-05 0 0.0048060878674802297 -7.0275557346866684e-05 0 0.0048082176018442863 -6.1424863699214281e-05 0 0.0047843971810826091 -6.8800952276488315e-05 0 0.0047958009508295698 -6.1901815814807421e-05 0 0.0048082176018442863 -6.1424863699214281e-05 0 0.0047843971810826091 -6.8800952276488315e-05 0 0.0047886396917098603 -6.6915783774509398e-05 0 0.0047958009508295698 -6.1901815814807421e-05 0 0.0047843971810826091 -6.8800952276488315e-05 0 0.0047722246541868152 -6.0534316951865605e-05 0 0.0047910185150387393 -6.1523503423792264e-05 0 0.004758728980927952 -5.3255928408942319e-05 0 0.0047849190079501036 -5.6160102284296848e-05 0 0.0047978540957503918 -5.2351367178154154e-05 0 0.0047910185150387393 -6.1523503423792264e-05 0 0.0047978540957503918 -5.2351367178154154e-05 0 0.0047910185150387393 -6.1523503423792264e-05 0 0.0047915605538483737 -6.1926615682275158e-05 0 0.0047722246541868152 -6.0534316951865605e-05 0 0.0047910185150387393 -6.1523503423792264e-05 0 0.0047915605538483737 -6.1926615682275158e-05 0 0.0047700287861904894 -7.5109440665435161e-05 0 0.0047849190079501036 -5.6160102284296848e-05 0 0.0047910185150387393 -6.1523503423792264e-05 0 0.0047700287861904894 -7.5109440665435161e-05 0 0.0047910185150387393 -6.1523503423792264e-05 0 0.0047807512632095225 -0.00012686995093828761 0 0.0047911985439336611 -5.1250155663998292e-05 0 0.0047544098452159036 -0.00011732671199422758 0 0.0047910185150387393 -6.1523503423792264e-05 0 0.004758728980927952 -5.3255928408942319e-05 0 0.0047590461175322559 -4.4497901016465361e-05 0 0.004758728980927952 -5.3255928408942319e-05 0 0.0047590461175322559 -4.4497901016465361e-05 0 0.0047381660827914415 -4.1991332829218218e-05 0 0.0047544098452159036 -0.00011732671199422758 0 0.0048951656560107812 1.0686942256007964e-05 0 0.004730963881152273 -0.00019147623311896502 0 0.0047807512632095225 -0.00012686995093828761 0 0.0047600946626103671 -0.00026258516007603703 0 0.0047590461175322559 -4.4497901016465361e-05 0 0.0047198038574987498 -8.3653195819404894e-06 0 0.0047570872537754756 2.730562051497844e-05 0 0.0047590461175322559 -4.4497901016465361e-05 0 0.0047381660827914415 -4.1991332829218218e-05 0 0.0047198038574987498 -8.3653195819404894e-06 0 0.0047124835030494762 -4.7183066631242704e-05 0 0.0047033847892681809 -2.0239934203162013e-05 0 0.0046362183409454794 2.2043178872632288e-05 0 0.0047054401191890301 -5.7766767620543866e-05 0 0.004627323031344441 1.5285644235912081e-05 0 0.0047124835030494762 -4.7183066631242704e-05 0 0.0047381660827914415 -4.1991332829218218e-05 0 0.0047033847892681809 -2.0239934203162013e-05 0 0.0047381660827914415 -4.1991332829218218e-05 0 0.0047198038574987498 -8.3653195819404894e-06 0 0.0047033847892681809 -2.0239934203162013e-05 0 0.0047198038574987498 -8.3653195819404894e-06 0 0.0046942691320550909 5.1394019977286599e-05 0 0.0046362183409454794 2.2043178872632288e-05 0 0.0047198038574987498 -8.3653195819404894e-06 0 0.0047033847892681809 -2.0239934203162013e-05 0 0.0046362183409454794 2.2043178872632288e-05 0 0.0047198038574987498 -8.3653195819404894e-06 0 0.0047570872537754756 2.730562051497844e-05 0 0.0046942691320550909 5.1394019977286599e-05 0 0.0047570872537754756 2.730562051497844e-05 0 0.0047236231467081297 8.6936301637639124e-05 0 0.0047749322184087685 0.00013935779367243162 0 0.0048951656560107812 1.0686942256007964e-05 0 0.0035719558447017429 -0.00066353217963524276 0 0.0047236231467081297 8.6936301637639124e-05 0 0.0047749322184087685 0.00013935779367243162 0 0.0047144055585625864 0.00013105252569626993 0 0.0047236231467081297 8.6936301637639124e-05 0 0.0046793720947122721 0.00010892183337112402 0 0.0047144055585625864 0.00013105252569626993 0 0.0047570872537754756 2.730562051497844e-05 0 0.0047236231467081297 8.6936301637639124e-05 0 0.0046942691320550909 5.1394019977286599e-05 0 0.0047236231467081297 8.6936301637639124e-05 0 0.0046942691320550909 5.1394019977286599e-05 0 0.0046793720947122721 0.00010892183337112402 0 0.0046942691320550909 5.1394019977286599e-05 0 0.0046415213493948846 8.9726497563036658e-05 0 0.0046793720947122721 0.00010892183337112402 0 0.0046942691320550909 5.1394019977286599e-05 0 0.0046415213493948846 8.9726497563036658e-05 0 0.0046362183409454794 2.2043178872632288e-05 0 0.0046415213493948846 8.9726497563036658e-05 0 0.0046793720947122721 0.00010892183337112402 0 0.0046263578744089838 0.00014261070428836736 0 0.0046793720947122721 0.00010892183337112402 0 0.004671043350016872 0.00015936730898662022 0 0.0047144055585625864 0.00013105252569626993 0 0.004671043350016872 0.00015936730898662022 0 0.0046358740082119753 0.00022136988093421836 0 0.0047144055585625864 0.00013105252569626993 0 0.0045643596525110283 0.00027273369129933407 0 0.004671043350016872 0.00015936730898662022 0 0.0045954803525457902 0.00018899213885461595 0 0.0044132076152381995 0.00026725400997087864 0 0.004671043350016872 0.00015936730898662022 0 0.0046358740082119753 0.00022136988093421836 0 0.0046793720947122721 0.00010892183337112402 0 0.004671043350016872 0.00015936730898662022 0 0.0046263578744089838 0.00014261070428836736 0 0.0039849198673127997 -0.00011657658508439789 0 0.0047805979465749731 0.00021636829108574824 0 0.004671043350016872 0.00015936730898662022 0 0.0046263578744089838 0.00014261070428836736 0 0.0045954803525457902 0.00018899213885461595 0 0.0028004639730835248 -0.00078199016825121611 0 0.0035719558447017429 -0.00066353217963524276 0 0.0015904180508183165 -0.0015975349870422076 0 0.0011829077595372111 -0.0017157154464629691 0 0.002011907442074154 -0.0020629061947945128 0 0.0046358740082119753 0.00022136988093421836 0 0.0047749322184087685 0.00013935779367243162 0 0.0047144055585625864 0.00013105252569626993 0 0.0018440862057972705 -0.0015554709268217816 0 0.0020344473845600032 -0.0015099559595365302 0 0.002011907442074154 -0.0020629061947945128 0 0.0018440862057972705 -0.0015554709268217816 0 0.0015904180508183165 -0.0015975349870422076 0 0.002011907442074154 -0.0020629061947945128 0 0.004387986311846428 0.00015507319496135512 0 0.0044783161821901575 0.00019934887630629249 0 0.0044929807957368034 0.00011471464073656889 0 0.0044015048743991951 0.0002798108576433137 0 0.004387986311846428 0.00015507319496135512 0 0.0044783161821901575 0.00019934887630629249 0 0.0044783161821901575 0.00019934887630629249 0 0.0045397158029299774 0.00021841216533495847 0 0.0045549770259020097 0.0001402397085233593 0 0.0044728931274154336 0.00027887188768794082 0 0.0044783161821901575 0.00019934887630629249 0 0.0045397158029299774 0.00021841216533495847 0 0.0045643596525110283 0.00027273369129933407 0 0.0045397158029299774 0.00021841216533495847 0 0.0045954803525457902 0.00018899213885461595 0 0.0045397158029299774 0.00021841216533495847 0 0.0045954803525457902 0.00018899213885461595 0 0.0045549770259020097 0.0001402397085233593 0 0.0046263578744089838 0.00014261070428836736 0 0.0045954803525457902 0.00018899213885461595 0 0.0045549770259020097 0.0001402397085233593 0 0.0044783161821901575 0.00019934887630629249 0 0.0045549770259020097 0.0001402397085233593 0 0.0044929807957368034 0.00011471464073656889 0 0.0045644130219647363 0.00013424483297039424 0 0.004627323031344441 1.5285644235912081e-05 0 0.0046415213493948846 8.9726497563036658e-05 0 0.0045549770259020097 0.0001402397085233593 0 0.0046362183409454794 2.2043178872632288e-05 0 0.0045549770259020097 0.0001402397085233593 0 0.0045407445782294888 7.368513951131069e-05 0 0.0046207501470371202 5.3521005190038333e-07 0 0.0045549770259020097 0.0001402397085233593 0 0.0045407445782294888 7.368513951131069e-05 0 0.0044929807957368034 0.00011471464073656889 0 0.0046415213493948846 8.9726497563036658e-05 0 0.0046263578744089838 0.00014261070428836736 0 0.0045549770259020097 0.0001402397085233593 0 0.0045407445782294888 7.368513951131069e-05 0 0.0044929807957368034 0.00011471464073656889 0 0.0044924026576996798 -3.2013405909885245e-06 0 0.0045468959576831633 5.1603715443930865e-05 0 0.004543635289499204 1.5838934482527029e-06 0 0.0045407445782294888 7.368513951131069e-05 0 0.0045339998563436856 2.6504067698452918e-05 0 0.0046207501470371202 5.3521005190038333e-07 0 0.0041637661441100643 6.2990699802775547e-05 0 0.0041542024787678622 0.00010497746090457007 0 0.0041937248571978251 9.2696356395187676e-05 0 0.004387986311846428 0.00015507319496135512 0 0.0044929807957368034 0.00011471464073656889 0 0.0044924026576996798 -3.2013405909885245e-06 0 0.0042362428703501534 0.00013648566259226319 0 0.004543635289499204 1.5838934482527029e-06 0 0.004543635289499204 1.5838934482527029e-06 0 0.004514031047747862 1.3738176954129895e-05 0 0.0048317305504403047 -0.00013462031767978369 0 0.0048353954771742343 -0.00011737936097908628 0 0.0048546049951445659 -0.00010820538093918528 0 0.0041542024787678622 0.00010497746090457007 0 0.0041891834930875838 0.00015073959832376835 0 0.0042009600022171138 0.00012205798920595416 0 0.0048317305504403047 -0.00013462031767978369 0 0.0048217977358991576 -0.00010761487104996098 0 0.0048353954771742343 -0.00011737936097908628 0 0.0045339998563436856 2.6504067698452918e-05 0 0.0046207501470371202 5.3521005190038333e-07 0 0.0046480706709983765 -6.8970317148601122e-05 0 0.004543635289499204 1.5838934482527029e-06 0 0.0047595591554974335 -9.9334438930626391e-05 0 0.0046896335439424747 -7.0527746725281189e-05 0 0.0046207501470371202 5.3521005190038333e-07 0 0.0046480706709983765 -6.8970317148601122e-05 0 0.0048285945220393322 -9.5924099688513749e-05 0 0.0048217977358991576 -0.00010761487104996098 0 0.0048326229540924578 -0.00010757412372920732 0 0.0048217977358991576 -0.00010761487104996098 0 0.0048353954771742343 -0.00011737936097908628 0 0.0048326229540924578 -0.00010757412372920732 0 0.0048353954771742343 -0.00011737936097908628 0 0.0048326229540924578 -0.00010757412372920732 0 0.0048546049951445659 -0.00010820538093918528 0 0.0048381369680917524 -9.509687558130898e-05 0 0.0048326229540924578 -0.00010757412372920732 0 0.0048546049951445659 -0.00010820538093918528 0 0.0041891834930875838 0.00015073959832376835 0 0.0042279980133512179 0.00015069698504592761 0 0.0042009600022171138 0.00012205798920595416 0 0.0042408028111743483 0.00010812223111819693 0 0.0042009600022171138 0.00012205798920595416 0 0.0041937248571978251 9.2696356395187676e-05 0 0.0042748995878134294 0.00012482740558696396 0 0.0043149183484792481 6.0973718182530949e-05 0 0.0042279980133512179 0.00015069698504592761 0 0.0042408028111743483 0.00010812223111819693 0 0.0042009600022171138 0.00012205798920595416 0 0.0041542024787678622 0.00010497746090457007 0 0.0042009600022171138 0.00012205798920595416 0 0.0041937248571978251 9.2696356395187676e-05 0 0.0042408028111743483 0.00010812223111819693 0 0.0041937248571978251 9.2696356395187676e-05 0 0.0042060145002761392 5.6427949676697389e-05 0 0.00421346763251596 1.9206820074256423e-05 0 0.0042060145002761392 5.6427949676697389e-05 0 0.0042623734926710583 5.748401454839105e-05 0 0.0042408028111743483 0.00010812223111819693 0 0.0042060145002761392 5.6427949676697389e-05 0 0.0042623734926710583 5.748401454839105e-05 0 0.0041637661441100643 6.2990699802775547e-05 0 0.0041937248571978251 9.2696356395187676e-05 0 0.0042060145002761392 5.6427949676697389e-05 0 0.0041697342797875269 9.4086109485732367e-06 0 0.0041637661441100643 6.2990699802775547e-05 0 0.0042060145002761392 5.6427949676697389e-05 0 0.0043625465250615083 -1.3703993221632664e-06 0 0.0043586684270698678 1.1481225887855398e-05 0 0.0043939495081342312 1.2489751426476259e-05 0 0.0043586684270698678 1.1481225887855398e-05 0 0.0043968612081885248 2.0569026862384769e-05 0 0.0043939495081342312 1.2489751426476259e-05 0 0.0043805934015614875 2.5853617489122268e-05 0 0.0043586684270698678 1.1481225887855398e-05 0 0.0043968612081885248 2.0569026862384769e-05 0 0.0043149183484792481 6.0973718182530949e-05 0 0.0043094540351303716 3.1452877782592756e-05 0 0.0043805934015614875 2.5853617489122268e-05 0 0.0043968612081885248 2.0569026862384769e-05 0 0.0044243614284089575 3.3330278405241746e-05 0 0.0043805934015614875 2.5853617489122268e-05 0 0.0044243614284089575 3.3330278405241746e-05 0 0.0044239963879524648 5.7140067312867294e-05 0 0.0043839374565847744 5.5910825767666165e-05 0 0.0043805934015614875 2.5853617489122268e-05 0 0.0044239963879524648 5.7140067312867294e-05 0 0.0044239963879524648 5.7140067312867294e-05 0 0.0044502918572891861 9.9161707298053508e-05 0 0.0044719099620112489 8.299468841793431e-05 0 0.0044502918572891861 9.9161707298053508e-05 0 0.0044988021497192826 0.00010906187032947381 0 0.0044719099620112489 8.299468841793431e-05 0 0.0044502918572891861 9.9161707298053508e-05 0 0.0044850203209981857 0.00012841013082978757 0 0.0044430412397415634 0.00014392278004626838 0 0.0044502918572891861 9.9161707298053508e-05 0 0.0044850203209981857 0.00012841013082978757 0 0.0044988021497192826 0.00010906187032947381 0 0.0044502918572891861 9.9161707298053508e-05 0 0.0044126347433527998 0.00011384413925563543 0 0.0044430412397415634 0.00014392278004626838 0 0.0044502918572891861 9.9161707298053508e-05 0 0.0044126347433527998 0.00011384413925563543 0 0.0044055620757913845 8.2383580662528965e-05 0 0.0044239963879524648 5.7140067312867294e-05 0 0.0044502918572891861 9.9161707298053508e-05 0 0.0044055620757913845 8.2383580662528965e-05 0 0.0043839374565847744 5.5910825767666165e-05 0 0.0044239963879524648 5.7140067312867294e-05 0 0.0044055620757913845 8.2383580662528965e-05 0 0.0043839374565847744 5.5910825767666165e-05 0 0.0044055620757913845 8.2383580662528965e-05 0 0.0043724538823070921 0.00010075919542225504 0 0.0042748995878134294 0.00012482740558696396 0 0.0045398041942593245 7.3888861429039925e-05 0 0.004514031047747862 1.3738176954129895e-05 0 0.0045398041942593245 7.3888861429039925e-05 0 0.0041891834930875838 0.00015073959832376835 0 0.0042279980133512179 0.00015069698504592761 0 0.0042209321590252081 0.00019095957837411516 0 0.0048477779814845414 -7.7008898127489973e-05 0 0.0048546049951445659 -0.00010820538093918528 0 0.0048788527634936307 -7.2165672911256662e-05 0 0.0048477779814845414 -7.7008898127489973e-05 0 0.0048593879364419454 -5.775983256943079e-05 0 0.0048788527634936307 -7.2165672911256662e-05 0 0.0048593879364419454 -5.775983256943079e-05 0 0.0048788527634936307 -7.2165672911256662e-05 0 0.0048731148127532957 -4.4154772029823769e-05 0 0.0045398041942593245 7.3888861429039925e-05 0 0.0048455895755337517 -2.0392492278239908e-05 0 0.0045398041942593245 7.3888861429039925e-05 0 0.0045553582946832993 0.00010114810087951801 0 0.0044126347433527998 0.00011384413925563543 0 0.0044055620757913845 8.2383580662528965e-05 0 0.0043724538823070921 0.00010075919542225504 0 0.0044126347433527998 0.00011384413925563543 0 0.0043724538823070921 0.00010075919542225504 0 0.0043983159135825836 0.00014782126672489152 0 0.0047332560297964777 5.2429347528039267e-05 0 0.0047618008548298328 4.7174141782511451e-05 0 0.0047449485610443088 2.7730858322380354e-05 0 0.0047503453348990343 8.1652452658606951e-05 0 0.0047332560297964777 5.2429347528039267e-05 0 0.0047618008548298328 4.7174141782511451e-05 0 0.004853922753802504 -4.0665889448096831e-05 0 0.0048593879364419454 -5.775983256943079e-05 0 0.0048731148127532957 -4.4154772029823769e-05 0 0.004853922753802504 -4.0665889448096831e-05 0 0.0048731148127532957 -4.4154772029823769e-05 0 0.0048700641739589535 -2.3271860917353881e-05 0 0.0047618008548298328 4.7174141782511451e-05 0 0.0047449485610443088 2.7730858322380354e-05 0 0.0047733082445436574 1.1797423904843115e-05 0 0.0048455895755337517 -2.0392492278239908e-05 0 0.0048147486240378481 -2.885422635764767e-06 0 0.0047449485610443088 2.7730858322380354e-05 0 0.0047146778958230499 2.2681155824307008e-05 0 0.0047451642423621864 1.3990017915283149e-06 0 0.0047332560297964777 5.2429347528039267e-05 0 0.0047449485610443088 2.7730858322380354e-05 0 0.0047146778958230499 2.2681155824307008e-05 0 0.0045553582946832993 0.00010114810087951801 0 0.0047086044617020671 9.1170366080694631e-05 0 0.0044335939809878738 0.00020624444642847761 0 0.0044801238020139638 0.00017758038593750666 0 0.0044430412397415634 0.00014392278004626838 0 0.0047372695781925499 2.9580051704690234e-05 0 0.0047440888729188167 3.2764006442230626e-05 0 0.0047021607210256692 1.1483570656861969e-05 0 0.0047372695781925499 2.9580051704690234e-05 0 0.0047413300306014851 4.0823572491356193e-05 0 0.0047021607210256692 1.1483570656861969e-05 0 0.0047252395230427107 2.7204346406361013e-05 0 0.0047372695781925499 2.9580051704690234e-05 0 0.0047413300306014851 4.0823572491356193e-05 0 0.0047086044617020671 9.1170366080694631e-05 0 0.0045843350835779329 0.00011985262998242439 0 0.0044801238020139638 0.00017758038593750666 0 0.0044850203209981857 0.00012841013082978757 0 0.0044430412397415634 0.00014392278004626838 0 0.0043983159135825836 0.00014782126672489152 0 0.0044335939809878738 0.00020624444642847761 0 0.0044430412397415634 0.00014392278004626838 0 0.0044126347433527998 0.00011384413925563543 0 0.0043983159135825836 0.00014782126672489152 0 0.0044430412397415634 0.00014392278004626838 0 0.004932059375941788 0.00012295792966577298 0 0.0048925973280643164 0.00014921159030547714 0 0.0049285504861208617 0.0001545003134383684 0 0.004932059375941788 0.00012295792966577298 0 0.0049285504861208617 0.0001545003134383684 0 0.0049599753653237115 0.00013073469958164226 0 0.0048925973280643164 0.00014921159030547714 0 0.0049037259286122082 0.00010300334646742177 0 0.0048488064592538153 0.00010272338201131901 0 0.004932059375941788 0.00012295792966577298 0 0.0048925973280643164 0.00014921159030547714 0 0.0049037259286122082 0.00010300334646742177 0 0.0048409785858798812 0.00011421841113302179 0 0.0048358081324795842 9.6242010580200254e-05 0 0.0047372695781925499 2.9580051704690234e-05 0 0.0047512223343132492 6.5956170586571104e-05 0 0.0047440888729188167 3.2764006442230626e-05 0 0.0047252395230427107 2.7204346406361013e-05 0 0.0047372695781925499 2.9580051704690234e-05 0 0.0047512223343132492 6.5956170586571104e-05 0 0.0047086044617020671 9.1170366080694631e-05 0 0.0048409785858798812 0.00011421841113302179 0 0.0047086044617020671 9.1170366080694631e-05 0 0.004870822137920847 7.8845193960301021e-05 0 0.004920149797730972 0.00018891420136443659 0 0.0049285504861208617 0.0001545003134383684 0 0.0049595005168759322 0.00016201341112799945 0 0.004920149797730972 0.00018891420136443659 0 0.0048925973280643164 0.00014921159030547714 0 0.0049285504861208617 0.0001545003134383684 0 0.0047449485610443088 2.7730858322380354e-05 0 0.0047451642423621864 1.3990017915283149e-06 0 0.0047733082445436574 1.1797423904843115e-05 0 0.0049285504861208617 0.0001545003134383684 0 0.0049595005168759322 0.00016201341112799945 0 0.0049599753653237115 0.00013073469958164226 0 0.0047733082445436574 1.1797423904843115e-05 0 0.0047729927797683586 -1.4839084149884853e-05 0 0.0047846333348578549 -2.4913510588509071e-05 0 0.0047451642423621864 1.3990017915283149e-06 0 0.0047729927797683586 -1.4839084149884853e-05 0 0.0047770017967938413 -2.0043229264309381e-05 0 0.0047451642423621864 1.3990017915283149e-06 0 0.0047733082445436574 1.1797423904843115e-05 0 0.0047729927797683586 -1.4839084149884853e-05 0 0.0048700641739589535 -2.3271860917353881e-05 0 0.0048692531090605796 -1.4530547904770707e-05 0 0.0048655172712531846 -1.9066340625315392e-05 0 0.004870822137920847 7.8845193960301021e-05 0 0.0048657301518725314 3.2850134094708623e-05 0 0.0048147486240378481 -2.885422635764767e-06 0 0.0048720302902751081 -3.4555834863139714e-06 0 0.0049971859385997252 0.00013226315507463605 0 0.0049599753653237115 0.00013073469958164226 0 0.0049837482141582247 0.00011030787703365776 0 0.0048657301518725314 3.2850134094708623e-05 0 0.0048720302902751081 -3.4555834863139714e-06 0 0.00485082539229135 2.9379969566942067e-05 0 0.0048657301518725314 3.2850134094708623e-05 0 0.0047729927797683586 -1.4839084149884853e-05 0 0.0047770863298339707 -1.9999838214926952e-05 0 0.0047846333348578549 -2.4913510588509071e-05 0 0.0049971859385997252 0.00013226315507463605 0 0.0049963295221865083 0.00010900750367088154 0 0.0050078531208705389 0.00011580058472643259 0 0.0049971859385997252 0.00013226315507463605 0 0.0049963295221865083 0.00010900750367088154 0 0.0049837482141582247 0.00011030787703365776 0 0.0048720302902751081 -3.4555834863139714e-06 0 0.0049274621622199272 1.0357657699854176e-05 0 0.0048808893927453642 3.4576151073758337e-05 0 0.0049005046038489491 2.09602940610971e-05 0 0.0049057715192817441 7.3209082942012583e-07 0 0.0048657301518725314 3.2850134094708623e-05 0 0.0049274621622199272 1.0357657699854176e-05 0 0.0049595005168759322 0.00016201341112799945 0 0.0049971859385997252 0.00013226315507463605 0 0.0049599753653237115 0.00013073469958164226 0 0.0049599753653237115 0.00013073469958164226 0 0.0049600677578973519 0.00010128734493264294 0 0.0049837482141582247 0.00011030787703365776 0 0.004932059375941788 0.00012295792966577298 0 0.0049599753653237115 0.00013073469958164226 0 0.0049600677578973519 0.00010128734493264294 0 0.0049600677578973519 0.00010128734493264294 0 0.0049837482141582247 0.00011030787703365776 0 0.0049827674194989407 8.7327344240030767e-05 0 0.0049600677578973519 0.00010128734493264294 0 0.0049673716104558273 8.234373104593644e-05 0 0.0049827674194989407 8.7327344240030767e-05 0 0.0049600677578973519 0.00010128734493264294 0 0.0049520891890804343 7.7327136836102074e-05 0 0.0049349506222215594 9.9246703045509387e-05 0 0.0049600677578973519 0.00010128734493264294 0 0.0049673716104558273 8.234373104593644e-05 0 0.0049520891890804343 7.7327136836102074e-05 0 0.0049963295221865083 0.00010900750367088154 0 0.0049972141402704262 9.3799034018099767e-05 0 0.0050078531208705389 0.00011580058472643259 0 0.0049963295221865083 0.00010900750367088154 0 0.0049972141402704262 9.3799034018099767e-05 0 0.0049837482141582247 0.00011030787703365776 0 0.0049972141402704262 9.3799034018099767e-05 0 0.0049837482141582247 0.00011030787703365776 0 0.0049827674194989407 8.7327344240030767e-05 0 0.0049673716104558273 8.234373104593644e-05 0 0.0049827674194989407 8.7327344240030767e-05 0 0.0049830188922531026 7.0836006561936267e-05 0 0.0049972141402704262 9.3799034018099767e-05 0 0.0049967804179876325 7.2118460089158154e-05 0 0.0050135880160899916 6.689008034773929e-05 0 0.0049972141402704262 9.3799034018099767e-05 0 0.0049827674194989407 8.7327344240030767e-05 0 0.0049967804179876325 7.2118460089158154e-05 0 0.0049827674194989407 8.7327344240030767e-05 0 0.0049967804179876325 7.2118460089158154e-05 0 0.0049830188922531026 7.0836006561936267e-05 0 0.0049967804179876325 7.2118460089158154e-05 0 0.0049830188922531026 7.0836006561936267e-05 0 0.0049894041993154758 5.4750758610981002e-05 0 0.0049830188922531026 7.0836006561936267e-05 0 0.0049894041993154758 5.4750758610981002e-05 0 0.0049718439016167518 6.1889817823894289e-05 0 0.0049967804179876325 7.2118460089158154e-05 0 0.0049894041993154758 5.4750758610981002e-05 0 0.0050014611511496202 5.0068217635740385e-05 0 0.0049673716104558273 8.234373104593644e-05 0 0.0049520891890804343 7.7327136836102074e-05 0 0.0049718439016167518 6.1889817823894289e-05 0 0.0049673716104558273 8.234373104593644e-05 0 0.0049830188922531026 7.0836006561936267e-05 0 0.0049718439016167518 6.1889817823894289e-05 0 0.0049894041993154758 5.4750758610981002e-05 0 0.0049718439016167518 6.1889817823894289e-05 0 0.0049774060363241461 3.7408480018649021e-05 0 0.0049520891890804343 7.7327136836102074e-05 0 0.0049718439016167518 6.1889817823894289e-05 0 0.0049551781656183578 5.3915812288723543e-05 0 0.0049520891890804343 7.7327136836102074e-05 0 0.0049551781656183578 5.3915812288723543e-05 0 0.0049196628934457375 6.6003029212065694e-05 0 0.0049520891890804343 7.7327136836102074e-05 0 0.0049349506222215594 9.9246703045509387e-05 0 0.0049196628934457375 6.6003029212065694e-05 0 0.0049349506222215594 9.9246703045509387e-05 0 0.0049037259286122082 0.00010300334646742177 0 0.0049196628934457375 6.6003029212065694e-05 0 0.004932059375941788 0.00012295792966577298 0 0.0049349506222215594 9.9246703045509387e-05 0 0.0049037259286122082 0.00010300334646742177 0 0.004932059375941788 0.00012295792966577298 0 0.0049600677578973519 0.00010128734493264294 0 0.0049349506222215594 9.9246703045509387e-05 0 0.0049037259286122082 0.00010300334646742177 0 0.0048788459242118708 8.2365933165128992e-05 0 0.0048488064592538153 0.00010272338201131901 0 0.0049196628934457375 6.6003029212065694e-05 0 0.0048788459242118708 8.2365933165128992e-05 0 0.0048810711143928024 4.9603562736885681e-05 0 0.0049037259286122082 0.00010300334646742177 0 0.0049196628934457375 6.6003029212065694e-05 0 0.0048788459242118708 8.2365933165128992e-05 0 0.0049892900154689659 2.9196509571191551e-06 0 0.0049999774170776416 1.8736596281295696e-08 0 0.0049998446012649543 -3.3063609230500338e-08 0 0.0049441005781311253 3.795215232952505e-05 0 0.0049329408746105899 1.3566482530430892e-05 0 0.0048810711143928024 4.9603562736885681e-05 0 0.0049196628934457375 6.6003029212065694e-05 0 0.0049441005781311253 3.795215232952505e-05 0 0.0048810711143928024 4.9603562736885681e-05 0 0.0049551781656183578 5.3915812288723543e-05 0 0.0049196628934457375 6.6003029212065694e-05 0 0.0049441005781311253 3.795215232952505e-05 0 0.0049441005781311253 3.795215232952505e-05 0 0.0049329408746105899 1.3566482530430892e-05 0 0.0049764529537938374 1.445018505322611e-05 0 0.0049525268696003636 2.2035033769798781e-05 0 0.0049047548778173855 5.934097706472192e-05 0 0.0049525268696003636 2.2035033769798781e-05 0 0.0049834530173901411 4.0266815275185658e-06 0 0.004972653661813568 2.6551362540113568e-05 0 0.0049892900154689659 2.9196509571191551e-06 0 0.0049998446012649543 -3.3063609230500338e-08 0 0.0049329408746105899 1.3566482530430892e-05 0 0.0049892900154689659 2.9196509571191551e-06 0 0.0049764529537938374 1.445018505322611e-05 0 0.0049892900154689659 2.9196509571191551e-06 0 0.0049914074118097432 6.2497762599922858e-06 0 0.0049764529537938374 1.445018505322611e-05 0 0.0049892900154689659 2.9196509571191551e-06 0 0.0049914074118097432 6.2497762599922858e-06 0 0.0049999774170776416 1.8736596281295696e-08 0 0.0049914074118097432 6.2497762599922858e-06 0 0.0049923093012994735 1.7862155251121471e-05 0 0.0049764529537938374 1.445018505322611e-05 0 0.0049923093012994735 1.7862155251121471e-05 0 0.0049764529537938374 1.445018505322611e-05 0 0.0049774060363241461 3.7408480018649021e-05 0 0.0049441005781311253 3.795215232952505e-05 0 0.0049764529537938374 1.445018505322611e-05 0 0.0049774060363241461 3.7408480018649021e-05 0 0.0049551781656183578 5.3915812288723543e-05 0 0.0049441005781311253 3.795215232952505e-05 0 0.0049774060363241461 3.7408480018649021e-05 0 0.0049718439016167518 6.1889817823894289e-05 0 0.0049551781656183578 5.3915812288723543e-05 0 0.0049774060363241461 3.7408480018649021e-05 0 0.0049894041993154758 5.4750758610981002e-05 0 0.0049774060363241461 3.7408480018649021e-05 0 0.004995887791399008 3.4263089954762112e-05 0 0.0049923093012994735 1.7862155251121471e-05 0 0.0049774060363241461 3.7408480018649021e-05 0 0.004995887791399008 3.4263089954762112e-05 0 0.0049894041993154758 5.4750758610981002e-05 0 0.004995887791399008 3.4263089954762112e-05 0 0.0050014611511496202 5.0068217635740385e-05 0 0.0049952293106404555 6.127165750467541e-06 0 0.0050058142649219983 2.0736705369221212e-05 0 0.0050064062347340652 2.6951560159733309e-05 0 0.0050014611511496202 5.0068217635740385e-05 0 0.0050135880160899916 6.689008034773929e-05 0 0.0049864779985650531 -1.6593690847330692e-05 0 0.0049717086087043413 -2.7623887474082924e-05 0 0.0049862524889241078 -3.4538402480469106e-05 0 0.0049999774170776416 1.8736596281295696e-08 0 0.0049607447963777758 1.0478201942601854e-06 0 0.0049999829720116726 3.092433770824876e-08 0 0.004995887791399008 3.4263089954762112e-05 0 0.0050064062347340652 2.6951560159733309e-05 0 0.0050014611511496202 5.0068217635740385e-05 0 0.0049923093012994735 1.7862155251121471e-05 0 0.004995887791399008 3.4263089954762112e-05 0 0.0050064062347340652 2.6951560159733309e-05 0 0.0049864779985650531 -1.6593690847330692e-05 0 0.0049717086087043413 -2.7623887474082924e-05 0 0.0049535511134890685 -8.2156411566585778e-06 0 0.0049864779985650531 -1.6593690847330692e-05 0 0.0049894361548667278 3.4219412415480534e-06 0 0.0049535511134890685 -8.2156411566585778e-06 0 0.0049952293106404555 6.127165750467541e-06 0 0.0049906226207625257 5.4661091789230907e-06 0 0.0049923093012994735 1.7862155251121471e-05 0 0.0050064062347340652 2.6951560159733309e-05 0 0.0049894361548667278 3.4219412415480534e-06 0 0.0049914074118097432 6.2497762599922858e-06 0 0.0049923093012994735 1.7862155251121471e-05 0 0.0049894361548667278 3.4219412415480534e-06 0 0.0049914074118097432 6.2497762599922858e-06 0 0.0049894361548667278 3.4219412415480534e-06 0 0.0049999774170776416 1.8736596281295696e-08 0 0.0049894361548667278 3.4219412415480534e-06 0 0.0049999774170776416 1.8736596281295696e-08 0 0.0049607447963777758 1.0478201942601854e-06 0 0.0049894361548667278 3.4219412415480534e-06 0 0.0049607447963777758 1.0478201942601854e-06 0 0.0049535511134890685 -8.2156411566585778e-06 0 0.0049607447963777758 1.0478201942601854e-06 0 0.0049535511134890685 -8.2156411566585778e-06 0 0.0049161903239593645 -4.6141414878496425e-06 0 0.0049535511134890685 -8.2156411566585778e-06 0 0.0049161903239593645 -4.6141414878496425e-06 0 0.0049114971248094682 -7.9338454249876681e-06 0 0.0049371808791917708 -1.5628023441915012e-05 0 0.0049482064668570549 -9.2663215486082852e-06 0 0.0049038436684234899 -1.1318325129416224e-05 0 0.0049535511134890685 -8.2156411566585778e-06 0 0.0049114971248094682 -7.9338454249876681e-06 0 0.0049161903239593645 -4.6141414878496425e-06 0 0.0048874422022710659 -1.1173206015409537e-05 0 0.0049114971248094682 -7.9338454249876681e-06 0 0.0048858809113574188 -1.2667868381549327e-05 0 0.0048874422022710659 -1.1173206015409537e-05 0 0.0048655431302331471 -1.8248293055949078e-05 0 0.0049161903239593645 -4.6141414878496425e-06 0 0.0048858809113574188 -1.2667868381549327e-05 0 0.0048874422022710659 -1.1173206015409537e-05 0 0.0048874422022710659 -1.1173206015409537e-05 0 0.0048938445268514666 -8.935462870245535e-06 0 0.0048810719611877404 -1.1112798090793107e-05 0 0.0048874422022710659 -1.1173206015409537e-05 0 0.0048810719611877404 -1.1112798090793107e-05 0 0.0048719875068031554 -1.4206276200160602e-05 0 0.0048874422022710659 -1.1173206015409537e-05 0 0.0048938445268514666 -8.935462870245535e-06 0 0.0049114971248094682 -7.9338454249876681e-06 0 0.0049038436684234899 -1.1318325129416224e-05 0 0.0048938445268514666 -8.935462870245535e-06 0 0.0049114971248094682 -7.9338454249876681e-06 0 0.0049038436684234899 -1.1318325129416224e-05 0 0.0048805073528461786 -1.0827159119077657e-05 0 0.0048867898351966929 -9.7919805523166855e-06 0 0.0049371808791917708 -1.5628023441915012e-05 0 0.0049347343912647008 -2.9438291013924813e-05 0 0.0049038436684234899 -1.1318325129416224e-05 0 0.0048938445268514666 -8.935462870245535e-06 0 0.0048867898351966929 -9.7919805523166855e-06 0 0.0049717086087043413 -2.7623887474082924e-05 0 0.0049862524889241078 -3.4538402480469106e-05 0 0.0049824224052680338 -3.7180019598906096e-05 0 0.0049967804179876325 7.2118460089158154e-05 0 0.0050014611511496202 5.0068217635740385e-05 0 0.0050135880160899916 6.689008034773929e-05 0 0.0048805073528461786 -1.0827159119077657e-05 0 0.0048772868602825837 -1.1726916640207773e-05 0 0.0048791602491326047 -1.2469715825179805e-05 0 0.0050058142649219983 2.0736705369221212e-05 0 0.0049274621622199272 1.0357657699854176e-05 0 0.0049347343912647008 -2.9438291013924813e-05 0 0.0049274621622199272 1.0357657699854176e-05 0 0.0049862524889241078 -3.4538402480469106e-05 0 0.0049824224052680338 -3.7180019598906096e-05 0 0.0049855998184018891 -4.1933867551799435e-05 0 0.0049972141402704262 9.3799034018099767e-05 0 0.0050135880160899916 6.689008034773929e-05 0 0.0050078531208705389 0.00011580058472643259 0 0.0048938445268514666 -8.935462870245535e-06 0 0.0048867898351966929 -9.7919805523166855e-06 0 0.0048810719611877404 -1.1112798090793107e-05 0 0.0048805073528461786 -1.0827159119077657e-05 0 0.0048772868602825837 -1.1726916640207773e-05 0 0.0048867898351966929 -9.7919805523166855e-06 0 0.0048772868602825837 -1.1726916640207773e-05 0 0.0048810719611877404 -1.1112798090793107e-05 0 0.004871529332913651 -1.3694020995834838e-05 0 0.0048772868602825837 -1.1726916640207773e-05 0 0.0048867898351966929 -9.7919805523166855e-06 0 0.0048810719611877404 -1.1112798090793107e-05 0 0.0048810719611877404 -1.1112798090793107e-05 0 0.004871529332913651 -1.3694020995834838e-05 0 0.0048719875068031554 -1.4206276200160602e-05 0 0.0048772868602825837 -1.1726916640207773e-05 0 0.004871529332913651 -1.3694020995834838e-05 0 0.0048693849709445826 -1.4851080038303629e-05 0 0.004871529332913651 -1.3694020995834838e-05 0 0.0048693849709445826 -1.4851080038303629e-05 0 0.0048621090604406463 -1.8808524283067257e-05 0 0.004871529332913651 -1.3694020995834838e-05 0 0.0048609785191674401 -1.8361926546555215e-05 0 0.0048621090604406463 -1.8808524283067257e-05 0 0.004871529332913651 -1.3694020995834838e-05 0 0.0048609785191674401 -1.8361926546555215e-05 0 0.0048719875068031554 -1.4206276200160602e-05 0 0.0048793013570073221 -1.2985768106168002e-05 0 0.0048772868602825837 -1.1726916640207773e-05 0 0.0048791602491326047 -1.2469715825179805e-05 0 0.0048692531090605796 -1.4530547904770707e-05 0 0.0048772868602825837 -1.1726916640207773e-05 0 0.0048693849709445826 -1.4851080038303629e-05 0 0.0048720302902751081 -3.4555834863139714e-06 0 0.0048781495266732346 -1.4182011292952683e-05 0 0.0048692531090605796 -1.4530547904770707e-05 0 0.0048693849709445826 -1.4851080038303629e-05 0 0.0048655172712531846 -1.9066340625315392e-05 0 0.004856881811161509 -2.6525934479614404e-05 0 0.0048700641739589535 -2.3271860917353881e-05 0 0.0048655172712531846 -1.9066340625315392e-05 0 0.0048693849709445826 -1.4851080038303629e-05 0 0.0048655172712531846 -1.9066340625315392e-05 0 0.0048621090604406463 -1.8808524283067257e-05 0 0.004856881811161509 -2.6525934479614404e-05 0 0.0048655172712531846 -1.9066340625315392e-05 0 0.0048621090604406463 -1.8808524283067257e-05 0 0.0048609785191674401 -1.8361926546555215e-05 0 0.0048621090604406463 -1.8808524283067257e-05 0 0.0048514125011761599 -2.5291447811666095e-05 0 0.004856881811161509 -2.6525934479614404e-05 0 0.0048621090604406463 -1.8808524283067257e-05 0 0.0048514125011761599 -2.5291447811666095e-05 0 0.0048609785191674401 -1.8361926546555215e-05 0 0.0048514125011761599 -2.5291447811666095e-05 0 0.0048487498751238305 -2.4334990885755417e-05 0 0.004831793199024023 -3.2468193928056551e-05 0 0.0048487498751238305 -2.4334990885755417e-05 0 0.0048451849755779932 -2.4805977444582169e-05 0 0.0048487498751238305 -2.4334990885755417e-05 0 0.0048451849755779932 -2.4805977444582169e-05 0 0.0048595325135472435 -1.9056791527069622e-05 0 0.0048609785191674401 -1.8361926546555215e-05 0 0.0048487498751238305 -2.4334990885755417e-05 0 0.0048595325135472435 -1.9056791527069622e-05 0 0.0048451849755779932 -2.4805977444582169e-05 0 0.0048655431302331471 -1.8248293055949078e-05 0 0.004841901394700276 -2.6009619100290779e-05 0 0.0048265258575619198 -3.2479390383019543e-05 0 0.0048451849755779932 -2.4805977444582169e-05 0 0.004841901394700276 -2.6009619100290779e-05 0 0.0048451849755779932 -2.4805977444582169e-05 0 0.0048655431302331471 -1.8248293055949078e-05 0 0.0048595325135472435 -1.9056791527069622e-05 0 0.0048655431302331471 -1.8248293055949078e-05 0 0.0048714855801920576 -1.5559582167808011e-05 0 0.0048595325135472435 -1.9056791527069622e-05 0 0.0048874422022710659 -1.1173206015409537e-05 0 0.0048655431302331471 -1.8248293055949078e-05 0 0.0048714855801920576 -1.5559582167808011e-05 0 0.0048874422022710659 -1.1173206015409537e-05 0 0.0048714855801920576 -1.5559582167808011e-05 0 0.0048719875068031554 -1.4206276200160602e-05 0 0.0048609785191674401 -1.8361926546555215e-05 0 0.0048719875068031554 -1.4206276200160602e-05 0 0.0048595325135472435 -1.9056791527069622e-05 0 0.0048714855801920576 -1.5559582167808011e-05 0 0.0048719875068031554 -1.4206276200160602e-05 0 0.0048595325135472435 -1.9056791527069622e-05 0 0.0048513985061776699 -2.535204444289399e-05 0 0.0048641078802611195 -2.0481281717022166e-05 0 0.0048468756210181506 -2.5401714370917075e-05 0 0.0048513985061776699 -2.535204444289399e-05 0 0.0048641078802611195 -2.0481281717022166e-05 0 0.0048706254485258718 -1.8374094772590424e-05 0 0.0048513985061776699 -2.535204444289399e-05 0 0.0048468756210181506 -2.5401714370917075e-05 0 0.0048382714987518973 -2.7524897864773208e-05 0 0.0048641078802611195 -2.0481281717022166e-05 0 0.004841901394700276 -2.6009619100290779e-05 0 0.0048468756210181506 -2.5401714370917075e-05 0 0.0048655431302331471 -1.8248293055949078e-05 0 0.0048641078802611195 -2.0481281717022166e-05 0 0.004841901394700276 -2.6009619100290779e-05 0 0.0048858809113574188 -1.2667868381549327e-05 0 0.0048655431302331471 -1.8248293055949078e-05 0 0.0048641078802611195 -2.0481281717022166e-05 0 0.0048244832792333847 -3.0435316435443999e-05 0 0.004841901394700276 -2.6009619100290779e-05 0 0.0048468756210181506 -2.5401714370917075e-05 0 0.0048244832792333847 -3.0435316435443999e-05 0 0.0048468756210181506 -2.5401714370917075e-05 0 0.0048382714987518973 -2.7524897864773208e-05 0 0.004818480350536997 -2.9952413402934288e-05 0 0.0048382714987518973 -2.7524897864773208e-05 0 0.0048392410493349964 -2.6995899495317696e-05 0 0.0048513985061776699 -2.535204444289399e-05 0 0.0048382714987518973 -2.7524897864773208e-05 0 0.0048392410493349964 -2.6995899495317696e-05 0 0.004818480350536997 -2.9952413402934288e-05 0 0.0048407405072168367 -2.5957098836363555e-05 0 0.0048392410493349964 -2.6995899495317696e-05 0 0.0046051968465201437 0.00027520877340459079 0 0.0043640595751417276 0.00025840194702293979 0 0.0040981774869749219 0.00015361401406642199 0 0.0040610937322645667 0.00015614743818197034 0 0.0040792399301462145 0.00017030616244698331 0 0.0043640595751417276 0.00025840194702293979 0 0.0044575076370440489 7.0768789777686674e-05 0 0.0048407405072168367 -2.5957098836363555e-05 0 0.0048392410493349964 -2.6995899495317696e-05 0 0.0048464891559987303 -2.730041521126225e-05 0 0.004033305125503552 8.7094670964295263e-05 0 0.0040610937322645667 0.00015614743818197034 0 0.0040101729049472137 0.00016521668848938197 0 0.004033305125503552 8.7094670964295263e-05 0 0.0040981774869749219 0.00015361401406642199 0 0.0040610937322645667 0.00015614743818197034 0 0.0039884410609646011 0.00037587211830824311 0 0.0043640595751417276 0.00025840194702293979 0 0.0040718818686194145 0.00017088517399587019 0 0.0040792399301462145 0.00017030616244698331 0 0.0041050181355915417 0.00012680125330702705 0 0.0044575076370440489 7.0768789777686674e-05 0 0.0044822389567520391 5.3572289312860169e-05 0 0.0040610937322645667 0.00015614743818197034 0 0.0040718818686194145 0.00017088517399587019 0 0.0040792399301462145 0.00017030616244698331 0 0.0040610937322645667 0.00015614743818197034 0 0.0040718818686194145 0.00017088517399587019 0 0.0040101729049472137 0.00016521668848938197 0 0.0048464891559987303 -2.730041521126225e-05 0 0.004853712404204116 -2.4157282468905941e-05 0 0.004853243659815475 -2.0706609460402225e-05 0 0.0048513985061776699 -2.535204444289399e-05 0 0.0048392410493349964 -2.6995899495317696e-05 0 0.0048464891559987303 -2.730041521126225e-05 0 0.0048513985061776699 -2.535204444289399e-05 0 0.0048464891559987303 -2.730041521126225e-05 0 0.004853712404204116 -2.4157282468905941e-05 0 0.0048513985061776699 -2.535204444289399e-05 0 0.004853712404204116 -2.4157282468905941e-05 0 0.0048619559293353511 -2.0674015233402439e-05 0 0.0048464891559987303 -2.730041521126225e-05 0 0.004853243659815475 -2.0706609460402225e-05 0 0.0048462785195669562 -1.9458166744659366e-05 0 0.004853712404204116 -2.4157282468905941e-05 0 0.0048619559293353511 -2.0674015233402439e-05 0 0.004853243659815475 -2.0706609460402225e-05 0 0.004853243659815475 -2.0706609460402225e-05 0 0.0048538373692124138 -1.6588436302648257e-05 0 0.0048642146665816375 -1.2419523731175698e-05 0 0.0048619559293353511 -2.0674015233402439e-05 0 0.004853243659815475 -2.0706609460402225e-05 0 0.0048642146665816375 -1.2419523731175698e-05 0 0.0048619559293353511 -2.0674015233402439e-05 0 0.0048642146665816375 -1.2419523731175698e-05 0 0.0048824351336679232 -1.0940073747635332e-05 0 0.0040718818686194145 0.00017088517399587019 0 0.0041050181355915417 0.00012680125330702705 0 0.0041213872252211861 0.00013730307881997854 0 0.004853243659815475 -2.0706609460402225e-05 0 0.0048538373692124138 -1.6588436302648257e-05 0 0.0048462785195669562 -1.9458166744659366e-05 0 0.0041050181355915417 0.00012680125330702705 0 0.0041213872252211861 0.00013730307881997854 0 0.0041635970888034201 9.8482399395530127e-05 0 0.0048504981308702469 -4.2945683902701097e-06 0 0.0048634739585406766 9.1569739073137614e-06 0 0.0048170143535288595 2.3983046349522992e-05 0 0.0048462785195669562 -1.9458166744659366e-05 0 0.0048504981308702469 -4.2945683902701097e-06 0 0.0048170143535288595 2.3983046349522992e-05 0 0.0044822389567520391 5.3572289312860169e-05 0 0.0044759057695446681 3.9852788971355178e-05 0 0.0041050181355915417 0.00012680125330702705 0 0.0042045264264539521 4.0215326526393083e-05 0 0.0041635970888034201 9.8482399395530127e-05 0 0.0048538373692124138 -1.6588436302648257e-05 0 0.0048462785195669562 -1.9458166744659366e-05 0 0.0048504981308702469 -4.2945683902701097e-06 0 0.0048642146665816375 -1.2419523731175698e-05 0 0.0048831759275201276 -2.1702602742879699e-06 0 0.0048824351336679232 -1.0940073747635332e-05 0 0.0048538373692124138 -1.6588436302648257e-05 0 0.0048504981308702469 -4.2945683902701097e-06 0 0.0048642146665816375 -1.2419523731175698e-05 0 0.0048504981308702469 -4.2945683902701097e-06 0 0.0048642146665816375 -1.2419523731175698e-05 0 0.0048634739585406766 9.1569739073137614e-06 0 0.0048642146665816375 -1.2419523731175698e-05 0 0.0048831759275201276 -2.1702602742879699e-06 0 0.0048634739585406766 9.1569739073137614e-06 0 0.0048824351336679232 -1.0940073747635332e-05 0 0.0048931032813587993 -9.8848152444412419e-06 0 0.0049234287850678741 1.0906950530248873e-05 0 0.0048831759275201276 -2.1702602742879699e-06 0 0.0048824351336679232 -1.0940073747635332e-05 0 0.0049234287850678741 1.0906950530248873e-05 0 0.0048641078802611195 -2.0481281717022166e-05 0 0.0048706254485258718 -1.8374094772590424e-05 0 0.0048931032813587993 -9.8848152444412419e-06 0 0.0048619559293353511 -2.0674015233402439e-05 0 0.0048824351336679232 -1.0940073747635332e-05 0 0.0048706254485258718 -1.8374094772590424e-05 0 0.0048824351336679232 -1.0940073747635332e-05 0 0.0048706254485258718 -1.8374094772590424e-05 0 0.0048931032813587993 -9.8848152444412419e-06 0 0.0048513985061776699 -2.535204444289399e-05 0 0.0048619559293353511 -2.0674015233402439e-05 0 0.0048706254485258718 -1.8374094772590424e-05 0 0.0048858809113574188 -1.2667868381549327e-05 0 0.0048641078802611195 -2.0481281717022166e-05 0 0.0048931032813587993 -9.8848152444412419e-06 0 0.0049161903239593645 -4.6141414878496425e-06 0 0.0048931032813587993 -9.8848152444412419e-06 0 0.0049234287850678741 1.0906950530248873e-05 0 0.0049161903239593645 -4.6141414878496425e-06 0 0.0048858809113574188 -1.2667868381549327e-05 0 0.0048931032813587993 -9.8848152444412419e-06 0 0.0049607447963777758 1.0478201942601854e-06 0 0.0049161903239593645 -4.6141414878496425e-06 0 0.0049234287850678741 1.0906950530248873e-05 0 0.0049607447963777758 1.0478201942601854e-06 0 0.0049234287850678741 1.0906950530248873e-05 0 0.0049624865243989239 2.4053200731189352e-06 0 0.0049607447963777758 1.0478201942601854e-06 0 0.0049624865243989239 2.4053200731189352e-06 0 0.0049999829720116726 3.092433770824876e-08 0 0.0049999829720116726 3.092433770824876e-08 0 0.0049791302786243554 3.7314407802782301e-06 0 0.0049874288387010066 1.2476089299407363e-07 0 0.0049999829720116726 3.092433770824876e-08 0 0.0049874288387010066 1.2476089299407363e-07 0 0.00499068810151159 -8.4552300515701154e-07 0 0.0049624865243989239 2.4053200731189352e-06 0 0.0049999829720116726 3.092433770824876e-08 0 0.0049791302786243554 3.7314407802782301e-06 0 0.0049410851979965146 2.5347391040428553e-05 0 0.0047687035937466551 2.5139045055321207e-05 0 0.0049234287850678741 1.0906950530248873e-05 0 0.0049624865243989239 2.4053200731189352e-06 0 0.0049791302786243554 3.7314407802782301e-06 0 0.00491381831037514 1.5032842746461323e-05 0 0.0049410851979965146 2.5347391040428553e-05 0 0.0049234287850678741 1.0906950530248873e-05 0 0.0048514573640475595 5.3445291611939281e-05 0 0.0048634739585406766 9.1569739073137614e-06 0 0.0048831759275201276 -2.1702602742879699e-06 0 0.0049234287850678741 1.0906950530248873e-05 0 0.0048634739585406766 9.1569739073137614e-06 0 0.0048514573640475595 5.3445291611939281e-05 0 0.0048634739585406766 9.1569739073137614e-06 0 0.0048170143535288595 2.3983046349522992e-05 0 0.0042045264264539521 4.0215326526393083e-05 0 0.0043036301389524122 2.1013308738358653e-05 0 0.0042478374260039135 7.6058390690602343e-05 0 0.0049996153522088886 -1.8299285923010086e-07 0 0.0049465472470218144 -1.2400372722761026e-05 0 0.0043181085262482969 2.2003758521411032e-07 0 0.0049999829720116726 3.092433770824876e-08 0 0.00499068810151159 -8.4552300515701154e-07 0 0.0049996153522088886 -1.8299285923010086e-07 0 0.0043036301389524122 2.1013308738358653e-05 0 0.0043902522490280385 3.0767925326594982e-05 0 0.0042478374260039135 7.6058390690602343e-05 0 0.0043036301389524122 2.1013308738358653e-05 0 0.0044132982532017577 -1.245495723236462e-05 0 0.004290389447953076 -5.7387682373726912e-05 0 0.0043036301389524122 2.1013308738358653e-05 0 0.0044132982532017577 -1.245495723236462e-05 0 0.0043902522490280385 3.0767925326594982e-05 0 0.0044759057695446681 3.9852788971355178e-05 0 0.0047687035937466551 2.5139045055321207e-05 0 0.0048514573640475595 5.3445291611939281e-05 0 0.0048170143535288595 2.3983046349522992e-05 0 0.0047917141026142165 8.2645756786984349e-05 0 0.0042045264264539521 4.0215326526393083e-05 0 0.0043036301389524122 2.1013308738358653e-05 0 0.004290389447953076 -5.7387682373726912e-05 0 0.0047687035937466551 2.5139045055321207e-05 0 0.0047187119267613365 -4.1547298599128781e-05 0 0.0044132982532017577 -1.245495723236462e-05 0 0.004290389447953076 -5.7387682373726912e-05 0 0.0045081346036719046 -9.2296253605874336e-05 0 0.0049957133289608652 -1.8948644216840201e-05 0 0.00499068810151159 -8.4552300515701154e-07 0 0.0049722044001443456 -1.1355027559167571e-05 0 0.0047687035937466551 2.5139045055321207e-05 0 0.0050122670841691004 -3.6786213662722555e-05 0 0.00499068810151159 -8.4552300515701154e-07 0 0.0049465472470218144 -1.2400372722761026e-05 0 0.0049722044001443456 -1.1355027559167571e-05 0 0.00499068810151159 -8.4552300515701154e-07 0 0.0049996153522088886 -1.8299285923010086e-07 0 0.0049465472470218144 -1.2400372722761026e-05 0 0.0049186995509598718 -2.5170552479805484e-05 0 0.0047187119267613365 -4.1547298599128781e-05 0 0.0049465472470218144 -1.2400372722761026e-05 0 0.0045081346036719046 -9.2296253605874336e-05 0 0.0045373181429362386 6.5679033426630674e-06 0 0.0044132982532017577 -1.245495723236462e-05 0 0.0045081346036719046 -9.2296253605874336e-05 0 0.0045373181429362386 6.5679033426630674e-06 0 0.0049465472470218144 -1.2400372722761026e-05 0 0.0045373181429362386 6.5679033426630674e-06 0 0.0043181085262482969 2.2003758521411032e-07 0 0.0045373181429362386 6.5679033426630674e-06 0 0.0043902522490280385 3.0767925326594982e-05 0 0.0043181085262482969 2.2003758521411032e-07 0 0.0044132982532017577 -1.245495723236462e-05 0 0.0045373181429362386 6.5679033426630674e-06 0 0.0043902522490280385 3.0767925326594982e-05 0 0.0043181085262482969 2.2003758521411032e-07 0 0.0038302827036448286 1.026061847107361e-07 0 0.0041045509791889636 5.5078856239293291e-05 0 0.0043902522490280385 3.0767925326594982e-05 0 0.0043181085262482969 2.2003758521411032e-07 0 0.0042478374260039135 7.6058390690602343e-05 0 0.0043181085262482969 2.2003758521411032e-07 0 0.0042478374260039135 7.6058390690602343e-05 0 0.0041045509791889636 5.5078856239293291e-05 0 0.0042478374260039135 7.6058390690602343e-05 0 0.004161600804084847 7.5866029693609478e-05 0 0.0041045509791889636 5.5078856239293291e-05 0 0.0042478374260039135 7.6058390690602343e-05 0 0.0041970904881754225 8.2959037667897924e-05 0 0.0041848289339846741 0.00010094727715507619 0 0.0042045264264539521 4.0215326526393083e-05 0 0.0041970904881754225 8.2959037667897924e-05 0 0.0041635970888034201 9.8482399395530127e-05 0 0.0042045264264539521 4.0215326526393083e-05 0 0.0042478374260039135 7.6058390690602343e-05 0 0.0041970904881754225 8.2959037667897924e-05 0 0.0041970904881754225 8.2959037667897924e-05 0 0.0041635970888034201 9.8482399395530127e-05 0 0.0041848289339846741 0.00010094727715507619 0 0.0041213872252211861 0.00013730307881997854 0 0.0041848289339846741 0.00010094727715507619 0 0.0041812488182725307 7.0579509936636702e-05 0 0.0041213872252211861 0.00013730307881997854 0 0.0041635970888034201 9.8482399395530127e-05 0 0.0041848289339846741 0.00010094727715507619 0 0.0041848289339846741 0.00010094727715507619 0 0.004161600804084847 7.5866029693609478e-05 0 0.0041812488182725307 7.0579509936636702e-05 0 0.0042478374260039135 7.6058390690602343e-05 0 0.0041848289339846741 0.00010094727715507619 0 0.004161600804084847 7.5866029693609478e-05 0 0.004161600804084847 7.5866029693609478e-05 0 0.0041812488182725307 7.0579509936636702e-05 0 0.0040707684308398913 -3.2546150032423277e-07 0 0.0040718818686194145 0.00017088517399587019 0 0.0039828638696797853 0.0002066422463293806 0 0.0040101729049472137 0.00016521668848938197 0 0.0041068166532425617 0.00013078614997017317 0 0.0040718563971926238 0.00013234247252787623 0 0.0040718818686194145 0.00017088517399587019 0 0.0041213872252211861 0.00013730307881997854 0 0.0039828638696797853 0.0002066422463293806 0 0.004033305125503552 8.7094670964295263e-05 0 0.0040101729049472137 0.00016521668848938197 0 0.0038112903825398801 0.00017082592189663644 0 0.0039828638696797853 0.0002066422463293806 0 0.0040101729049472137 0.00016521668848938197 0 0.0038112903825398801 0.00017082592189663644 0 0.0040718563971926238 0.00013234247252787623 0 0.0039368819859493592 8.6351248511205565e-05 0 0.0040707684308398913 -3.2546150032423277e-07 0 0.0038302827036448286 1.026061847107361e-07 0 0.0041045509791889636 5.5078856239293291e-05 0 0.0038417293769770254 -4.0825046114785665e-05 0 0.0040707684308398913 -3.2546150032423277e-07 0 0.0038302827036448286 1.026061847107361e-07 0 0.004161600804084847 7.5866029693609478e-05 0 0.0040707684308398913 -3.2546150032423277e-07 0 0.0041045509791889636 5.5078856239293291e-05 0 0.00451781644916291 -8.1653361744371619e-06 0 0.0045302887871098187 -1.2570468553894914e-06 0 0.0045454409705498822 -1.7870575612792057e-06 0 0.00451781644916291 -8.1653361744371619e-06 0 0.0045024629299974545 -4.7015162023339562e-06 0 0.0045302887871098187 -1.2570468553894914e-06 0 0.00451781644916291 -8.1653361744371619e-06 0 0.0044929361911845928 -1.0574832575683254e-05 0 0.0045024629299974545 -4.7015162023339562e-06 0 0.0045392065164605198 -9.7798217907595984e-06 0 0.0045454409705498822 -1.7870575612792057e-06 0 0.0045546844294423279 -5.6483040127682381e-06 0 0.00451781644916291 -8.1653361744371619e-06 0 0.0045392065164605198 -9.7798217907595984e-06 0 0.0045454409705498822 -1.7870575612792057e-06 0 0.00451781644916291 -8.1653361744371619e-06 0 0.004528071461283349 -1.8165460430015444e-05 0 0.0045052114279795453 -1.6141342191302333e-05 0 0.00451781644916291 -8.1653361744371619e-06 0 0.0045392065164605198 -9.7798217907595984e-06 0 0.004528071461283349 -1.8165460430015444e-05 0 0.00451781644916291 -8.1653361744371619e-06 0 0.0045052114279795453 -1.6141342191302333e-05 0 0.0044929361911845928 -1.0574832575683254e-05 0 0.0045052114279795453 -1.6141342191302333e-05 0 0.0044929361911845928 -1.0574832575683254e-05 0 0.0044729533164753234 -1.9298810373071043e-05 0 0.0044929361911845928 -1.0574832575683254e-05 0 0.004468736630048039 -1.1678918257341015e-05 0 0.0045024629299974545 -4.7015162023339562e-06 0 0.0044929361911845928 -1.0574832575683254e-05 0 0.004468736630048039 -1.1678918257341015e-05 0 0.0044729533164753234 -1.9298810373071043e-05 0 0.004468736630048039 -1.1678918257341015e-05 0 0.0044516987695414493 -1.5175069456139846e-05 0 0.0044786093695610594 -5.1787785349730686e-06 0 0.0044516987695414493 -1.5175069456139846e-05 0 0.0044786093695610594 -5.1787785349730686e-06 0 0.004474088938588674 7.2026356062676379e-07 0 0.004468736630048039 -1.1678918257341015e-05 0 0.0044516987695414493 -1.5175069456139846e-05 0 0.0044220808916921673 -2.8878190745021574e-05 0 0.004468736630048039 -1.1678918257341015e-05 0 0.0044786093695610594 -5.1787785349730686e-06 0 0.0045024629299974545 -4.7015162023339562e-06 0 0.0044786093695610594 -5.1787785349730686e-06 0 0.0045024629299974545 -4.7015162023339562e-06 0 0.0045108216374680227 -2.6299281154866378e-06 0 0.0045108216374680227 -2.6299281154866378e-06 0 0.0045457480740146378 2.2981179116183856e-06 0 0.0045302887871098187 -1.2570468553894914e-06 0 0.0045024629299974545 -4.7015162023339562e-06 0 0.0045108216374680227 -2.6299281154866378e-06 0 0.0045302887871098187 -1.2570468553894914e-06 0 0.0045108216374680227 -2.6299281154866378e-06 0 0.0044940494228243215 -1.540910409620734e-06 0 0.0045107419343454538 -8.4431437893037808e-06 0 0.0044786093695610594 -5.1787785349730686e-06 0 0.0045108216374680227 -2.6299281154866378e-06 0 0.0044940494228243215 -1.540910409620734e-06 0 0.0045108216374680227 -2.6299281154866378e-06 0 0.0045315676198206326 -2.7075891801798343e-06 0 0.0045107419343454538 -8.4431437893037808e-06 0 0.0045108216374680227 -2.6299281154866378e-06 0 0.0045315676198206326 -2.7075891801798343e-06 0 0.0045457480740146378 2.2981179116183856e-06 0 0.0045457480740146378 2.2981179116183856e-06 0 0.0045654335941288553 6.6151410891488532e-06 0 0.0045833698865191683 1.2989051900772419e-05 0 0.0045457480740146378 2.2981179116183856e-06 0 0.0045302887871098187 -1.2570468553894914e-06 0 0.0045654335941288553 6.6151410891488532e-06 0 0.0045302887871098187 -1.2570468553894914e-06 0 0.0045454409705498822 -1.7870575612792057e-06 0 0.0045654335941288553 6.6151410891488532e-06 0 0.0045454409705498822 -1.7870575612792057e-06 0 0.0045654335941288553 6.6151410891488532e-06 0 0.0045672015077839294 4.2276476244974903e-06 0 0.0045881931880597821 1.4992644469848285e-05 0 0.004581120320341605 1.0211396048253276e-05 0 0.0045672015077839294 4.2276476244974903e-06 0 0.0045654335941288553 6.6151410891488532e-06 0 0.0045881931880597821 1.4992644469848285e-05 0 0.0045672015077839294 4.2276476244974903e-06 0 0.0045881931880597821 1.4992644469848285e-05 0 0.004581120320341605 1.0211396048253276e-05 0 0.0045962437751317442 1.9235358310448987e-05 0 0.004581120320341605 1.0211396048253276e-05 0 0.0045834019831531604 9.7952431284833852e-06 0 0.0045962437751317442 1.9235358310448987e-05 0 0.004581120320341605 1.0211396048253276e-05 0 0.0045690295549075891 4.6176229891658891e-07 0 0.0045834019831531604 9.7952431284833852e-06 0 0.004581120320341605 1.0211396048253276e-05 0 0.0045690295549075891 4.6176229891658891e-07 0 0.0045672015077839294 4.2276476244974903e-06 0 0.0045690295549075891 4.6176229891658891e-07 0 0.0045834019831531604 9.7952431284833852e-06 0 0.0045703413664980987 -4.0576934506568688e-06 0 0.0045690295549075891 4.6176229891658891e-07 0 0.0045703413664980987 -4.0576934506568688e-06 0 0.004557149216291273 -1.2339937994675514e-05 0 0.0045690295549075891 4.6176229891658891e-07 0 0.0045546844294423279 -5.6483040127682381e-06 0 0.004557149216291273 -1.2339937994675514e-05 0 0.0045454409705498822 -1.7870575612792057e-06 0 0.0045672015077839294 4.2276476244974903e-06 0 0.0045546844294423279 -5.6483040127682381e-06 0 0.0045690295549075891 4.6176229891658891e-07 0 0.0045672015077839294 4.2276476244974903e-06 0 0.0045546844294423279 -5.6483040127682381e-06 0 0.004587162588575589 8.8228256039711964e-06 0 0.0045984957063335474 1.8556594992249107e-05 0 0.0045971129163132445 1.4113556006091605e-05 0 0.004587162588575589 8.8228256039711964e-06 0 0.0045984957063335474 1.8556594992249107e-05 0 0.0045971881608884366 1.9222404586536602e-05 0 0.004587162588575589 8.8228256039711964e-06 0 0.0045971129163132445 1.4113556006091605e-05 0 0.0045943589964204719 4.3504960621239925e-06 0 0.004587162588575589 8.8228256039711964e-06 0 0.0045834019831531604 9.7952431284833852e-06 0 0.0045971881608884366 1.9222404586536602e-05 0 0.0045834019831531604 9.7952431284833852e-06 0 0.0045971881608884366 1.9222404586536602e-05 0 0.0045962437751317442 1.9235358310448987e-05 0 0.004587162588575589 8.8228256039711964e-06 0 0.0045703413664980987 -4.0576934506568688e-06 0 0.0045703989361695124 -1.4769499813022628e-05 0 0.004587162588575589 8.8228256039711964e-06 0 0.0045834019831531604 9.7952431284833852e-06 0 0.0045703413664980987 -4.0576934506568688e-06 0 0.004587162588575589 8.8228256039711964e-06 0 0.0045703989361695124 -1.4769499813022628e-05 0 0.0045943589964204719 4.3504960621239925e-06 0 0.0045703989361695124 -1.4769499813022628e-05 0 0.0045943589964204719 4.3504960621239925e-06 0 0.0045950758894591943 -1.4392469151418454e-05 0 0.0045703989361695124 -1.4769499813022628e-05 0 0.0045601426714802339 -3.2003894079873198e-05 0 0.0045950758894591943 -1.4392469151418454e-05 0 0.0045703413664980987 -4.0576934506568688e-06 0 0.0045703989361695124 -1.4769499813022628e-05 0 0.0045557069083702632 -2.1417159142296104e-05 0 0.0045703413664980987 -4.0576934506568688e-06 0 0.0045557069083702632 -2.1417159142296104e-05 0 0.004557149216291273 -1.2339937994675514e-05 0 0.0045703989361695124 -1.4769499813022628e-05 0 0.0045557069083702632 -2.1417159142296104e-05 0 0.004550594779926885 -3.3251623597149197e-05 0 0.0045557069083702632 -2.1417159142296104e-05 0 0.0045465040629928148 -3.2220140797430796e-05 0 0.004550594779926885 -3.3251623597149197e-05 0 0.0045557069083702632 -2.1417159142296104e-05 0 0.0045465040629928148 -3.2220140797430796e-05 0 0.0045473391973329461 -2.636340302329179e-05 0 0.0045465040629928148 -3.2220140797430796e-05 0 0.0045403177332502594 -4.2234097778735008e-05 0 0.0045404728358077844 -3.6963867073052726e-05 0 0.0045465040629928148 -3.2220140797430796e-05 0 0.0045403177332502594 -4.2234097778735008e-05 0 0.004550594779926885 -3.3251623597149197e-05 0 0.0045403177332502594 -4.2234097778735008e-05 0 0.004550594779926885 -3.3251623597149197e-05 0 0.0045437614176431808 -4.4327638643228454e-05 0 0.0045601426714802339 -3.2003894079873198e-05 0 0.0045478070417103375 -5.1520891487403241e-05 0 0.0045950758894591943 -1.4392469151418454e-05 0 0.0045507163562411076 -5.0357617449583621e-05 0 0.0045682335105667361 -3.3257664166593444e-05 0 0.0045703989361695124 -1.4769499813022628e-05 0 0.004550594779926885 -3.3251623597149197e-05 0 0.0045601426714802339 -3.2003894079873198e-05 0 0.004550594779926885 -3.3251623597149197e-05 0 0.0045601426714802339 -3.2003894079873198e-05 0 0.0045437614176431808 -4.4327638643228454e-05 0 0.0045601426714802339 -3.2003894079873198e-05 0 0.0045437614176431808 -4.4327638643228454e-05 0 0.0045478070417103375 -5.1520891487403241e-05 0 0.0045392065164605198 -9.7798217907595984e-06 0 0.0045464483423423123 -1.608048607266938e-05 0 0.0045546844294423279 -5.6483040127682381e-06 0 0.0045464483423423123 -1.608048607266938e-05 0 0.0045546844294423279 -5.6483040127682381e-06 0 0.004557149216291273 -1.2339937994675514e-05 0 0.0045557069083702632 -2.1417159142296104e-05 0 0.004557149216291273 -1.2339937994675514e-05 0 0.0045473391973329461 -2.636340302329179e-05 0 0.0045464483423423123 -1.608048607266938e-05 0 0.004557149216291273 -1.2339937994675514e-05 0 0.0045473391973329461 -2.636340302329179e-05 0 0.0045464483423423123 -1.608048607266938e-05 0 0.0045473391973329461 -2.636340302329179e-05 0 0.0045401948955825404 -2.3833162777588297e-05 0 0.0045465040629928148 -3.2220140797430796e-05 0 0.0045473391973329461 -2.636340302329179e-05 0 0.0045404728358077844 -3.6963867073052726e-05 0 0.0045473391973329461 -2.636340302329179e-05 0 0.0045420569543015007 -3.1161632510274918e-05 0 0.0045404728358077844 -3.6963867073052726e-05 0 0.0045473391973329461 -2.636340302329179e-05 0 0.0045401948955825404 -2.3833162777588297e-05 0 0.0045420569543015007 -3.1161632510274918e-05 0 0.0045392065164605198 -9.7798217907595984e-06 0 0.004528071461283349 -1.8165460430015444e-05 0 0.0045464483423423123 -1.608048607266938e-05 0 0.004528071461283349 -1.8165460430015444e-05 0 0.0045464483423423123 -1.608048607266938e-05 0 0.0045401948955825404 -2.3833162777588297e-05 0 0.0045401948955825404 -2.3833162777588297e-05 0 0.0045420569543015007 -3.1161632510274918e-05 0 0.0045322394622985384 -3.2104591512729622e-05 0 0.0045420569543015007 -3.1161632510274918e-05 0 0.0045385896556158108 -2.6542415035207019e-05 0 0.0045322394622985384 -3.2104591512729622e-05 0 0.004528071461283349 -1.8165460430015444e-05 0 0.0045401948955825404 -2.3833162777588297e-05 0 0.0045322394622985384 -3.2104591512729622e-05 0 0.0045420569543015007 -3.1161632510274918e-05 0 0.0045385896556158108 -2.6542415035207019e-05 0 0.0045328120105584159 -2.9485299763912064e-05 0 0.0045420569543015007 -3.1161632510274918e-05 0 0.0045404728358077844 -3.6963867073052726e-05 0 0.0045328120105584159 -2.9485299763912064e-05 0 0.0045385896556158108 -2.6542415035207019e-05 0 0.0045328120105584159 -2.9485299763912064e-05 0 0.0045268072494023788 1.745415983027206e-05 0 0.0045385896556158108 -2.6542415035207019e-05 0 0.0045322394622985384 -3.2104591512729622e-05 0 0.0045307270499215565 -4.2242162522529648e-05 0 0.0045331048404735567 -5.4776303793623225e-05 0 0.0044819869262006313 -2.9231342602038358e-05 0 0.0044056503665067361 -5.4285788187277923e-05 0 0.0045478070417103375 -5.1520891487403241e-05 0 0.0045331048404735567 -5.4776303793623225e-05 0 0.0045552174574983867 -5.5482822665219802e-05 0 0.0045262178545523619 -5.7009471166332311e-05 0 0.0044776624774064593 -5.0477039469778064e-05 0 0.0045437614176431808 -4.4327638643228454e-05 0 0.0045478070417103375 -5.1520891487403241e-05 0 0.0045331048404735567 -5.4776303793623225e-05 0 0.0045331048404735567 -5.4776303793623225e-05 0 0.004517414109066014 -3.2531627270136919e-05 0 0.0044819869262006313 -2.9231342602038358e-05 0 0.0045331048404735567 -5.4776303793623225e-05 0 0.004517414109066014 -3.2531627270136919e-05 0 0.0045333229632172406 -4.1303520486571426e-05 0 0.004517414109066014 -3.2531627270136919e-05 0 0.0045333229632172406 -4.1303520486571426e-05 0 0.0045328120105584159 -2.9485299763912064e-05 0 0.0045403177332502594 -4.2234097778735008e-05 0 0.0045331048404735567 -5.4776303793623225e-05 0 0.0045333229632172406 -4.1303520486571426e-05 0 0.0045403177332502594 -4.2234097778735008e-05 0 0.0045437614176431808 -4.4327638643228454e-05 0 0.0045331048404735567 -5.4776303793623225e-05 0 0.0045403177332502594 -4.2234097778735008e-05 0 0.0045333229632172406 -4.1303520486571426e-05 0 0.0045404728358077844 -3.6963867073052726e-05 0 0.0045333229632172406 -4.1303520486571426e-05 0 0.0045404728358077844 -3.6963867073052726e-05 0 0.0045328120105584159 -2.9485299763912064e-05 0 0.0045328120105584159 -2.9485299763912064e-05 0 0.0044970897055207817 -2.4509470052343866e-06 0 0.0045268072494023788 1.745415983027206e-05 0 0.004517414109066014 -3.2531627270136919e-05 0 0.0045328120105584159 -2.9485299763912064e-05 0 0.0044970897055207817 -2.4509470052343866e-06 0 0.004517414109066014 -3.2531627270136919e-05 0 0.0044970897055207817 -2.4509470052343866e-06 0 0.0044819869262006313 -2.9231342602038358e-05 0 0.0044970897055207817 -2.4509470052343866e-06 0 0.0044819869262006313 -2.9231342602038358e-05 0 0.0044396574787956417 -4.7326605573909569e-06 0 0.003502913349076518 0.00019494644036309407 0 0.0036526625008194316 9.2490863272683593e-05 0 0.0044970897055207817 -2.4509470052343866e-06 0 0.0044419697901762114 8.8545129296488934e-05 0 0.0045268072494023788 1.745415983027206e-05 0 0.0044970897055207817 -2.4509470052343866e-06 0 0.0044419697901762114 8.8545129296488934e-05 0 0.0044396574787956417 -4.7326605573909569e-06 0 0.0025535745414139153 0.00030627959028356033 0 0.0027738151576453315 0.00016848065488354389 0 0.0027539507242195127 0.00038642518862224193 0 0.0026368701808665595 0.00051195174928705381 0 0.0025535745414139153 0.00030627959028356033 0 0.0027539507242195127 0.00038642518862224193 0 0.0036526625008194316 9.2490863272683593e-05 0 0.0038444110277950157 -1.569002164842358e-05 0 0.0045385896556158108 -2.6542415035207019e-05 0 0.0045268072494023788 1.745415983027206e-05 0 0.0045307270499215565 -4.2242162522529648e-05 0 0.0027738151576453315 0.00016848065488354389 0 0.0031526220962487636 6.8306107056132083e-06 0 0.0030030903356543224 0.00033135471929655554 0 0.0027738151576453315 0.00016848065488354389 0 0.0027539507242195127 0.00038642518862224193 0 0.0030030903356543224 0.00033135471929655554 0 0.0031526220962487636 6.8306107056132083e-06 0 0.0030030903356543224 0.00033135471929655554 0 0.0034209363992754034 0.00021803990448846677 0 0.0032888034060050472 0.00049409029045410606 0 0.0030030903356543224 0.00033135471929655554 0 0.0034209363992754034 0.00021803990448846677 0 0.0036436536897033736 0.00038371321243850861 0 0.0032888034060050472 0.00049409029045410606 0 0.0034209363992754034 0.00021803990448846677 0 0.0040168873814284758 0.00049814383146707059 0 0.0036436536897033736 0.00038371321243850861 0 0.003855032212145519 0.00017405045224742541 0 0.0036436536897033736 0.00038371321243850861 0 0.0034209363992754034 0.00021803990448846677 0 0.003855032212145519 0.00017405045224742541 0 0.0034209363992754034 0.00021803990448846677 0 0.003855032212145519 0.00017405045224742541 0 0.003682180769448332 -0.00010702358496924058 0 0.0038444110277950157 -1.569002164842358e-05 0 0.0040852758193095154 -8.5509176015505784e-05 0 0.0031526220962487636 6.8306107056132083e-06 0 0.0034209363992754034 0.00021803990448846677 0 0.003682180769448332 -0.00010702358496924058 0 0.0045322394622985384 -3.2104591512729622e-05 0 0.0045307270499215565 -4.2242162522529648e-05 0 0.0044889886720260522 -8.0645605028543431e-05 0 0.0045322394622985384 -3.2104591512729622e-05 0 0.0044889886720260522 -8.0645605028543431e-05 0 0.0045016032908674827 -2.7530801991567793e-05 0 0.0044889886720260522 -8.0645605028543431e-05 0 0.0045016032908674827 -2.7530801991567793e-05 0 0.0044452465216108066 -3.6115465594353994e-05 0 0.0045016032908674827 -2.7530801991567793e-05 0 0.0044729533164753234 -1.9298810373071043e-05 0 0.0044452465216108066 -3.6115465594353994e-05 0 0.0045052114279795453 -1.6141342191302333e-05 0 0.0045016032908674827 -2.7530801991567793e-05 0 0.0044729533164753234 -1.9298810373071043e-05 0 0.004528071461283349 -1.8165460430015444e-05 0 0.0045322394622985384 -3.2104591512729622e-05 0 0.0045016032908674827 -2.7530801991567793e-05 0 0.004528071461283349 -1.8165460430015444e-05 0 0.0045052114279795453 -1.6141342191302333e-05 0 0.0045016032908674827 -2.7530801991567793e-05 0 0.0044220808916921673 -2.8878190745021574e-05 0 0.0044260487114200801 -2.6920625003770055e-05 0 0.0043971013943839721 -4.7818184774883987e-05 0 0.0044516987695414493 -1.5175069456139846e-05 0 0.0044220808916921673 -2.8878190745021574e-05 0 0.0044260487114200801 -2.6920625003770055e-05 0 0.0044729533164753234 -1.9298810373071043e-05 0 0.0044220808916921673 -2.8878190745021574e-05 0 0.0044452465216108066 -3.6115465594353994e-05 0 0.004468736630048039 -1.1678918257341015e-05 0 0.0044729533164753234 -1.9298810373071043e-05 0 0.0044220808916921673 -2.8878190745021574e-05 0 0.0044889886720260522 -8.0645605028543431e-05 0 0.0044452465216108066 -3.6115465594353994e-05 0 0.0043199540342284976 -7.9094042036257002e-05 0 0.0044220808916921673 -2.8878190745021574e-05 0 0.0044452465216108066 -3.6115465594353994e-05 0 0.0043199540342284976 -7.9094042036257002e-05 0 0.0043971013943839721 -4.7818184774883987e-05 0 0.0043199540342284976 -7.9094042036257002e-05 0 0.004415630968400407 -2.3619805354102565e-05 0 0.0044220808916921673 -2.8878190745021574e-05 0 0.0043971013943839721 -4.7818184774883987e-05 0 0.0043199540342284976 -7.9094042036257002e-05 0 0.0043199540342284976 -7.9094042036257002e-05 0 0.0043448946369239313 7.2259821241450794e-05 0 0.004415630968400407 -2.3619805354102565e-05 0 0.0043199540342284976 -7.9094042036257002e-05 0 0.0043448946369239313 7.2259821241450794e-05 0 0.0041624304345474492 0.0001927266558285394 0 0.0043448946369239313 7.2259821241450794e-05 0 0.0044445429080380806 0.00021765996550788906 0 0.004415630968400407 -2.3619805354102565e-05 0 0.003855032212145519 0.00017405045224742541 0 0.003682180769448332 -0.00010702358496924058 0 0.0043199540342284976 -7.9094042036257002e-05 0 0.0040852758193095154 -8.5509176015505784e-05 0 0.0042999121092965314 -8.6131766679838369e-05 0 0.003855032212145519 0.00017405045224742541 0 0.0043199540342284976 -7.9094042036257002e-05 0 0.0041624304345474492 0.0001927266558285394 0 0.0042405893144658348 0.0004008406518658938 0 0.0040168873814284758 0.00049814383146707059 0 0.0041624304345474492 0.0001927266558285394 0 0.0040168873814284758 0.00049814383146707059 0 0.003855032212145519 0.00017405045224742541 0 0.0041624304345474492 0.0001927266558285394 0 0.0043448946369239313 7.2259821241450794e-05 0 0.0043013286108065877 0.00021118241503691822 0 0.0044445429080380806 0.00021765996550788906 0 0.0043448946369239313 7.2259821241450794e-05 0 0.0041624304345474492 0.0001927266558285394 0 0.0043013286108065877 0.00021118241503691822 0 0.0042405893144658348 0.0004008406518658938 0 0.0041624304345474492 0.0001927266558285394 0 0.0043013286108065877 0.00021118241503691822 0 0.0043013286108065877 0.00021118241503691822 0 0.0043502051800752926 0.00034826289044516612 0 0.0044445429080380806 0.00021765996550788906 0 0.0042405893144658348 0.0004008406518658938 0 0.0043013286108065877 0.00021118241503691822 0 0.0043502051800752926 0.00034826289044516612 0 0.0043733182421862504 8.0203339265325974e-05 0 0.0043887927230260478 3.2305007208527324e-05 0 0.0043838844241872767 1.6079052575241191e-05 0 0.0043570680152633275 4.4790325627209438e-05 0 0.0043506762662073361 2.2450229164031749e-05 0 0.0043782941699951582 2.7338774497889685e-05 0 0.0043782941699951582 2.7338774497889685e-05 0 0.0043932396722506884 9.3482226061587964e-06 0 0.0044079327965498251 1.9956577113375121e-05 0 0.0043506762662073361 2.2450229164031749e-05 0 0.0043782941699951582 2.7338774497889685e-05 0 0.0043932396722506884 9.3482226061587964e-06 0 0.004379903359626792 4.5203563831683776e-05 0 0.0043782941699951582 2.7338774497889685e-05 0 0.0044079327965498251 1.9956577113375121e-05 0 0.0043932396722506884 9.3482226061587964e-06 0 0.0044021440481112287 -5.0956289217836759e-06 0 0.0044132595020194426 -2.7142223231450713e-06 0 0.0043506762662073361 2.2450229164031749e-05 0 0.0043932396722506884 9.3482226061587964e-06 0 0.0044021440481112287 -5.0956289217836759e-06 0 0.0043887927230260478 3.2305007208527324e-05 0 0.0043838844241872767 1.6079052575241191e-05 0 0.0044021440481112287 -5.0956289217836759e-06 0 0.0043743215113253454 6.2689196713994558e-06 0 0.0043895377072128636 8.2204081389051841e-06 0 0.0043838844241872767 1.6079052575241191e-05 0 0.0044021440481112287 -5.0956289217836759e-06 0 0.004415630968400407 -2.3619805354102565e-05 0 0.004419280854283435 0.00013702608066632651 0 0.0044161825247918786 -1.3759815220053885e-05 0 0.0044021440481112287 -5.0956289217836759e-06 0 0.0044166383433575027 -1.4031428395159775e-05 0 0.0044132595020194426 -2.7142223231450713e-06 0 0.0044166383433575027 -1.4031428395159775e-05 0 0.004415630968400407 -2.3619805354102565e-05 0 0.0044256212119828386 -2.0010696248059566e-05 0 0.0044021440481112287 -5.0956289217836759e-06 0 0.0044166383433575027 -1.4031428395159775e-05 0 0.004415630968400407 -2.3619805354102565e-05 0 0.0044271191714069149 -1.1483021065799849e-05 0 0.0044132595020194426 -2.7142223231450713e-06 0 0.0044252398646411296 4.502891685937208e-06 0 0.0044166383433575027 -1.4031428395159775e-05 0 0.0044271191714069149 -1.1483021065799849e-05 0 0.0044132595020194426 -2.7142223231450713e-06 0 0.0044132595020194426 -2.7142223231450713e-06 0 0.0044079327965498251 1.9956577113375121e-05 0 0.0044252398646411296 4.502891685937208e-06 0 0.0044275576859697258 2.1905001270676491e-05 0 0.0044079327965498251 1.9956577113375121e-05 0 0.0044252398646411296 4.502891685937208e-06 0 0.0043932396722506884 9.3482226061587964e-06 0 0.0044132595020194426 -2.7142223231450713e-06 0 0.0044079327965498251 1.9956577113375121e-05 0 0.0044275576859697258 2.1905001270676491e-05 0 0.0044252398646411296 4.502891685937208e-06 0 0.0044319459811972594 8.8236262591120838e-06 0 0.0044291778071777624 1.4563079664668326e-05 0 0.0044319459811972594 8.8236262591120838e-06 0 0.0044276027107502279 1.0507731084362187e-05 0 0.0044319459811972594 8.8236262591120838e-06 0 0.0044276027107502279 1.0507731084362187e-05 0 0.004430467439649124 7.5207146174895696e-06 0 0.0044291778071777624 1.4563079664668326e-05 0 0.0044275576859697258 2.1905001270676491e-05 0 0.0044319459811972594 8.8236262591120838e-06 0 0.0044319459811972594 8.8236262591120838e-06 0 0.0044330285110649936 4.097348442763689e-06 0 0.004430467439649124 7.5207146174895696e-06 0 0.0044319459811972594 8.8236262591120838e-06 0 0.0044330285110649936 4.097348442763689e-06 0 0.004433124062980816 -1.0848491335337144e-06 0 0.0044330285110649936 4.097348442763689e-06 0 0.004433124062980816 -1.0848491335337144e-06 0 0.0044348837960094135 2.1118995981609355e-06 0 0.0044330285110649936 4.097348442763689e-06 0 0.0044348837960094135 2.1118995981609355e-06 0 0.004430467439649124 7.5207146174895696e-06 0 0.0044252398646411296 4.502891685937208e-06 0 0.0044319459811972594 8.8236262591120838e-06 0 0.004433124062980816 -1.0848491335337144e-06 0 0.0044271191714069149 -1.1483021065799849e-05 0 0.0044252398646411296 4.502891685937208e-06 0 0.004433124062980816 -1.0848491335337144e-06 0 0.0044351122175046581 -8.3996775604097024e-06 0 0.0044395983983334161 -4.7728573743181933e-06 0 0.0044418339672403027 -1.3099807920807913e-05 0 0.004433124062980816 -1.0848491335337144e-06 0 0.0044395983983334161 -4.7728573743181933e-06 0 0.0044348837960094135 2.1118995981609355e-06 0 0.004433124062980816 -1.0848491335337144e-06 0 0.0044351122175046581 -8.3996775604097024e-06 0 0.0044395983983334161 -4.7728573743181933e-06 0 0.0044271191714069149 -1.1483021065799849e-05 0 0.004433124062980816 -1.0848491335337144e-06 0 0.0044351122175046581 -8.3996775604097024e-06 0 0.0044395983983334161 -4.7728573743181933e-06 0 0.0044348837960094135 2.1118995981609355e-06 0 0.0044373778611709082 1.8968645358435072e-06 0 0.0044348837960094135 2.1118995981609355e-06 0 0.0044373778611709082 1.8968645358435072e-06 0 0.0044324313280721022 6.5800230605118416e-06 0 0.0044395983983334161 -4.7728573743181933e-06 0 0.0044373778611709082 1.8968645358435072e-06 0 0.0044438876095057389 3.6069058576187357e-06 0 0.0044373778611709082 1.8968645358435072e-06 0 0.0044361508160357934 7.1199833691870043e-06 0 0.0044324313280721022 6.5800230605118416e-06 0 0.0044373778611709082 1.8968645358435072e-06 0 0.0044438876095057389 3.6069058576187357e-06 0 0.0044361508160357934 7.1199833691870043e-06 0 0.0044395983983334161 -4.7728573743181933e-06 0 0.0044438876095057389 3.6069058576187357e-06 0 0.0044562943798996833 1.6850153610351531e-07 0 0.0044395983983334161 -4.7728573743181933e-06 0 0.0044418339672403027 -1.3099807920807913e-05 0 0.0044562943798996833 1.6850153610351531e-07 0 0.0044418339672403027 -1.3099807920807913e-05 0 0.004462578910950467 -1.8191229439446321e-06 0 0.0044562943798996833 1.6850153610351531e-07 0 0.0044418339672403027 -1.3099807920807913e-05 0 0.0044457395847123504 -1.4851971097477995e-05 0 0.004462578910950467 -1.8191229439446321e-06 0 0.0044418339672403027 -1.3099807920807913e-05 0 0.0044457395847123504 -1.4851971097477995e-05 0 0.0044281413720448455 -2.6241030884075867e-05 0 0.0044516987695414493 -1.5175069456139846e-05 0 0.0044260487114200801 -2.6920625003770055e-05 0 0.0044457395847123504 -1.4851971097477995e-05 0 0.0044260487114200801 -2.6920625003770055e-05 0 0.0044457395847123504 -1.4851971097477995e-05 0 0.0044281413720448455 -2.6241030884075867e-05 0 0.0044260487114200801 -2.6920625003770055e-05 0 0.0043971013943839721 -4.7818184774883987e-05 0 0.0044281413720448455 -2.6241030884075867e-05 0 0.0043971013943839721 -4.7818184774883987e-05 0 0.004415630968400407 -2.3619805354102565e-05 0 0.0044256212119828386 -2.0010696248059566e-05 0 0.0044418339672403027 -1.3099807920807913e-05 0 0.0044281413720448455 -2.6241030884075867e-05 0 0.0044256212119828386 -2.0010696248059566e-05 0 0.0043971013943839721 -4.7818184774883987e-05 0 0.0044281413720448455 -2.6241030884075867e-05 0 0.0044256212119828386 -2.0010696248059566e-05 0 0.0044271191714069149 -1.1483021065799849e-05 0 0.0044351122175046581 -8.3996775604097024e-06 0 0.0044418339672403027 -1.3099807920807913e-05 0 0.0044166383433575027 -1.4031428395159775e-05 0 0.0044271191714069149 -1.1483021065799849e-05 0 0.0044256212119828386 -2.0010696248059566e-05 0 0.0044271191714069149 -1.1483021065799849e-05 0 0.0044418339672403027 -1.3099807920807913e-05 0 0.0044256212119828386 -2.0010696248059566e-05 0 0.0044222908962952149 1.888271438290596e-05 0 0.0043939495081342312 1.2489751426476259e-05 0 0.0044167818847810842 1.3326953725457632e-05 0 0.0043968612081885248 2.0569026862384769e-05 0 0.0044222908962952149 1.888271438290596e-05 0 0.0043939495081342312 1.2489751426476259e-05 0 0.0044095903812017912 5.1855269709748349e-06 0 0.004397545102693726 3.8719999047930626e-06 0 0.0044167818847810842 1.3326953725457632e-05 0 0.004397545102693726 3.8719999047930626e-06 0 0.0043939495081342312 1.2489751426476259e-05 0 0.0044167818847810842 1.3326953725457632e-05 0 0.0044222908962952149 1.888271438290596e-05 0 0.0044167818847810842 1.3326953725457632e-05 0 0.004423439986590812 1.4005498134618114e-05 0 0.0044167818847810842 1.3326953725457632e-05 0 0.004425639927113781 1.0448852023893913e-05 0 0.0044240355227105283 1.0081162961932957e-05 0 0.0044167818847810842 1.3326953725457632e-05 0 0.004425639927113781 1.0448852023893913e-05 0 0.004423439986590812 1.4005498134618114e-05 0 0.0044167818847810842 1.3326953725457632e-05 0 0.0044240355227105283 1.0081162961932957e-05 0 0.0044186425633339389 7.3090074691769457e-06 0 0.0044095903812017912 5.1855269709748349e-06 0 0.0044167818847810842 1.3326953725457632e-05 0 0.0044186425633339389 7.3090074691769457e-06 0 0.0044240355227105283 1.0081162961932957e-05 0 0.0044186425633339389 7.3090074691769457e-06 0 0.0044276027107502279 1.0507731084362187e-05 0 0.0044240355227105283 1.0081162961932957e-05 0 0.0044276027107502279 1.0507731084362187e-05 0 0.004430467439649124 7.5207146174895696e-06 0 0.004425639927113781 1.0448852023893913e-05 0 0.0044240355227105283 1.0081162961932957e-05 0 0.004430467439649124 7.5207146174895696e-06 0 0.004425639927113781 1.0448852023893913e-05 0 0.004430467439649124 7.5207146174895696e-06 0 0.0044303914329066789 7.0388814353408759e-06 0 0.0044348837960094135 2.1118995981609355e-06 0 0.004430467439649124 7.5207146174895696e-06 0 0.0044303914329066789 7.0388814353408759e-06 0 0.004425639927113781 1.0448852023893913e-05 0 0.0044303914329066789 7.0388814353408759e-06 0 0.0044276766393791392 9.8927091055519017e-06 0 0.0044303914329066789 7.0388814353408759e-06 0 0.0044324313280721022 6.5800230605118416e-06 0 0.0044276766393791392 9.8927091055519017e-06 0 0.0044348837960094135 2.1118995981609355e-06 0 0.0044303914329066789 7.0388814353408759e-06 0 0.0044324313280721022 6.5800230605118416e-06 0 0.0044324313280721022 6.5800230605118416e-06 0 0.0044269620217383772 1.2136776961638189e-05 0 0.0044316829265262465 1.2100379484648681e-05 0 0.0044361508160357934 7.1199833691870043e-06 0 0.0044324313280721022 6.5800230605118416e-06 0 0.0044316829265262465 1.2100379484648681e-05 0 0.0044324313280721022 6.5800230605118416e-06 0 0.0044269620217383772 1.2136776961638189e-05 0 0.0044276766393791392 9.8927091055519017e-06 0 0.0044269620217383772 1.2136776961638189e-05 0 0.0044276766393791392 9.8927091055519017e-06 0 0.004423439986590812 1.4005498134618114e-05 0 0.004425639927113781 1.0448852023893913e-05 0 0.0044276766393791392 9.8927091055519017e-06 0 0.004423439986590812 1.4005498134618114e-05 0 0.0044222908962952149 1.888271438290596e-05 0 0.004423439986590812 1.4005498134618114e-05 0 0.0044241391746235141 1.3452764459149148e-05 0 0.0044269620217383772 1.2136776961638189e-05 0 0.0044241391746235141 1.3452764459149148e-05 0 0.004427417284586458 1.6410538435746456e-05 0 0.0044269620217383772 1.2136776961638189e-05 0 0.004423439986590812 1.4005498134618114e-05 0 0.0044241391746235141 1.3452764459149148e-05 0 0.0044239963879524648 5.7140067312867294e-05 0 0.0044737361594040679 5.2116131218920428e-05 0 0.0044719099620112489 8.299468841793431e-05 0 0.0044243614284089575 3.3330278405241746e-05 0 0.0044239963879524648 5.7140067312867294e-05 0 0.0044737361594040679 5.2116131218920428e-05 0 0.0043968612081885248 2.0569026862384769e-05 0 0.0044243614284089575 3.3330278405241746e-05 0 0.0044222908962952149 1.888271438290596e-05 0 0.0044267762639973833 2.1863868916859218e-05 0 0.0044503244040467096 3.4499422303978004e-05 0 0.0044243614284089575 3.3330278405241746e-05 0 0.0044222908962952149 1.888271438290596e-05 0 0.0044737361594040679 5.2116131218920428e-05 0 0.0044988021497192826 0.00010906187032947381 0 0.004524710103947888 0.0001160795483772828 0 0.0045549324109849156 0.00012247815345634271 0 0.0044850203209981857 0.00012841013082978757 0 0.0044988021497192826 0.00010906187032947381 0 0.0045549324109849156 0.00012247815345634271 0 0.0044988021497192826 0.00010906187032947381 0 0.0044719099620112489 8.299468841793431e-05 0 0.004524710103947888 0.0001160795483772828 0 0.0044737361594040679 5.2116131218920428e-05 0 0.0044719099620112489 8.299468841793431e-05 0 0.004524710103947888 0.0001160795483772828 0 0.0044503244040467096 3.4499422303978004e-05 0 0.0044586491840754921 7.4934194746889064e-05 0 0.0044241391746235141 1.3452764459149148e-05 0 0.00442534665901751 2.0117539272520601e-05 0 0.004427417284586458 1.6410538435746456e-05 0 0.0044280955382849574 2.1466367678773421e-05 0 0.00442534665901751 2.0117539272520601e-05 0 0.004427417284586458 1.6410538435746456e-05 0 0.0044280955382849574 2.1466367678773421e-05 0 0.00442534665901751 2.0117539272520601e-05 0 0.0044289405511358298 2.4944331048935132e-05 0 0.0044305197003568246 2.3510873516023983e-05 0 0.0044310823485707801 1.978460398655359e-05 0 0.0044336995913052193 2.6196281318301365e-05 0 0.0044280955382849574 2.1466367678773421e-05 0 0.0044310823485707801 1.978460398655359e-05 0 0.004427417284586458 1.6410538435746456e-05 0 0.0044280955382849574 2.1466367678773421e-05 0 0.0044305197003568246 2.3510873516023983e-05 0 0.0044310823485707801 1.978460398655359e-05 0 0.0044269620217383772 1.2136776961638189e-05 0 0.004427417284586458 1.6410538435746456e-05 0 0.0044316829265262465 1.2100379484648681e-05 0 0.0044310823485707801 1.978460398655359e-05 0 0.004427417284586458 1.6410538435746456e-05 0 0.0044316829265262465 1.2100379484648681e-05 0 0.0044310823485707801 1.978460398655359e-05 0 0.0044316829265262465 1.2100379484648681e-05 0 0.0044379619138591583 1.4525610525751667e-05 0 0.0044361508160357934 7.1199833691870043e-06 0 0.0044316829265262465 1.2100379484648681e-05 0 0.0044379619138591583 1.4525610525751667e-05 0 0.0044358827541085208 2.3219827940912995e-05 0 0.0044336995913052193 2.6196281318301365e-05 0 0.0044434279317800193 3.0723526791618686e-05 0 0.0044310823485707801 1.978460398655359e-05 0 0.0044358827541085208 2.3219827940912995e-05 0 0.0044336995913052193 2.6196281318301365e-05 0 0.0044310823485707801 1.978460398655359e-05 0 0.0044358827541085208 2.3219827940912995e-05 0 0.0044379619138591583 1.4525610525751667e-05 0 0.0046037745395122297 4.1269890443853947e-05 0 0.0045298515324997471 4.9408688906842141e-05 0 0.0047760274060776858 5.937798670111129e-05 0 0.0046067010471389901 7.8308450027310891e-05 0 0.0046530123449573316 -2.9084388555291106e-06 0 0.0047760274060776858 5.937798670111129e-05 0 0.0047716223447141753 -3.5379004209403742e-05 0 0.0046530123449573316 -2.9084388555291106e-06 0 0.0047760274060776858 5.937798670111129e-05 0 0.0047716223447141753 -3.5379004209403742e-05 0 0.0048149265809954668 -1.1024534600975246e-06 0 0.0047716223447141753 -3.5379004209403742e-05 0 0.0048358135403436574 -6.226406651358789e-05 0 0.004824624185610543 -5.8819492202856645e-05 0 0.00483349963431586 -3.3406152119573108e-05 0 0.0048722903673516964 8.5140354716919596e-06 0 0.0048579745484876218 -6.3237192370041803e-05 0 0.0047716223447141753 -3.5379004209403742e-05 0 0.00483349963431586 -3.3406152119573108e-05 0 0.0048149265809954668 -1.1024534600975246e-06 0 0.0047716223447141753 -3.5379004209403742e-05 0 0.00483349963431586 -3.3406152119573108e-05 0 0.0048350313233832204 -6.0729126604461494e-05 0 0.00483349963431586 -3.3406152119573108e-05 0 0.0048149265809954668 -1.1024534600975246e-06 0 0.0048722903673516964 8.5140354716919596e-06 0 0.0046037745395122297 4.1269890443853947e-05 0 0.0046446223632320574 6.4916432620416412e-06 0 0.0044305197003568246 2.3510873516023983e-05 0 0.0044336995913052193 2.6196281318301365e-05 0 0.0044295906555944934 2.609726139625968e-05 0 0.0044280955382849574 2.1466367678773421e-05 0 0.0044305197003568246 2.3510873516023983e-05 0 0.0044295906555944934 2.609726139625968e-05 0 0.0047760274060776858 5.937798670111129e-05 0 0.0048149265809954668 -1.1024534600975246e-06 0 0.0048722903673516964 8.5140354716919596e-06 0 0.004524710103947888 0.0001160795483772828 0 0.0045315704776826395 8.6386868143416485e-05 0 0.0045463008259547079 0.0001059720045896565 0 0.0044586491840754921 7.4934194746889064e-05 0 0.0046074817445980291 2.0957037564547158e-05 0 0.0044280480644386007 2.6683354233585947e-05 0 0.0046446223632320574 6.4916432620416412e-06 0 0.0044280955382849574 2.1466367678773421e-05 0 0.0044289405511358298 2.4944331048935132e-05 0 0.0044302947195904024 2.4246494161272874e-05 0 0.0048005768282450246 -2.1298426543217656e-05 0 0.0048351018609241016 -3.1754447037800821e-05 0 0.004801443804730513 -8.8565425762836926e-06 0 0.0046074817445980291 2.0957037564547158e-05 0 0.0046446223632320574 6.4916432620416412e-06 0 0.0048351018609241016 -3.1754447037800821e-05 0 0.0048179114205539157 9.7617583975612466e-06 0 0.0048378542038643975 4.9238783307789581e-05 0 0.0046446223632320574 6.4916432620416412e-06 0 0.0048711273881041428 -8.9875604669063165e-06 0 0.0048351018609241016 -3.1754447037800821e-05 0 0.0048179114205539157 9.7617583975612466e-06 0 0.004801443804730513 -8.8565425762836926e-06 0 0.0048179114205539157 9.7617583975612466e-06 0 0.0048101922580328325 3.9207274902385184e-05 0 0.0048378542038643975 4.9238783307789581e-05 0 0.0048179114205539157 9.7617583975612466e-06 0 0.0047941152796073389 2.4393970809962305e-05 0 0.0048101922580328325 3.9207274902385184e-05 0 0.0047941152796073389 2.4393970809962305e-05 0 0.004801443804730513 -8.8565425762836926e-06 0 0.0047657796053862181 1.9176729435598208e-05 0 0.0048179114205539157 9.7617583975612466e-06 0 0.0047941152796073389 2.4393970809962305e-05 0 0.004801443804730513 -8.8565425762836926e-06 0 0.0048011375640334584 -3.1959051099834139e-05 0 0.004801443804730513 -8.8565425762836926e-06 0 0.0047657796053862181 1.9176729435598208e-05 0 0.0046074817445980291 2.0957037564547158e-05 0 0.0046355181418832525 8.0351718120686262e-06 0 0.0048011375640334584 -3.1959051099834139e-05 0 0.0047657796053862181 1.9176729435598208e-05 0 0.0047021607210256692 1.1483570656861969e-05 0 0.0045315704776826395 8.6386868143416485e-05 0 0.0047021607210256692 1.1483570656861969e-05 0 0.0046131170684723319 7.0212852331033509e-05 0 0.0046074817445980291 2.0957037564547158e-05 0 0.0047164785432954352 7.0298167199957704e-06 0 0.0047657796053862181 1.9176729435598208e-05 0 0.0047440888729188167 3.2764006442230626e-05 0 0.004784260850056332 4.6813631867159439e-05 0 0.0047941152796073389 2.4393970809962305e-05 0 0.0047657796053862181 1.9176729435598208e-05 0 0.004784260850056332 4.6813631867159439e-05 0 0.0047657796053862181 1.9176729435598208e-05 0 0.0047440888729188167 3.2764006442230626e-05 0 0.0047021607210256692 1.1483570656861969e-05 0 0.0047413300306014851 4.0823572491356193e-05 0 0.0047021607210256692 1.1483570656861969e-05 0 0.0046131170684723319 7.0212852331033509e-05 0 0.0047413300306014851 4.0823572491356193e-05 0 0.0046131170684723319 7.0212852331033509e-05 0 0.0045549324109849156 0.00012247815345634271 0 0.004524710103947888 0.0001160795483772828 0 0.0045549324109849156 0.00012247815345634271 0 0.0045463008259547079 0.0001059720045896565 0 0.0045843350835779329 0.00011985262998242439 0 0.0045738316537073595 0.00011739340925430886 0 0.0046131170684723319 7.0212852331033509e-05 0 0.0045549324109849156 0.00012247815345634271 0 0.0045463008259547079 0.0001059720045896565 0 0.0045315704776826395 8.6386868143416485e-05 0 0.0046131170684723319 7.0212852331033509e-05 0 0.0045463008259547079 0.0001059720045896565 0 0.0044801238020139638 0.00017758038593750666 0 0.0044850203209981857 0.00012841013082978757 0 0.0045549324109849156 0.00012247815345634271 0 0.004474088938588674 7.2026356062676379e-07 0 0.0044853990105483757 2.8342279926756949e-05 0 0.0044975470799049934 5.1685747575433273e-06 0 0.0044786093695610594 -5.1787785349730686e-06 0 0.004474088938588674 7.2026356062676379e-07 0 0.0044940494228243215 -1.540910409620734e-06 0 0.004474088938588674 7.2026356062676379e-07 0 0.0044975470799049934 5.1685747575433273e-06 0 0.0044940494228243215 -1.540910409620734e-06 0 0.0044457395847123504 -1.4851971097477995e-05 0 0.004474088938588674 7.2026356062676379e-07 0 0.004462578910950467 -1.8191229439446321e-06 0 0.0044516987695414493 -1.5175069456139846e-05 0 0.0044457395847123504 -1.4851971097477995e-05 0 0.004474088938588674 7.2026356062676379e-07 0 0.004474088938588674 7.2026356062676379e-07 0 0.004462578910950467 -1.8191229439446321e-06 0 0.0044853990105483757 2.8342279926756949e-05 0 0.004462578910950467 -1.8191229439446321e-06 0 0.0044562943798996833 1.6850153610351531e-07 0 0.0044853990105483757 2.8342279926756949e-05 0 0.0044562943798996833 1.6850153610351531e-07 0 0.0044518146659301852 1.1035674233841498e-05 0 0.0044853990105483757 2.8342279926756949e-05 0 0.0044438876095057389 3.6069058576187357e-06 0 0.0044562943798996833 1.6850153610351531e-07 0 0.0044518146659301852 1.1035674233841498e-05 0 0.0044438876095057389 3.6069058576187357e-06 0 0.0044361508160357934 7.1199833691870043e-06 0 0.0044379619138591583 1.4525610525751667e-05 0 0.0044438876095057389 3.6069058576187357e-06 0 0.0044518146659301852 1.1035674233841498e-05 0 0.0044379619138591583 1.4525610525751667e-05 0 0.0044358827541085208 2.3219827940912995e-05 0 0.0044379619138591583 1.4525610525751667e-05 0 0.0044434279317800193 3.0723526791618686e-05 0 0.0044518146659301852 1.1035674233841498e-05 0 0.0044379619138591583 1.4525610525751667e-05 0 0.0044434279317800193 3.0723526791618686e-05 0 0.0046067010471389901 7.8308450027310891e-05 0 0.0044853990105483757 2.8342279926756949e-05 0 0.0045235813670883793 1.9367192405425647e-05 0 0.0044518146659301852 1.1035674233841498e-05 0 0.0044434279317800193 3.0723526791618686e-05 0 0.0044853990105483757 2.8342279926756949e-05 0 0.0045298515324997471 4.9408688906842141e-05 0 0.0044956451720798603 3.4837689764778835e-05 0 0.0044853990105483757 2.8342279926756949e-05 0 0.0045235813670883793 1.9367192405425647e-05 0 0.0044975470799049934 5.1685747575433273e-06 0 0.0045235813670883793 1.9367192405425647e-05 0 0.0045305640847220184 -9.6807888265090944e-06 0 0.0044975470799049934 5.1685747575433273e-06 0 0.0045305640847220184 -9.6807888265090944e-06 0 0.0045710128756795134 8.6465079307750969e-06 0 0.00457044808425213 -2.9383925088242161e-05 0 0.0045235813670883793 1.9367192405425647e-05 0 0.0045305640847220184 -9.6807888265090944e-06 0 0.0045710128756795134 8.6465079307750969e-06 0 0.0046067010471389901 7.8308450027310891e-05 0 0.0045710128756795134 8.6465079307750969e-06 0 0.0046530123449573316 -2.9084388555291106e-06 0 0.0046067010471389901 7.8308450027310891e-05 0 0.0045235813670883793 1.9367192405425647e-05 0 0.0045710128756795134 8.6465079307750969e-06 0 0.0045710128756795134 8.6465079307750969e-06 0 0.0046530123449573316 -2.9084388555291106e-06 0 0.00457044808425213 -2.9383925088242161e-05 0 0.0047716223447141753 -3.5379004209403742e-05 0 0.0046097199139944834 -6.513758648126371e-05 0 0.0045817112994918086 -0.00013424517689713237 0 0.0047890151927621515 -4.5851841387399435e-05 0 0.0046372800625091668 -2.9194041175258023e-05 0 0.0047716223447141753 -3.5379004209403742e-05 0 0.0046530123449573316 -2.9084388555291106e-06 0 0.0046097199139944834 -6.513758648126371e-05 0 0.0046530123449573316 -2.9084388555291106e-06 0 0.00457044808425213 -2.9383925088242161e-05 0 0.0046097199139944834 -6.513758648126371e-05 0 0.0045686775351374822 -4.965422866126555e-05 0 0.0046097199139944834 -6.513758648126371e-05 0 0.0045740793045305657 -5.6197346773909654e-05 0 0.00457044808425213 -2.9383925088242161e-05 0 0.0045686775351374822 -4.965422866126555e-05 0 0.0046097199139944834 -6.513758648126371e-05 0 0.0046110165094435454 -7.5927739038279582e-05 0 0.0046372800625091668 -2.9194041175258023e-05 0 0.0045305640847220184 -9.6807888265090944e-06 0 0.0045430072431655675 -3.3884267020174434e-05 0 0.004518517058108208 -1.8587799520644365e-05 0 0.0045305640847220184 -9.6807888265090944e-06 0 0.00457044808425213 -2.9383925088242161e-05 0 0.0045430072431655675 -3.3884267020174434e-05 0 0.00457044808425213 -2.9383925088242161e-05 0 0.0045686775351374822 -4.965422866126555e-05 0 0.0045430072431655675 -3.3884267020174434e-05 0 0.0045686775351374822 -4.965422866126555e-05 0 0.0045430072431655675 -3.3884267020174434e-05 0 0.0045477152594830738 -4.0389099510933309e-05 0 0.0045430072431655675 -3.3884267020174434e-05 0 0.004518517058108208 -1.8587799520644365e-05 0 0.0045284056923210287 -2.8367842419854677e-05 0 0.004518517058108208 -1.8587799520644365e-05 0 0.0044975470799049934 5.1685747575433273e-06 0 0.0045107419343454538 -8.4431437893037808e-06 0 0.0045305640847220184 -9.6807888265090944e-06 0 0.004518517058108208 -1.8587799520644365e-05 0 0.0044975470799049934 5.1685747575433273e-06 0 0.0044975470799049934 5.1685747575433273e-06 0 0.0044940494228243215 -1.540910409620734e-06 0 0.0045107419343454538 -8.4431437893037808e-06 0 0.004518517058108208 -1.8587799520644365e-05 0 0.0045107419343454538 -8.4431437893037808e-06 0 0.0045257317025742408 -1.1549134078137809e-05 0 0.0045315676198206326 -2.7075891801798343e-06 0 0.0045107419343454538 -8.4431437893037808e-06 0 0.0045257317025742408 -1.1549134078137809e-05 0 0.0045257317025742408 -1.1549134078137809e-05 0 0.0045226049157765938 1.3910745065035358e-05 0 0.00454787612836355 1.8038114016844711e-05 0 0.004525304697938934 -1.6613435445278703e-05 0 0.0045257720312949007 -2.546591487648134e-05 0 0.0045226049157765938 1.3910745065035358e-05 0 0.0045257317025742408 -1.1549134078137809e-05 0 0.004525304697938934 -1.6613435445278703e-05 0 0.0045226049157765938 1.3910745065035358e-05 0 0.00452937425112287 1.5851852060048665e-05 0 0.0045397584254287335 3.7833340001291263e-05 0 0.0045481866200060847 5.5699548684506673e-05 0 0.0045478221609816022 5.9167686926846254e-05 0 0.0045496482216840824 5.9322189191566017e-05 0 0.0045257317025742408 -1.1549134078137809e-05 0 0.004525304697938934 -1.6613435445278703e-05 0 0.0045284056923210287 -2.8367842419854677e-05 0 0.004525304697938934 -1.6613435445278703e-05 0 0.0045284056923210287 -2.8367842419854677e-05 0 0.0045257720312949007 -2.546591487648134e-05 0 0.004518517058108208 -1.8587799520644365e-05 0 0.0045257317025742408 -1.1549134078137809e-05 0 0.0045284056923210287 -2.8367842419854677e-05 0 0.0046372800625091668 -2.9194041175258023e-05 0 0.00452937425112287 1.5851852060048665e-05 0 0.0045430072431655675 -3.3884267020174434e-05 0 0.0045284056923210287 -2.8367842419854677e-05 0 0.0045477152594830738 -4.0389099510933309e-05 0 0.0045477152594830738 -4.0389099510933309e-05 0 0.0045740793045305657 -5.6197346773909654e-05 0 0.0045257720312949007 -2.546591487648134e-05 0 0.0045284056923210287 -2.8367842419854677e-05 0 0.0045477152594830738 -4.0389099510933309e-05 0 0.0045257720312949007 -2.546591487648134e-05 0 0.0048358135403436574 -6.226406651358789e-05 0 0.0048441523025882028 -5.7227037383152502e-05 0 0.0048688324491306207 -5.2394122738451876e-05 0 0.0045686775351374822 -4.965422866126555e-05 0 0.0045477152594830738 -4.0389099510933309e-05 0 0.0045740793045305657 -5.6197346773909654e-05 0 0.0048441523025882028 -5.7227037383152502e-05 0 0.0048473537582693453 -5.5219703602549068e-05 0 0.004824624185610543 -5.8819492202856645e-05 0 0.0048358135403436574 -6.226406651358789e-05 0 0.0048441523025882028 -5.7227037383152502e-05 0 0.004824624185610543 -5.8819492202856645e-05 0 0.0046372800625091668 -2.9194041175258023e-05 0 0.0047152817059772263 1.019541274721352e-05 0 0.0048441523025882028 -5.7227037383152502e-05 0 0.0048473537582693453 -5.5219703602549068e-05 0 0.0048688324491306207 -5.2394122738451876e-05 0 0.0048473537582693453 -5.5219703602549068e-05 0 0.0048688324491306207 -5.2394122738451876e-05 0 0.0048624976350066336 -4.9123621113528635e-05 0 0.0045463114063426999 5.7055558024249003e-05 0 0.0045481866200060847 5.5699548684506673e-05 0 0.0045478221609816022 5.9167686926846254e-05 0 0.004546392647969937 5.1169200695810689e-05 0 0.0045463114063426999 5.7055558024249003e-05 0 0.0045481866200060847 5.5699548684506673e-05 0 0.0047152817059772263 1.019541274721352e-05 0 0.0047113657223656017 1.5314429130298556e-05 0 0.0045463114063426999 5.7055558024249003e-05 0 0.0045478221609816022 5.9167686926846254e-05 0 0.0045467267135914169 6.2357370009276364e-05 0 0.0048688324491306207 -5.2394122738451876e-05 0 0.0048804012249541052 -4.2506271581780525e-05 0 0.0048983637152070205 -3.8334678504263403e-05 0 0.0048688324491306207 -5.2394122738451876e-05 0 0.0048804012249541052 -4.2506271581780525e-05 0 0.0048624976350066336 -4.9123621113528635e-05 0 0.0048804012249541052 -4.2506271581780525e-05 0 0.0048981312935581205 -3.4633165570118737e-05 0 0.0048720097122474486 -3.8978914587428407e-05 0 0.0048804012249541052 -4.2506271581780525e-05 0 0.0048981312935581205 -3.4633165570118737e-05 0 0.0048983637152070205 -3.8334678504263403e-05 0 0.0045478221609816022 5.9167686926846254e-05 0 0.0045467267135914169 6.2357370009276364e-05 0 0.0045481130316324175 6.3637999912509916e-05 0 0.0047113657223656017 1.5314429130298556e-05 0 0.0048372056032836884 -1.4125801485530789e-05 0 0.0045467267135914169 6.2357370009276364e-05 0 0.0045481130316324175 6.3637999912509916e-05 0 0.004548385853179549 6.7100941640425577e-05 0 0.0048981312935581205 -3.4633165570118737e-05 0 0.0048983637152070205 -3.8334678504263403e-05 0 0.0049161165652584363 -2.9557393148638639e-05 0 0.0045481130316324175 6.3637999912509916e-05 0 0.0045518200801040812 5.8983051580088387e-05 0 0.0045501062447949516 7.3035917614724596e-05 0 0.0045481130316324175 6.3637999912509916e-05 0 0.0045518200801040812 5.8983051580088387e-05 0 0.0045496482216840824 5.9322189191566017e-05 0 0.0045510725742865478 5.6962778708866589e-05 0 0.0045397584254287335 3.7833340001291263e-05 0 0.0045518200801040812 5.8983051580088387e-05 0 0.0045226049157765938 1.3910745065035358e-05 0 0.00454787612836355 1.8038114016844711e-05 0 0.0045478221609816022 5.9167686926846254e-05 0 0.0045481130316324175 6.3637999912509916e-05 0 0.0045496482216840824 5.9322189191566017e-05 0 0.0047512223343132492 6.5956170586571104e-05 0 0.0048213538948197994 8.1937544962093218e-05 0 0.0048488064592538153 0.00010272338201131901 0 0.0048213538948197994 8.1937544962093218e-05 0 0.0048438021842943249 9.5145772068364398e-05 0 0.0048488064592538153 0.00010272338201131901 0 0.0048213538948197994 8.1937544962093218e-05 0 0.004784260850056332 4.6813631867159439e-05 0 0.0048207045336021576 6.3678319435650575e-05 0 0.0047512223343132492 6.5956170586571104e-05 0 0.0047440888729188167 3.2764006442230626e-05 0 0.004784260850056332 4.6813631867159439e-05 0 0.0047512223343132492 6.5956170586571104e-05 0 0.0048213538948197994 8.1937544962093218e-05 0 0.004784260850056332 4.6813631867159439e-05 0 0.0048207045336021576 6.3678319435650575e-05 0 0.0048378542038643975 4.9238783307789581e-05 0 0.0048497325925864624 9.4174562865766213e-05 0 0.0047941152796073389 2.4393970809962305e-05 0 0.004784260850056332 4.6813631867159439e-05 0 0.0048101922580328325 3.9207274902385184e-05 0 0.004784260850056332 4.6813631867159439e-05 0 0.0048207045336021576 6.3678319435650575e-05 0 0.0048101922580328325 3.9207274902385184e-05 0 0.0048207045336021576 6.3678319435650575e-05 0 0.0048101922580328325 3.9207274902385184e-05 0 0.0048378542038643975 4.9238783307789581e-05 0 0.0048711273881041428 -8.9875604669063165e-06 0 0.0048546425334425377 2.1671854437962328e-05 0 0.0048213538948197994 8.1937544962093218e-05 0 0.0048497325925864624 9.4174562865766213e-05 0 0.0048438021842943249 9.5145772068364398e-05 0 0.0048213538948197994 8.1937544962093218e-05 0 0.0048207045336021576 6.3678319435650575e-05 0 0.0048497325925864624 9.4174562865766213e-05 0 0.0048612298431696763 -6.0764387451395948e-05 0 0.0048350313233832204 -6.0729126604461494e-05 0 0.0048906789569601837 -5.4290374756441052e-05 0 0.004862810453625928 -5.150276453735991e-05 0 0.0048612298431696763 -6.0764387451395948e-05 0 0.0048906789569601837 -5.4290374756441052e-05 0 0.0048579745484876218 -6.3237192370041803e-05 0 0.004862810453625928 -5.150276453735991e-05 0 0.0048612298431696763 -6.0764387451395948e-05 0 0.0048579745484876218 -6.3237192370041803e-05 0 0.0048612298431696763 -6.0764387451395948e-05 0 0.0048350313233832204 -6.0729126604461494e-05 0 0.00483349963431586 -3.3406152119573108e-05 0 0.0048579745484876218 -6.3237192370041803e-05 0 0.0048350313233832204 -6.0729126604461494e-05 0 0.0048350313233832204 -6.0729126604461494e-05 0 0.004824624185610543 -5.8819492202856645e-05 0 0.004844393170947329 -5.5434098400857102e-05 0 0.0047716223447141753 -3.5379004209403742e-05 0 0.0048350313233832204 -6.0729126604461494e-05 0 0.004824624185610543 -5.8819492202856645e-05 0 0.0048424817369316191 -5.9003893449041453e-05 0 0.0048670512844098427 -5.237061736972138e-05 0 0.0048473537582693453 -5.5219703602549068e-05 0 0.004824624185610543 -5.8819492202856645e-05 0 0.004844393170947329 -5.5434098400857102e-05 0 0.0048473537582693453 -5.5219703602549068e-05 0 0.004844393170947329 -5.5434098400857102e-05 0 0.0048624976350066336 -4.9123621113528635e-05 0 0.004844393170947329 -5.5434098400857102e-05 0 0.0048624976350066336 -4.9123621113528635e-05 0 0.0048720097122474486 -3.8978914587428407e-05 0 0.0048670512844098427 -5.237061736972138e-05 0 0.0048999776675427232 -2.4673574702990183e-05 0 0.0048906789569601837 -5.4290374756441052e-05 0 0.0049301247415359005 -8.1149905513647455e-06 0 0.0048916244631507198 -2.7916107116888928e-05 0 0.0048804012249541052 -4.2506271581780525e-05 0 0.0048624976350066336 -4.9123621113528635e-05 0 0.0048720097122474486 -3.8978914587428407e-05 0 0.0048981312935581205 -3.4633165570118737e-05 0 0.0048720097122474486 -3.8978914587428407e-05 0 0.0049029647669803864 -3.0681615958341935e-05 0 0.0048999776675427232 -2.4673574702990183e-05 0 0.0049227990032081606 -9.4066001936835387e-06 0 0.0049301247415359005 -8.1149905513647455e-06 0 0.0049223002241068903 9.9435404763987344e-06 0 0.0048916244631507198 -2.7916107116888928e-05 0 0.0049301247415359005 -8.1149905513647455e-06 0 0.0049333334227961148 1.0306503777362546e-05 0 0.0049428521523674721 1.5162254652621989e-05 0 0.0049301247415359005 -8.1149905513647455e-06 0 0.0049223002241068903 9.9435404763987344e-06 0 0.0049333334227961148 1.0306503777362546e-05 0 0.0049223002241068903 9.9435404763987344e-06 0 0.0048916244631507198 -2.7916107116888928e-05 0 0.0048813788830325486 -3.3631705105303521e-06 0 0.004862810453625928 -5.150276453735991e-05 0 0.0048916244631507198 -2.7916107116888928e-05 0 0.0048813788830325486 -3.3631705105303521e-06 0 0.004862810453625928 -5.150276453735991e-05 0 0.0048906789569601837 -5.4290374756441052e-05 0 0.0048916244631507198 -2.7916107116888928e-05 0 0.0048497325925864624 9.4174562865766213e-05 0 0.0048438021842943249 9.5145772068364398e-05 0 0.0048576835208325791 9.5221533928968992e-05 0 0.0048546425334425377 2.1671854437962328e-05 0 0.0048732407501770819 4.2805227322013306e-05 0 0.0048497325925864624 9.4174562865766213e-05 0 0.0048576835208325791 9.5221533928968992e-05 0 0.0048643807925704127 8.9466667554296414e-05 0 0.0048576835208325791 9.5221533928968992e-05 0 0.0048643807925704127 8.9466667554296414e-05 0 0.0048925287844772229 7.0236869565791222e-05 0 0.0048576835208325791 9.5221533928968992e-05 0 0.0049292288478318983 7.094474287900075e-05 0 0.0048925287844772229 7.0236869565791222e-05 0 0.0048648515227247679 9.2028632375960374e-05 0 0.0049047548778173855 5.934097706472192e-05 0 0.0048576835208325791 9.5221533928968992e-05 0 0.0048788459242118708 8.2365933165128992e-05 0 0.0048810711143928024 4.9603562736885681e-05 0 0.0048576835208325791 9.5221533928968992e-05 0 0.0048788459242118708 8.2365933165128992e-05 0 0.0048488064592538153 0.00010272338201131901 0 0.0048438021842943249 9.5145772068364398e-05 0 0.0048576835208325791 9.5221533928968992e-05 0 0.0048488064592538153 0.00010272338201131901 0 0.004972653661813568 2.6551362540113568e-05 0 0.0049177988388742939 4.5782122705318667e-05 0 0.0049407062177085929 1.3198876001032475e-05 0 0.004972653661813568 2.6551362540113568e-05 0 0.0049292288478318983 7.094474287900075e-05 0 0.0049177988388742939 4.5782122705318667e-05 0 0.0049292288478318983 7.094474287900075e-05 0 0.0048925287844772229 7.0236869565791222e-05 0 0.0049177988388742939 4.5782122705318667e-05 0 0.0048643807925704127 8.9466667554296414e-05 0 0.0048925287844772229 7.0236869565791222e-05 0 0.0048879378451874775 4.7161548292936726e-05 0 0.0048732407501770819 4.2805227322013306e-05 0 0.0048849714863375094 4.841748392057712e-05 0 0.0048925287844772229 7.0236869565791222e-05 0 0.0049177988388742939 4.5782122705318667e-05 0 0.0048879378451874775 4.7161548292936726e-05 0 0.0049785420471556716 1.0272938999019284e-06 0 0.0049749138534101482 8.7424604887680331e-06 0 0.0049937631497661969 -1.9914233425540814e-06 0 0.00493259215732165 2.6522171880855558e-05 0 0.0049663182361428604 8.3653067668745272e-06 0 0.0049177988388742939 4.5782122705318667e-05 0 0.0048880929082156677 4.9684444142478431e-05 0 0.0049407062177085929 1.3198876001032475e-05 0 0.0049177988388742939 4.5782122705318667e-05 0 0.0048880929082156677 4.9684444142478431e-05 0 0.0048879378451874775 4.7161548292936726e-05 0 0.0049785420471556716 1.0272938999019284e-06 0 0.0049694887470082619 -1.6679237639416621e-06 0 0.0049627608597662904 5.3756009454862894e-06 0 0.0049694887470082619 -1.6679237639416621e-06 0 0.0049627608597662904 5.3756009454862894e-06 0 0.0049501706161336843 5.4928321398962125e-06 0 0.0049627608597662904 5.3756009454862894e-06 0 0.0049482395411234552 1.0519893919327506e-05 0 0.0049501706161336843 5.4928321398962125e-06 0 0.0049627608597662904 5.3756009454862894e-06 0 0.0049749138534101482 8.7424604887680331e-06 0 0.0049482395411234552 1.0519893919327506e-05 0 0.0049785420471556716 1.0272938999019284e-06 0 0.0049627608597662904 5.3756009454862894e-06 0 0.0049749138534101482 8.7424604887680331e-06 0 0.0049223002241068903 9.9435404763987344e-06 0 0.0048880929082156677 4.9684444142478431e-05 0 0.0048879378451874775 4.7161548292936726e-05 0 0.0049261737039419107 1.0357341900896964e-05 0 0.00493259215732165 2.6522171880855558e-05 0 0.0049223002241068903 9.9435404763987344e-06 0 0.0049749138534101482 8.7424604887680331e-06 0 0.0049482395411234552 1.0519893919327506e-05 0 0.0049223002241068903 9.9435404763987344e-06 0 0.0048813788830325486 -3.3631705105303521e-06 0 0.0048879378451874775 4.7161548292936726e-05 0 0.0049482395411234552 1.0519893919327506e-05 0 0.0049333334227961148 1.0306503777362546e-05 0 0.0049428521523674721 1.5162254652621989e-05 0 0.0049482395411234552 1.0519893919327506e-05 0 0.0049428521523674721 1.5162254652621989e-05 0 0.0049501706161336843 5.4928321398962125e-06 0 0.0049223002241068903 9.9435404763987344e-06 0 0.0049482395411234552 1.0519893919327506e-05 0 0.0049333334227961148 1.0306503777362546e-05 0 0.0049694887470082619 -1.6679237639416621e-06 0 0.0049501706161336843 5.4928321398962125e-06 0 0.0049408778944572294 -3.9212361722605052e-06 0 0.0049428521523674721 1.5162254652621989e-05 0 0.0049501706161336843 5.4928321398962125e-06 0 0.0049408778944572294 -3.9212361722605052e-06 0 0.0049227990032081606 -9.4066001936835387e-06 0 0.0049367950716261016 -5.0826243967013605e-06 0 0.0049694887470082619 -1.6679237639416621e-06 0 0.0049408778944572294 -3.9212361722605052e-06 0 0.0049465164759803313 -2.0126219027158589e-06 0 0.0049694887470082619 -1.6679237639416621e-06 0 0.004989888385223594 -4.9405041806014377e-07 0 0.0049990135889709433 -1.9947741314793802e-06 0 0.0049712069653583034 -5.2784890664068408e-07 0 0.0049733348505775279 -2.7563911710687382e-06 0 0.004999991888662977 3.9180113068291471e-09 0 0.004989888385223594 -4.9405041806014377e-07 0 0.0049990135889709433 -1.9947741314793802e-06 0 0.004999991888662977 3.9180113068291471e-09 0 0.0049999775599488781 -5.927353711392121e-09 0 0.004989888385223594 -4.9405041806014377e-07 0 0.0049999775599488781 -5.927353711392121e-09 0 0.004989888385223594 -4.9405041806014377e-07 0 0.004986227626729128 -1.5103757592307979e-06 0 0.0049694887470082619 -1.6679237639416621e-06 0 0.004989888385223594 -4.9405041806014377e-07 0 0.004986227626729128 -1.5103757592307979e-06 0 0.0049785420471556716 1.0272938999019284e-06 0 0.0049694887470082619 -1.6679237639416621e-06 0 0.004986227626729128 -1.5103757592307979e-06 0 0.004972653661813568 2.6551362540113568e-05 0 0.0049407062177085929 1.3198876001032475e-05 0 0.0049998446012649543 -3.3063609230500338e-08 0 0.0049785420471556716 1.0272938999019284e-06 0 0.004986227626729128 -1.5103757592307979e-06 0 0.0049937631497661969 -1.9914233425540814e-06 0 0.0049999775599488781 -5.927353711392121e-09 0 0.004986227626729128 -1.5103757592307979e-06 0 0.0049937631497661969 -1.9914233425540814e-06 0 0.0049999775599488781 -5.927353711392121e-09 0 0.0049937631497661969 -1.9914233425540814e-06 0 0.005000003417038771 2.0174889051842998e-09 0 0.0049663182361428604 8.3653067668745272e-06 0 0.0049999865211529174 2.4656242612299592e-09 0 0.0049881107848498401 -4.3198894304968838e-06 0 0.0049868474988220383 5.9282350972706414e-06 0 0.0049853700996697094 -5.0576411840566673e-06 0 0.0049881107848498401 -4.3198894304968838e-06 0 0.0049868474988220383 5.9282350972706414e-06 0 0.0049960651376618811 9.4332715797233478e-06 0 0.0049868474988220383 5.9282350972706414e-06 0 0.0049853700996697094 -5.0576411840566673e-06 0 0.0049702734565111222 9.3146677174463817e-06 0 0.0049868474988220383 5.9282350972706414e-06 0 0.0049839799471956608 2.5621803818651645e-05 0 0.0049702734565111222 9.3146677174463817e-06 0 0.0047514412543955302 5.93327614121765e-05 0 0.0048372056032836884 -1.4125801485530789e-05 0 0.0049868474988220383 5.9282350972706414e-06 0 0.0049839799471956608 2.5621803818651645e-05 0 0.0049960651376618811 9.4332715797233478e-06 0 0.0045481130316324175 6.3637999912509916e-05 0 0.0045501062447949516 7.3035917614724596e-05 0 0.004548385853179549 6.7100941640425577e-05 0 0.0048372056032836884 -1.4125801485530789e-05 0 0.00496296464673022 -3.7966094579354516e-05 0 0.0048981312935581205 -3.4633165570118737e-05 0 0.0049029647669803864 -3.0681615958341935e-05 0 0.004924879225732968 -3.0443107332078053e-05 0 0.0048981312935581205 -3.4633165570118737e-05 0 0.0049161165652584363 -2.9557393148638639e-05 0 0.004924879225732968 -3.0443107332078053e-05 0 0.0049029647669803864 -3.0681615958341935e-05 0 0.004924879225732968 -3.0443107332078053e-05 0 0.0049408778944572294 -3.9212361722605052e-06 0 0.004924879225732968 -3.0443107332078053e-05 0 0.004957611426502106 -1.2287696807537969e-05 0 0.0049408778944572294 -3.9212361722605052e-06 0 0.005001682502195447 5.0890533989477433e-06 0 0.0048372056032836884 -1.4125801485530789e-05 0 0.0049881107848498401 -4.3198894304968838e-06 0 0.0049745262402008791 -4.2913714435975848e-05 0 0.004957611426502106 -1.2287696807537969e-05 0 0.0049745262402008791 -4.2913714435975848e-05 0 0.004924879225732968 -3.0443107332078053e-05 0 0.004957611426502106 -1.2287696807537969e-05 0 0.0049881107848498401 -4.3198894304968838e-06 0 0.004957611426502106 -1.2287696807537969e-05 0 0.0049731208006204989 -2.9930670152638068e-06 0 0.004957611426502106 -1.2287696807537969e-05 0 0.0049731208006204989 -2.9930670152638068e-06 0 0.0049408778944572294 -3.9212361722605052e-06 0 0.0049731208006204989 -2.9930670152638068e-06 0 0.0049408778944572294 -3.9212361722605052e-06 0 0.0049465164759803313 -2.0126219027158589e-06 0 0.0049733348505775279 -2.7563911710687382e-06 0 0.0049999870283553823 -2.4262812001025849e-09 0 0.004999991888662977 3.9180113068291471e-09 0 0.0049990135889709433 -1.9947741314793802e-06 0 0.00500000495625869 -2.4192065113780688e-09 0 0.0049731208006204989 -2.9930670152638068e-06 0 0.0049465164759803313 -2.0126219027158589e-06 0 0.004999927264932408 3.4967780165620321e-08 0 0.0049731208006204989 -2.9930670152638068e-06 0 0.004999927264932408 3.4967780165620321e-08 0 0.0049925946549839641 -2.2553556507072754e-06 0 0.004999927264932408 3.4967780165620321e-08 0 0.0049925946549839641 -2.2553556507072754e-06 0 0.005000003925895594 -1.3626795547002165e-08 0 0.0049881107848498401 -4.3198894304968838e-06 0 0.0049925946549839641 -2.2553556507072754e-06 0 0.0049853700996697094 -5.0576411840566673e-06 0 0.0049881107848498401 -4.3198894304968838e-06 0 0.0049731208006204989 -2.9930670152638068e-06 0 0.0049925946549839641 -2.2553556507072754e-06 0 0.0049925946549839641 -2.2553556507072754e-06 0 0.0049853700996697094 -5.0576411840566673e-06 0 0.005000003925895594 -1.3626795547002165e-08 0 0.005000003925895594 -1.3626795547002165e-08 0 0.0049999337184884066 -3.4829338495651469e-08 0 0.0049753139436416391 -1.361434724007048e-05 0 0.0049853700996697094 -5.0576411840566673e-06 0 0.005000003925895594 -1.3626795547002165e-08 0 0.0049753139436416391 -1.361434724007048e-05 0 0.0049999337184884066 -3.4829338495651469e-08 0 0.0049753139436416391 -1.361434724007048e-05 0 0.0049107336200403936 -3.9359930868936289e-05 0 0.0049753139436416391 -1.361434724007048e-05 0 0.0049107336200403936 -3.9359930868936289e-05 0 0.0049459325237240165 -6.4130118451044111e-06 0 0.0049853700996697094 -5.0576411840566673e-06 0 0.0049753139436416391 -1.361434724007048e-05 0 0.0049459325237240165 -6.4130118451044111e-06 0 0.0049999183593200502 1.6687381612439968e-08 0 0.0049107336200403936 -3.9359930868936289e-05 0 0.0049899865247825352 -2.4591238857878821e-05 0 0.0049999337184884066 -3.4829338495651469e-08 0 0.0049999183593200502 1.6687381612439968e-08 0 0.0049107336200403936 -3.9359930868936289e-05 0 0.0049044399830381006 -3.9605611709936934e-05 0 0.0048416658172598616 -3.0864860780947505e-05 0 0.0048177553216699953 1.4156449409860786e-05 0 0.0046877635259055745 3.5136798669345425e-05 0 0.0046959564527258449 -4.1464560520690302e-05 0 0.0049107336200403936 -3.9359930868936289e-05 0 0.0048177553216699953 1.4156449409860786e-05 0 0.0046959564527258449 -4.1464560520690302e-05 0 0.0049107336200403936 -3.9359930868936289e-05 0 0.0048177553216699953 1.4156449409860786e-05 0 0.0049459325237240165 -6.4130118451044111e-06 0 0.0048177553216699953 1.4156449409860786e-05 0 0.0049262408265896519 6.3934217639139093e-05 0 0.0047231390642643988 7.3373126939334712e-05 0 0.0048177553216699953 1.4156449409860786e-05 0 0.0047231390642643988 7.3373126939334712e-05 0 0.0046877635259055745 3.5136798669345425e-05 0 0.0049853700996697094 -5.0576411840566673e-06 0 0.0049702734565111222 9.3146677174463817e-06 0 0.0049459325237240165 -6.4130118451044111e-06 0 0.0048177553216699953 1.4156449409860786e-05 0 0.0049459325237240165 -6.4130118451044111e-06 0 0.0049262408265896519 6.3934217639139093e-05 0 0.0049839799471956608 2.5621803818651645e-05 0 0.0049702734565111222 9.3146677174463817e-06 0 0.0049262408265896519 6.3934217639139093e-05 0 0.0049702734565111222 9.3146677174463817e-06 0 0.0049459325237240165 -6.4130118451044111e-06 0 0.0049262408265896519 6.3934217639139093e-05 0 0.0047514412543955302 5.93327614121765e-05 0 0.0047601854777713946 7.3174801464457491e-05 0 0.0045518200801040812 5.8983051580088387e-05 0 0.0045501062447949516 7.3035917614724596e-05 0 0.004588062681706466 9.2147480114702061e-05 0 0.0045518200801040812 5.8983051580088387e-05 0 0.004588062681706466 9.2147480114702061e-05 0 0.004576574249508269 4.5092592732263636e-05 0 0.004576574249508269 4.5092592732263636e-05 0 0.00454787612836355 1.8038114016844711e-05 0 0.0045803596366895431 2.1911891440735821e-05 0 0.0045518200801040812 5.8983051580088387e-05 0 0.004576574249508269 4.5092592732263636e-05 0 0.00454787612836355 1.8038114016844711e-05 0 0.004576574249508269 4.5092592732263636e-05 0 0.004622311334322244 4.5084866493888933e-05 0 0.0045803596366895431 2.1911891440735821e-05 0 0.004588062681706466 9.2147480114702061e-05 0 0.004576574249508269 4.5092592732263636e-05 0 0.004622311334322244 4.5084866493888933e-05 0 0.0047601854777713946 7.3174801464457491e-05 0 0.0047254632140133574 7.5802426931122173e-05 0 0.004588062681706466 9.2147480114702061e-05 0 0.004622311334322244 4.5084866493888933e-05 0 0.0047231390642643988 7.3373126939334712e-05 0 0.0047231390642643988 7.3373126939334712e-05 0 0.0046646009109102271 5.018178152096124e-05 0 0.0046877635259055745 3.5136798669345425e-05 0 0.0046229229594798643 2.7300490792611738e-05 0 0.0046301929433479024 3.2022842537375994e-05 0 0.0046646009109102271 5.018178152096124e-05 0 0.0047231390642643988 7.3373126939334712e-05 0 0.0046229229594798643 2.7300490792611738e-05 0 0.0046646009109102271 5.018178152096124e-05 0 0.004622311334322244 4.5084866493888933e-05 0 0.0047231390642643988 7.3373126939334712e-05 0 0.0046229229594798643 2.7300490792611738e-05 0 0.004622311334322244 4.5084866493888933e-05 0 0.0046229229594798643 2.7300490792611738e-05 0 0.0045803596366895431 2.1911891440735821e-05 0 0.0046229229594798643 2.7300490792611738e-05 0 0.0045666412875290281 8.1337248749430339e-06 0 0.0045803596366895431 2.1911891440735821e-05 0 0.0046229229594798643 2.7300490792611738e-05 0 0.0045833698865191683 1.2989051900772419e-05 0 0.0045666412875290281 8.1337248749430339e-06 0 0.0046229229594798643 2.7300490792611738e-05 0 0.0046018191353192472 2.0476312772112502e-05 0 0.0046301929433479024 3.2022842537375994e-05 0 0.0046229229594798643 2.7300490792611738e-05 0 0.0046018191353192472 2.0476312772112502e-05 0 0.0045833698865191683 1.2989051900772419e-05 0 0.0045654335941288553 6.6151410891488532e-06 0 0.0045881931880597821 1.4992644469848285e-05 0 0.0046018191353192472 2.0476312772112502e-05 0 0.0045654335941288553 6.6151410891488532e-06 0 0.0046018191353192472 2.0476312772112502e-05 0 0.0045833698865191683 1.2989051900772419e-05 0 0.0045457480740146378 2.2981179116183856e-06 0 0.0045833698865191683 1.2989051900772419e-05 0 0.0045666412875290281 8.1337248749430339e-06 0 0.0045315676198206326 -2.7075891801798343e-06 0 0.0045457480740146378 2.2981179116183856e-06 0 0.0045666412875290281 8.1337248749430339e-06 0 0.0045315676198206326 -2.7075891801798343e-06 0 0.0045666412875290281 8.1337248749430339e-06 0 0.0045492262033586797 4.7436194112928396e-06 0 0.0045315676198206326 -2.7075891801798343e-06 0 0.0045257317025742408 -1.1549134078137809e-05 0 0.0045492262033586797 4.7436194112928396e-06 0 0.0045257317025742408 -1.1549134078137809e-05 0 0.00454787612836355 1.8038114016844711e-05 0 0.0045492262033586797 4.7436194112928396e-06 0 0.00454787612836355 1.8038114016844711e-05 0 0.0045492262033586797 4.7436194112928396e-06 0 0.0045803596366895431 2.1911891440735821e-05 0 0.0045666412875290281 8.1337248749430339e-06 0 0.0045492262033586797 4.7436194112928396e-06 0 0.0045803596366895431 2.1911891440735821e-05 0 0.0046124644351806287 2.8012596039128551e-05 0 0.0046047934830683555 2.3756079672419525e-05 0 0.0046105339991534718 2.443012921673641e-05 0 0.0046047934830683555 2.3756079672419525e-05 0 0.0046105339991534718 2.443012921673641e-05 0 0.0046028214206820933 2.124307057199123e-05 0 0.0046047934830683555 2.3756079672419525e-05 0 0.0046028214206820933 2.124307057199123e-05 0 0.0046011426665963084 1.9838456452324572e-05 0 0.0045984957063335474 1.8556594992249107e-05 0 0.0046011426665963084 1.9838456452324572e-05 0 0.0045971129163132445 1.4113556006091605e-05 0 0.0046047934830683555 2.3756079672419525e-05 0 0.0045984957063335474 1.8556594992249107e-05 0 0.0046011426665963084 1.9838456452324572e-05 0 0.0046047934830683555 2.3756079672419525e-05 0 0.0045984957063335474 1.8556594992249107e-05 0 0.0045971881608884366 1.9222404586536602e-05 0 0.0046124644351806287 2.8012596039128551e-05 0 0.0046047934830683555 2.3756079672419525e-05 0 0.0045971881608884366 1.9222404586536602e-05 0 0.0046124644351806287 2.8012596039128551e-05 0 0.0045971881608884366 1.9222404586536602e-05 0 0.0045962437751317442 1.9235358310448987e-05 0 0.0046124644351806287 2.8012596039128551e-05 0 0.0045962437751317442 1.9235358310448987e-05 0 0.0046113999824350903 2.6134138515490985e-05 0 0.0045881931880597821 1.4992644469848285e-05 0 0.0045962437751317442 1.9235358310448987e-05 0 0.0046113999824350903 2.6134138515490985e-05 0 0.0045881931880597821 1.4992644469848285e-05 0 0.0046018191353192472 2.0476312772112502e-05 0 0.0046113999824350903 2.6134138515490985e-05 0 0.0046018191353192472 2.0476312772112502e-05 0 0.0046301929433479024 3.2022842537375994e-05 0 0.0046113999824350903 2.6134138515490985e-05 0 0.0046301929433479024 3.2022842537375994e-05 0 0.0046113999824350903 2.6134138515490985e-05 0 0.0046320946495147421 3.4652028536896295e-05 0 0.0046124644351806287 2.8012596039128551e-05 0 0.0046113999824350903 2.6134138515490985e-05 0 0.0046320946495147421 3.4652028536896295e-05 0 0.0046124644351806287 2.8012596039128551e-05 0 0.0046320946495147421 3.4652028536896295e-05 0 0.0046264440810965604 2.4652637851456136e-05 0 0.0046320946495147421 3.4652028536896295e-05 0 0.0046499119786630773 3.5539418242987999e-05 0 0.0046264440810965604 2.4652637851456136e-05 0 0.0046320946495147421 3.4652028536896295e-05 0 0.0046646009109102271 5.018178152096124e-05 0 0.0046499119786630773 3.5539418242987999e-05 0 0.0046301929433479024 3.2022842537375994e-05 0 0.0046320946495147421 3.4652028536896295e-05 0 0.0046646009109102271 5.018178152096124e-05 0 0.0046646009109102271 5.018178152096124e-05 0 0.0046499119786630773 3.5539418242987999e-05 0 0.0046877635259055745 3.5136798669345425e-05 0 0.0046499119786630773 3.5539418242987999e-05 0 0.0046264440810965604 2.4652637851456136e-05 0 0.0046455449780988282 1.4324038260033969e-05 0 0.0046264440810965604 2.4652637851456136e-05 0 0.0046105339991534718 2.443012921673641e-05 0 0.0046028047113225697 1.6292199023979212e-05 0 0.0046264440810965604 2.4652637851456136e-05 0 0.0046271783165830072 2.1890839444850841e-07 0 0.0046028047113225697 1.6292199023979212e-05 0 0.0046264440810965604 2.4652637851456136e-05 0 0.0046271783165830072 2.1890839444850841e-07 0 0.0046455449780988282 1.4324038260033969e-05 0 0.0046124644351806287 2.8012596039128551e-05 0 0.0046264440810965604 2.4652637851456136e-05 0 0.0046105339991534718 2.443012921673641e-05 0 0.004629065028471894 -1.5878265957751744e-06 0 0.0046262236561288453 -1.3331020661256832e-05 0 0.0046400310141166768 -7.1564190974345634e-06 0 0.0046271783165830072 2.1890839444850841e-07 0 0.0046572666281035017 -4.0403251552682594e-05 0 0.0046400310141166768 -7.1564190974345634e-06 0 0.0046271783165830072 2.1890839444850841e-07 0 0.0046296748527538904 -1.2089459401301889e-05 0 0.0046271783165830072 2.1890839444850841e-07 0 0.0046296748527538904 -1.2089459401301889e-05 0 0.0046455449780988282 1.4324038260033969e-05 0 0.0049982968287987312 -1.1757649693530387e-05 0 0.0049988811080871115 -8.1048660540071879e-06 0 0.0049991285388270856 -7.9446144550943956e-06 0 0.0046400310141166768 -7.1564190974345634e-06 0 0.0046296748527538904 -1.2089459401301889e-05 0 0.0046477517394331149 -1.2125993208993469e-06 0 0.0048219659415660587 -1.450726608076188e-05 0 0.0047933279190015684 3.9131970498243653e-06 0 0.0049982968287987312 -1.1757649693530387e-05 0 0.0049988811080871115 -8.1048660540071879e-06 0 0.0049983599532861401 -7.3569013398049224e-06 0 0.0049988811080871115 -8.1048660540071879e-06 0 0.0049992280472993039 -7.1014399131873964e-06 0 0.0049992673572627263 -6.7019728219484007e-06 0 0.0046877635259055745 3.5136798669345425e-05 0 0.0046455449780988282 1.4324038260033969e-05 0 0.0046959564527258449 -4.1464560520690302e-05 0 0.0046499119786630773 3.5539418242987999e-05 0 0.0046877635259055745 3.5136798669345425e-05 0 0.0046455449780988282 1.4324038260033969e-05 0 0.0046296748527538904 -1.2089459401301889e-05 0 0.0046455449780988282 1.4324038260033969e-05 0 0.0046959564527258449 -4.1464560520690302e-05 0 0.0048219659415660587 -1.450726608076188e-05 0 0.0048416658172598616 -3.0864860780947505e-05 0 0.0049899865247825352 -2.4591238857878821e-05 0 0.0049991674090727146 -8.3972255119694018e-06 0 0.0050000169736221997 -1.1550944566898807e-08 0 0.0049999183593200502 1.6687381612439968e-08 0 0.0049899865247825352 -2.4591238857878821e-05 0 0.0050000169736221997 -1.1550944566898807e-08 0 0.0049982968287987312 -1.1757649693530387e-05 0 0.0049899865247825352 -2.4591238857878821e-05 0 0.0049991674090727146 -8.3972255119694018e-06 0 0.0049991674090727146 -8.3972255119694018e-06 0 0.0050000169736221997 -1.1550944566898807e-08 0 0.0049999941535302239 -3.6095275417386652e-09 0 0.0049988811080871115 -8.1048660540071879e-06 0 0.0049992280472993039 -7.1014399131873964e-06 0 0.0049991285388270856 -7.9446144550943956e-06 0 0.0049997452260124248 -5.2480773966898164e-06 0 0.0049992280472993039 -7.1014399131873964e-06 0 0.0049991285388270856 -7.9446144550943956e-06 0 0.0049982968287987312 -1.1757649693530387e-05 0 0.0049991674090727146 -8.3972255119694018e-06 0 0.0049991285388270856 -7.9446144550943956e-06 0 0.0049991674090727146 -8.3972255119694018e-06 0 0.0049991285388270856 -7.9446144550943956e-06 0 0.0049999941535302239 -3.6095275417386652e-09 0 0.0049997452260124248 -5.2480773966898164e-06 0 0.0049991285388270856 -7.9446144550943956e-06 0 0.0049999941535302239 -3.6095275417386652e-09 0 0.0049997452260124248 -5.2480773966898164e-06 0 0.0049999941535302239 -3.6095275417386652e-09 0 0.005000006498787922 -4.3280379113468993e-09 0 0.0049997452260124248 -5.2480773966898164e-06 0 0.005000006498787922 -4.3280379113468993e-09 0 0.0050000478344476088 -4.6302880377109707e-06 0 0.005000006498787922 -4.3280379113468993e-09 0 0.0050000478344476088 -4.6302880377109707e-06 0 0.0050012596510420823 -4.2864988770494426e-06 0 0.0049997452260124248 -5.2480773966898164e-06 0 0.0050000478344476088 -4.6302880377109707e-06 0 0.0049995953074233159 -6.1387463987157777e-06 0 0.0050000478344476088 -4.6302880377109707e-06 0 0.0049999837124711892 -5.8219322201857328e-06 0 0.0050012596510420823 -4.2864988770494426e-06 0 0.0050000478344476088 -4.6302880377109707e-06 0 0.0049999837124711892 -5.8219322201857328e-06 0 0.0049995953074233159 -6.1387463987157777e-06 0 0.0049999837124711892 -5.8219322201857328e-06 0 0.0049995953074233159 -6.1387463987157777e-06 0 0.0049992673572627263 -6.7019728219484007e-06 0 0.0049997452260124248 -5.2480773966898164e-06 0 0.0049992280472993039 -7.1014399131873964e-06 0 0.0049995953074233159 -6.1387463987157777e-06 0 0.0049992280472993039 -7.1014399131873964e-06 0 0.0049995953074233159 -6.1387463987157777e-06 0 0.0049992673572627263 -6.7019728219484007e-06 0 0.0049999837124711892 -5.8219322201857328e-06 0 0.0050002824423014385 -6.3576055400344472e-06 0 0.0049992673572627263 -6.7019728219484007e-06 0 0.0049999837124711892 -5.8219322201857328e-06 0 0.0050002824423014385 -6.3576055400344472e-06 0 0.0050012596510420823 -4.2864988770494426e-06 0 0.0049981341408605207 -8.1894394552204797e-07 0 0.0049991815789864865 -3.9339332543471038e-07 0 0.0049989939677265926 -4.8516037516849039e-07 0 0.0048462470919827779 -1.4591441472664935e-05 0 0.0050042607771196195 -1.1101752535490229e-05 0 0.0049999990799956861 -1.8028499083345573e-10 0 0.0049991815789864865 -3.9339332543471038e-07 0 0.0049999982322467221 -4.40187652479624e-10 0 0.0049999961522146875 6.5682904938570205e-09 0 0.0050042607771196195 -1.1101752535490229e-05 0 0.0049991815789864865 -3.9339332543471038e-07 0 0.0049999982322467221 -4.40187652479624e-10 0 0.0049989939677265926 -4.8516037516849039e-07 0 0.0049999982322467221 -4.40187652479624e-10 0 0.0049988755750662766 -6.6083505761860711e-07 0 0.0049989939677265926 -4.8516037516849039e-07 0 0.0049999982322467221 -4.40187652479624e-10 0 0.0049988755750662766 -6.6083505761860711e-07 0 0.0049999986556094325 -4.0530929337838921e-10 0 0.00485101898314596 -3.2557693325676202e-05 0 0.004866990584396047 -1.7408873935923896e-05 0 0.004697325757585448 -6.6740747933296258e-05 0 0.0047020303017541376 -5.5676260857986633e-05 0 0.0047133297368782212 -7.5717297680316886e-05 0 0.0048462470919827779 -1.4591441472664935e-05 0 0.00485101898314596 -3.2557693325676202e-05 0 0.0049981341408605207 -8.1894394552204797e-07 0 0.0049988755750662766 -6.6083505761860711e-07 0 0.0049989939677265926 -4.8516037516849039e-07 0 0.0047200003351411408 -5.9777337243810528e-05 0 0.004697325757585448 -6.6740747933296258e-05 0 0.0047030489269214871 -5.3988962447066792e-05 0 0.0047200003351411408 -5.9777337243810528e-05 0 0.0047030489269214871 -5.3988962447066792e-05 0 0.0047003491579593257 -3.351526433912823e-05 0 0.0048462470919827779 -1.4591441472664935e-05 0 0.004663856362293454 -2.5658333580341186e-05 0 0.0047030489269214871 -5.3988962447066792e-05 0 0.0047020303017541376 -5.5676260857986633e-05 0 0.0047003491579593257 -3.351526433912823e-05 0 0.004697325757585448 -6.6740747933296258e-05 0 0.0047030489269214871 -5.3988962447066792e-05 0 0.0047020303017541376 -5.5676260857986633e-05 0 0.0047020303017541376 -5.5676260857986633e-05 0 0.0047003491579593257 -3.351526433912823e-05 0 0.0046970616335308664 -3.8489861675593735e-05 0 0.0046606344894463466 -2.0337001233859208e-05 0 0.0046744758333677541 -1.0924058843086815e-05 0 0.0046817817330838648 -3.4864305562727102e-05 0 0.0047003491579593257 -3.351526433912823e-05 0 0.0046744758333677541 -1.0924058843086815e-05 0 0.0046817817330838648 -3.4864305562727102e-05 0 0.0046400310141166768 -7.1564190974345634e-06 0 0.0046606344894463466 -2.0337001233859208e-05 0 0.0046572666281035017 -4.0403251552682594e-05 0 0.0046400310141166768 -7.1564190974345634e-06 0 0.0046535962661036186 -8.2405824805487837e-06 0 0.0046477517394331149 -1.2125993208993469e-06 0 0.0046400310141166768 -7.1564190974345634e-06 0 0.0046606344894463466 -2.0337001233859208e-05 0 0.0046535962661036186 -8.2405824805487837e-06 0 0.0046606344894463466 -2.0337001233859208e-05 0 0.0046535962661036186 -8.2405824805487837e-06 0 0.0046744758333677541 -1.0924058843086815e-05 0 0.0050002824423014385 -6.3576055400344472e-06 0 0.0049983599532861401 -7.3569013398049224e-06 0 0.0049992673572627263 -6.7019728219484007e-06 0 0.0046535962661036186 -8.2405824805487837e-06 0 0.0046477517394331149 -1.2125993208993469e-06 0 0.0046744758333677541 -1.0924058843086815e-05 0 0.0047933279190015684 3.9131970498243653e-06 0 0.0046253779060903468 -1.8324272389472413e-06 0 0.0048462470919827779 -1.4591441472664935e-05 0 0.0047933279190015684 3.9131970498243653e-06 0 0.0049988811080871115 -8.1048660540071879e-06 0 0.0049983599532861401 -7.3569013398049224e-06 0 0.0049992673572627263 -6.7019728219484007e-06 0 0.0046861678285319867 9.2239267373070399e-06 0 0.0047003491579593257 -3.351526433912823e-05 0 0.0046744758333677541 -1.0924058843086815e-05 0 0.0046861678285319867 9.2239267373070399e-06 0 0.0046538159814441642 -7.3783015018894036e-06 0 0.0046744758333677541 -1.0924058843086815e-05 0 0.0049849162341748443 -3.5935981107654287e-05 0 0.0050000918217381228 -7.0760797281630751e-08 0 0.0049995449023718342 -2.641958486072188e-05 0 0.0049849162341748443 -3.5935981107654287e-05 0 0.0050000918217381228 -7.0760797281630751e-08 0 0.0049995912684688473 1.6634730352987092e-07 0 0.0049849162341748443 -3.5935981107654287e-05 0 0.0049995912684688473 1.6634730352987092e-07 0 0.0049205173033828242 -4.3057249304142629e-05 0 0.0049849162341748443 -3.5935981107654287e-05 0 0.0049205173033828242 -4.3057249304142629e-05 0 0.0049641020763530799 -8.6599801783657508e-05 0 0.0049205173033828242 -4.3057249304142629e-05 0 0.0047530537552792603 -8.8842909552891623e-05 0 0.0049641020763530799 -8.6599801783657508e-05 0 0.0049205173033828242 -4.3057249304142629e-05 0 0.0047530537552792603 -8.8842909552891623e-05 0 0.0047293683041217203 -2.3699594912213636e-05 0 0.0047534530102177472 -8.2807419986503347e-05 0 0.0047798952204296001 -7.5432976204477543e-05 0 0.0049999454328354459 -1.4762136716080561e-09 0 0.004866990584396047 -1.7408873935923896e-05 0 0.0049995912684688473 1.6634730352987092e-07 0 0.0049205173033828242 -4.3057249304142629e-05 0 0.0047293683041217203 -2.3699594912213636e-05 0 0.0049988755750662766 -6.6083505761860711e-07 0 0.0049999986556094325 -4.0530929337838921e-10 0 0.0049995693990299269 -2.8691663226022323e-07 0 0.0049999998805830533 9.5882639799227596e-11 0 0.0049999986556094325 -4.0530929337838921e-10 0 0.0049995693990299269 -2.8691663226022323e-07 0 0.004697325757585448 -6.6740747933296258e-05 0 0.0047293683041217203 -2.3699594912213636e-05 0 0.0047133297368782212 -7.5717297680316886e-05 0 0.0047530537552792603 -8.8842909552891623e-05 0 0.0047133297368782212 -7.5717297680316886e-05 0 0.0046611340382551065 -6.5185560425508673e-05 0 0.0047530537552792603 -8.8842909552891623e-05 0 0.0047293683041217203 -2.3699594912213636e-05 0 0.0047133297368782212 -7.5717297680316886e-05 0 0.0047020303017541376 -5.5676260857986633e-05 0 0.0047133297368782212 -7.5717297680316886e-05 0 0.0046611340382551065 -6.5185560425508673e-05 0 0.0047020303017541376 -5.5676260857986633e-05 0 0.0046852024472521774 -3.8121675303145702e-05 0 0.0046611340382551065 -6.5185560425508673e-05 0 0.0047020303017541376 -5.5676260857986633e-05 0 0.0046852024472521774 -3.8121675303145702e-05 0 0.0046970616335308664 -3.8489861675593735e-05 0 0.0044863334286308343 -9.8269724045003631e-05 0 0.0046156300357268771 -6.829375292474171e-05 0 0.0045919700529633619 -0.00010674452162229297 0 0.0045872191510386139 -7.7356680235668326e-05 0 0.0046433673618380168 -6.8810810139627448e-05 0 0.0044863334286308343 -9.8269724045003631e-05 0 0.0046611340382551065 -6.5185560425508673e-05 0 0.0046156300357268771 -6.829375292474171e-05 0 0.0047530537552792603 -8.8842909552891623e-05 0 0.0046611340382551065 -6.5185560425508673e-05 0 0.0046213075640944212 -7.131214106470977e-05 0 0.0046611340382551065 -6.5185560425508673e-05 0 0.0046156300357268771 -6.829375292474171e-05 0 0.0046213075640944212 -7.131214106470977e-05 0 0.0046156300357268771 -6.829375292474171e-05 0 0.0046213075640944212 -7.131214106470977e-05 0 0.0046496197761330743 -7.0204595036684443e-05 0 0.0046156300357268771 -6.829375292474171e-05 0 0.0045919700529633619 -0.00010674452162229297 0 0.0046496197761330743 -7.0204595036684443e-05 0 0.0045919700529633619 -0.00010674452162229297 0 0.0046496197761330743 -7.0204595036684443e-05 0 0.0046169640090774032 -0.00014025703153107758 0 0.0046496197761330743 -7.0204595036684443e-05 0 0.0046169640090774032 -0.00014025703153107758 0 0.0046711444089552467 -0.00015169088699700485 0 0.0049849162341748443 -3.5935981107654287e-05 0 0.0049641020763530799 -8.6599801783657508e-05 0 0.0049901122161231659 -5.4704229260154619e-05 0 0.0047798952204296001 -7.5432976204477543e-05 0 0.0048601016549645491 -6.1669126292938898e-05 0 0.0043544575829213951 -0.00035533403550629431 0 0.0043150112092980482 -0.0003704085580965454 0 0.0046147370055619041 -0.00023824252939923105 0 0.0046169640090774032 -0.00014025703153107758 0 0.0046711444089552467 -0.00015169088699700485 0 0.0045919700529633619 -0.00010674452162229297 0 0.0046169640090774032 -0.00014025703153107758 0 0.0045183035604590745 -0.00019029608571359414 0 0.0046147370055619041 -0.00023824252939923105 0 0.0046169640090774032 -0.00014025703153107758 0 0.0045183035604590745 -0.00019029608571359414 0 0.0045183035604590745 -0.00019029608571359414 0 0.0043580138324744149 -0.00020723878818095602 0 0.0043950313548949986 -0.0002841881759085695 0 0.0044863334286308343 -9.8269724045003631e-05 0 0.0045919700529633619 -0.00010674452162229297 0 0.0045183035604590745 -0.00019029608571359414 0 0.0045872191510386139 -7.7356680235668326e-05 0 0.0045288045063031071 -0.00012704460143227953 0 0.0044863334286308343 -9.8269724045003631e-05 0 0.0045183035604590745 -0.00019029608571359414 0 0.0043580138324744149 -0.00020723878818095602 0 0.0046852024472521774 -3.8121675303145702e-05 0 0.0046963645636121194 -4.2376928032143282e-05 0 0.0046970616335308664 -3.8489861675593735e-05 0 0.0043183668594938092 -0.00039370812019475323 0 0.0043950313548949986 -0.0002841881759085695 0 0.0042887889495133785 -0.00030909422306441497 0 0.0043580138324744149 -0.00020723878818095602 0 0.0043950313548949986 -0.0002841881759085695 0 0.0042887889495133785 -0.00030909422306441497 0 0.0043183668594938092 -0.00039370812019475323 0 0.0043257866229010917 -0.00041984169589878045 0 0.0043173285490838648 -0.00040098800930313196 0 0.0042676196620480486 -0.00044022994404668646 0 0.004482521518829552 -0.00018175519089194407 0 0.004389280173035439 -0.00035261127201258153 0 0.0043183668594938092 -0.00039370812019475323 0 0.0043950313548949986 -0.0002841881759085695 0 0.0043096394466757672 -0.00040519556500335819 0 0.0042810921049169209 -0.00040888956579019601 0 0.004389280173035439 -0.00035261127201258153 0 0.0043183668594938092 -0.00039370812019475323 0 0.0042669027822953226 -0.00041567305169110607 0 0.004389280173035439 -0.00035261127201258153 0 0.0044924836393975152 -0.00034840352856837446 0 0.0042669027822953226 -0.00041567305169110607 0 0.0041271949956217394 -0.00047371728241630835 0 0.0042669027822953226 -0.00041567305169110607 0 0.0041442635773222113 -0.00040446613521743596 0 0.0045183035604590745 -0.00019029608571359414 0 0.0043950313548949986 -0.0002841881759085695 0 0.0044924836393975152 -0.00034840352856837446 0 0.004389280173035439 -0.00035261127201258153 0 0.0043950313548949986 -0.0002841881759085695 0 0.0044924836393975152 -0.00034840352856837446 0 0.0043544575829213951 -0.00035533403550629431 0 0.0043096394466757672 -0.00040519556500335819 0 0.0046147370055619041 -0.00023824252939923105 0 0.0045183035604590745 -0.00019029608571359414 0 0.0044924836393975152 -0.00034840352856837446 0 0.0041271949956217394 -0.00047371728241630835 0 0.0040811520912865063 -0.00041228255287066037 0 0.0041442635773222113 -0.00040446613521743596 0 0.0041271949956217394 -0.00047371728241630835 0 0.0040717107432728574 -0.00045613951445844735 0 0.0040811520912865063 -0.00041228255287066037 0 0.0040717107432728574 -0.00045613951445844735 0 0.0040811520912865063 -0.00041228255287066037 0 0.0040399760491822189 -0.00041940426000514113 0 0.0040777794543265938 -0.00048977321941965225 0 0.0040717107432728574 -0.00045613951445844735 0 0.0040424115742723182 -0.00047082473705630141 0 0.0040777794543265938 -0.00048977321941965225 0 0.0041271949956217394 -0.00047371728241630835 0 0.0040717107432728574 -0.00045613951445844735 0 0.0046689214409640235 4.0466081105653084e-06 0 0.0046262236561288453 -1.3331020661256832e-05 0 0.0046006524138275887 1.8546075943301525e-05 0 0.0046028047113225697 1.6292199023979212e-05 0 0.0046028214206820933 2.124307057199123e-05 0 0.0046105339991534718 2.443012921673641e-05 0 0.0046028047113225697 1.6292199023979212e-05 0 0.0046028214206820933 2.124307057199123e-05 0 0.0046606344894463466 -2.0337001233859208e-05 0 0.0046572666281035017 -4.0403251552682594e-05 0 0.0046817817330838648 -3.4864305562727102e-05 0 0.0046851505709330525 -5.027458836177207e-05 0 0.0046572666281035017 -4.0403251552682594e-05 0 0.0046817817330838648 -3.4864305562727102e-05 0 0.0047003491579593257 -3.351526433912823e-05 0 0.0046817817330838648 -3.4864305562727102e-05 0 0.0046942217100022924 -4.1180877819980512e-05 0 0.0046851505709330525 -5.027458836177207e-05 0 0.0046817817330838648 -3.4864305562727102e-05 0 0.0046942217100022924 -4.1180877819980512e-05 0 0.0047003491579593257 -3.351526433912823e-05 0 0.0046942217100022924 -4.1180877819980512e-05 0 0.0046970616335308664 -3.8489861675593735e-05 0 0.0046963645636121194 -4.2376928032143282e-05 0 0.0046942217100022924 -4.1180877819980512e-05 0 0.0046970616335308664 -3.8489861675593735e-05 0 0.0046963645636121194 -4.2376928032143282e-05 0 0.0046942217100022924 -4.1180877819980512e-05 0 0.0046933583945311802 -5.3469174976942514e-05 0 0.0046851505709330525 -5.027458836177207e-05 0 0.0046942217100022924 -4.1180877819980512e-05 0 0.0046933583945311802 -5.3469174976942514e-05 0 0.0046689214409640235 4.0466081105653084e-06 0 0.004482521518829552 -0.00018175519089194407 0 0.0046006524138275887 1.8546075943301525e-05 0 0.0046033213942582021 1.6007184284765288e-05 0 0.0046002907166464192 1.7468780452774594e-05 0 0.0045288045063031071 -0.00012704460143227953 0 0.004482521518829552 -0.00018175519089194407 0 0.0043257866229010917 -0.00041984169589878045 0 0.0043173285490838648 -0.00040098800930313196 0 0.0043577767460772363 -0.00039801630509475746 0 0.004482521518829552 -0.00018175519089194407 0 0.00447873522469269 -0.00019954024381121455 0 0.0046033213942582021 1.6007184284765288e-05 0 0.004598463329978748 1.3355734012128209e-05 0 0.0046045662611587847 5.3990184163911532e-06 0 0.0046033213942582021 1.6007184284765288e-05 0 0.004598463329978748 1.3355734012128209e-05 0 0.0046002907166464192 1.7468780452774594e-05 0 0.004598463329978748 1.3355734012128209e-05 0 0.0046011954552134257 1.5365893081198346e-05 0 0.0046002907166464192 1.7468780452774594e-05 0 0.0046006524138275887 1.8546075943301525e-05 0 0.0046002907166464192 1.7468780452774594e-05 0 0.0046028214206820933 2.124307057199123e-05 0 0.0046002907166464192 1.7468780452774594e-05 0 0.0046028214206820933 2.124307057199123e-05 0 0.0046011426665963084 1.9838456452324572e-05 0 0.0046011954552134257 1.5365893081198346e-05 0 0.0046011426665963084 1.9838456452324572e-05 0 0.0045971129163132445 1.4113556006091605e-05 0 0.0046011954552134257 1.5365893081198346e-05 0 0.0046002907166464192 1.7468780452774594e-05 0 0.0046011426665963084 1.9838456452324572e-05 0 0.0046011954552134257 1.5365893081198346e-05 0 0.0045971129163132445 1.4113556006091605e-05 0 0.0045999324546448775 1.2085404612685814e-05 0 0.0045971129163132445 1.4113556006091605e-05 0 0.0045999324546448775 1.2085404612685814e-05 0 0.0045943589964204719 4.3504960621239925e-06 0 0.004598463329978748 1.3355734012128209e-05 0 0.0046011954552134257 1.5365893081198346e-05 0 0.0046046738410640466 9.8548857268654436e-06 0 0.004598463329978748 1.3355734012128209e-05 0 0.0045618283357957831 -2.1156338955398338e-05 0 0.0045873405793770269 -8.8540590454504293e-06 0 0.0046011954552134257 1.5365893081198346e-05 0 0.0045999324546448775 1.2085404612685814e-05 0 0.0046046738410640466 9.8548857268654436e-06 0 0.004596758255114795 1.1784230420625076e-05 0 0.0045836480625239175 -6.4747629376077664e-06 0 0.0045618283357957831 -2.1156338955398338e-05 0 0.0045433893195290969 -5.4179161382133803e-05 0 0.004562767719048409 -4.3189333927270556e-05 0 0.0045618283357957831 -2.1156338955398338e-05 0 0.0045851426692536008 -3.3804083738575024e-05 0 0.0045873405793770269 -8.8540590454504293e-06 0 0.0045618283357957831 -2.1156338955398338e-05 0 0.004562767719048409 -4.3189333927270556e-05 0 0.0045851426692536008 -3.3804083738575024e-05 0 0.0045836480625239175 -6.4747629376077664e-06 0 0.0045682335105667361 -3.3257664166593444e-05 0 0.0045999324546448775 1.2085404612685814e-05 0 0.0046046738410640466 9.8548857268654436e-06 0 0.0045943589964204719 4.3504960621239925e-06 0 0.0046046738410640466 9.8548857268654436e-06 0 0.0045943589964204719 4.3504960621239925e-06 0 0.0045950758894591943 -1.4392469151418454e-05 0 0.0045189330300100822 -0.00013173479809464459 0 0.004501399604946674 -0.0001745560078571955 0 0.0045433893195290969 -5.4179161382133803e-05 0 0.004562767719048409 -4.3189333927270556e-05 0 0.0045614666091863022 -5.8924563073172866e-05 0 0.004562767719048409 -4.3189333927270556e-05 0 0.0045614666091863022 -5.8924563073172866e-05 0 0.0045851426692536008 -3.3804083738575024e-05 0 0.0044767619391789968 -0.00020901747661890852 0 0.0045345116029489397 -7.2949700869889153e-05 0 0.0044358285884697427 -9.3871889142810766e-05 0 0.0045614666091863022 -5.8924563073172866e-05 0 0.0045441884326266222 -6.4625825987848023e-05 0 0.004546063213926972 -6.0825243026538829e-05 0 0.0045614666091863022 -5.8924563073172866e-05 0 0.0045441884326266222 -6.4625825987848023e-05 0 0.0045345116029489397 -7.2949700869889153e-05 0 0.0045189330300100822 -0.00013173479809464459 0 0.0045352978550086409 -7.6727224665440466e-05 0 0.0045441884326266222 -6.4625825987848023e-05 0 0.004546063213926972 -6.0825243026538829e-05 0 0.004547818133871567 -6.0801892508272985e-05 0 0.0045478070417103375 -5.1520891487403241e-05 0 0.004546063213926972 -6.0825243026538829e-05 0 0.004547818133871567 -6.0801892508272985e-05 0 0.0045478070417103375 -5.1520891487403241e-05 0 0.0045433893195290969 -5.4179161382133803e-05 0 0.004546063213926972 -6.0825243026538829e-05 0 0.0045433893195290969 -5.4179161382133803e-05 0 0.0045614666091863022 -5.8924563073172866e-05 0 0.004546063213926972 -6.0825243026538829e-05 0 0.0043429188556489305 -0.00013502947241254769 0 0.0043806647835860192 -0.00023946402604838575 0 0.0042856406042515015 -0.00021821186083447575 0 0.0043429188556489305 -0.00013502947241254769 0 0.0042856406042515015 -0.00021821186083447575 0 0.0042734030823575343 -0.00013819802548863247 0 0.0044767619391789968 -0.00020901747661890852 0 0.0044088696195661494 -0.00016975540488605063 0 0.0044358285884697427 -9.3871889142810766e-05 0 0.0043429188556489305 -0.00013502947241254769 0 0.0044088696195661494 -0.00016975540488605063 0 0.0043806647835860192 -0.00023946402604838575 0 0.0043429188556489305 -0.00013502947241254769 0 0.0044088696195661494 -0.00016975540488605063 0 0.0044358285884697427 -9.3871889142810766e-05 0 0.0044767619391789968 -0.00020901747661890852 0 0.0044088696195661494 -0.00016975540488605063 0 0.0043806647835860192 -0.00023946402604838575 0 0.0043806647835860192 -0.00023946402604838575 0 0.0044172305432831644 -0.00032123960104511946 0 0.0043667581600507948 -0.00031123070493934828 0 0.0044767619391789968 -0.00020901747661890852 0 0.0043806647835860192 -0.00023946402604838575 0 0.0044172305432831644 -0.00032123960104511946 0 0.0043806647835860192 -0.00023946402604838575 0 0.0043236675769441346 -0.00029874708664625487 0 0.0043667581600507948 -0.00031123070493934828 0 0.0043806647835860192 -0.00023946402604838575 0 0.0043236675769441346 -0.00029874708664625487 0 0.0042856406042515015 -0.00021821186083447575 0 0.0043236675769441346 -0.00029874708664625487 0 0.0042703589831965972 -0.00029910186791772849 0 0.0042856406042515015 -0.00021821186083447575 0 0.0043236675769441346 -0.00029874708664625487 0 0.0043457793150213529 -0.00035620736975008866 0 0.0043667581600507948 -0.00031123070493934828 0 0.0043236675769441346 -0.00029874708664625487 0 0.0043457793150213529 -0.00035620736975008866 0 0.0042942778649363482 -0.00034677407472640258 0 0.0043457793150213529 -0.00035620736975008866 0 0.0044172305432831644 -0.00032123960104511946 0 0.0043667581600507948 -0.00031123070493934828 0 0.0043457793150213529 -0.00035620736975008866 0 0.0044172305432831644 -0.00032123960104511946 0 0.0043577767460772363 -0.00039801630509475746 0 0.0045851426692536008 -3.3804083738575024e-05 0 0.0045873405793770269 -8.8540590454504293e-06 0 0.0046045662611587847 5.3990184163911532e-06 0 0.004501399604946674 -0.0001745560078571955 0 0.00447873522469269 -0.00019954024381121455 0 0.004598463329978748 1.3355734012128209e-05 0 0.0045873405793770269 -8.8540590454504293e-06 0 0.0046045662611587847 5.3990184163911532e-06 0 0.0043173285490838648 -0.00040098800930313196 0 0.0043577767460772363 -0.00039801630509475746 0 0.0043347897583049756 -0.00038645101371611001 0 0.0043457793150213529 -0.00035620736975008866 0 0.0043108159961606869 -0.00038541548710028666 0 0.0042942778649363482 -0.00034677407472640258 0 0.0043457793150213529 -0.00035620736975008866 0 0.0043347897583049756 -0.00038645101371611001 0 0.0043108159961606869 -0.00038541548710028666 0 0.0043457793150213529 -0.00035620736975008866 0 0.0043577767460772363 -0.00039801630509475746 0 0.0043347897583049756 -0.00038645101371611001 0 0.0043173285490838648 -0.00040098800930313196 0 0.0043347897583049756 -0.00038645101371611001 0 0.0043108159961606869 -0.00038541548710028666 0 0.0043173285490838648 -0.00040098800930313196 0 0.0043108159961606869 -0.00038541548710028666 0 0.0042987752331009633 -0.00040033247479751146 0 0.0043183668594938092 -0.00039370812019475323 0 0.0043173285490838648 -0.00040098800930313196 0 0.0042987752331009633 -0.00040033247479751146 0 0.0043108159961606869 -0.00038541548710028666 0 0.0042722891053808849 -0.00038027939513019605 0 0.0042942778649363482 -0.00034677407472640258 0 0.0043108159961606869 -0.00038541548710028666 0 0.0042722891053808849 -0.00038027939513019605 0 0.0042987752331009633 -0.00040033247479751146 0 0.0042722891053808849 -0.00038027939513019605 0 0.0042987752331009633 -0.00040033247479751146 0 0.0042669027822953226 -0.00041567305169110607 0 0.0043183668594938092 -0.00039370812019475323 0 0.0042987752331009633 -0.00040033247479751146 0 0.0042669027822953226 -0.00041567305169110607 0 0.0042669027822953226 -0.00041567305169110607 0 0.0041813367574607485 -0.00035734282718734067 0 0.0041442635773222113 -0.00040446613521743596 0 0.0042722891053808849 -0.00038027939513019605 0 0.0042669027822953226 -0.00041567305169110607 0 0.0041813367574607485 -0.00035734282718734067 0 0.0041813367574607485 -0.00035734282718734067 0 0.004248191381941136 -0.00033659314917186333 0 0.004207847467651538 -0.00026882157939406607 0 0.0041813367574607485 -0.00035734282718734067 0 0.0040549374957168692 -0.00029315248644186983 0 0.004207847467651538 -0.00026882157939406607 0 0.0042722891053808849 -0.00038027939513019605 0 0.0041813367574607485 -0.00035734282718734067 0 0.004248191381941136 -0.00033659314917186333 0 0.0042703589831965972 -0.00029910186791772849 0 0.004248191381941136 -0.00033659314917186333 0 0.004207847467651538 -0.00026882157939406607 0 0.0043236675769441346 -0.00029874708664625487 0 0.0042703589831965972 -0.00029910186791772849 0 0.0042942778649363482 -0.00034677407472640258 0 0.0042703589831965972 -0.00029910186791772849 0 0.0042942778649363482 -0.00034677407472640258 0 0.004248191381941136 -0.00033659314917186333 0 0.0042722891053808849 -0.00038027939513019605 0 0.0042942778649363482 -0.00034677407472640258 0 0.004248191381941136 -0.00033659314917186333 0 0.0040811520912865063 -0.00041228255287066037 0 0.0040929706212788353 -0.00036261795130782199 0 0.0040504802266893326 -0.00034619064378833147 0 0.0040811520912865063 -0.00041228255287066037 0 0.0040504802266893326 -0.00034619064378833147 0 0.0040399760491822189 -0.00041940426000514113 0 0.0041813367574607485 -0.00035734282718734067 0 0.0041442635773222113 -0.00040446613521743596 0 0.0040929706212788353 -0.00036261795130782199 0 0.0040811520912865063 -0.00041228255287066037 0 0.0041442635773222113 -0.00040446613521743596 0 0.0040929706212788353 -0.00036261795130782199 0 0.0041813367574607485 -0.00035734282718734067 0 0.0040929706212788353 -0.00036261795130782199 0 0.0040549374957168692 -0.00029315248644186983 0 0.0040929706212788353 -0.00036261795130782199 0 0.0040504802266893326 -0.00034619064378833147 0 0.0040549374957168692 -0.00029315248644186983 0 0.0038823169547214185 -0.00036430673598909926 0 0.0040496363556373517 -0.00029709715274823259 0 0.0037046727480139013 -0.00038832103850137425 0 0.0040549374957168692 -0.00029315248644186983 0 0.0038163532810412217 -0.00014704347670938038 0 0.0037046727480139013 -0.00038832103850137425 0 0.0038163532810412217 -0.00014704347670938038 0 0.0035530565154105131 -0.00025768224145315827 0 0.0040549374957168692 -0.00029315248644186983 0 0.0038163532810412217 -0.00014704347670938038 0 0.0040527733655145934 -0.00014385782335935311 0 0.0038163532810412217 -0.00014704347670938038 0 0.0040527733655145934 -0.00014385782335935311 0 0.0039455017704158376 2.5953633451936037e-05 0 0.0038163532810412217 -0.00014704347670938038 0 0.0036715525244444634 1.2034724099649942e-05 0 0.0039455017704158376 2.5953633451936037e-05 0 0.0038163532810412217 -0.00014704347670938038 0 0.0036715525244444634 1.2034724099649942e-05 0 0.0033677743635275167 -6.7331362400222336e-05 0 0.0042703589831965972 -0.00029910186791772849 0 0.0042856406042515015 -0.00021821186083447575 0 0.004207847467651538 -0.00026882157939406607 0 0.0040549374957168692 -0.00029315248644186983 0 0.004207847467651538 -0.00026882157939406607 0 0.0040527733655145934 -0.00014385782335935311 0 0.004207847467651538 -0.00026882157939406607 0 0.004181545005155129 -4.1228443594752957e-05 0 0.0040527733655145934 -0.00014385782335935311 0 0.0042044105863458326 -0.00025605532676642462 0 0.0041846918768096483 -9.709038264284694e-05 0 0.004181545005155129 -4.1228443594752957e-05 0 0.0040527733655145934 -0.00014385782335935311 0 0.0039455017704158376 2.5953633451936037e-05 0 0.0042856406042515015 -0.00021821186083447575 0 0.004207847467651538 -0.00026882157939406607 0 0.0041931398854004147 -0.0001430209107495855 0 0.0042856406042515015 -0.00021821186083447575 0 0.0041931398854004147 -0.0001430209107495855 0 0.0042734030823575343 -0.00013819802548863247 0 0.0041931398854004147 -0.0001430209107495855 0 0.0042734030823575343 -0.00013819802548863247 0 0.0042714548748261387 -5.7039868858920379e-05 0 0.0041931398854004147 -0.0001430209107495855 0 0.0042714548748261387 -5.7039868858920379e-05 0 0.0041832073231410855 -2.0057618834072952e-05 0 0.0041846918768096483 -9.709038264284694e-05 0 0.0042039791660047907 0.00011671921086717686 0 0.004181545005155129 -4.1228443594752957e-05 0 0.0041518532028564734 0.00023157543216488418 0 0.0039455017704158376 2.5953633451936037e-05 0 0.0041518532028564734 0.00023157543216488418 0 0.0039455017704158376 2.5953633451936037e-05 0 0.0039054013118728832 0.00023342629886077273 0 0.0041518532028564734 0.00023157543216488418 0 0.0039054013118728832 0.00023342629886077273 0 0.0040380200790363736 0.00037413619776000912 0 0.0041832073231410855 -2.0057618834072952e-05 0 0.0042431462856005967 9.3886391383554867e-06 0 0.0041791910947464187 9.449320130875587e-05 0 0.0042714548748261387 -5.7039868858920379e-05 0 0.0041832073231410855 -2.0057618834072952e-05 0 0.0042431462856005967 9.3886391383554867e-06 0 0.0042714548748261387 -5.7039868858920379e-05 0 0.0042431462856005967 9.3886391383554867e-06 0 0.0042915280762292124 -1.6590223998684691e-05 0 0.0036715525244444634 1.2034724099649942e-05 0 0.0036908211508162015 0.00014805013466401534 0 0.0039455017704158376 2.5953633451936037e-05 0 0.0036715525244444634 1.2034724099649942e-05 0 0.0036908211508162015 0.00014805013466401534 0 0.0034961119420213794 8.4913544795882105e-05 0 0.0036908211508162015 0.00014805013466401534 0 0.0039455017704158376 2.5953633451936037e-05 0 0.0039054013118728832 0.00023342629886077273 0 0.0039054013118728832 0.00023342629886077273 0 0.0038978741754314367 0.00038404839022261258 0 0.0040380200790363736 0.00037413619776000912 0 0.0039054013118728832 0.00023342629886077273 0 0.0036914634497166284 0.0003268461555437581 0 0.0038978741754314367 0.00038404839022261258 0 0.0036914634497166284 0.0003268461555437581 0 0.0034753575207006949 0.00038923848763755287 0 0.0034752941108670966 0.00023813170700992612 0 0.0036908211508162015 0.00014805013466401534 0 0.0036914634497166284 0.0003268461555437581 0 0.0034752941108670966 0.00023813170700992612 0 0.0036908211508162015 0.00014805013466401534 0 0.0039054013118728832 0.00023342629886077273 0 0.0036914634497166284 0.0003268461555437581 0 0.0036215991144659941 0.00045867128008650457 0 0.0036042449821656274 0.00057199205966216617 0 0.0034748645639681194 0.00051479417542427033 0 0.0036215991144659941 0.00045867128008650457 0 0.0034753575207006949 0.00038923848763755287 0 0.0034748645639681194 0.00051479417542427033 0 0.0036914634497166284 0.0003268461555437581 0 0.0036215991144659941 0.00045867128008650457 0 0.0034753575207006949 0.00038923848763755287 0 0.0036914634497166284 0.0003268461555437581 0 0.0036215991144659941 0.00045867128008650457 0 0.0037736187083738234 0.000500490820241651 0 0.0036215991144659941 0.00045867128008650457 0 0.0037736187083738234 0.000500490820241651 0 0.0036042449821656274 0.00057199205966216617 0 0.0036914634497166284 0.0003268461555437581 0 0.0037736187083738234 0.000500490820241651 0 0.0038978741754314367 0.00038404839022261258 0 0.0037736187083738234 0.000500490820241651 0 0.0038978741754314367 0.00038404839022261258 0 0.0039621879551029714 0.00049381568294565694 0 0.0037736187083738234 0.000500490820241651 0 0.0038877975468893729 0.0006616767232029276 0 0.0039621879551029714 0.00049381568294565694 0 0.0028453925678968649 0.00048830494541479078 0 0.00263430987462348 0.00052668427147519218 0 0.0027349373897150977 0.00044592901590864589 0 0.0027005460897829856 0.00049847532829192572 0 0.003030110711577938 0.00050873444610611217 0 0.0028170087781887064 0.00050827231564720536 0 0.0028453925678968649 0.00048830494541479078 0 0.0028801353751259505 0.00048474611144621975 0 0.0033481548335654973 0.00060763037671273344 0 0.0028891922847435942 0.00062014039646828814 0 0.0038877975468893729 0.0006616767232029276 0 0.0037064009246663065 0.00065051929322570555 0 0.0036110640942953577 0.00081150168986578056 0 0.0028170087781887064 0.00050827231564720536 0 0.0028453925678968649 0.00048830494541479078 0 0.0027858130293145272 0.00050074991253630345 0 0.0037736187083738234 0.000500490820241651 0 0.0038877975468893729 0.0006616767232029276 0 0.0037064009246663065 0.00065051929322570555 0 0.0037736187083738234 0.000500490820241651 0 0.0037064009246663065 0.00065051929322570555 0 0.0036042449821656274 0.00057199205966216617 0 0.0037064009246663065 0.00065051929322570555 0 0.0035881122093642582 0.00068061782451862873 0 0.0036042449821656274 0.00057199205966216617 0 0.0037064009246663065 0.00065051929322570555 0 0.0035881122093642582 0.00068061782451862873 0 0.0036110640942953577 0.00081150168986578056 0 0.0034859114665361048 0.00071093321911658465 0 0.0033276598928550422 0.00077421267366160548 0 0.0036110640942953577 0.00081150168986578056 0 0.0035881122093642582 0.00068061782451862873 0 0.0034859114665361048 0.00071093321911658465 0 0.0036110640942953577 0.00081150168986578056 0 0.0029376423595290821 0.00072649065257388121 0 0.0028891922847435942 0.00062014039646828814 0 0.0035881122093642582 0.00068061782451862873 0 0.0034859114665361048 0.00071093321911658465 0 0.0034940118271625411 0.00063078077099034985 0 0.0034940118271625411 0.00063078077099034985 0 0.0036042449821656274 0.00057199205966216617 0 0.0034748645639681194 0.00051479417542427033 0 0.0035881122093642582 0.00068061782451862873 0 0.0034940118271625411 0.00063078077099034985 0 0.0036042449821656274 0.00057199205966216617 0 0.004028124944880849 0.00015094196594203499 0 0.0042170583164334958 7.3606591427369101e-05 0 0.0042431462856005967 9.3886391383554867e-06 0 0.0041791910947464187 9.449320130875587e-05 0 0.0043028335978582575 2.4572921523422238e-05 0 0.0040084953210956665 0.00015613811663041472 0 0.0040723134457996656 0.00014871761602837228 0 0.004126134251155095 7.2847046097700759e-05 0 0.0037497243835722814 0.00025214698871449013 0 0.0044233643352169566 -3.790128817849615e-05 0 0.0040084953210956665 0.00015613811663041472 0 0.0039519263389187261 0.0001299196850135394 0 0.0043028335978582575 2.4572921523422238e-05 0 0.0042039791660047907 0.00011671921086717686 0 0.0037497243835722814 0.00025214698871449013 0 0.0038877975468893729 0.0006616767232029276 0 0.0039621879551029714 0.00049381568294565694 0 0.0041374157280083578 0.0005256755912053738 0 0.0041518532028564734 0.00023157543216488418 0 0.0040380200790363736 0.00037413619776000912 0 0.0041374157280083578 0.0005256755912053738 0 0.0038978741754314367 0.00038404839022261258 0 0.0040380200790363736 0.00037413619776000912 0 0.0039621879551029714 0.00049381568294565694 0 0.0040380200790363736 0.00037413619776000912 0 0.0039621879551029714 0.00049381568294565694 0 0.0041374157280083578 0.0005256755912053738 0 0.0028170087781887064 0.00050827231564720536 0 0.0027919877172102926 0.0005195885331609469 0 0.0027858130293145272 0.00050074991253630345 0 0.0040084953210956665 0.00015613811663041472 0 0.0039519263389187261 0.0001299196850135394 0 0.0039684908921574892 0.00023094346518577011 0 0.0037497243835722814 0.00025214698871449013 0 0.003030110711577938 0.00050873444610611217 0 0.0033481548335654973 0.00060763037671273344 0 0.0037497243835722814 0.00025214698871449013 0 0.003030110711577938 0.00050873444610611217 0 0.0028274541144163237 0.00048193950098460398 0 0.0040723134457996656 0.00014871761602837228 0 0.0039684908921574892 0.00023094346518577011 0 0.0041224212205900473 0.00018542081024194415 0 0.0040084953210956665 0.00015613811663041472 0 0.0040723134457996656 0.00014871761602837228 0 0.0039684908921574892 0.00023094346518577011 0 0.0026170175250209739 0.00051633421932479869 0 0.0024539203630913123 0.00049773820381346021 0 0.0025409954459487565 0.00047614780364744461 0 0.003030110711577938 0.00050873444610611217 0 0.0033523876125144494 0.00031848291677117425 0 0.0026170175250209739 0.00051633421932479869 0 0.0025409954459487565 0.00047614780364744461 0 0.0026284658528041298 0.00045945377561485004 0 0.0024539203630913123 0.00049773820381346021 0 0.002473287226939212 0.00046721789182846977 0 0.0025409954459487565 0.00047614780364744461 0 0.0024539203630913123 0.00049773820381346021 0 0.002473287226939212 0.00046721789182846977 0 0.0024296738720582032 0.00046700532870256196 0 0.0040723134457996656 0.00014871761602837228 0 0.0041224212205900473 0.00018542081024194415 0 0.0041327535564216217 0.00012566655537236547 0 0.0040723134457996656 0.00014871761602837228 0 0.0041327535564216217 0.00012566655537236547 0 0.004126134251155095 7.2847046097700759e-05 0 0.0040084953210956665 0.00015613811663041472 0 0.0043152652618762685 7.6544794540107716e-05 0 0.0043028335978582575 2.4572921523422238e-05 0 0.0041327535564216217 0.00012566655537236547 0 0.004126134251155095 7.2847046097700759e-05 0 0.0042156545114491626 9.5301324686572239e-05 0 0.0041224212205900473 0.00018542081024194415 0 0.0041327535564216217 0.00012566655537236547 0 0.0042156545114491626 9.5301324686572239e-05 0 0.004126134251155095 7.2847046097700759e-05 0 0.0042156545114491626 9.5301324686572239e-05 0 0.0042677828400799894 -3.0685922281885583e-06 0 0.0033523876125144494 0.00031848291677117425 0 0.0033535009709489156 0.00028177486119681898 0 0.0041224212205900473 0.00018542081024194415 0 0.0042156545114491626 9.5301324686572239e-05 0 0.0042871939429436909 0.00014607979865592359 0 0.0024539203630913123 0.00049773820381346021 0 0.0024395048475684663 0.0004125915436450364 0 0.0024296738720582032 0.00046700532870256196 0 0.0025535745414139153 0.00030627959028356033 0 0.0024395048475684663 0.0004125915436450364 0 0.0025071684909776385 0.00046256122608248032 0 0.003502913349076518 0.00019494644036309407 0 0.0033535009709489156 0.00028177486119681898 0 0.0044419697901762114 8.8545129296488934e-05 0 0.0043652144627698113 4.0225185444669212e-05 0 0.0044396574787956417 -4.7326605573909569e-06 0 0.0044419697901762114 8.8545129296488934e-05 0 0.0042871939429436909 0.00014607979865592359 0 0.0043652144627698113 4.0225185444669212e-05 0 0.0042156545114491626 9.5301324686572239e-05 0 0.0042871939429436909 0.00014607979865592359 0 0.0043652144627698113 4.0225185444669212e-05 0 0.0042156545114491626 9.5301324686572239e-05 0 0.0043652144627698113 4.0225185444669212e-05 0 0.0042677828400799894 -3.0685922281885583e-06 0 0.004363661673225573 1.9151832826552617e-06 0 0.0044776624774064593 -5.0477039469778064e-05 0 0.0043652144627698113 4.0225185444669212e-05 0 0.0042677828400799894 -3.0685922281885583e-06 0 0.0044056503665067361 -5.4285788187277923e-05 0 0.0044594573948785673 6.1055148622813303e-06 0 0.0045552174574983867 -5.5482822665219802e-05 0 0.0044958230907252541 -4.9942369365107704e-05 0 0.0043652144627698113 4.0225185444669212e-05 0 0.0044396574787956417 -4.7326605573909569e-06 0 0.0044056503665067361 -5.4285788187277923e-05 0 0.0044819869262006313 -2.9231342602038358e-05 0 0.0044396574787956417 -4.7326605573909569e-06 0 0.0044056503665067361 -5.4285788187277923e-05 0 0.0045478070417103375 -5.1520891487403241e-05 0 0.0045552174574983867 -5.5482822665219802e-05 0 0.004547818133871567 -6.0801892508272985e-05 0 0.0045552174574983867 -5.5482822665219802e-05 0 0.0044958230907252541 -4.9942369365107704e-05 0 0.0045345116029489397 -7.2949700869889153e-05 0 0.0045552174574983867 -5.5482822665219802e-05 0 0.004547818133871567 -6.0801892508272985e-05 0 0.0045345116029489397 -7.2949700869889153e-05 0 0.0045441884326266222 -6.4625825987848023e-05 0 0.004547818133871567 -6.0801892508272985e-05 0 0.0045345116029489397 -7.2949700869889153e-05 0 0.0044594573948785673 6.1055148622813303e-06 0 0.0044958230907252541 -4.9942369365107704e-05 0 0.0044358285884697427 -9.3871889142810766e-05 0 0.0044958230907252541 -4.9942369365107704e-05 0 0.0045345116029489397 -7.2949700869889153e-05 0 0.0044358285884697427 -9.3871889142810766e-05 0 0.0043429188556489305 -0.00013502947241254769 0 0.0044358285884697427 -9.3871889142810766e-05 0 0.004351637655774003 -4.5792819322798149e-05 0 0.0043429188556489305 -0.00013502947241254769 0 0.0042714548748261387 -5.7039868858920379e-05 0 0.004351637655774003 -4.5792819322798149e-05 0 0.0043429188556489305 -0.00013502947241254769 0 0.0042734030823575343 -0.00013819802548863247 0 0.0042714548748261387 -5.7039868858920379e-05 0 0.004351637655774003 -4.5792819322798149e-05 0 0.0042915280762292124 -1.6590223998684691e-05 0 0.0043028335978582575 2.4572921523422238e-05 0 0.0042714548748261387 -5.7039868858920379e-05 0 0.004351637655774003 -4.5792819322798149e-05 0 0.0042915280762292124 -1.6590223998684691e-05 0 0.0042431462856005967 9.3886391383554867e-06 0 0.0042915280762292124 -1.6590223998684691e-05 0 0.0043028335978582575 2.4572921523422238e-05 0 0.0044594573948785673 6.1055148622813303e-06 0 0.0044358285884697427 -9.3871889142810766e-05 0 0.004351637655774003 -4.5792819322798149e-05 0 0.0042170583164334958 7.3606591427369101e-05 0 0.004363661673225573 1.9151832826552617e-06 0 0.0044594573948785673 6.1055148622813303e-06 0 0.004351637655774003 -4.5792819322798149e-05 0 0.0043028335978582575 2.4572921523422238e-05 0 0.0043152652618762685 7.6544794540107716e-05 0 0.0044594573948785673 6.1055148622813303e-06 0 0.0043028335978582575 2.4572921523422238e-05 0 0.0023507379057150484 0.00044062519717934039 0 0.0023380307767598063 0.00044265562402254248 0 0.0023609751295625161 0.0004886699358308649 0 0.0026884227042079838 0.0002112976568636481 0 0.0026944236958581398 0.00021030330323801064 0 0.0026888869026803022 0.00020695634639925181 0 0.0026884227042079838 0.0002112976568636481 0 0.0026888869026803022 0.00020695634639925181 0 0.002688054349708157 0.00020832517995284715 0 0.0024869316386319446 0.00033048161216189261 0 0.0026716658412088636 0.00019463390247259556 0 0.0029384072367303615 0.0001867310593861451 0 0.0029586690577997864 0.00014436850401225475 0 0.0028998530783464834 0.00013487044366509952 0 0.0026013611470473469 0.00029556806863043105 0 0.0025600888383977395 0.00030177911621143892 0 0.0025865901792131111 0.00024241090237891774 0 0.002559899079086333 0.00027995505225803381 0 0.0026716658412088636 0.00019463390247259556 0 0.0024869316386319446 0.00033048161216189261 0 0.002559899079086333 0.00027995505225803381 0 0.0023255696919920214 0.0003803845197025284 0 0.0023616768345877458 0.0004070398678974825 0 0.0023803789953246676 0.00037275664057718713 0 0.0023616768345877458 0.0004070398678974825 0 0.0023803789953246676 0.00037275664057718713 0 0.0023898738030564042 0.00042368094463329374 0 0.0024869316386319446 0.00033048161216189261 0 0.00270785972525831 0.00022834296632129452 0 0.0030116960561567385 0.00013214742138387462 0 0.0029844923511931957 7.756653136351628e-05 0 0.0029416107188116559 7.0783864136606987e-05 0 0.0030116960561567385 0.00013214742138387462 0 0.0029844923511931957 7.756653136351628e-05 0 0.0030087160950093318 0.00010668698971722658 0 0.0029844923511931957 7.756653136351628e-05 0 0.0030087160950093318 0.00010668698971722658 0 0.0030156185364218998 6.048026427660554e-05 0 0.0030156185364218998 6.048026427660554e-05 0 0.0030799126202307012 3.0756758420541743e-05 0 0.0030059525897302426 2.6424086581880784e-05 0 0.0030087160950093318 0.00010668698971722658 0 0.0030156185364218998 6.048026427660554e-05 0 0.0030799126202307012 3.0756758420541743e-05 0 0.0029844923511931957 7.756653136351628e-05 0 0.0029632046709698349 3.3941478583441329e-05 0 0.0030059525897302426 2.6424086581880784e-05 0 0.0029844923511931957 7.756653136351628e-05 0 0.0030156185364218998 6.048026427660554e-05 0 0.0030059525897302426 2.6424086581880784e-05 0 0.0026944236958581398 0.00021030330323801064 0 0.0026888869026803022 0.00020695634639925181 0 0.0026877594508113302 0.00020528856310571565 0 0.0029491183733543558 0.00010359725398140732 0 0.0028998530783464834 0.00013487044366509952 0 0.0029209186648201176 -3.5431015014530341e-06 0 0.00270785972525831 0.00022834296632129452 0 0.0028391185076012851 0.00014321620552233935 0 0.0029844923511931957 7.756653136351628e-05 0 0.0029416107188116559 7.0783864136606987e-05 0 0.0029632046709698349 3.3941478583441329e-05 0 0.0026732568383544477 0.00019745046169053555 0 0.0026716658412088636 0.00019463390247259556 0 0.0029586690577997864 0.00014436850401225475 0 0.0029491183733543558 0.00010359725398140732 0 0.0028998530783464834 0.00013487044366509952 0 0.0026716658412088636 0.00019463390247259556 0 0.0028391185076012851 0.00014321620552233935 0 0.0026888869026803022 0.00020695634639925181 0 0.0026883781296304895 0.00020810487412931887 0 0.0026877594508113302 0.00020528856310571565 0 0.0028551635780514457 0.00010559055823706861 0 0.0028998530783464834 0.00013487044366509952 0 0.0029209186648201176 -3.5431015014530341e-06 0 0.0028551635780514457 0.00010559055823706861 0 0.0027751868201037195 8.3945257190160441e-05 0 0.0028396796038851336 2.7137117886597193e-05 0 0.0028551635780514457 0.00010559055823706861 0 0.0027751868201037195 8.3945257190160441e-05 0 0.0028082848878995966 0.00020602126054058542 0 0.002559899079086333 0.00027995505225803381 0 0.002573444469872167 0.00022538498830436168 0 0.0028551635780514457 0.00010559055823706861 0 0.0028998530783464834 0.00013487044366509952 0 0.0028082848878995966 0.00020602126054058542 0 0.0029384072367303615 0.0001867310593861451 0 0.0028998530783464834 0.00013487044366509952 0 0.0028082848878995966 0.00020602126054058542 0 0.002559899079086333 0.00027995505225803381 0 0.0023084462934448678 0.00043259314670717548 0 0.0023927433688045612 0.00024604451145990574 0 0.0022900158155232568 0.00026234403351293849 0 0.0023518279756234361 0.00033213775174491261 0 0.0022900158155232568 0.00026234403351293849 0 0.0023518279756234361 0.00033213775174491261 0 0.0022489396167934576 0.00035130412933633047 0 0.0023518279756234361 0.00033213775174491261 0 0.0022489396167934576 0.00035130412933633047 0 0.0023166020516816217 0.00041655466880823598 0 0.0023084462934448678 0.00043259314670717548 0 0.0023103714670681427 0.00046993041359224907 0 0.0023161884501667813 0.00049195538188262315 0 0.0023335436367991338 0.00054379365021101913 0 0.0022984813775285494 0.00053143999196519898 0 0.0023161884501667813 0.00049195538188262315 0 0.0023609751295625161 0.0004886699358308649 0 0.0023335436367991338 0.00054379365021101913 0 0.0023609751295625161 0.0004886699358308649 0 0.0023712881202533542 0.00053759083734783138 0 0.0023335436367991338 0.00054379365021101913 0 0.0023380307767598063 0.00044265562402254248 0 0.0023161884501667813 0.00049195538188262315 0 0.0023609751295625161 0.0004886699358308649 0 0.0023255696919920214 0.0003803845197025284 0 0.0023616768345877458 0.0004070398678974825 0 0.0023444885860656292 0.00045706565920691181 0 0.0024869316386319446 0.00033048161216189261 0 0.002344032293278273 0.00048432552829638295 0 0.0023898738030564042 0.00042368094463329374 0 0.0023444885860656292 0.00045706565920691181 0 0.0024098048940802111 0.00047137258042913348 0 0.0023616768345877458 0.0004070398678974825 0 0.0023898738030564042 0.00042368094463329374 0 0.0023444885860656292 0.00045706565920691181 0 0.0023444885860656292 0.00045706565920691181 0 0.0024098048940802111 0.00047137258042913348 0 0.0023712881202533542 0.00053759083734783138 0 0.002344032293278273 0.00048432552829638295 0 0.0023704148082009124 0.00052865195639305741 0 0.0024098048940802111 0.00047137258042913348 0 0.0024528965268026293 0.00054783396971714833 0 0.0023712881202533542 0.00053759083734783138 0 0.0024098048940802111 0.00047137258042913348 0 0.0024528965268026293 0.00054783396971714833 0 0.0024626689662211525 0.00047058316751239334 0 0.0024528965268026293 0.00054783396971714833 0 0.0025162538110429615 0.00056353607572131681 0 0.0024626689662211525 0.00047058316751239334 0 0.0025162538110429615 0.00056353607572131681 0 0.0024626689662211525 0.00047058316751239334 0 0.0025392415275190057 0.00039413255589688977 0 0.0029269672666962067 0.00037515791939145065 0 0.0031613633012955449 0.00052144437349957266 0 0.0031124998296538139 0.0003166852410682309 0 0.0026591239620591157 0.00038783435209026421 0 0.0028778265934740806 0.00047098177424823571 0 0.0024626689662211525 0.00047058316751239334 0 0.0024471867946233741 0.0004118536505276296 0 0.0025392415275190057 0.00039413255589688977 0 0.0024098048940802111 0.00047137258042913348 0 0.0024626689662211525 0.00047058316751239334 0 0.0024471867946233741 0.0004118536505276296 0 0.0023898738030564042 0.00042368094463329374 0 0.0024098048940802111 0.00047137258042913348 0 0.0024471867946233741 0.0004118536505276296 0 0.0034940118271625411 0.00063078077099034985 0 0.003392014793495724 0.00066974540781818072 0 0.0033240020224661231 0.00057418560784565549 0 0.0034940118271625411 0.00063078077099034985 0 0.0033240020224661231 0.00057418560784565549 0 0.0034748645639681194 0.00051479417542427033 0 0.003392014793495724 0.00066974540781818072 0 0.0032628993963442748 0.00066241545274490631 0 0.0033240020224661231 0.00057418560784565549 0 0.0034859114665361048 0.00071093321911658465 0 0.0034940118271625411 0.00063078077099034985 0 0.003392014793495724 0.00066974540781818072 0 0.0034859114665361048 0.00071093321911658465 0 0.0033276598928550422 0.00077421267366160548 0 0.003392014793495724 0.00066974540781818072 0 0.0033276598928550422 0.00077421267366160548 0 0.003392014793495724 0.00066974540781818072 0 0.0032628993963442748 0.00066241545274490631 0 0.0029376423595290821 0.00072649065257388121 0 0.0027002523247599891 0.00067985773878659653 0 0.0033276598928550422 0.00077421267366160548 0 0.0032628993963442748 0.00066241545274490631 0 0.0026776351973277495 0.00066860068737987577 0 0.0032628993963442748 0.00066241545274490631 0 0.0033240020224661231 0.00057418560784565549 0 0.0031613633012955449 0.00052144437349957266 0 0.0032628993963442748 0.00066241545274490631 0 0.0026776351973277495 0.00066860068737987577 0 0.0025392415275190057 0.00039413255589688977 0 0.0032361499718499692 0.00065923422541262311 0 0.0028778265934740806 0.00047098177424823571 0 0.0025162538110429615 0.00056353607572131681 0 0.0026776351973277495 0.00066860068737987577 0 0.0025392415275190057 0.00039413255589688977 0 0.0031613633012955449 0.00052144437349957266 0 0.0032808517245901973 0.00035410322190409848 0 0.0031124998296538139 0.0003166852410682309 0 0.0033240020224661231 0.00057418560784565549 0 0.0031613633012955449 0.00052144437349957266 0 0.0033282806379247086 0.00047720053408336835 0 0.0031613633012955449 0.00052144437349957266 0 0.0033282806379247086 0.00047720053408336835 0 0.0032808517245901973 0.00035410322190409848 0 0.0033282806379247086 0.00047720053408336835 0 0.0034753575207006949 0.00038923848763755287 0 0.0032808517245901973 0.00035410322190409848 0 0.0033240020224661231 0.00057418560784565549 0 0.0033282806379247086 0.00047720053408336835 0 0.0034748645639681194 0.00051479417542427033 0 0.0033282806379247086 0.00047720053408336835 0 0.0034753575207006949 0.00038923848763755287 0 0.0034748645639681194 0.00051479417542427033 0 0.0034753575207006949 0.00038923848763755287 0 0.0034752941108670966 0.00023813170700992612 0 0.0032808517245901973 0.00035410322190409848 0 0.0034752941108670966 0.00023813170700992612 0 0.0032808517245901973 0.00035410322190409848 0 0.0032353620591801672 0.00013539376110667821 0 0.0032808517245901973 0.00035410322190409848 0 0.0032353620591801672 0.00013539376110667821 0 0.0031124998296538139 0.0003166852410682309 0 0.0032353620591801672 0.00013539376110667821 0 0.0030937559168733252 5.7509968581216975e-05 0 0.0033677743635275167 -6.7331362400222336e-05 0 0.0031790441276207688 4.7106746116612605e-05 0 0.0034615523257298018 -5.8125012925184147e-05 0 0.0036715525244444634 1.2034724099649942e-05 0 0.0034961119420213794 8.4913544795882105e-05 0 0.0033677743635275167 -6.7331362400222336e-05 0 0.0034752941108670966 0.00023813170700992612 0 0.0032353620591801672 0.00013539376110667821 0 0.0034961119420213794 8.4913544795882105e-05 0 0.0032353620591801672 0.00013539376110667821 0 0.0034961119420213794 8.4913544795882105e-05 0 0.0033677743635275167 -6.7331362400222336e-05 0 0.0036908211508162015 0.00014805013466401534 0 0.0034752941108670966 0.00023813170700992612 0 0.0034961119420213794 8.4913544795882105e-05 0 0.00270785972525831 0.00022834296632129452 0 0.0030512180164368108 0.00014446681556750136 0 0.0023803789953246676 0.00037275664057718713 0 0.0023898738030564042 0.00042368094463329374 0 0.0024471867946233741 0.0004118536505276296 0 0.00270785972525831 0.00022834296632129452 0 0.0026591239620591157 0.00038783435209026421 0 0.0026837721790912666 0.00021867800626899889 0 0.0029269672666962067 0.00037515791939145065 0 0.0029525967660072147 0.00017795178024419627 0 0.0030116960561567385 0.00013214742138387462 0 0.0030087160950093318 0.00010668698971722658 0 0.0030756557346711096 0.00012161822727186195 0 0.0032353620591801672 0.00013539376110667821 0 0.0031124998296538139 0.0003166852410682309 0 0.0029525967660072147 0.00017795178024419627 0 0.0029269672666962067 0.00037515791939145065 0 0.0031124998296538139 0.0003166852410682309 0 0.0029525967660072147 0.00017795178024419627 0 0.0032353620591801672 0.00013539376110667821 0 0.0030756557346711096 0.00012161822727186195 0 0.0030937559168733252 5.7509968581216975e-05 0 0.0032074921833154827 0.00013511757305206717 0 0.0030512180164368108 0.00014446681556750136 0 0.0030173425704143513 0.00010370832631113529 0 0.0031790441276207688 4.7106746116612605e-05 0 0.0030087160950093318 0.00010668698971722658 0 0.0032628733560497174 4.1534299645435837e-05 0 0.0030799126202307012 3.0756758420541743e-05 0 0.0030087160950093318 0.00010668698971722658 0 0.0030756557346711096 0.00012161822727186195 0 0.0030937559168733252 5.7509968581216975e-05 0 0.0032628733560497174 4.1534299645435837e-05 0 0.0030799126202307012 3.0756758420541743e-05 0 0.0032078029450902847 -0.00013113820555077968 0 0.0030799126202307012 3.0756758420541743e-05 0 0.0032078029450902847 -0.00013113820555077968 0 0.0030348391070866439 -0.00020086054674753396 0 0.0032078029450902847 -0.00013113820555077968 0 0.0033451093626829156 -9.1936969867013058e-05 0 0.0033689030924394705 -0.00022198855414660393 0 0.0032628733560497174 4.1534299645435837e-05 0 0.0032078029450902847 -0.00013113820555077968 0 0.0033451093626829156 -9.1936969867013058e-05 0 0.0032078029450902847 -0.00013113820555077968 0 0.0033689030924394705 -0.00022198855414660393 0 0.0032017014689451448 -0.00033273039028122308 0 0.0032078029450902847 -0.00013113820555077968 0 0.0032017014689451448 -0.00033273039028122308 0 0.0030348391070866439 -0.00020086054674753396 0 0.0038163532810412217 -0.00014704347670938038 0 0.0035431366795242443 -5.4630143499059e-05 0 0.0035530565154105131 -0.00025768224145315827 0 0.0037940742149098661 -0.00014494551735877391 0 0.0034615523257298018 -5.8125012925184147e-05 0 0.0032628733560497174 4.1534299645435837e-05 0 0.0033451093626829156 -9.1936969867013058e-05 0 0.0035431366795242443 -5.4630143499059e-05 0 0.0033451093626829156 -9.1936969867013058e-05 0 0.0033689030924394705 -0.00022198855414660393 0 0.0035431366795242443 -5.4630143499059e-05 0 0.0033689030924394705 -0.00022198855414660393 0 0.0035431366795242443 -5.4630143499059e-05 0 0.0035530565154105131 -0.00025768224145315827 0 0.0033689030924394705 -0.00022198855414660393 0 0.0035530565154105131 -0.00025768224145315827 0 0.0034468218125599825 -0.00045912120729322485 0 0.0037046727480139013 -0.00038832103850137425 0 0.0035530565154105131 -0.00025768224145315827 0 0.0034468218125599825 -0.00045912120729322485 0 0.0038823169547214185 -0.00036430673598909926 0 0.0037229976911848789 -0.0004168759900356749 0 0.0039991374162328345 -0.00037792838843026319 0 0.0040048605632131201 -0.00044134076865378019 0 0.0039744117321104059 -0.00042220622372436987 0 0.0039991374162328345 -0.00037792838843026319 0 0.0040399760491822189 -0.00041940426000514113 0 0.0040048605632131201 -0.00044134076865378019 0 0.0040504802266893326 -0.00034619064378833147 0 0.0039991374162328345 -0.00037792838843026319 0 0.0040399760491822189 -0.00041940426000514113 0 0.0032017014689451448 -0.00033273039028122308 0 0.0029977362355547931 -0.00041532665117526962 0 0.0030348391070866439 -0.00020086054674753396 0 0.0032017014689451448 -0.00033273039028122308 0 0.0031965718302635702 -0.00053729878725217379 0 0.0029977362355547931 -0.00041532665117526962 0 0.0034468218125599825 -0.00045912120729322485 0 0.0032017014689451448 -0.00033273039028122308 0 0.0031965718302635702 -0.00053729878725217379 0 0.0033689030924394705 -0.00022198855414660393 0 0.0034468218125599825 -0.00045912120729322485 0 0.0032017014689451448 -0.00033273039028122308 0 0.0039991374162328345 -0.00037792838843026319 0 0.0039474922403565614 -0.00039619995399827552 0 0.0039744117321104059 -0.00042220622372436987 0 0.0037229976911848789 -0.0004168759900356749 0 0.0035751114617125286 -0.00047867134469035038 0 0.0039474922403565614 -0.00039619995399827552 0 0.003873751148826439 -0.00041700279065672854 0 0.0039471048844272535 -0.00042771610227650061 0 0.0035751114617125286 -0.00047867134469035038 0 0.003389424191975961 -0.0004266292074332001 0 0.0029747135856816576 -0.00019502261383114018 0 0.0030274735626739653 -0.00014200182948333545 0 0.0030112791740502251 -0.00024763189384159574 0 0.0031965718302635702 -0.00053729878725217379 0 0.0029977362355547931 -0.00041532665117526962 0 0.0029583033680132056 -0.00061764716354856676 0 0.0029762030661302993 -0.00029127472077849516 0 0.003389424191975961 -0.0004266292074332001 0 0.0029747135856816576 -0.00019502261383114018 0 0.0029163610650835151 -0.00018210639437853658 0 0.0029748366213158558 -0.00026131190269739732 0 0.0029747135856816576 -0.00019502261383114018 0 0.0029748366213158558 -0.00026131190269739732 0 0.0030112791740502251 -0.00024763189384159574 0 0.0029747135856816576 -0.00019502261383114018 0 0.002955612329796564 -0.00014652399932920478 0 0.0029163610650835151 -0.00018210639437853658 0 0.0029747135856816576 -0.00019502261383114018 0 0.002955612329796564 -0.00014652399932920478 0 0.0030274735626739653 -0.00014200182948333545 0 0.002955612329796564 -0.00014652399932920478 0 0.0029554122394941712 -6.92310550554714e-05 0 0.0028950785248742297 -0.00011630886104238119 0 0.002955612329796564 -0.00014652399932920478 0 0.0030274735626739653 -0.00014200182948333545 0 0.0029554122394941712 -6.92310550554714e-05 0 0.0030274735626739653 -0.00014200182948333545 0 0.0030429289921857176 -4.5745878915024795e-05 0 0.0029554122394941712 -6.92310550554714e-05 0 0.0030429289921857176 -4.5745878915024795e-05 0 0.0029554122394941712 -6.92310550554714e-05 0 0.0029782073833622487 -1.1180688827592152e-05 0 0.0029762030661302993 -0.00029127472077849516 0 0.0030449577204752802 -0.00011681010753995206 0 0.0029554122394941712 -6.92310550554714e-05 0 0.0029782073833622487 -1.1180688827592152e-05 0 0.0029209186648201176 -3.5431015014530341e-06 0 0.0029416107188116559 7.0783864136606987e-05 0 0.0029632046709698349 3.3941478583441329e-05 0 0.0029209186648201176 -3.5431015014530341e-06 0 0.0028391185076012851 0.00014321620552233935 0 0.002931605834271924 -8.3333640535142732e-06 0 0.0029782073833622487 -1.1180688827592152e-05 0 0.0029632046709698349 3.3941478583441329e-05 0 0.0029209186648201176 -3.5431015014530341e-06 0 0.0029782073833622487 -1.1180688827592152e-05 0 0.0029632046709698349 3.3941478583441329e-05 0 0.0030059525897302426 2.6424086581880784e-05 0 0.0030429289921857176 -4.5745878915024795e-05 0 0.0029782073833622487 -1.1180688827592152e-05 0 0.0030059525897302426 2.6424086581880784e-05 0 0.0030799126202307012 3.0756758420541743e-05 0 0.0030429289921857176 -4.5745878915024795e-05 0 0.0030059525897302426 2.6424086581880784e-05 0 0.0030752794874699765 1.9726225640650005e-05 0 0.0030449577204752802 -0.00011681010753995206 0 0.0027751868201037195 8.3945257190160441e-05 0 0.0028396796038851336 2.7137117886597193e-05 0 0.0027817245448652308 -1.2786394425405988e-05 0 0.0028396796038851336 2.7137117886597193e-05 0 0.0028683175668359332 -3.9033694658255821e-05 0 0.0027817245448652308 -1.2786394425405988e-05 0 0.0028396796038851336 2.7137117886597193e-05 0 0.0029209186648201176 -3.5431015014530341e-06 0 0.0028683175668359332 -3.9033694658255821e-05 0 0.0028551635780514457 0.00010559055823706861 0 0.0028396796038851336 2.7137117886597193e-05 0 0.0029209186648201176 -3.5431015014530341e-06 0 0.0029554122394941712 -6.92310550554714e-05 0 0.0028683175668359332 -3.9033694658255821e-05 0 0.0028950785248742297 -0.00011630886104238119 0 0.0029554122394941712 -6.92310550554714e-05 0 0.0029209186648201176 -3.5431015014530341e-06 0 0.0028683175668359332 -3.9033694658255821e-05 0 0.0028683175668359332 -3.9033694658255821e-05 0 0.0028253763335867963 -8.3896953521334777e-05 0 0.0028950785248742297 -0.00011630886104238119 0 0.0028683175668359332 -3.9033694658255821e-05 0 0.0028253763335867963 -8.3896953521334777e-05 0 0.0027817245448652308 -1.2786394425405988e-05 0 0.0028253763335867963 -8.3896953521334777e-05 0 0.0027817245448652308 -1.2786394425405988e-05 0 0.0027636099226382134 -7.2101614741168553e-05 0 0.0028381420925958751 -0.0001523734043174682 0 0.0027771045043702793 -0.00013220450139117749 0 0.0027362536667364951 -0.00017715672559444654 0 0.0028253763335867963 -8.3896953521334777e-05 0 0.0027771045043702793 -0.00013220450139117749 0 0.0027636099226382134 -7.2101614741168553e-05 0 0.0028253763335867963 -8.3896953521334777e-05 0 0.0028381420925958751 -0.0001523734043174682 0 0.0027771045043702793 -0.00013220450139117749 0 0.0028381420925958751 -0.0001523734043174682 0 0.0028950785248742297 -0.00011630886104238119 0 0.0029163610650835151 -0.00018210639437853658 0 0.0028253763335867963 -8.3896953521334777e-05 0 0.0028381420925958751 -0.0001523734043174682 0 0.0028950785248742297 -0.00011630886104238119 0 0.002955612329796564 -0.00014652399932920478 0 0.0028950785248742297 -0.00011630886104238119 0 0.0029163610650835151 -0.00018210639437853658 0 0.0028381420925958751 -0.0001523734043174682 0 0.0028574496386847537 -0.00022073216636168274 0 0.0029163610650835151 -0.00018210639437853658 0 0.0028574496386847537 -0.00022073216636168274 0 0.0029163610650835151 -0.00018210639437853658 0 0.0029748366213158558 -0.00026131190269739732 0 0.0033514877265598277 -0.00030206952269380005 0 0.0030860851650179317 -0.0001707440236137166 0 0.0028381420925958751 -0.0001523734043174682 0 0.0028574496386847537 -0.00022073216636168274 0 0.0027362536667364951 -0.00017715672559444654 0 0.0038208140435137968 -0.00036571637502523692 0 0.0037763695811663602 -0.00037843986298369877 0 0.003752283535909365 -0.00034602637993546903 0 0.0038208140435137968 -0.00036571637502523692 0 0.0037763695811663602 -0.00037843986298369877 0 0.003795208571394878 -0.00040183793565025605 0 0.003795208571394878 -0.00040183793565025605 0 0.003791146777903751 -0.00045007624732030605 0 0.0037660123613791341 -0.00039737940822929168 0 0.0038208140435137968 -0.00036571637502523692 0 0.003795208571394878 -0.00040183793565025605 0 0.0038275313555120095 -0.00042481757508891992 0 0.0037763695811663602 -0.00037843986298369877 0 0.003795208571394878 -0.00040183793565025605 0 0.0037660123613791341 -0.00039737940822929168 0 0.003795208571394878 -0.00040183793565025605 0 0.003791146777903751 -0.00045007624732030605 0 0.0038275313555120095 -0.00042481757508891992 0 0.003791146777903751 -0.00045007624732030605 0 0.0038275313555120095 -0.00042481757508891992 0 0.0038610567425404738 -0.00048643922445662892 0 0.0038275313555120095 -0.00042481757508891992 0 0.0038723484262091776 -0.00044396699111686968 0 0.0038610567425404738 -0.00048643922445662892 0 0.0038275313555120095 -0.00042481757508891992 0 0.0038555904696770697 -0.00040152460310741866 0 0.0038723484262091776 -0.00044396699111686968 0 0.0038208140435137968 -0.00036571637502523692 0 0.0038555904696770697 -0.00040152460310741866 0 0.0038868856465937374 -0.00038961435524349986 0 0.0038208140435137968 -0.00036571637502523692 0 0.0038275313555120095 -0.00042481757508891992 0 0.0038555904696770697 -0.00040152460310741866 0 0.0033514877265598277 -0.00030206952269380005 0 0.0035359022632332972 -0.00035842382824162336 0 0.0038555904696770697 -0.00040152460310741866 0 0.0038976830941782207 -0.00038573895916960805 0 0.0039018978017950792 -0.00040217053304115313 0 0.0038995239974535315 -0.00042024619306410278 0 0.0039201619715949496 -0.00039352819186989083 0 0.0039097338303414044 -0.00045461188296462004 0 0.0037344445585988854 -0.00042313736465373757 0 0.003920385723146359 -0.00043439141064401603 0 0.0039266770487870559 -0.00034712153897616788 0 0.0035359022632332972 -0.00035842382824162336 0 0.0035359022632332972 -0.00035842382824162336 0 0.003389424191975961 -0.0004266292074332001 0 0.0035682605640886302 -0.00035788904323571445 0 0.0035458893119638059 -0.00036621314658390826 0 0.0035495248498800484 -0.00035152255582288609 0 0.0035359022632332972 -0.00035842382824162336 0 0.0037344445585988854 -0.00042313736465373757 0 0.0038976830941782207 -0.00038573895916960805 0 0.0039018978017950792 -0.00040217053304115313 0 0.0039201619715949496 -0.00039352819186989083 0 0.0039018978017950792 -0.00040217053304115313 0 0.0038995239974535315 -0.00042024619306410278 0 0.0039201619715949496 -0.00039352819186989083 0 0.0038555904696770697 -0.00040152460310741866 0 0.0039018978017950792 -0.00040217053304115313 0 0.0038995239974535315 -0.00042024619306410278 0 0.0038555904696770697 -0.00040152460310741866 0 0.0038995239974535315 -0.00042024619306410278 0 0.0038723484262091776 -0.00044396699111686968 0 0.003873751148826439 -0.00041700279065672854 0 0.0039471048844272535 -0.00042771610227650061 0 0.0039162103569754265 -0.00044596070458445959 0 0.003873751148826439 -0.00041700279065672854 0 0.0038702529930096539 -0.00043181473456135622 0 0.0039162103569754265 -0.00044596070458445959 0 0.003389424191975961 -0.0004266292074332001 0 0.0037344445585988854 -0.00042313736465373757 0 0.0039186856878850223 -0.00042929587304231927 0 0.0039272744297191653 -0.00044668195649778851 0 0.0039451513345143251 -0.0004403235056956478 0 0.0037344445585988854 -0.00042313736465373757 0 0.0039540908770745167 -0.00045215655017235104 0 0.0039186856878850223 -0.00042929587304231927 0 0.0039272744297191653 -0.00044668195649778851 0 0.0039097338303414044 -0.00045461188296462004 0 0.0039272744297191653 -0.00044668195649778851 0 0.0039356273861115097 -0.00046419178042541551 0 0.0039451513345143251 -0.0004403235056956478 0 0.0039356273861115097 -0.00046419178042541551 0 0.0039451513345143251 -0.0004403235056956478 0 0.0039535409902583963 -0.00046072044915785275 0 0.0039272744297191653 -0.00044668195649778851 0 0.0039356273861115097 -0.00046419178042541551 0 0.0039097338303414044 -0.00045461188296462004 0 0.0039356273861115097 -0.00046419178042541551 0 0.0039097338303414044 -0.00045461188296462004 0 0.0039191495914149554 -0.00047944827293349936 0 0.0038995239974535315 -0.00042024619306410278 0 0.0038723484262091776 -0.00044396699111686968 0 0.0039097338303414044 -0.00045461188296462004 0 0.0039097338303414044 -0.00045461188296462004 0 0.003891742963902876 -0.00047400567760522372 0 0.0039191495914149554 -0.00047944827293349936 0 0.0038723484262091776 -0.00044396699111686968 0 0.0039097338303414044 -0.00045461188296462004 0 0.003891742963902876 -0.00047400567760522372 0 0.0038723484262091776 -0.00044396699111686968 0 0.003891742963902876 -0.00047400567760522372 0 0.0038610567425404738 -0.00048643922445662892 0 0.003891742963902876 -0.00047400567760522372 0 0.0039191495914149554 -0.00047944827293349936 0 0.0039345667816846298 -0.0005180254210780628 0 0.0044121819151919676 -0.00025070826614081136 0 0.0041564506701135115 -0.00025645412113855517 0 0.0044968601060584191 -3.781664429028224e-08 0 0.0044362058805555932 9.7129256609775592e-06 0 0.0045503347989448405 -4.2102438254791125e-05 0 0.003891742963902876 -0.00047400567760522372 0 0.0039345667816846298 -0.0005180254210780628 0 0.0038610567425404738 -0.00048643922445662892 0 0.0039356273861115097 -0.00046419178042541551 0 0.003937962817896541 -0.0004852635560612733 0 0.0039516904281483413 -0.00048132165579188146 0 0.003937962817896541 -0.0004852635560612733 0 0.0039191495914149554 -0.00047944827293349936 0 0.0039333530796978522 -0.00049447738708646933 0 0.0039356273861115097 -0.00046419178042541551 0 0.003937962817896541 -0.0004852635560612733 0 0.0039191495914149554 -0.00047944827293349936 0 0.0039191495914149554 -0.00047944827293349936 0 0.0039333530796978522 -0.00049447738708646933 0 0.0039295479020508579 -0.00050344681422467244 0 0.0040015742058633515 -0.00049268486101409787 0 0.0044121819151919676 -0.00025070826614081136 0 0.0039333530796978522 -0.00049447738708646933 0 0.0039485618730219392 -0.000501261665451792 0 0.0039295479020508579 -0.00050344681422467244 0 0.003937962817896541 -0.0004852635560612733 0 0.0039333530796978522 -0.00049447738708646933 0 0.0039485618730219392 -0.000501261665451792 0 0.003937962817896541 -0.0004852635560612733 0 0.0039485618730219392 -0.000501261665451792 0 0.0039516904281483413 -0.00048132165579188146 0 0.0044121819151919676 -0.00025070826614081136 0 0.0049880697773655898 -4.2216373819389719e-05 0 0.0050061575608406185 -0.00012491897776908966 0 0.0049651656421301508 -0.00010741297634139285 0 0.0050034636372819361 -9.6027653982457714e-05 0 0.0049598685542183605 -7.009110479603339e-06 0 0.0049672792775446563 5.1480743471502699e-07 0 0.0049606530063993773 1.6018983339006589e-06 0 0.0038899128808359299 -0.00042513014745070509 0 0.0044121819151919676 -0.00025070826614081136 0 0.0044121819151919676 -0.00025070826614081136 0 0.0048341576375787376 4.4395522993121823e-05 0 0.0049598685542183605 -7.009110479603339e-06 0 0.0049672792775446563 5.1480743471502699e-07 0 0.0049744360323196015 -2.0859586038207909e-06 0 0.0044968601060584191 -3.781664429028224e-08 0 0.0044362058805555932 9.7129256609775592e-06 0 0.0045634728154476476 2.6855363266966271e-05 0 0.0049744360323196015 -2.0859586038207909e-06 0 0.0049756847552510086 2.6696439119226708e-06 0 0.0049835204222279531 6.6183212114844645e-06 0 0.0049672792775446563 5.1480743471502699e-07 0 0.0049744360323196015 -2.0859586038207909e-06 0 0.0049756847552510086 2.6696439119226708e-06 0 0.0045634728154476476 2.6855363266966271e-05 0 0.0046302191674226743 -1.8765755535164116e-05 0 0.0046896491040238396 4.0582472473966369e-05 0 0.0048341576375787376 4.4395522993121823e-05 0 0.0048211886682214787 1.9175809400045019e-05 0 0.0046623737718792264 -8.882156620324787e-05 0 0.0046302191674226743 -1.8765755535164116e-05 0 0.0045503347989448405 -4.2102438254791125e-05 0 0.0046302191674226743 -1.8765755535164116e-05 0 0.0046907485071483093 -3.303983061459162e-05 0 0.0046896491040238396 4.0582472473966369e-05 0 0.0046623737718792264 -8.882156620324787e-05 0 0.0046302191674226743 -1.8765755535164116e-05 0 0.0046907485071483093 -3.303983061459162e-05 0 0.0042548962072490827 -0.00026884688168020735 0 0.0041564506701135115 -0.00025645412113855517 0 0.0045634728154476476 2.6855363266966271e-05 0 0.0046302191674226743 -1.8765755535164116e-05 0 0.0045503347989448405 -4.2102438254791125e-05 0 0.0044968601060584191 -3.781664429028224e-08 0 0.0045634728154476476 2.6855363266966271e-05 0 0.0045503347989448405 -4.2102438254791125e-05 0 0.0040424115742723182 -0.00047082473705630141 0 0.0040399760491822189 -0.00041940426000514113 0 0.0040048605632131201 -0.00044134076865378019 0 0.0040717107432728574 -0.00045613951445844735 0 0.0040424115742723182 -0.00047082473705630141 0 0.0040399760491822189 -0.00041940426000514113 0 0.0040048605632131201 -0.00044134076865378019 0 0.0039855327410697845 -0.00047267355806078032 0 0.0040127785649172985 -0.00048591296190664176 0 0.0040424115742723182 -0.00047082473705630141 0 0.0040048605632131201 -0.00044134076865378019 0 0.0040127785649172985 -0.00048591296190664176 0 0.0040048605632131201 -0.00044134076865378019 0 0.0039855327410697845 -0.00047267355806078032 0 0.003964417713728882 -0.0004533627196533918 0 0.0039855327410697845 -0.00047267355806078032 0 0.003964417713728882 -0.0004533627196533918 0 0.0039668044170789217 -0.00047868151344088037 0 0.0040048605632131201 -0.00044134076865378019 0 0.003964417713728882 -0.0004533627196533918 0 0.0039744117321104059 -0.00042220622372436987 0 0.0039474922403565614 -0.00039619995399827552 0 0.0039744117321104059 -0.00042220622372436987 0 0.0039471048844272535 -0.00042771610227650061 0 0.003964417713728882 -0.0004533627196533918 0 0.0039744117321104059 -0.00042220622372436987 0 0.0039471048844272535 -0.00042771610227650061 0 0.003964417713728882 -0.0004533627196533918 0 0.0039471048844272535 -0.00042771610227650061 0 0.0039162103569754265 -0.00044596070458445959 0 0.0039512540375855332 -0.00044936513311842407 0 0.0039540908770745167 -0.00045215655017235104 0 0.003964417713728882 -0.0004533627196533918 0 0.0039451513345143251 -0.0004403235056956478 0 0.0039535409902583963 -0.00046072044915785275 0 0.003964417713728882 -0.0004533627196533918 0 0.0039535409902583963 -0.00046072044915785275 0 0.0039668044170789217 -0.00047868151344088037 0 0.0039535409902583963 -0.00046072044915785275 0 0.0039516904281483413 -0.00048132165579188146 0 0.0039668044170789217 -0.00047868151344088037 0 0.0039356273861115097 -0.00046419178042541551 0 0.0039535409902583963 -0.00046072044915785275 0 0.0039516904281483413 -0.00048132165579188146 0 0.0039516904281483413 -0.00048132165579188146 0 0.0039668044170789217 -0.00047868151344088037 0 0.0039665242181589578 -0.00049783487872342264 0 0.0039668044170789217 -0.00047868151344088037 0 0.0039665242181589578 -0.00049783487872342264 0 0.0039878417492045419 -0.00049776215053827532 0 0.0039485618730219392 -0.000501261665451792 0 0.0039516904281483413 -0.00048132165579188146 0 0.0039665242181589578 -0.00049783487872342264 0 0.0044121819151919676 -0.00025070826614081136 0 0.0044598896968864902 -0.00034199201229529862 0 0.0039485618730219392 -0.000501261665451792 0 0.0039665242181589578 -0.00049783487872342264 0 0.0039778772293755822 -0.00052355010896292453 0 0.0039485618730219392 -0.000501261665451792 0 0.0039342411635423079 -0.00050111183335095556 0 0.0039778772293755822 -0.00052355010896292453 0 0.0039778772293755822 -0.00052355010896292453 0 0.0039878417492045419 -0.00049776215053827532 0 0.0040105995697779871 -0.00051288086267756573 0 0.0039778772293755822 -0.00052355010896292453 0 0.0040105995697779871 -0.00051288086267756573 0 0.0040251526333406305 -0.00054244955853135221 0 0.0039665242181589578 -0.00049783487872342264 0 0.0039778772293755822 -0.00052355010896292453 0 0.0039878417492045419 -0.00049776215053827532 0 0.0039855327410697845 -0.00047267355806078032 0 0.0039668044170789217 -0.00047868151344088037 0 0.0039878417492045419 -0.00049776215053827532 0 0.0039855327410697845 -0.00047267355806078032 0 0.0039878417492045419 -0.00049776215053827532 0 0.0040127785649172985 -0.00048591296190664176 0 0.0039878417492045419 -0.00049776215053827532 0 0.0040127785649172985 -0.00048591296190664176 0 0.0040105995697779871 -0.00051288086267756573 0 0.0040127785649172985 -0.00048591296190664176 0 0.0040105995697779871 -0.00051288086267756573 0 0.0040483584067441489 -0.00051453719564354555 0 0.0040105995697779871 -0.00051288086267756573 0 0.0040483584067441489 -0.00051453719564354555 0 0.0040251526333406305 -0.00054244955853135221 0 0.0043150112092980482 -0.0003704085580965454 0 0.0046183099772139271 -0.00018975585899526495 0 0.0040424115742723182 -0.00047082473705630141 0 0.0040127785649172985 -0.00048591296190664176 0 0.0040483584067441489 -0.00051453719564354555 0 0.0040777794543265938 -0.00048977321941965225 0 0.0040424115742723182 -0.00047082473705630141 0 0.0040483584067441489 -0.00051453719564354555 0 0.0049901122161231659 -5.4704229260154619e-05 0 0.0049997374517592869 -5.0564343112768285e-05 0 0.0049995449023718342 -2.641958486072188e-05 0 0.0046496197761330743 -7.0204595036684443e-05 0 0.0046711444089552467 -0.00015169088699700485 0 0.0047109677512122408 -9.9278775479750693e-05 0 0.0048601016549645491 -6.1669126292938898e-05 0 0.0046183099772139271 -0.00018975585899526495 0 0.0049997374517592869 -5.0564343112768285e-05 0 0.00500633025044399 -2.9009718264207066e-05 0 0.0049995449023718342 -2.641958486072188e-05 0 0.0046183099772139271 -0.00018975585899526495 0 0.0050326350562875776 3.3510141695264761e-06 0 0.0049104175226378638 -8.5983282623758401e-05 0 0.0049470598397029107 -4.575154887238493e-05 0 0.0049665386259501454 -7.3793520194703031e-05 0 0.0049470598397029107 -4.575154887238493e-05 0 0.0049665386259501454 -7.3793520194703031e-05 0 0.0049818774928764454 -4.5009298415427178e-05 0 0.0049651656421301508 -0.00010741297634139285 0 0.0049104175226378638 -8.5983282623758401e-05 0 0.0049665386259501454 -7.3793520194703031e-05 0 0.0044598896968864902 -0.00034199201229529862 0 0.0046183099772139271 -0.00018975585899526495 0 0.0049651656421301508 -0.00010741297634139285 0 0.0049904647751472494 -8.4306105167726296e-05 0 0.0050034636372819361 -9.6027653982457714e-05 0 0.0049651656421301508 -0.00010741297634139285 0 0.0049665386259501454 -7.3793520194703031e-05 0 0.0049904647751472494 -8.4306105167726296e-05 0 0.0049665386259501454 -7.3793520194703031e-05 0 0.0049904647751472494 -8.4306105167726296e-05 0 0.0049845774933841838 -6.2326521565273906e-05 0 0.0050014835281798975 -1.1198430465179381e-05 0 0.004990299530064678 -2.1685149807054934e-05 0 0.0049904647751472494 -8.4306105167726296e-05 0 0.0049845774933841838 -6.2326521565273906e-05 0 0.0050023862887860282 -6.2369409139357497e-05 0 0.0049957014642932488 -5.8995416878479098e-05 0 0.0049845774933841838 -6.2326521565273906e-05 0 0.0050023862887860282 -6.2369409139357497e-05 0 0.0049953338210878767 -4.8312942448930279e-05 0 0.005001438191701498 -1.8683241081088819e-05 0 0.0050023862887860282 -6.2369409139357497e-05 0 0.0049957014642932488 -5.8995416878479098e-05 0 0.0049953338210878767 -4.8312942448930279e-05 0 0.0050023862887860282 -6.2369409139357497e-05 0 0.0049957014642932488 -5.8995416878479098e-05 0 0.0049845774933841838 -6.2326521565273906e-05 0 0.0049953338210878767 -4.8312942448930279e-05 0 0.0049665386259501454 -7.3793520194703031e-05 0 0.0049845774933841838 -6.2326521565273906e-05 0 0.0049818774928764454 -4.5009298415427178e-05 0 0.0049845774933841838 -6.2326521565273906e-05 0 0.0049818774928764454 -4.5009298415427178e-05 0 0.0049953338210878767 -4.8312942448930279e-05 0 0.0049818774928764454 -4.5009298415427178e-05 0 0.0049953338210878767 -4.8312942448930279e-05 0 0.0049937265080884545 -3.1465558170707074e-05 0 0.0049818774928764454 -4.5009298415427178e-05 0 0.0049937265080884545 -3.1465558170707074e-05 0 0.0049974545860104929 -1.2497071263056736e-05 0 0.0049953338210878767 -4.8312942448930279e-05 0 0.0049937265080884545 -3.1465558170707074e-05 0 0.005001438191701498 -1.8683241081088819e-05 0 0.0049937265080884545 -3.1465558170707074e-05 0 0.0049974545860104929 -1.2497071263056736e-05 0 0.005001438191701498 -1.8683241081088819e-05 0 0.0049974545860104929 -1.2497071263056736e-05 0 0.005001438191701498 -1.8683241081088819e-05 0 0.0050000204941626127 -1.9289020734712449e-08 0 0.0050001240706873821 3.7310613714178289e-07 0 0.0049999987377363142 3.965680036089662e-10 0 0.0050000354168251741 3.0293451455698032e-07 0 0.0050014835281798975 -1.1198430465179381e-05 0 0.0049999987416999916 1.2890452423815811e-09 0 0.0050000204941626127 -1.9289020734712449e-08 0 0.005002038617859879 -1.421531941366249e-05 0 0.0049999759114238993 2.8350674130744422e-09 0 0.0049974545860104929 -1.2497071263056736e-05 0 0.0050000204941626127 -1.9289020734712449e-08 0 0.005002038617859879 -1.421531941366249e-05 0 0.0049470598397029107 -4.575154887238493e-05 0 0.0049818774928764454 -4.5009298415427178e-05 0 0.0049974545860104929 -1.2497071263056736e-05 0 0.00500633025044399 -2.9009718264207066e-05 0 0.0049974545860104929 -1.2497071263056736e-05 0 0.005002038617859879 -1.421531941366249e-05 0 0.0050326350562875776 3.3510141695264761e-06 0 0.0049747569951154973 -3.5043245993915887e-05 0 0.00500633025044399 -2.9009718264207066e-05 0 0.005002038617859879 -1.421531941366249e-05 0 0.0049995449023718342 -2.641958486072188e-05 0 0.005002038617859879 -1.421531941366249e-05 0 0.0049999759114238993 2.8350674130744422e-09 0 0.0049995449023718342 -2.641958486072188e-05 0 0.0050000918217381228 -7.0760797281630751e-08 0 0.0049999759114238993 2.8350674130744422e-09 0 0.0049995449023718342 -2.641958486072188e-05 0 0.0049849162341748443 -3.5935981107654287e-05 0 0.0049901122161231659 -5.4704229260154619e-05 0 0.0049995449023718342 -2.641958486072188e-05 0 0.0049793201801986353 6.0566673188057454e-06 0 0.0049715617673631958 1.140646288498408e-05 0 0.0049831619146819004 9.3598263719588241e-06 0 0.0049793201801986353 6.0566673188057454e-06 0 0.0049831619146819004 9.3598263719588241e-06 0 0.0049867309537913688 5.9358008368465985e-06 0 0.0049793201801986353 6.0566673188057454e-06 0 0.0049867309537913688 5.9358008368465985e-06 0 0.0049835204222279531 6.6183212114844645e-06 0 0.0049793201801986353 6.0566673188057454e-06 0 0.0049756847552510086 2.6696439119226708e-06 0 0.0049835204222279531 6.6183212114844645e-06 0 0.0049793201801986353 6.0566673188057454e-06 0 0.0049756847552510086 2.6696439119226708e-06 0 0.004969005789145357 5.1990056890691411e-06 0 0.0049672792775446563 5.1480743471502699e-07 0 0.0049756847552510086 2.6696439119226708e-06 0 0.004969005789145357 5.1990056890691411e-06 0 0.0049672792775446563 5.1480743471502699e-07 0 0.004969005789145357 5.1990056890691411e-06 0 0.0049606530063993773 1.6018983339006589e-06 0 0.004969005789145357 5.1990056890691411e-06 0 0.0049606530063993773 1.6018983339006589e-06 0 0.004959614011467715 8.9896669169035804e-06 0 0.0049880697773655898 -4.2216373819389719e-05 0 0.004990299530064678 -2.1685149807054934e-05 0 0.0049904647751472494 -8.4306105167726296e-05 0 0.0050034636372819361 -9.6027653982457714e-05 0 0.0050023862887860282 -6.2369409139357497e-05 0 0.0049999652735703438 5.5270903536340633e-07 0 0.0049997899043429678 8.7175962936018143e-07 0 0.0049999614930384675 5.7828766708599659e-07 0 0.004990299530064678 -2.1685149807054934e-05 0 0.0049841975229440397 8.7929408186498993e-06 0 0.0049793201801986353 6.0566673188057454e-06 0 0.004969005789145357 5.1990056890691411e-06 0 0.0049715617673631958 1.140646288498408e-05 0 0.004969005789145357 5.1990056890691411e-06 0 0.004959614011467715 8.9896669169035804e-06 0 0.0049715617673631958 1.140646288498408e-05 0 0.0049999987377363142 3.965680036089662e-10 0 0.0050000354168251741 3.0293451455698032e-07 0 0.005000003554720165 -5.0516206358113905e-11 0 0.0049997899043429678 8.7175962936018143e-07 0 0.004999894921620225 7.2324241293189318e-07 0 0.0049999614930384675 5.7828766708599659e-07 0 0.0050001240706873821 3.7310613714178289e-07 0 0.0049999652735703438 5.5270903536340633e-07 0 0.0049999614930384675 5.7828766708599659e-07 0 0.004999894921620225 7.2324241293189318e-07 0 0.0049999614930384675 5.7828766708599659e-07 0 0.0050000354168251741 3.0293451455698032e-07 0 0.0050001240706873821 3.7310613714178289e-07 0 0.0049999614930384675 5.7828766708599659e-07 0 0.0050000354168251741 3.0293451455698032e-07 0 0.004999894921620225 7.2324241293189318e-07 0 0.0050000354168251741 3.0293451455698032e-07 0 0.005000003554720165 -5.0516206358113905e-11 0 0.004999894921620225 7.2324241293189318e-07 0 0.005000003554720165 -5.0516206358113905e-11 0 0.0049995977909635843 1.7773054312393298e-06 0 0.005000003554720165 -5.0516206358113905e-11 0 0.0049995977909635843 1.7773054312393298e-06 0 0.0049999876307209607 2.6450895453411722e-09 0 0.0049997899043429678 8.7175962936018143e-07 0 0.004999894921620225 7.2324241293189318e-07 0 0.0049995977909635843 1.7773054312393298e-06 0 0.0049841975229440397 8.7929408186498993e-06 0 0.0049910284353051337 4.9601290303641655e-06 0 0.0049910284353051337 4.9601290303641655e-06 0 0.0049918656708673398 3.2180905347795171e-06 0 0.0049999876307209607 2.6450895453411722e-09 0 0.0049926987969965576 2.77207652438815e-06 0 0.0049897263491830591 1.4998271103607086e-07 0 0.0049995977909635843 1.7773054312393298e-06 0 0.0049999876307209607 2.6450895453411722e-09 0 0.0049926987969965576 2.77207652438815e-06 0 0.0049926987969965576 2.77207652438815e-06 0 0.0049863986018285778 2.9095052605328052e-06 0 0.0049897263491830591 1.4998271103607086e-07 0 0.0049831619146819004 9.3598263719588241e-06 0 0.0049926987969965576 2.77207652438815e-06 0 0.0049867309537913688 5.9358008368465985e-06 0 0.0049926987969965576 2.77207652438815e-06 0 0.0049867309537913688 5.9358008368465985e-06 0 0.0049863986018285778 2.9095052605328052e-06 0 0.0049863986018285778 2.9095052605328052e-06 0 0.004976733709471123 3.3940498610821046e-06 0 0.0049897263491830591 1.4998271103607086e-07 0 0.0049867309537913688 5.9358008368465985e-06 0 0.0049863986018285778 2.9095052605328052e-06 0 0.004976733709471123 3.3940498610821046e-06 0 0.0049867309537913688 5.9358008368465985e-06 0 0.004976733709471123 3.3940498610821046e-06 0 0.0049781493563643307 1.7705946821687562e-05 0 0.0049867309537913688 5.9358008368465985e-06 0 0.0049835204222279531 6.6183212114844645e-06 0 0.0049781493563643307 1.7705946821687562e-05 0 0.004976733709471123 3.3940498610821046e-06 0 0.0049645361720099448 3.6337746798779801e-06 0 0.0049394216170616356 2.27614161746436e-05 0 0.004976733709471123 3.3940498610821046e-06 0 0.0049781493563643307 1.7705946821687562e-05 0 0.0049394216170616356 2.27614161746436e-05 0 0.004976733709471123 3.3940498610821046e-06 0 0.0049821402080964493 -8.0851117388228153e-07 0 0.0049645361720099448 3.6337746798779801e-06 0 0.0049999876307209607 2.6450895453411722e-09 0 0.0049897263491830591 1.4998271103607086e-07 0 0.0049999573556255743 -1.1989579297995913e-08 0 0.004976733709471123 3.3940498610821046e-06 0 0.0049821402080964493 -8.0851117388228153e-07 0 0.0049897263491830591 1.4998271103607086e-07 0 0.0049821402080964493 -8.0851117388228153e-07 0 0.0049897263491830591 1.4998271103607086e-07 0 0.0049999573556255743 -1.1989579297995913e-08 0 0.0049999573556255743 -1.1989579297995913e-08 0 0.0049855787654024342 -6.8429450619425343e-06 0 0.0049998025936171201 -1.8081154840279478e-08 0 0.0049999573556255743 -1.1989579297995913e-08 0 0.0049745942198182822 -4.5573666149601949e-06 0 0.0049855787654024342 -6.8429450619425343e-06 0 0.0049821402080964493 -8.0851117388228153e-07 0 0.0049999573556255743 -1.1989579297995913e-08 0 0.0049745942198182822 -4.5573666149601949e-06 0 0.0049821402080964493 -8.0851117388228153e-07 0 0.0049745942198182822 -4.5573666149601949e-06 0 0.0049645361720099448 3.6337746798779801e-06 0 0.0049855787654024342 -6.8429450619425343e-06 0 0.0049754172122304444 1.009422628397935e-06 0 0.0049998025936171201 -1.8081154840279478e-08 0 0.0049855787654024342 -6.8429450619425343e-06 0 0.0049244080495441213 -3.1232265079824473e-05 0 0.0049583851634103695 -1.1508724906075846e-05 0 0.0049745942198182822 -4.5573666149601949e-06 0 0.0049855787654024342 -6.8429450619425343e-06 0 0.0049583851634103695 -1.1508724906075846e-05 0 0.0049783945432969297 -8.8699457952642376e-06 0 0.0049480080604817024 -1.3622863664880865e-05 0 0.0049244080495441213 -3.1232265079824473e-05 0 0.0049269534053044406 -1.0047359717611357e-05 0 0.0049583851634103695 -1.1508724906075846e-05 0 0.0049269534053044406 -1.0047359717611357e-05 0 0.0049583851634103695 -1.1508724906075846e-05 0 0.0049522013286266153 1.2710313579284279e-06 0 0.0049269534053044406 -1.0047359717611357e-05 0 0.0049300269953013775 7.3552120885707606e-06 0 0.0049522013286266153 1.2710313579284279e-06 0 0.0049300269953013775 7.3552120885707606e-06 0 0.0049522013286266153 1.2710313579284279e-06 0 0.0049437815898698053 9.4988459172021317e-06 0 0.0049269534053044406 -1.0047359717611357e-05 0 0.0049300269953013775 7.3552120885707606e-06 0 0.004896668263368935 6.6459425594832341e-06 0 0.0049745942198182822 -4.5573666149601949e-06 0 0.0049645361720099448 3.6337746798779801e-06 0 0.0049522013286266153 1.2710313579284279e-06 0 0.0049745942198182822 -4.5573666149601949e-06 0 0.0049583851634103695 -1.1508724906075846e-05 0 0.0049522013286266153 1.2710313579284279e-06 0 0.0049522013286266153 1.2710313579284279e-06 0 0.0049504636625906798 1.0649874840466577e-05 0 0.0049437815898698053 9.4988459172021317e-06 0 0.0049645361720099448 3.6337746798779801e-06 0 0.0049522013286266153 1.2710313579284279e-06 0 0.0049504636625906798 1.0649874840466577e-05 0 0.0049645361720099448 3.6337746798779801e-06 0 0.0049504636625906798 1.0649874840466577e-05 0 0.0049394216170616356 2.27614161746436e-05 0 0.0049419947652338415 7.6018676981058879e-06 0 0.0049329929211891048 -4.0430274083329377e-06 0 0.0049394216170616356 2.27614161746436e-05 0 0.0049504636625906798 1.0649874840466577e-05 0 0.0049419947652338415 7.6018676981058879e-06 0 0.0049394216170616356 2.27614161746436e-05 0 0.0049504636625906798 1.0649874840466577e-05 0 0.0049419947652338415 7.6018676981058879e-06 0 0.0049437815898698053 9.4988459172021317e-06 0 0.0049437815898698053 9.4988459172021317e-06 0 0.0049358418826927954 1.238853204377597e-05 0 0.0049309162916274241 1.4621600576422166e-05 0 0.0049419947652338415 7.6018676981058879e-06 0 0.0049437815898698053 9.4988459172021317e-06 0 0.0049358418826927954 1.238853204377597e-05 0 0.0049419947652338415 7.6018676981058879e-06 0 0.0049358418826927954 1.238853204377597e-05 0 0.0049349005222761666 2.3217102458379328e-06 0 0.0049358418826927954 1.238853204377597e-05 0 0.0049349005222761666 2.3217102458379328e-06 0 0.0049279736171403687 1.9667624980485035e-05 0 0.0049349005222761666 2.3217102458379328e-06 0 0.0049329929211891048 -4.0430274083329377e-06 0 0.0049272372527112947 -2.4770318575658954e-05 0 0.0049419947652338415 7.6018676981058879e-06 0 0.0049349005222761666 2.3217102458379328e-06 0 0.0049329929211891048 -4.0430274083329377e-06 0 0.0049300269953013775 7.3552120885707606e-06 0 0.004896668263368935 6.6459425594832341e-06 0 0.0049089527152992099 2.2527607014822192e-05 0 0.004896668263368935 6.6459425594832341e-06 0 0.0049089527152992099 2.2527607014822192e-05 0 0.0048706284325356923 3.3339045663125456e-05 0 0.0049300269953013775 7.3552120885707606e-06 0 0.0049437815898698053 9.4988459172021317e-06 0 0.0049309162916274241 1.4621600576422166e-05 0 0.0049089527152992099 2.2527607014822192e-05 0 0.0049309162916274241 1.4621600576422166e-05 0 0.0049205891262088285 2.275295660965974e-05 0 0.0049300269953013775 7.3552120885707606e-06 0 0.0049089527152992099 2.2527607014822192e-05 0 0.0049309162916274241 1.4621600576422166e-05 0 0.0049205891262088285 2.275295660965974e-05 0 0.0048871824782507223 4.8443852383237869e-05 0 0.0049279736171403687 1.9667624980485035e-05 0 0.003470257326386839 -0.00016315741267933069 0 0.0036676860892108452 -0.00013681991896386618 0 0.0049358418826927954 1.238853204377597e-05 0 0.0049309162916274241 1.4621600576422166e-05 0 0.0049205891262088285 2.275295660965974e-05 0 0.0049358418826927954 1.238853204377597e-05 0 0.0049205891262088285 2.275295660965974e-05 0 0.0049279736171403687 1.9667624980485035e-05 0 0.0049089527152992099 2.2527607014822192e-05 0 0.0049205891262088285 2.275295660965974e-05 0 0.0048871824782507223 4.8443852383237869e-05 0 0.0049089527152992099 2.2527607014822192e-05 0 0.0048871824782507223 4.8443852383237869e-05 0 0.0048706284325356923 3.3339045663125456e-05 0 0.0022346796246187134 -0.00030765281133797548 0 0.0023062410844683513 -0.00025782278691599233 0 0.002245521144356011 -0.00021921043059762964 0 0.0022346796246187134 -0.00030765281133797548 0 0.0023062410844683513 -0.00025782278691599233 0 0.0023463337106264638 -0.00030367151932300283 0 0.0023062410844683513 -0.00025782278691599233 0 0.0023463337106264638 -0.00030367151932300283 0 0.0023652377128943226 -0.00028111493900968002 0 0.0023062410844683513 -0.00025782278691599233 0 0.002245521144356011 -0.00021921043059762964 0 0.0023443401009507602 -0.00017600057950236983 0 0.0023062410844683513 -0.00025782278691599233 0 0.0023652377128943226 -0.00028111493900968002 0 0.0023443401009507602 -0.00017600057950236983 0 0.002245521144356011 -0.00021921043059762964 0 0.0021806508783721278 -0.00018320734706962766 0 0.0022445992148432082 -0.00013260530507561215 0 0.0049349005222761666 2.3217102458379328e-06 0 0.0049279736171403687 1.9667624980485035e-05 0 0.0049272372527112947 -2.4770318575658954e-05 0 0.0024723342378830389 -0.00029780447754049042 0 0.0023652377128943226 -0.00028111493900968002 0 0.002422686574387236 -0.00024250930421162894 0 0.0023463337106264638 -0.00030367151932300283 0 0.0024723342378830389 -0.00029780447754049042 0 0.0023652377128943226 -0.00028111493900968002 0 0.0036676860892108452 -0.00013681991896386618 0 0.0036419767631969786 -0.00015325667950964758 0 0.0023629796197799191 -0.00027670305211774767 0 0.0023578144873342296 -0.00018873292587593061 0 0.0023652377128943226 -0.00028111493900968002 0 0.002422686574387236 -0.00024250930421162894 0 0.002371910981992572 -0.0001973572587421597 0 0.002422686574387236 -0.00024250930421162894 0 0.0024456561250725093 -0.00017579363210986878 0 0.002371910981992572 -0.0001973572587421597 0 0.002422686574387236 -0.00024250930421162894 0 0.0025089364216173914 -0.0002338696668455517 0 0.0024456561250725093 -0.00017579363210986878 0 0.0024723342378830389 -0.00029780447754049042 0 0.002422686574387236 -0.00024250930421162894 0 0.0025089364216173914 -0.0002338696668455517 0 0.0025089364216173914 -0.0002338696668455517 0 0.0025816780963706337 -0.00021702198212057702 0 0.0025337810399392938 -0.0001716531667780952 0 0.0024723342378830389 -0.00029780447754049042 0 0.0025089364216173914 -0.0002338696668455517 0 0.0025922950805958881 -0.00028205783301194116 0 0.0036419767631969786 -0.00015325667950964758 0 0.0039699626572992789 -0.00025939458810803761 0 0.0049272372527112947 -2.4770318575658954e-05 0 0.0048742893270280552 -5.8271169235427841e-05 0 0.0049087403307109742 -2.7716540501009479e-05 0 0.0048618380318214104 -0.00010432653981993001 0 0.0049087403307109742 -2.7716540501009479e-05 0 0.0048548414735670609 -5.1357646836005341e-05 0 0.0048618380318214104 -0.00010432653981993001 0 0.0048120810115000398 -8.3424730966837616e-05 0 0.0048548414735670609 -5.1357646836005341e-05 0 0.0039699626572992789 -0.00025939458810803761 0 0.0051154332961978431 0.00013688681032761625 0 0.0039699626572992789 -0.00025939458810803761 0 0.0030845847954761576 -0.00036770644020879756 0 0.0025922950805958881 -0.00028205783301194116 0 0.0025816780963706337 -0.00021702198212057702 0 0.0026534147002054476 -0.000220415362863274 0 0.0025089364216173914 -0.0002338696668455517 0 0.0025922950805958881 -0.00028205783301194116 0 0.0025816780963706337 -0.00021702198212057702 0 0.0037063193175819803 -0.0004124598375495943 0 0.0037215072497629176 -0.00039012669066406801 0 0.003724022196020289 -0.00040500496427779557 0 0.0037215072497629176 -0.00039012669066406801 0 0.0037499984992039165 -0.00038046909283110471 0 0.0037392249331014756 -0.00039953217383124391 0 0.0037343128825963264 -0.00041275433490082884 0 0.003724022196020289 -0.00040500496427779557 0 0.0037392249331014756 -0.00039953217383124391 0 0.0037215072497629176 -0.00039012669066406801 0 0.003724022196020289 -0.00040500496427779557 0 0.0037392249331014756 -0.00039953217383124391 0 0.0041431048819484673 -0.00033333487738371545 0 0.0038831891864543953 -0.00029026679087817633 0 0.0037763695811663602 -0.00037843986298369877 0 0.0037660123613791341 -0.00039737940822929168 0 0.0037499984992039165 -0.00038046909283110471 0 0.0037660123613791341 -0.00039737940822929168 0 0.0037499984992039165 -0.00038046909283110471 0 0.0037392249331014756 -0.00039953217383124391 0 0.0037660123613791341 -0.00039737940822929168 0 0.0037519242327869826 -0.00041370648375341099 0 0.0037392249331014756 -0.00039953217383124391 0 0.0037343128825963264 -0.00041275433490082884 0 0.0037519242327869826 -0.00041370648375341099 0 0.0037392249331014756 -0.00039953217383124391 0 0.0041431048819484673 -0.00033333487738371545 0 0.0037604756415143465 -0.00040967046287556931 0 0.003791146777903751 -0.00045007624732030605 0 0.0037660123613791341 -0.00039737940822929168 0 0.0037519242327869826 -0.00041370648375341099 0 0.0046623737718792264 -8.882156620324787e-05 0 0.0047688138277745453 -0.00013198741853073315 0 0.0047359750721023951 -7.1255875023304392e-05 0 0.003791146777903751 -0.00045007624732030605 0 0.0037324822653701894 -0.00041634641066441437 0 0.0037519242327869826 -0.00041370648375341099 0 0.0042548962072490827 -0.00026884688168020735 0 0.0041431048819484673 -0.00033333487738371545 0 0.0046623737718792264 -8.882156620324787e-05 0 0.0047359750721023951 -7.1255875023304392e-05 0 0.0046907485071483093 -3.303983061459162e-05 0 0.0039699626572992789 -0.00025939458810803761 0 0.0041431048819484673 -0.00033333487738371545 0 0.0048618380318214104 -0.00010432653981993001 0 0.0047688138277745453 -0.00013198741853073315 0 0.0048120810115000398 -8.3424730966837616e-05 0 0.0037063193175819803 -0.0004124598375495943 0 0.0037313090762006659 -0.00040793915311849766 0 0.003724022196020289 -0.00040500496427779557 0 0.0047688138277745453 -0.00013198741853073315 0 0.0047763003004597628 -8.5391077370276401e-05 0 0.0048120810115000398 -8.3424730966837616e-05 0 0.0047359750721023951 -7.1255875023304392e-05 0 0.0047763003004597628 -8.5391077370276401e-05 0 0.0048037072171463868 -3.8401328124905204e-05 0 0.0047688138277745453 -0.00013198741853073315 0 0.0047359750721023951 -7.1255875023304392e-05 0 0.0047763003004597628 -8.5391077370276401e-05 0 0.0048120810115000398 -8.3424730966837616e-05 0 0.0048037072171463868 -3.8401328124905204e-05 0 0.0048548414735670609 -5.1357646836005341e-05 0 0.0047763003004597628 -8.5391077370276401e-05 0 0.0048120810115000398 -8.3424730966837616e-05 0 0.0048037072171463868 -3.8401328124905204e-05 0 0.0048037072171463868 -3.8401328124905204e-05 0 0.0047477194786870579 -1.1242363901118975e-05 0 0.0048152598762381069 4.6298768994145274e-05 0 0.0048037072171463868 -3.8401328124905204e-05 0 0.0048152598762381069 4.6298768994145274e-05 0 0.0048736086135612675 -8.6235543950492318e-06 0 0.0047359750721023951 -7.1255875023304392e-05 0 0.0048037072171463868 -3.8401328124905204e-05 0 0.0047477194786870579 -1.1242363901118975e-05 0 0.0047359750721023951 -7.1255875023304392e-05 0 0.0046907485071483093 -3.303983061459162e-05 0 0.0047477194786870579 -1.1242363901118975e-05 0 0.0046907485071483093 -3.303983061459162e-05 0 0.0047477194786870579 -1.1242363901118975e-05 0 0.0046896491040238396 4.0582472473966369e-05 0 0.0048211886682214787 1.9175809400045019e-05 0 0.0048987707819394414 3.0760468572829026e-05 0 0.0047477194786870579 -1.1242363901118975e-05 0 0.0046896491040238396 4.0582472473966369e-05 0 0.0048152598762381069 4.6298768994145274e-05 0 0.0048152598762381069 4.6298768994145274e-05 0 0.0049394216170616356 2.27614161746436e-05 0 0.0048736086135612675 -8.6235543950492318e-06 0 0.0048987707819394414 3.0760468572829026e-05 0 0.0049331100365761719 2.4928108988514769e-05 0 0.0049394216170616356 2.27614161746436e-05 0 0.0049087403307109742 -2.7716540501009479e-05 0 0.0048736086135612675 -8.6235543950492318e-06 0 0.0049329929211891048 -4.0430274083329377e-06 0 0.0049394216170616356 2.27614161746436e-05 0 0.0049087403307109742 -2.7716540501009479e-05 0 0.0049329929211891048 -4.0430274083329377e-06 0 0.0049272372527112947 -2.4770318575658954e-05 0 0.0049087403307109742 -2.7716540501009479e-05 0 0.0049087403307109742 -2.7716540501009479e-05 0 0.0048548414735670609 -5.1357646836005341e-05 0 0.0048736086135612675 -8.6235543950492318e-06 0 0.0048037072171463868 -3.8401328124905204e-05 0 0.0048548414735670609 -5.1357646836005341e-05 0 0.0048736086135612675 -8.6235543950492318e-06 0 0.0049994144641383187 -9.9547040525683799e-08 0 0.0047913158327485186 -3.2490171762356113e-06 0 0.0046719843969598553 1.6003878623220654e-06 0 0.0049994144641383187 -9.9547040525683799e-08 0 0.0045062014167491947 2.0110432671856038e-05 0 0.0043146601308195823 5.812983410733571e-06 0 0.0049994144641383187 -9.9547040525683799e-08 0 0.0046719843969598553 1.6003878623220654e-06 0 0.0045062014167491947 2.0110432671856038e-05 0 0.0049994144641383187 -9.9547040525683799e-08 0 0.0047913158327485186 -3.2490171762356113e-06 0 0.0049998025936171201 -1.8081154840279478e-08 0 0.0047905140823100807 -1.6578306648975363e-05 0 0.0046856649870689474 5.9082532201119625e-06 0 0.0047913158327485186 -3.2490171762356113e-06 0 0.0049998025936171201 -1.8081154840279478e-08 0 0.0049101439588355982 9.9978862982582795e-06 0 0.0049754172122304444 1.009422628397935e-06 0 0.0049998025936171201 -1.8081154840279478e-08 0 0.0049101439588355982 9.9978862982582795e-06 0 0.0049244080495441213 -3.1232265079824473e-05 0 0.0049269534053044406 -1.0047359717611357e-05 0 0.0048672935922892948 -3.602293845955608e-05 0 0.0049480080604817024 -1.3622863664880865e-05 0 0.0048879892961039085 -1.5827935846649994e-05 0 0.0047905140823100807 -1.6578306648975363e-05 0 0.0048879892961039085 -1.5827935846649994e-05 0 0.0047909406001470003 -3.028043590758317e-05 0 0.0048672935922892948 -3.602293845955608e-05 0 0.0048499477290693096 9.5648032832105648e-07 0 0.0047909406001470003 -3.028043590758317e-05 0 0.0048499477290693096 9.5648032832105648e-07 0 0.0047989848884344372 2.0369963773228143e-05 0 0.0049269534053044406 -1.0047359717611357e-05 0 0.004896668263368935 6.6459425594832341e-06 0 0.0048672935922892948 -3.602293845955608e-05 0 0.004896668263368935 6.6459425594832341e-06 0 0.0048672935922892948 -3.602293845955608e-05 0 0.0048499477290693096 9.5648032832105648e-07 0 0.004896668263368935 6.6459425594832341e-06 0 0.0048499477290693096 9.5648032832105648e-07 0 0.0048706284325356923 3.3339045663125456e-05 0 0.0048499477290693096 9.5648032832105648e-07 0 0.0048706284325356923 3.3339045663125456e-05 0 0.0048293793008709297 4.3817317553583226e-05 0 0.0048706284325356923 3.3339045663125456e-05 0 0.0048293793008709297 4.3817317553583226e-05 0 0.0048208988505537009 5.9956495141722138e-05 0 0.0048499477290693096 9.5648032832105648e-07 0 0.0047989848884344372 2.0369963773228143e-05 0 0.0048293793008709297 4.3817317553583226e-05 0 0.0048029926473535959 4.9633573374079455e-05 0 0.0048177187046038903 8.6825403090507556e-05 0 0.0047657938730724901 5.3457817152659957e-05 0 0.0048029926473535959 4.9633573374079455e-05 0 0.0048293793008709297 4.3817317553583226e-05 0 0.0048177187046038903 8.6825403090507556e-05 0 0.0047989848884344372 2.0369963773228143e-05 0 0.0048029926473535959 4.9633573374079455e-05 0 0.0048293793008709297 4.3817317553583226e-05 0 0.0043727159554590245 -9.1431088089968086e-05 0 0.0038582678310406021 5.6684925471942423e-05 0 0.0022346796246187134 -0.00030765281133797548 0 0.0021459989165940763 -0.00031871805053233771 0 0.0021712017230955932 -0.00025522442056497344 0 0.003470257326386839 -0.00016315741267933069 0 0.0038582678310406021 5.6684925471942423e-05 0 0.0048871824782507223 4.8443852383237869e-05 0 0.0048706284325356923 3.3339045663125456e-05 0 0.0048208988505537009 5.9956495141722138e-05 0 0.0022346796246187134 -0.00030765281133797548 0 0.002245521144356011 -0.00021921043059762964 0 0.0021712017230955932 -0.00025522442056497344 0 0.002245521144356011 -0.00021921043059762964 0 0.0021712017230955932 -0.00025522442056497344 0 0.0021806508783721278 -0.00018320734706962766 0 0.0021806508783721278 -0.00018320734706962766 0 0.0020965397179825594 -0.00022455620300262707 0 0.0021159450131099686 -0.00014726607252715242 0 0.0021712017230955932 -0.00025522442056497344 0 0.0021806508783721278 -0.00018320734706962766 0 0.0020965397179825594 -0.00022455620300262707 0 0.0021459989165940763 -0.00031871805053233771 0 0.0021712017230955932 -0.00025522442056497344 0 0.0020965397179825594 -0.00022455620300262707 0 0.0038582678310406021 5.6684925471942423e-05 0 0.0030534542520717603 -0.00017303215702845872 0 0.0041681165651344066 2.2158555825150209e-06 0 0.0042178334057188004 -2.9631838188348429e-05 0 0.0042069822930927026 -6.8886728477209915e-05 0 0.0042178334057188004 -2.9631838188348429e-05 0 0.0042069822930927026 -6.8886728477209915e-05 0 0.004239108892291895 -7.3736753477840532e-05 0 0.0030534542520717603 -0.00017303215702845872 0 0.0031431560459618747 -9.6627646834080799e-05 0 0.0042069822930927026 -6.8886728477209915e-05 0 0.004239108892291895 -7.3736753477840532e-05 0 0.0042230369044840748 -7.262935294972145e-05 0 0.004239108892291895 -7.3736753477840532e-05 0 0.0042710242597328394 -3.9658202409122902e-05 0 0.0042771464728291013 -5.084197185069528e-05 0 0.0042178334057188004 -2.9631838188348429e-05 0 0.004239108892291895 -7.3736753477840532e-05 0 0.0042710242597328394 -3.9658202409122902e-05 0 0.0042178334057188004 -2.9631838188348429e-05 0 0.0042710242597328394 -3.9658202409122902e-05 0 0.0042506085661804943 3.2930073366166933e-05 0 0.0042710242597328394 -3.9658202409122902e-05 0 0.0042506085661804943 3.2930073366166933e-05 0 0.0043466603774292316 -2.2107788757282199e-05 0 0.0048177187046038903 8.6825403090507556e-05 0 0.0046964090605839835 7.786470191314024e-05 0 0.0047657938730724901 5.3457817152659957e-05 0 0.0041681165651344066 2.2158555825150209e-06 0 0.0042178334057188004 -2.9631838188348429e-05 0 0.0042506085661804943 3.2930073366166933e-05 0 0.0038582678310406021 5.6684925471942423e-05 0 0.0046169732571898579 6.2237163828118193e-05 0 0.0046964090605839835 7.786470191314024e-05 0 0.0047657938730724901 5.3457817152659957e-05 0 0.0047467923211958309 2.1020086073687506e-05 0 0.0047909406001470003 -3.028043590758317e-05 0 0.0047467923211958309 2.1020086073687506e-05 0 0.0046719843969598553 1.6003878623220654e-06 0 0.0047989848884344372 2.0369963773228143e-05 0 0.0048029926473535959 4.9633573374079455e-05 0 0.0047657938730724901 5.3457817152659957e-05 0 0.0047909406001470003 -3.028043590758317e-05 0 0.0047989848884344372 2.0369963773228143e-05 0 0.0047467923211958309 2.1020086073687506e-05 0 0.0047989848884344372 2.0369963773228143e-05 0 0.0047657938730724901 5.3457817152659957e-05 0 0.0047467923211958309 2.1020086073687506e-05 0 0.0046964090605839835 7.786470191314024e-05 0 0.0046719843969598553 1.6003878623220654e-06 0 0.0045062014167491947 2.0110432671856038e-05 0 0.0046964090605839835 7.786470191314024e-05 0 0.0047467923211958309 2.1020086073687506e-05 0 0.0046719843969598553 1.6003878623220654e-06 0 0.0049994144641383187 -9.9547040525683799e-08 0 0.0037735599360852337 -1.0426959260352574e-07 0 0.0043146601308195823 5.812983410733571e-06 0 0.0046169732571898579 6.2237163828118193e-05 0 0.0044415131645128159 1.9930904180688201e-05 0 0.0045062014167491947 2.0110432671856038e-05 0 0.0043172927040202782 -2.2214775232575519e-05 0 0.0043146601308195823 5.812983410733571e-06 0 0.0045062014167491947 2.0110432671856038e-05 0 0.0043466603774292316 -2.2107788757282199e-05 0 0.0043172927040202782 -2.2214775232575519e-05 0 0.0042506085661804943 3.2930073366166933e-05 0 0.0045062014167491947 2.0110432671856038e-05 0 0.0043466603774292316 -2.2107788757282199e-05 0 0.0042710242597328394 -3.9658202409122902e-05 0 0.0043466603774292316 -2.2107788757282199e-05 0 0.0042771464728291013 -5.084197185069528e-05 0 0.0042771464728291013 -5.084197185069528e-05 0 0.0042292852759208141 -6.7068664043613339e-05 0 0.0043172927040202782 -2.2214775232575519e-05 0 0.0043466603774292316 -2.2107788757282199e-05 0 0.0042771464728291013 -5.084197185069528e-05 0 0.0043172927040202782 -2.2214775232575519e-05 0 0.004239108892291895 -7.3736753477840532e-05 0 0.0042292852759208141 -6.7068664043613339e-05 0 0.0041721289553091918 -7.1765737742227688e-05 0 0.004239108892291895 -7.3736753477840532e-05 0 0.0042771464728291013 -5.084197185069528e-05 0 0.0042292852759208141 -6.7068664043613339e-05 0 0.0042292852759208141 -6.7068664043613339e-05 0 0.0042377657229936434 -5.3495517527965397e-05 0 0.0040885703441960472 -8.2993485591080797e-05 0 0.0043172927040202782 -2.2214775232575519e-05 0 0.0042377657229936434 -5.3495517527965397e-05 0 0.0043146601308195823 5.812983410733571e-06 0 0.0042292852759208141 -6.7068664043613339e-05 0 0.0043172927040202782 -2.2214775232575519e-05 0 0.0042377657229936434 -5.3495517527965397e-05 0 0.0040056743722408986 1.3279190468189619e-06 0 0.0037735599360852337 -1.0426959260352574e-07 0 0.0043146601308195823 5.812983410733571e-06 0 0.0041252599276453295 -3.3042078576781041e-05 0 0.0042795572698240527 -1.0819040432525306e-05 0 0.0041252599276453295 -3.3042078576781041e-05 0 0.0039174424003648673 -4.8182441139255917e-05 0 0.0040056743722408986 1.3279190468189619e-06 0 0.0037735599360852337 -1.0426959260352574e-07 0 0.0037425211447195419 -3.012961280615823e-06 0 0.0037735599360852337 -1.0426959260352574e-07 0 0.0035490292382409964 -2.9565785427488116e-05 0 0.003111851747587443 4.3812799272786075e-07 0 0.0035490292382409964 -2.9565785427488116e-05 0 0.0035664621662961273 0.00015458161093746819 0 0.003111851747587443 4.3812799272786075e-07 0 0.0039037328952038794 -2.6990233462936511e-05 0 0.0038776773755462334 8.6599252228115092e-05 0 0.0035664621662961273 0.00015458161093746819 0 0.0037259955712786747 -1.266508105050612e-05 0 0.0035914629463089163 0.00016426277207054585 0 0.0038776773755462334 8.6599252228115092e-05 0 0.0035664621662961273 0.00015458161093746819 0 0.0036218562001491968 0.00022719218352309896 0 0.0037735599360852337 -1.0426959260352574e-07 0 0.0035490292382409964 -2.9565785427488116e-05 0 0.0037425211447195419 -3.012961280615823e-06 0 0.0037259955712786747 -1.266508105050612e-05 0 0.0039174424003648673 -4.8182441139255917e-05 0 0.0039037328952038794 -2.6990233462936511e-05 0 0.0040885703441960472 -8.2993485591080797e-05 0 0.0040823077299909924 -2.8752968350045262e-05 0 0.0040885703441960472 -8.2993485591080797e-05 0 0.0041721289553091918 -7.1765737742227688e-05 0 0.0040823077299909924 -2.8752968350045262e-05 0 0.0041721289553091918 -7.1765737742227688e-05 0 0.0040823077299909924 -2.8752968350045262e-05 0 0.0042230369044840748 -7.262935294972145e-05 0 0.0042292852759208141 -6.7068664043613339e-05 0 0.0040885703441960472 -8.2993485591080797e-05 0 0.0041721289553091918 -7.1765737742227688e-05 0 0.0040823077299909924 -2.8752968350045262e-05 0 0.0040882264372723003 8.8614774189523622e-05 0 0.0041873314142720826 2.123017369638779e-05 0 0.0040823077299909924 -2.8752968350045262e-05 0 0.0038776773755462334 8.6599252228115092e-05 0 0.0040882264372723003 8.8614774189523622e-05 0 0.0039037328952038794 -2.6990233462936511e-05 0 0.0040823077299909924 -2.8752968350045262e-05 0 0.0038776773755462334 8.6599252228115092e-05 0 0.0038776773755462334 8.6599252228115092e-05 0 0.0040882264372723003 8.8614774189523622e-05 0 0.0039812055019115599 0.00023766812260681802 0 0.0040882264372723003 8.8614774189523622e-05 0 0.0041873314142720826 2.123017369638779e-05 0 0.0041427667746045584 0.00022132955586024505 0 0.0031561299213432609 8.0602074673414301e-06 0 0.0026703074176094798 3.5916834073378499e-05 0 0.0020249221220673798 2.3729347895915895e-05 0 0.0020143444206305364 -3.1343932139617597e-05 0 0.001987994727480609 5.3986375593995529e-05 0 0.0020249221220673798 2.3729347895915895e-05 0 0.0020644358694856019 3.2826804373978721e-06 0 0.0020143444206305364 -3.1343932139617597e-05 0 0.0020249221220673798 2.3729347895915895e-05 0 0.0020644358694856019 3.2826804373978721e-06 0 0.0020373098813055417 6.5964867492671766e-05 0 0.0020644358694856019 3.2826804373978721e-06 0 0.0020143444206305364 -3.1343932139617597e-05 0 0.0020896127219615329 -7.2139823686580255e-05 0 0.0031561299213432609 8.0602074673414301e-06 0 0.0031431560459618747 -9.6627646834080799e-05 0 0.0040823077299909924 -2.8752968350045262e-05 0 0.0041873314142720826 2.123017369638779e-05 0 0.0042230369044840748 -7.262935294972145e-05 0 0.004239108892291895 -7.3736753477840532e-05 0 0.0041721289553091918 -7.1765737742227688e-05 0 0.0042230369044840748 -7.262935294972145e-05 0 0.0020965397179825594 -0.00022455620300262707 0 0.0020536463452447201 -0.00012739524917918234 0 0.0021159450131099686 -0.00014726607252715242 0 0.0020536463452447201 -0.00012739524917918234 0 0.0020896127219615329 -7.2139823686580255e-05 0 0.0021159450131099686 -0.00014726607252715242 0 0.0020143444206305364 -3.1343932139617597e-05 0 0.0020536463452447201 -0.00012739524917918234 0 0.0020896127219615329 -7.2139823686580255e-05 0 0.0020896127219615329 -7.2139823686580255e-05 0 0.0021159450131099686 -0.00014726607252715242 0 0.0021533301072000719 -0.00010435500008846164 0 0.0021806508783721278 -0.00018320734706962766 0 0.0021533301072000719 -0.00010435500008846164 0 0.0022445992148432082 -0.00013260530507561215 0 0.0021806508783721278 -0.00018320734706962766 0 0.0021159450131099686 -0.00014726607252715242 0 0.0021533301072000719 -0.00010435500008846164 0 0.0021533301072000719 -0.00010435500008846164 0 0.0020804819533624323 8.2199887224823578e-06 0 0.0022211935221633766 -2.6540734077069466e-05 0 0.0020804819533624323 8.2199887224823578e-06 0 0.0022211935221633766 -2.6540734077069466e-05 0 0.0021601331938023694 4.7598818889527132e-05 0 0.0021480182148489639 -9.7994861168049547e-05 0 0.0021053171770623134 -6.0227444881956963e-06 0 0.0020896127219615329 -7.2139823686580255e-05 0 0.0021533301072000719 -0.00010435500008846164 0 0.0021279565448694385 -2.0519668566303842e-05 0 0.0020644358694856019 3.2826804373978721e-06 0 0.0020896127219615329 -7.2139823686580255e-05 0 0.0021279565448694385 -2.0519668566303842e-05 0 0.0020804819533624323 8.2199887224823578e-06 0 0.0021042696383304594 8.821697298851491e-05 0 0.0020326487105510826 0.00012344662806511384 0 0.0021053171770623134 -6.0227444881956963e-06 0 0.0020593830109075671 9.5672314078866093e-05 0 0.0020644358694856019 3.2826804373978721e-06 0 0.0021279565448694385 -2.0519668566303842e-05 0 0.002088053332640769 7.0099645929342397e-05 0 0.0020804819533624323 8.2199887224823578e-06 0 0.0021042696383304594 8.821697298851491e-05 0 0.0021601331938023694 4.7598818889527132e-05 0 0.0021042696383304594 8.821697298851491e-05 0 0.0020897842315936587 0.00015043356018439174 0 0.0021637693811546203 0.00011041164999479606 0 0.0021042696383304594 8.821697298851491e-05 0 0.0020326487105510826 0.00012344662806511384 0 0.0020897842315936587 0.00015043356018439174 0 0.0020450741807539891 0.00015976460888432248 0 0.0020561821671409948 0.0001930675068529588 0 0.0020191958544542718 0.00016395042510229362 0 0.0020593830109075671 9.5672314078866093e-05 0 0.0020242479122893407 0.00015953774115117547 0 0.0020326487105510826 0.00012344662806511384 0 0.0020450741807539891 0.00015976460888432248 0 0.0020897842315936587 0.00015043356018439174 0 0.0020326487105510826 0.00012344662806511384 0 0.0020450741807539891 0.00015976460888432248 0 0.0020191958544542718 0.00016395042510229362 0 0.0020897842315936587 0.00015043356018439174 0 0.0021063033393118719 0.00022978607154152371 0 0.0020561821671409948 0.0001930675068529588 0 0.0020450741807539891 0.00015976460888432248 0 0.0020897842315936587 0.00015043356018439174 0 0.0020561821671409948 0.0001930675068529588 0 0.0021063033393118719 0.00022978607154152371 0 0.0020561821671409948 0.0001930675068529588 0 0.0020841538595623289 0.00028403775562813374 0 0.0020841538595623289 0.00028403775562813374 0 0.0021172837098247525 0.00032635662208616316 0 0.0020517242078757821 0.0003341543227732559 0 0.0020841538595623289 0.00028403775562813374 0 0.0020084937128427727 0.00029484492813210117 0 0.0020517242078757821 0.0003341543227732559 0 0.0020561821671409948 0.0001930675068529588 0 0.0020080398889079374 0.0001711277115493524 0 0.0020191958544542718 0.00016395042510229362 0 0.0020561821671409948 0.0001930675068529588 0 0.0020841538595623289 0.00028403775562813374 0 0.0020084937128427727 0.00029484492813210117 0 0.0020520253642229611 0.00019170748144502667 0 0.0020115388491396989 0.00022884702975538694 0 0.0020191958544542718 0.00016395042510229362 0 0.0019908382992319027 0.00015752175607388111 0 0.0019856336213757977 0.00016408285745145334 0 0.0020191958544542718 0.00016395042510229362 0 0.0019908382992319027 0.00015752175607388111 0 0.0020091095187776331 0.00012211339465132608 0 0.0020080398889079374 0.0001711277115493524 0 0.0019856336213757977 0.00016408285745145334 0 0.001959987693506002 0.00015818749027595453 0 0.0020080398889079374 0.0001711277115493524 0 0.0020191958544542718 0.00016395042510229362 0 0.0019856336213757977 0.00016408285745145334 0 0.0019640057292664623 0.00015805478529799547 0 0.0019636494438798817 0.00015839234630225576 0 0.0019574295527068275 0.00015568869755169457 0 0.0019640057292664623 0.00015805478529799547 0 0.0019636494438798817 0.00015839234630225576 0 0.0019729529450915905 0.000159404063014272 0 0.0019856336213757977 0.00016408285745145334 0 0.0019636494438798817 0.00015839234630225576 0 0.0019729529450915905 0.000159404063014272 0 0.0019908382992319027 0.00015752175607388111 0 0.0019856336213757977 0.00016408285745145334 0 0.0019729529450915905 0.000159404063014272 0 0.0019640057292664623 0.00015805478529799547 0 0.0019729529450915905 0.000159404063014272 0 0.0019646618528461868 0.00015581096073790654 0 0.0019640057292664623 0.00015805478529799547 0 0.0019646618528461868 0.00015581096073790654 0 0.0019606899122504382 0.00015656045142344198 0 0.0019729529450915905 0.000159404063014272 0 0.0019646618528461868 0.00015581096073790654 0 0.0019699289783905302 0.00015053847475837061 0 0.0019908382992319027 0.00015752175607388111 0 0.0019812215647006109 0.00013874661456388123 0 0.0020091095187776331 0.00012211339465132608 0 0.0019646618528461868 0.00015581096073790654 0 0.0019699289783905302 0.00015053847475837061 0 0.0019616581062218714 0.0001514805175034058 0 0.0019908382992319027 0.00015752175607388111 0 0.0019729529450915905 0.000159404063014272 0 0.0019699289783905302 0.00015053847475837061 0 0.0019908382992319027 0.00015752175607388111 0 0.0019699289783905302 0.00015053847475837061 0 0.0019812215647006109 0.00013874661456388123 0 0.0019699289783905302 0.00015053847475837061 0 0.0019674532291950471 0.00013800592665557082 0 0.0019620663283004972 0.00014584307269207615 0 0.0019699289783905302 0.00015053847475837061 0 0.0019812215647006109 0.00013874661456388123 0 0.0019674532291950471 0.00013800592665557082 0 0.0019674532291950471 0.00013800592665557082 0 0.0019803955366430835 0.00011672812303282112 0 0.0019619004762092347 0.00012346053220314615 0 0.0019803955366430835 0.00011672812303282112 0 0.0019614789569377344 7.0300897837164751e-05 0 0.0019619004762092347 0.00012346053220314615 0 0.0019812215647006109 0.00013874661456388123 0 0.0019674532291950471 0.00013800592665557082 0 0.0019803955366430835 0.00011672812303282112 0 0.0019803955366430835 0.00011672812303282112 0 0.0020091095187776331 0.00012211339465132608 0 0.0019968073674746277 9.4726906896120932e-05 0 0.0019812215647006109 0.00013874661456388123 0 0.0019803955366430835 0.00011672812303282112 0 0.0020091095187776331 0.00012211339465132608 0 0.002088053332640769 7.0099645929342397e-05 0 0.0020191958544542718 0.00016395042510229362 0 0.0020091095187776331 0.00012211339465132608 0 0.0020091095187776331 0.00012211339465132608 0 0.0020373098813055417 6.5964867492671766e-05 0 0.0019968073674746277 9.4726906896120932e-05 0 0.0020644358694856019 3.2826804373978721e-06 0 0.002088053332640769 7.0099645929342397e-05 0 0.0020373098813055417 6.5964867492671766e-05 0 0.002088053332640769 7.0099645929342397e-05 0 0.0020091095187776331 0.00012211339465132608 0 0.0020373098813055417 6.5964867492671766e-05 0 0.0019803955366430835 0.00011672812303282112 0 0.0019968073674746277 9.4726906896120932e-05 0 0.0019614789569377344 7.0300897837164751e-05 0 0.0020249221220673798 2.3729347895915895e-05 0 0.0020373098813055417 6.5964867492671766e-05 0 0.001987994727480609 5.3986375593995529e-05 0 0.0020373098813055417 6.5964867492671766e-05 0 0.0019968073674746277 9.4726906896120932e-05 0 0.0019614789569377344 7.0300897837164751e-05 0 0.0017577797521373683 5.6741410802339104e-05 0 0.0026703074176094798 3.5916834073378499e-05 0 0.0026703074176094798 3.5916834073378499e-05 0 0.0034019682065974705 0.00019199526167882884 0 0.002475015527262146 9.8971693832178599e-05 0 0.002579950317606384 0.00011901268987523955 0 0.0025303861756981812 4.7755913453122413e-05 0 0.0040882264372723003 8.8614774189523622e-05 0 0.0041427667746045584 0.00022132955586024505 0 0.0039812055019115599 0.00023766812260681802 0 0.0038776773755462334 8.6599252228115092e-05 0 0.0039812055019115599 0.00023766812260681802 0 0.0036218562001491968 0.00022719218352309896 0 0.002579950317606384 0.00011901268987523955 0 0.0025830468515318219 4.7355531201542358e-05 0 0.0026611807323792857 5.6884552455340433e-05 0 0.002579950317606384 0.00011901268987523955 0 0.0025830468515318219 4.7355531201542358e-05 0 0.0025303861756981812 4.7755913453122413e-05 0 0.0025830468515318219 4.7355531201542358e-05 0 0.0025544369309554922 2.2805923924301994e-05 0 0.0025643723947954941 -1.6036484814762589e-06 0 0.0025830468515318219 4.7355531201542358e-05 0 0.0025544369309554922 2.2805923924301994e-05 0 0.0025303861756981812 4.7755913453122413e-05 0 0.0025830468515318219 4.7355531201542358e-05 0 0.0026272238442629822 -6.6636274204141898e-06 0 0.0026611807323792857 5.6884552455340433e-05 0 0.0025830468515318219 4.7355531201542358e-05 0 0.0025643723947954941 -1.6036484814762589e-06 0 0.0026272238442629822 -6.6636274204141898e-06 0 0.0025544369309554922 2.2805923924301994e-05 0 0.0025643723947954941 -1.6036484814762589e-06 0 0.0025394190053057075 4.7899765573125609e-07 0 0.0025643723947954941 -1.6036484814762589e-06 0 0.0025394190053057075 4.7899765573125609e-07 0 0.0025362023640253134 -2.1077581764968737e-05 0 0.0025394190053057075 4.7899765573125609e-07 0 0.0025280140829477432 -2.0168873835066552e-05 0 0.0025189811948012103 -1.7973716595150246e-05 0 0.0026703074176094798 3.5916834073378499e-05 0 0.0021772109529942935 9.8836376055253371e-05 0 0.0025394190053057075 4.7899765573125609e-07 0 0.0025303861756981812 4.7755913453122413e-05 0 0.0025189811948012103 -1.7973716595150246e-05 0 0.0019614789569377344 7.0300897837164751e-05 0 0.0019619004762092347 0.00012346053220314615 0 0.0019501671688480805 0.00013820550603563684 0 0.002475015527262146 9.8971693832178599e-05 0 0.0025303861756981812 4.7755913453122413e-05 0 0.0025189811948012103 -1.7973716595150246e-05 0 0.0025544369309554922 2.2805923924301994e-05 0 0.0025394190053057075 4.7899765573125609e-07 0 0.0025303861756981812 4.7755913453122413e-05 0 0.0019619004762092347 0.00012346053220314615 0 0.0019548538582384138 0.00013695751075883185 0 0.0019501671688480805 0.00013820550603563684 0 0.0019619004762092347 0.00012346053220314615 0 0.0019548538582384138 0.00013695751075883185 0 0.0019589326612286747 0.00013998525616752217 0 0.0019674532291950471 0.00013800592665557082 0 0.0019619004762092347 0.00012346053220314615 0 0.0019589326612286747 0.00013998525616752217 0 0.0019674532291950471 0.00013800592665557082 0 0.0019589326612286747 0.00013998525616752217 0 0.0019620663283004972 0.00014584307269207615 0 0.0019548538582384138 0.00013695751075883185 0 0.0019548848143949335 0.00014056114145556581 0 0.0019589326612286747 0.00013998525616752217 0 0.0019548538582384138 0.00013695751075883185 0 0.0019548848143949335 0.00014056114145556581 0 0.0019501671688480805 0.00013820550603563684 0 0.0019548848143949335 0.00014056114145556581 0 0.0019572555392056538 0.00014415635410767848 0 0.0019539739508712198 0.00014313876845653323 0 0.0019548848143949335 0.00014056114145556581 0 0.0019589326612286747 0.00013998525616752217 0 0.0019572555392056538 0.00014415635410767848 0 0.0019589326612286747 0.00013998525616752217 0 0.0019572555392056538 0.00014415635410767848 0 0.0019620663283004972 0.00014584307269207615 0 0.0019572555392056538 0.00014415635410767848 0 0.0019557577314435418 0.00014602325860546618 0 0.0019539739508712198 0.00014313876845653323 0 0.0019572555392056538 0.00014415635410767848 0 0.0019557577314435418 0.00014602325860546618 0 0.0019580206742677944 0.00014827491184625394 0 0.0019557577314435418 0.00014602325860546618 0 0.0019558871376026024 0.00014816239458304191 0 0.0019580206742677944 0.00014827491184625394 0 0.0019572555392056538 0.00014415635410767848 0 0.0019620663283004972 0.00014584307269207615 0 0.0019580206742677944 0.00014827491184625394 0 0.0025280140829477432 -2.0168873835066552e-05 0 0.0025175009334741502 -3.451587211614184e-05 0 0.0025362023640253134 -2.1077581764968737e-05 0 0.0025189811948012103 -1.7973716595150246e-05 0 0.0025187935716662951 -3.0154909753044084e-05 0 0.0025175009334741502 -3.451587211614184e-05 0 0.0019501671688480805 0.00013820550603563684 0 0.0019539739508712198 0.00014313876845653323 0 0.0019538864275814786 0.00014969588304674454 0 0.0021772109529942935 9.8836376055253371e-05 0 0.0023228993313129656 2.4990533332968595e-05 0 0.0025280140829477432 -2.0168873835066552e-05 0 0.0025189811948012103 -1.7973716595150246e-05 0 0.0025175009334741502 -3.451587211614184e-05 0 0.0025394190053057075 4.7899765573125609e-07 0 0.0025280140829477432 -2.0168873835066552e-05 0 0.0025362023640253134 -2.1077581764968737e-05 0 0.0019548848143949335 0.00014056114145556581 0 0.0019501671688480805 0.00013820550603563684 0 0.0019539739508712198 0.00014313876845653323 0 0.0019557577314435418 0.00014602325860546618 0 0.0019539739508712198 0.00014313876845653323 0 0.0019538864275814786 0.00014969588304674454 0 0.0025187935716662951 -3.0154909753044084e-05 0 0.0025175009334741502 -3.451587211614184e-05 0 0.0024973769414299942 -4.6253240091157952e-05 0 0.0019557577314435418 0.00014602325860546618 0 0.0019538864275814786 0.00014969588304674454 0 0.0019558871376026024 0.00014816239458304191 0 0.0019538864275814786 0.00014969588304674454 0 0.001956565290280282 0.00015004078707121944 0 0.0019565679968728449 0.00015158407897920367 0 0.0019538864275814786 0.00014969588304674454 0 0.0019565679968728449 0.00015158407897920367 0 0.001955730250735397 0.00015191692282756291 0 0.0019538864275814786 0.00014969588304674454 0 0.0019558871376026024 0.00014816239458304191 0 0.001956565290280282 0.00015004078707121944 0 0.001956565290280282 0.00015004078707121944 0 0.0019565679968728449 0.00015158407897920367 0 0.0019582050209166054 0.00015170200129493151 0 0.0019570017479566644 0.00015376146950988231 0 0.001955730250735397 0.00015191692282756291 0 0.0019564713899653317 0.00015451511397276241 0 0.0019565679968728449 0.00015158407897920367 0 0.0019573957889982628 0.00015318615703289204 0 0.001955730250735397 0.00015191692282756291 0 0.0019565679968728449 0.00015158407897920367 0 0.0019573957889982628 0.00015318615703289204 0 0.0019582050209166054 0.00015170200129493151 0 0.0019573957889982628 0.00015318615703289204 0 0.0019570017479566644 0.00015376146950988231 0 0.001955730250735397 0.00015191692282756291 0 0.0019538864275814786 0.00014969588304674454 0 0.001955730250735397 0.00015191692282756291 0 0.0019564713899653317 0.00015451511397276241 0 0.0023228993313129656 2.4990533332968595e-05 0 0.0022475864542285061 5.8089025224213898e-05 0 0.0019699289783905302 0.00015053847475837061 0 0.0019620663283004972 0.00014584307269207615 0 0.0019616581062218714 0.0001514805175034058 0 0.0019620663283004972 0.00014584307269207615 0 0.0019616581062218714 0.0001514805175034058 0 0.0019580206742677944 0.00014827491184625394 0 0.0019558871376026024 0.00014816239458304191 0 0.001956565290280282 0.00015004078707121944 0 0.0019580206742677944 0.00014827491184625394 0 0.001956565290280282 0.00015004078707121944 0 0.0019580206742677944 0.00014827491184625394 0 0.0019582050209166054 0.00015170200129493151 0 0.0019616581062218714 0.0001514805175034058 0 0.0019580206742677944 0.00014827491184625394 0 0.0019582050209166054 0.00015170200129493151 0 0.0019616581062218714 0.0001514805175034058 0 0.0019582050209166054 0.00015170200129493151 0 0.0019597382982434594 0.00015419799570520651 0 0.0019573957889982628 0.00015318615703289204 0 0.0019582050209166054 0.00015170200129493151 0 0.0019597382982434594 0.00015419799570520651 0 0.0019646618528461868 0.00015581096073790654 0 0.0019616581062218714 0.0001514805175034058 0 0.0019597382982434594 0.00015419799570520651 0 0.0019646618528461868 0.00015581096073790654 0 0.0019597382982434594 0.00015419799570520651 0 0.0019606899122504382 0.00015656045142344198 0 0.0019606899122504382 0.00015656045142344198 0 0.001957933845040661 0.00015581275186978016 0 0.0019579600342339441 0.00015577129295940611 0 0.0019606899122504382 0.00015656045142344198 0 0.0019579499091706633 0.00015485773741712007 0 0.001957933845040661 0.00015581275186978016 0 0.0019597382982434594 0.00015419799570520651 0 0.0019606899122504382 0.00015656045142344198 0 0.0019579499091706633 0.00015485773741712007 0 0.0019573957889982628 0.00015318615703289204 0 0.0019597382982434594 0.00015419799570520651 0 0.0019579499091706633 0.00015485773741712007 0 0.0023228993313129656 2.4990533332968595e-05 0 0.0024984923312414129 -7.817373575324503e-05 0 0.0022475864542285061 5.8089025224213898e-05 0 0.0022247114086411711 5.2731126406102328e-05 0 0.0024852545312481758 -3.0518000248624466e-05 0 0.0024973769414299942 -4.6253240091157952e-05 0 0.0024940217007625959 -4.702275464758996e-05 0 0.00247958881033367 -1.5702794014194736e-05 0 0.0024852545312481758 -3.0518000248624466e-05 0 0.0024973769414299942 -4.6253240091157952e-05 0 0.0019579499091706633 0.00015485773741712007 0 0.0019564713899653317 0.00015451511397276241 0 0.0019576056511857744 0.00015531069793565605 0 0.0019573957889982628 0.00015318615703289204 0 0.0019570017479566644 0.00015376146950988231 0 0.0019579499091706633 0.00015485773741712007 0 0.0019570017479566644 0.00015376146950988231 0 0.0019579499091706633 0.00015485773741712007 0 0.0019564713899653317 0.00015451511397276241 0 0.0019564713899653317 0.00015451511397276241 0 0.0019579589879675473 0.00015567572902614395 0 0.0019596987677293915 0.00015610426348258778 0 0.0019564713899653317 0.00015451511397276241 0 0.0019579589879675473 0.00015567572902614395 0 0.0019576056511857744 0.00015531069793565605 0 0.0019579499091706633 0.00015485773741712007 0 0.0019576056511857744 0.00015531069793565605 0 0.001957933845040661 0.00015581275186978016 0 0.0019579589879675473 0.00015567572902614395 0 0.0019576056511857744 0.00015531069793565605 0 0.001957933845040661 0.00015581275186978016 0 0.0019579589879675473 0.00015567572902614395 0 0.001957933845040661 0.00015581275186978016 0 0.0019577921810514853 0.00015564079919314246 0 0.0019577921810514853 0.00015564079919314246 0 0.0019565332851582073 0.00015383778029905157 0 0.0019579600342339441 0.00015577129295940611 0 0.001957933845040661 0.00015581275186978016 0 0.0019577921810514853 0.00015564079919314246 0 0.0019579600342339441 0.00015577129295940611 0 0.0019579589879675473 0.00015567572902614395 0 0.0019577921810514853 0.00015564079919314246 0 0.0019596987677293915 0.00015610426348258778 0 0.0019577921810514853 0.00015564079919314246 0 0.0019565332851582073 0.00015383778029905157 0 0.0019596987677293915 0.00015610426348258778 0 0.0019640057292664623 0.00015805478529799547 0 0.0019606899122504382 0.00015656045142344198 0 0.0019574295527068275 0.00015568869755169457 0 0.0019606899122504382 0.00015656045142344198 0 0.0019574295527068275 0.00015568869755169457 0 0.0019579600342339441 0.00015577129295940611 0 0.0019565332851582073 0.00015383778029905157 0 0.0019574295527068275 0.00015568869755169457 0 0.0019579600342339441 0.00015577129295940611 0 0.0024973769414299942 -4.6253240091157952e-05 0 0.0025107680367078195 -4.169600367654899e-05 0 0.0024516340030453837 -4.3359830618373381e-05 0 0.0024973769414299942 -4.6253240091157952e-05 0 0.0024940217007625959 -4.702275464758996e-05 0 0.0024516340030453837 -4.3359830618373381e-05 0 0.0024973769414299942 -4.6253240091157952e-05 0 0.0025173544691784811 -3.9812062027444674e-05 0 0.0025107680367078195 -4.169600367654899e-05 0 0.0025175009334741502 -3.451587211614184e-05 0 0.0024973769414299942 -4.6253240091157952e-05 0 0.0025141035973962286 -3.9186235469497735e-05 0 0.0024973769414299942 -4.6253240091157952e-05 0 0.0025141035973962286 -3.9186235469497735e-05 0 0.0025173544691784811 -3.9812062027444674e-05 0 0.0025141035973962286 -3.9186235469497735e-05 0 0.0025173544691784811 -3.9812062027444674e-05 0 0.0025235530898389605 -3.5928729233824983e-05 0 0.0025173544691784811 -3.9812062027444674e-05 0 0.0025107680367078195 -4.169600367654899e-05 0 0.002547077053531101 -3.0442972817811195e-05 0 0.0025173544691784811 -3.9812062027444674e-05 0 0.002547077053531101 -3.0442972817811195e-05 0 0.0025235530898389605 -3.5928729233824983e-05 0 0.0025175009334741502 -3.451587211614184e-05 0 0.0025306133021757845 -3.0951383219186102e-05 0 0.0025362023640253134 -2.1077581764968737e-05 0 0.0025175009334741502 -3.451587211614184e-05 0 0.0025141035973962286 -3.9186235469497735e-05 0 0.0025235530898389605 -3.5928729233824983e-05 0 0.0025175009334741502 -3.451587211614184e-05 0 0.0025235530898389605 -3.5928729233824983e-05 0 0.0025306133021757845 -3.0951383219186102e-05 0 0.002547077053531101 -3.0442972817811195e-05 0 0.0025235530898389605 -3.5928729233824983e-05 0 0.0025306133021757845 -3.0951383219186102e-05 0 0.0025643723947954941 -1.6036484814762589e-06 0 0.002547077053531101 -3.0442972817811195e-05 0 0.0025362023640253134 -2.1077581764968737e-05 0 0.002547077053531101 -3.0442972817811195e-05 0 0.0025306133021757845 -3.0951383219186102e-05 0 0.0025362023640253134 -2.1077581764968737e-05 0 0.0025643723947954941 -1.6036484814762589e-06 0 0.002547077053531101 -3.0442972817811195e-05 0 0.0026272238442629822 -6.6636274204141898e-06 0 0.0025405733756417824 -3.9430478475806306e-05 0 0.0027995316681115449 -2.0161327396036511e-07 0 0.002789937233707501 6.4276601090857904e-06 0 0.0025405733756417824 -3.9430478475806306e-05 0 0.002789937233707501 6.4276601090857904e-06 0 0.0026272238442629822 -6.6636274204141898e-06 0 0.002547077053531101 -3.0442972817811195e-05 0 0.0025405733756417824 -3.9430478475806306e-05 0 0.0026272238442629822 -6.6636274204141898e-06 0 0.0025107680367078195 -4.169600367654899e-05 0 0.002547077053531101 -3.0442972817811195e-05 0 0.0025405733756417824 -3.9430478475806306e-05 0 0.0025107680367078195 -4.169600367654899e-05 0 0.0025405733756417824 -3.9430478475806306e-05 0 0.0024516340030453837 -4.3359830618373381e-05 0 0.0027995316681115449 -2.0161327396036511e-07 0 0.002789937233707501 6.4276601090857904e-06 0 0.0031106798371088608 4.2533335640535366e-07 0 0.002789937233707501 6.4276601090857904e-06 0 0.0026272238442629822 -6.6636274204141898e-06 0 0.0026611807323792857 5.6884552455340433e-05 0 0.0034019682065974705 0.00019199526167882884 0 0.0031620779064073065 0.00015010054738934491 0 0.002579950317606384 0.00011901268987523955 0 0.0026611807323792857 5.6884552455340433e-05 0 0.0027503424874171282 0.00012873659699219844 0 0.002789937233707501 6.4276601090857904e-06 0 0.0026611807323792857 5.6884552455340433e-05 0 0.0027503424874171282 0.00012873659699219844 0 0.002789937233707501 6.4276601090857904e-06 0 0.0027503424874171282 0.00012873659699219844 0 0.0031106798371088608 4.2533335640535366e-07 0 0.0035664621662961273 0.00015458161093746819 0 0.0036218562001491968 0.00022719218352309896 0 0.003111851747587443 4.3812799272786075e-07 0 0.0031620779064073065 0.00015010054738934491 0 0.0031264982564038995 4.8142800948786855e-05 0 0.0025258255568201657 -1.9813241864533665e-05 0 0.0026214387147471016 -1.8724105789213607e-05 0 0.0025819585974077705 -0.00010282470170630441 0 0.0025258255568201657 -1.9813241864533665e-05 0 0.0024811624533559186 -0.00010266567032059346 0 0.0024312478448963461 -3.2813167386893733e-05 0 0.0025258255568201657 -1.9813241864533665e-05 0 0.0024312478448963461 -3.2813167386893733e-05 0 0.0024479991032678233 6.3552205210649923e-05 0 0.0025258255568201657 -1.9813241864533665e-05 0 0.0024479991032678233 6.3552205210649923e-05 0 0.0025860295210610195 0.00010365012764549615 0 0.0025258255568201657 -1.9813241864533665e-05 0 0.0026214387147471016 -1.8724105789213607e-05 0 0.0025860295210610195 0.00010365012764549615 0 0.0026919651421003815 3.7213600290776076e-05 0 0.0026214387147471016 -1.8724105789213607e-05 0 0.0025860295210610195 0.00010365012764549615 0 0.0027751868201037195 8.3945257190160441e-05 0 0.0027817245448652308 -1.2786394425405988e-05 0 0.0026919651421003815 3.7213600290776076e-05 0 0.0027817245448652308 -1.2786394425405988e-05 0 0.0027026694225280967 -4.3788425484388636e-05 0 0.0027636099226382134 -7.2101614741168553e-05 0 0.0027817245448652308 -1.2786394425405988e-05 0 0.0026919651421003815 3.7213600290776076e-05 0 0.0027026694225280967 -4.3788425484388636e-05 0 0.0027026694225280967 -4.3788425484388636e-05 0 0.0027636099226382134 -7.2101614741168553e-05 0 0.0027112864160568936 -0.0001055480846735932 0 0.0026919651421003815 3.7213600290776076e-05 0 0.0027026694225280967 -4.3788425484388636e-05 0 0.0026214387147471016 -1.8724105789213607e-05 0 0.0027026694225280967 -4.3788425484388636e-05 0 0.0026214387147471016 -1.8724105789213607e-05 0 0.0026505692098255668 -8.090248557223416e-05 0 0.0026214387147471016 -1.8724105789213607e-05 0 0.0026505692098255668 -8.090248557223416e-05 0 0.0025819585974077705 -0.00010282470170630441 0 0.0027026694225280967 -4.3788425484388636e-05 0 0.0026505692098255668 -8.090248557223416e-05 0 0.0027112864160568936 -0.0001055480846735932 0 0.0026505692098255668 -8.090248557223416e-05 0 0.0026541757382934315 -0.00013657058153394505 0 0.0025819585974077705 -0.00010282470170630441 0 0.0026505692098255668 -8.090248557223416e-05 0 0.0026541757382934315 -0.00013657058153394505 0 0.0027112864160568936 -0.0001055480846735932 0 0.0027771045043702793 -0.00013220450139117749 0 0.0027636099226382134 -7.2101614741168553e-05 0 0.0027112864160568936 -0.0001055480846735932 0 0.0026541757382934315 -0.00013657058153394505 0 0.0027112864160568936 -0.0001055480846735932 0 0.002732581188838892 -0.00017175726333712636 0 0.0027747158709586863 -0.00021804577264328962 0 0.0030860851650179317 -0.0001707440236137166 0 0.0027771045043702793 -0.00013220450139117749 0 0.0027112864160568936 -0.0001055480846735932 0 0.002732581188838892 -0.00017175726333712636 0 0.0030845847954761576 -0.00036770644020879756 0 0.0030860851650179317 -0.0001707440236137166 0 0.0037215072497629176 -0.00039012669066406801 0 0.0037499984992039165 -0.00038046909283110471 0 0.003752283535909365 -0.00034602637993546903 0 0.0025624820069529586 -0.00010117515255159101 0 0.0030860851650179317 -0.0001707440236137166 0 0.0037763695811663602 -0.00037843986298369877 0 0.0037499984992039165 -0.00038046909283110471 0 0.003752283535909365 -0.00034602637993546903 0 0.0026534147002054476 -0.000220415362863274 0 0.0027193565736737266 -0.00015700270765317103 0 0.0026600620873115815 -0.00017132526644785453 0 0.0026541757382934315 -0.00013657058153394505 0 0.0026600620873115815 -0.00017132526644785453 0 0.0026123929427446881 -0.00017179815534648001 0 0.0026541757382934315 -0.00013657058153394505 0 0.0027193565736737266 -0.00015700270765317103 0 0.0026600620873115815 -0.00017132526644785453 0 0.0026534147002054476 -0.000220415362863274 0 0.0026600620873115815 -0.00017132526644785453 0 0.0026123929427446881 -0.00017179815534648001 0 0.0025816780963706337 -0.00021702198212057702 0 0.0026534147002054476 -0.000220415362863274 0 0.0026123929427446881 -0.00017179815534648001 0 0.0026123929427446881 -0.00017179815534648001 0 0.0025819585974077705 -0.00010282470170630441 0 0.0025337810399392938 -0.0001716531667780952 0 0.0025816780963706337 -0.00021702198212057702 0 0.0026123929427446881 -0.00017179815534648001 0 0.0025337810399392938 -0.0001716531667780952 0 0.0026541757382934315 -0.00013657058153394505 0 0.0026123929427446881 -0.00017179815534648001 0 0.0025819585974077705 -0.00010282470170630441 0 0.0025258255568201657 -1.9813241864533665e-05 0 0.0025819585974077705 -0.00010282470170630441 0 0.0024811624533559186 -0.00010266567032059346 0 0.0025819585974077705 -0.00010282470170630441 0 0.0024811624533559186 -0.00010266567032059346 0 0.0025337810399392938 -0.0001716531667780952 0 0.0024811624533559186 -0.00010266567032059346 0 0.0025337810399392938 -0.0001716531667780952 0 0.0024456561250725093 -0.00017579363210986878 0 0.0025089364216173914 -0.0002338696668455517 0 0.0025337810399392938 -0.0001716531667780952 0 0.0024456561250725093 -0.00017579363210986878 0 0.0024456561250725093 -0.00017579363210986878 0 0.002371910981992572 -0.0001973572587421597 0 0.0023617947454471007 -0.0001014830597398692 0 0.0023578144873342296 -0.00018873292587593061 0 0.0023462921128365932 -9.1227205619461601e-05 0 0.0024811624533559186 -0.00010266567032059346 0 0.0023617947454471007 -0.0001014830597398692 0 0.0024312478448963461 -3.2813167386893733e-05 0 0.0024811624533559186 -0.00010266567032059346 0 0.0024456561250725093 -0.00017579363210986878 0 0.0023617947454471007 -0.0001014830597398692 0 0.002245521144356011 -0.00021921043059762964 0 0.0023443401009507602 -0.00017600057950236983 0 0.0022445992148432082 -0.00013260530507561215 0 0.0023443401009507602 -0.00017600057950236983 0 0.0023311081041093324 -8.1563659833716276e-05 0 0.0022445992148432082 -0.00013260530507561215 0 0.0023311081041093324 -8.1563659833716276e-05 0 0.0022445992148432082 -0.00013260530507561215 0 0.0022211935221633766 -2.6540734077069466e-05 0 0.0021533301072000719 -0.00010435500008846164 0 0.0022445992148432082 -0.00013260530507561215 0 0.0022211935221633766 -2.6540734077069466e-05 0 0.0023311081041093324 -8.1563659833716276e-05 0 0.0022211935221633766 -2.6540734077069466e-05 0 0.0023213673270485171 1.767603644352083e-05 0 0.0022211935221633766 -2.6540734077069466e-05 0 0.0022388015493104299 7.2213194622876579e-05 0 0.0023213673270485171 1.767603644352083e-05 0 0.0022388015493104299 7.2213194622876579e-05 0 0.0021601331938023694 4.7598818889527132e-05 0 0.0021637693811546203 0.00011041164999479606 0 0.0022211935221633766 -2.6540734077069466e-05 0 0.0022388015493104299 7.2213194622876579e-05 0 0.0021601331938023694 4.7598818889527132e-05 0 0.0023617947454471007 -0.0001014830597398692 0 0.0024312478448963461 -3.2813167386893733e-05 0 0.0023445030565399324 6.0060942150427115e-06 0 0.0023462921128365932 -9.1227205619461601e-05 0 0.0023327342159930623 1.4560614747522372e-05 0 0.0023327342159930623 1.4560614747522372e-05 0 0.0023239390613422378 0.00012112886878738621 0 0.0022388015493104299 7.2213194622876579e-05 0 0.0023213673270485171 1.767603644352083e-05 0 0.0023203382844673875 0.00012746414934313013 0 0.0023445030565399324 6.0060942150427115e-06 0 0.0024479991032678233 6.3552205210649923e-05 0 0.0023203382844673875 0.00012746414934313013 0 0.0024312478448963461 -3.2813167386893733e-05 0 0.0023445030565399324 6.0060942150427115e-06 0 0.0024479991032678233 6.3552205210649923e-05 0 0.0024479991032678233 6.3552205210649923e-05 0 0.0023203382844673875 0.00012746414934313013 0 0.0024511581093280646 0.00017413049962074423 0 0.0023199520624267796 0.00021898496330048902 0 0.0022334953817155288 0.00017251765665031397 0 0.0022141828244247072 0.00030673846166394625 0 0.0023203382844673875 0.00012746414934313013 0 0.0023199520624267796 0.00021898496330048902 0 0.0022334953817155288 0.00017251765665031397 0 0.0023199520624267796 0.00021898496330048902 0 0.0024105707785971198 0.00028478721439184271 0 0.0024511581093280646 0.00017413049962074423 0 0.0023203382844673875 0.00012746414934313013 0 0.0023199520624267796 0.00021898496330048902 0 0.0024511581093280646 0.00017413049962074423 0 0.0021042696383304594 8.821697298851491e-05 0 0.0021601331938023694 4.7598818889527132e-05 0 0.0021637693811546203 0.00011041164999479606 0 0.0022388015493104299 7.2213194622876579e-05 0 0.0021637693811546203 0.00011041164999479606 0 0.0022334953817155288 0.00017251765665031397 0 0.0022388015493104299 7.2213194622876579e-05 0 0.0023203382844673875 0.00012746414934313013 0 0.0022334953817155288 0.00017251765665031397 0 0.0022334953817155288 0.00017251765665031397 0 0.0021588853127907557 0.00021057737836367152 0 0.0022141828244247072 0.00030673846166394625 0 0.0020897842315936587 0.00015043356018439174 0 0.0021063033393118719 0.00022978607154152371 0 0.0021588853127907557 0.00021057737836367152 0 0.0021637693811546203 0.00011041164999479606 0 0.0022334953817155288 0.00017251765665031397 0 0.0021588853127907557 0.00021057737836367152 0 0.0020897842315936587 0.00015043356018439174 0 0.0021637693811546203 0.00011041164999479606 0 0.0021588853127907557 0.00021057737836367152 0 0.0021063033393118719 0.00022978607154152371 0 0.0020841538595623289 0.00028403775562813374 0 0.0021463334041386421 0.00028137649198766302 0 0.0021063033393118719 0.00022978607154152371 0 0.0021588853127907557 0.00021057737836367152 0 0.0021463334041386421 0.00028137649198766302 0 0.0021588853127907557 0.00021057737836367152 0 0.0021463334041386421 0.00028137649198766302 0 0.0022141828244247072 0.00030673846166394625 0 0.0022141828244247072 0.00030673846166394625 0 0.0021776767361643312 0.00031777316138667684 0 0.0021748685971873126 0.00032441271487288127 0 0.0021463334041386421 0.00028137649198766302 0 0.0022141828244247072 0.00030673846166394625 0 0.0021776767361643312 0.00031777316138667684 0 0.0021463334041386421 0.00028137649198766302 0 0.0021776767361643312 0.00031777316138667684 0 0.0021172837098247525 0.00032635662208616316 0 0.0020841538595623289 0.00028403775562813374 0 0.0021463334041386421 0.00028137649198766302 0 0.0021172837098247525 0.00032635662208616316 0 0.0022141828244247072 0.00030673846166394625 0 0.0021340985374439601 0.00035149188641857998 0 0.0021748685971873126 0.00032441271487288127 0 0.0022164982598732769 0.00031097502486814678 0 0.0022706879839683074 0.0003142407180340455 0 0.0023199520624267796 0.00021898496330048902 0 0.0022141828244247072 0.00030673846166394625 0 0.0024105707785971198 0.00028478721439184271 0 0.0021340985374439601 0.00035149188641857998 0 0.0021110147950978543 0.00035289038061269822 0 0.0021383334946954075 0.00034015488128650689 0 0.0021340985374439601 0.00035149188641857998 0 0.0021748685971873126 0.00032441271487288127 0 0.0021383334946954075 0.00034015488128650689 0 0.0021110147950978543 0.00035289038061269822 0 0.0021260882685338678 0.00036687914018363962 0 0.0021205709360244689 0.00032546146877605588 0 0.0021260882685338678 0.00036687914018363962 0 0.0021205709360244689 0.00032546146877605588 0 0.0021728537714685511 0.00034292441930300176 0 0.0021340985374439601 0.00035149188641857998 0 0.0021110147950978543 0.00035289038061269822 0 0.0021205709360244689 0.00032546146877605588 0 0.0022706879839683074 0.0003142407180340455 0 0.0023397038619419322 0.00028914892776845758 0 0.0024105707785971198 0.00028478721439184271 0 0.0025517445976329005 0.0002529047600946499 0 0.0024511581093280646 0.00017413049962074423 0 0.0025517445976329005 0.0002529047600946499 0 0.0025860295210610195 0.00010365012764549615 0 0.0026809652280036802 0.00022787490408876951 0 0.0025517445976329005 0.0002529047600946499 0 0.0024511581093280646 0.00017413049962074423 0 0.0025860295210610195 0.00010365012764549615 0 0.0024479991032678233 6.3552205210649923e-05 0 0.0024511581093280646 0.00017413049962074423 0 0.0025860295210610195 0.00010365012764549615 0 0.0027751868201037195 8.3945257190160441e-05 0 0.0026919651421003815 3.7213600290776076e-05 0 0.0027034736260102975 0.00013149936026881742 0 0.0027751868201037195 8.3945257190160441e-05 0 0.0028082848878995966 0.00020602126054058542 0 0.0027034736260102975 0.00013149936026881742 0 0.0026919651421003815 3.7213600290776076e-05 0 0.0025860295210610195 0.00010365012764549615 0 0.0027034736260102975 0.00013149936026881742 0 0.0025860295210610195 0.00010365012764549615 0 0.0027034736260102975 0.00013149936026881742 0 0.0026809652280036802 0.00022787490408876951 0 0.002573444469872167 0.00022538498830436168 0 0.0024309349373514083 0.00025935404173505058 0 0.0028082848878995966 0.00020602126054058542 0 0.0027034736260102975 0.00013149936026881742 0 0.0026809652280036802 0.00022787490408876951 0 0.0022900158155232568 0.00026234403351293849 0 0.0021898578215839518 0.00028638618375259438 0 0.0022489396167934576 0.00035130412933633047 0 0.0021898578215839518 0.00028638618375259438 0 0.0021728537714685511 0.00034292441930300176 0 0.0022489396167934576 0.00035130412933633047 0 0.0021205709360244689 0.00032546146877605588 0 0.0021898578215839518 0.00028638618375259438 0 0.0021728537714685511 0.00034292441930300176 0 0.0023397038619419322 0.00028914892776845758 0 0.0024309349373514083 0.00025935404173505058 0 0.0021260882685338678 0.00036687914018363962 0 0.0021728537714685511 0.00034292441930300176 0 0.0021851397973454254 0.00039606681047811462 0 0.0021728537714685511 0.00034292441930300176 0 0.0022489396167934576 0.00035130412933633047 0 0.0021851397973454254 0.00039606681047811462 0 0.0022433695940153537 0.00043185275967352741 0 0.0021851397973454254 0.00039606681047811462 0 0.0021931260750943085 0.00047879468826056518 0 0.0022489396167934576 0.00035130412933633047 0 0.0022433695940153537 0.00043185275967352741 0 0.0021851397973454254 0.00039606681047811462 0 0.0021260882685338678 0.00036687914018363962 0 0.0021851397973454254 0.00039606681047811462 0 0.0021272739621640956 0.00042839037066213717 0 0.0021851397973454254 0.00039606681047811462 0 0.0021931260750943085 0.00047879468826056518 0 0.0021272739621640956 0.00042839037066213717 0 0.0021931260750943085 0.00047879468826056518 0 0.0021116185420403692 0.00052097603574834301 0 0.0021272739621640956 0.00042839037066213717 0 0.0022433695940153537 0.00043185275967352741 0 0.0021931260750943085 0.00047879468826056518 0 0.0022763752859367796 0.00053414593674592332 0 0.0021931260750943085 0.00047879468826056518 0 0.0021898090309353546 0.00057143273392608557 0 0.0022763752859367796 0.00053414593674592332 0 0.0021898090309353546 0.00057143273392608557 0 0.0022763752859367796 0.00053414593674592332 0 0.0022597501201454071 0.0006402634010752459 0 0.0021898090309353546 0.00057143273392608557 0 0.00208974850315844 0.00059860951846184762 0 0.0021116185420403692 0.00052097603574834301 0 0.0021931260750943085 0.00047879468826056518 0 0.0021898090309353546 0.00057143273392608557 0 0.0021116185420403692 0.00052097603574834301 0 0.0021898090309353546 0.00057143273392608557 0 0.0021596515489801784 0.00065685236104535765 0 0.00208974850315844 0.00059860951846184762 0 0.0020821679917930329 0.00065222373660903414 0 0.0021706599813263445 0.00063323537737092542 0 0.0021898090309353546 0.00057143273392608557 0 0.0021596515489801784 0.00065685236104535765 0 0.0022597501201454071 0.0006402634010752459 0 0.0019992040101271891 0.00066196988445154086 0 0.0020001825038816982 0.00056438065881540464 0 0.0019274868293756454 0.00064146914190342909 0 0.0020821679917930329 0.00065222373660903414 0 0.002005902094915813 0.00066111119796847899 0 0.0019992040101271891 0.00066196988445154086 0 0.00208974850315844 0.00059860951846184762 0 0.0020001825038816982 0.00056438065881540464 0 0.0021596515489801784 0.00065685236104535765 0 0.0019992040101271891 0.00066196988445154086 0 0.00208974850315844 0.00059860951846184762 0 0.00208974850315844 0.00059860951846184762 0 0.0021116185420403692 0.00052097603574834301 0 0.0020001825038816982 0.00056438065881540464 0 0.0021116185420403692 0.00052097603574834301 0 0.0020001825038816982 0.00056438065881540464 0 0.0020526398866322205 0.00047657439501640208 0 0.0020001825038816982 0.00056438065881540464 0 0.0019484443179810145 0.00046588219395934027 0 0.0020526398866322205 0.00047657439501640208 0 0.0019484443179810145 0.00046588219395934027 0 0.0020526398866322205 0.00047657439501640208 0 0.0020783755636245255 0.00037682955560461035 0 0.0020381908558979064 0.00039020753969832531 0 0.0020705920147862066 0.00037698169984803638 0 0.0020526398866322205 0.00047657439501640208 0 0.0021272739621640956 0.00042839037066213717 0 0.0020783755636245255 0.00037682955560461035 0 0.0021116185420403692 0.00052097603574834301 0 0.0020526398866322205 0.00047657439501640208 0 0.0021272739621640956 0.00042839037066213717 0 0.0021260882685338678 0.00036687914018363962 0 0.0021272739621640956 0.00042839037066213717 0 0.0020783755636245255 0.00037682955560461035 0 0.0021110147950978543 0.00035289038061269822 0 0.0021260882685338678 0.00036687914018363962 0 0.0020783755636245255 0.00037682955560461035 0 0.0021110147950978543 0.00035289038061269822 0 0.0020783755636245255 0.00037682955560461035 0 0.0021383334946954075 0.00034015488128650689 0 0.0021215178668485125 0.00031877895590586225 0 0.0020783755636245255 0.00037682955560461035 0 0.0021383334946954075 0.00034015488128650689 0 0.0021215178668485125 0.00031877895590586225 0 0.0021383334946954075 0.00034015488128650689 0 0.0021682456012666051 0.00032280282576520222 0 0.0021748685971873126 0.00032441271487288127 0 0.0021383334946954075 0.00034015488128650689 0 0.0021682456012666051 0.00032280282576520222 0 0.0021776767361643312 0.00031777316138667684 0 0.0021748685971873126 0.00032441271487288127 0 0.0021682456012666051 0.00032280282576520222 0 0.002192394273248981 0.00037378664632271218 0 0.0021783666330827474 0.00043369963375026956 0 0.002228103267773228 0.00043858308185246012 0 0.0021971376627723327 0.00033296736087790648 0 0.0020386524463895574 0.00047586429656784601 0 0.0021215178668485125 0.00031877895590586225 0 0.0021682456012666051 0.00032280282576520222 0 0.0021441231232536364 0.00029739439522727217 0 0.0021172837098247525 0.00032635662208616316 0 0.0021450068327168218 0.00036382825841005276 0 0.0020839873215646319 0.00037074723000589914 0 0.0021776767361643312 0.00031777316138667684 0 0.0021172837098247525 0.00032635662208616316 0 0.0021450068327168218 0.00036382825841005276 0 0.0021776767361643312 0.00031777316138667684 0 0.002192394273248981 0.00037378664632271218 0 0.0021450068327168218 0.00036382825841005276 0 0.0021728182830408785 0.00032422065806936756 0 0.0021971376627723327 0.00033296736087790648 0 0.002192394273248981 0.00037378664632271218 0 0.0021473977066379267 0.00040706471223704859 0 0.0021783666330827474 0.00043369963375026956 0 0.002192394273248981 0.00037378664632271218 0 0.0021450068327168218 0.00036382825841005276 0 0.0021473977066379267 0.00040706471223704859 0 0.0021450068327168218 0.00036382825841005276 0 0.0021473977066379267 0.00040706471223704859 0 0.0021021434676505649 0.00040287393677163844 0 0.0021450068327168218 0.00036382825841005276 0 0.0021021434676505649 0.00040287393677163844 0 0.0020839873215646319 0.00037074723000589914 0 0.0021473977066379267 0.00040706471223704859 0 0.0021021434676505649 0.00040287393677163844 0 0.0021067992096517555 0.00043423897421648129 0 0.0021021434676505649 0.00040287393677163844 0 0.0021067992096517555 0.00043423897421648129 0 0.0020633872791515082 0.0004280611888299278 0 0.0020775066596896391 0.00046092351914081933 0 0.0021067992096517555 0.00043423897421648129 0 0.0020633872791515082 0.0004280611888299278 0 0.0020775066596896391 0.00046092351914081933 0 0.0021067992096517555 0.00043423897421648129 0 0.0021167557912505986 0.00046998772908646617 0 0.0021067992096517555 0.00043423897421648129 0 0.0021435621458909702 0.00044529298729816495 0 0.0021167557912505986 0.00046998772908646617 0 0.0021473977066379267 0.00040706471223704859 0 0.0021067992096517555 0.00043423897421648129 0 0.0021435621458909702 0.00044529298729816495 0 0.0021473977066379267 0.00040706471223704859 0 0.0021435621458909702 0.00044529298729816495 0 0.0021783666330827474 0.00043369963375026956 0 0.0021435621458909702 0.00044529298729816495 0 0.0021783666330827474 0.00043369963375026956 0 0.0021624661810847414 0.00046748280313402805 0 0.0021783666330827474 0.00043369963375026956 0 0.0021624661810847414 0.00046748280313402805 0 0.0021937066230771217 0.00047230801335293638 0 0.0021624661810847414 0.00046748280313402805 0 0.0021554076946560673 0.00050607612034489382 0 0.0021402144406557247 0.00048377233870540887 0 0.0019328496864171891 0.00057524302160985488 0 0.0020466580084519993 0.0005512482179470937 0 0.0021624661810847414 0.00046748280313402805 0 0.0021554076946560673 0.00050607612034489382 0 0.0021937066230771217 0.00047230801335293638 0 0.0021557530140864181 0.00051137618836315799 0 0.0021554076946560673 0.00050607612034489382 0 0.0021937066230771217 0.00047230801335293638 0 0.0019328496864171891 0.00057524302160985488 0 0.0019378230184125482 0.00057024692162509422 0 0.0021559396763934048 0.00051193344950782149 0 0.0021554076946560673 0.00050607612034489382 0 0.0021402144406557247 0.00048377233870540887 0 0.0021435621458909702 0.00044529298729816495 0 0.0021624661810847414 0.00046748280313402805 0 0.0021402144406557247 0.00048377233870540887 0 0.0021559396763934048 0.00051193344950782149 0 0.0021402144406557247 0.00048377233870540887 0 0.0021167557912505986 0.00046998772908646617 0 0.0021435621458909702 0.00044529298729816495 0 0.0021402144406557247 0.00048377233870540887 0 0.0021167557912505986 0.00046998772908646617 0 0.0020669642863373559 0.0004640985491518442 0 0.0020628235379747885 0.00046895252488564994 0 0.0020578630705774276 0.00049495839151910564 0 0.0020775066596896391 0.00046092351914081933 0 0.0020577995702505268 0.00046704694158388501 0 0.0020669642863373559 0.0004640985491518442 0 0.0020775066596896391 0.00046092351914081933 0 0.0021559396763934048 0.00051193344950782149 0 0.0021167557912505986 0.00046998772908646617 0 0.0021313888418715192 0.00045635963727493637 0 0.0019328496864171891 0.00057524302160985488 0 0.0020775066596896391 0.00046092351914081933 0 0.0020669642863373559 0.0004640985491518442 0 0.0020628235379747885 0.00046895252488564994 0 0.0020001825038816982 0.00056438065881540464 0 0.0019484443179810145 0.00046588219395934027 0 0.0018695817722131926 0.00053857899804016999 0 0.0020001825038816982 0.00056438065881540464 0 0.0018695817722131926 0.00053857899804016999 0 0.0019274868293756454 0.00064146914190342909 0 0.0020381908558979064 0.00039020753969832531 0 0.0020386524463895574 0.00047586429656784601 0 0.0021783666330827474 0.00043369963375026956 0 0.002228103267773228 0.00043858308185246012 0 0.0021937066230771217 0.00047230801335293638 0 0.0020386524463895574 0.00047586429656784601 0 0.0020466580084519993 0.0005512482179470937 0 0.0019166158151366533 0.00062168930911468136 0 0.001894160513345737 0.00064233786748590081 0 0.0019126145543575822 0.00065899109005986521 0 0.0018725253267297089 0.00066191291743014592 0 0.001894160513345737 0.00064233786748590081 0 0.0018963375432110659 0.00066067746252580621 0 0.001894160513345737 0.00064233786748590081 0 0.0018963375432110659 0.00066067746252580621 0 0.0019126145543575822 0.00065899109005986521 0 0.0019126145543575822 0.00065899109005986521 0 0.0019358106412698357 0.00065987458994700744 0 0.0019281558128991896 0.0006835598148905637 0 0.0020386524463895574 0.00047586429656784601 0 0.0019199145159835874 0.00066127339031104096 0 0.0019166158151366533 0.00062168930911468136 0 0.0019126145543575822 0.00065899109005986521 0 0.0019358106412698357 0.00065987458994700744 0 0.0019281558128991896 0.0006835598148905637 0 0.0019048207076303664 0.00068412351154931291 0 0.0019365122754408345 0.00070487788856340213 0 0.0019358106412698357 0.00065987458994700744 0 0.0019281558128991896 0.0006835598148905637 0 0.0019505997024011638 0.00069803762288777715 0 0.0018241052844997232 0.00065778562129520737 0 0.001895511234128617 0.00069386422300583232 0 0.0019126145543575822 0.00065899109005986521 0 0.0019281558128991896 0.0006835598148905637 0 0.0019048207076303664 0.00068412351154931291 0 0.0018725253267297089 0.00066191291743014592 0 0.0018963375432110659 0.00066067746252580621 0 0.0019048207076303664 0.00068412351154931291 0 0.0018963375432110659 0.00066067746252580621 0 0.0019126145543575822 0.00065899109005986521 0 0.0019048207076303664 0.00068412351154931291 0 0.0019328496864171891 0.00057524302160985488 0 0.0018241052844997232 0.00065778562129520737 0 0.0017817058464407157 0.00063671297527626675 0 0.0017549957860661372 0.00070035155278771566 0 0.0017230073694566295 0.00066530164625118254 0 0.0017817058464407157 0.00063671297527626675 0 0.0017549957860661372 0.00070035155278771566 0 0.0017958530359303169 0.00069301615088163528 0 0.0017549957860661372 0.00070035155278771566 0 0.0017958530359303169 0.00069301615088163528 0 0.0017888755898516177 0.00072596709331014422 0 0.0017958530359303169 0.00069301615088163528 0 0.0018294368461913694 0.00072496218936605279 0 0.0017888755898516177 0.00072596709331014422 0 0.0017817058464407157 0.00063671297527626675 0 0.0017958530359303169 0.00069301615088163528 0 0.0018468978339607027 0.00067579923053093151 0 0.0018468978339607027 0.00067579923053093151 0 0.0018294368461913694 0.00072496218936605279 0 0.0018737689318538934 0.00073523392181353269 0 0.0017958530359303169 0.00069301615088163528 0 0.0018468978339607027 0.00067579923053093151 0 0.0018294368461913694 0.00072496218936605279 0 0.0020483444581974341 0.00046894418276777352 0 0.0020312167531799027 0.00046953551775269075 0 0.002016166925947352 0.00044661609342892274 0 0.0020577995702505268 0.00046704694158388501 0 0.0020669642863373559 0.0004640985491518442 0 0.0020483444581974341 0.00046894418276777352 0 0.0020669642863373559 0.0004640985491518442 0 0.0020483444581974341 0.00046894418276777352 0 0.0020312167531799027 0.00046953551775269075 0 0.0020549485660784168 0.00047052937609475654 0 0.0020725108083489651 0.00048150181547772648 0 0.0019328496864171891 0.00057524302160985488 0 0.0017358297727340219 0.00057932974846718109 0 0.0017809438229524758 0.00065901257141753183 0 0.0018940818154159868 0.00055729486605470674 0 0.0017687442742476119 0.00049571288956853086 0 0.0017207817934660839 0.00059726728436577373 0 0.0017817058464407157 0.00063671297527626675 0 0.0017230073694566295 0.00066530164625118254 0 0.0019328496864171891 0.00057524302160985488 0 0.0019711982754027023 0.00050889127327180669 0 0.0017358297727340219 0.00057932974846718109 0 0.0017690240016422021 0.00058297710560403532 0 0.0018940818154159868 0.00055729486605470674 0 0.0017687442742476119 0.00049571288956853086 0 0.001872144426072674 0.00040586454746462 0 0.0017687442742476119 0.00049571288956853086 0 0.001872144426072674 0.00040586454746462 0 0.0017553847248701787 0.00033264574350686454 0 0.0017549957860661372 0.00070035155278771566 0 0.0017230073694566295 0.00066530164625118254 0 0.0017254842478261123 0.00073454431639474998 0 0.0018940818154159868 0.00055729486605470674 0 0.001872144426072674 0.00040586454746462 0 0.002016166925947352 0.00044661609342892274 0 0.001872144426072674 0.00040586454746462 0 0.0019577673773324019 0.00038924048439294346 0 0.002016166925947352 0.00044661609342892274 0 0.0019711982754027023 0.00050889127327180669 0 0.0020163405080811433 0.00045445903344693993 0 0.0018962374978540458 0.00032271600967982017 0 0.001874308613368668 0.00024338087315579378 0 0.00198787985853337 0.00031400314850988639 0 0.0011610691734846407 7.7602143731190924e-05 0 0.0013581740339251522 0.00021313929171437875 0 0.0020654982211093941 0.00028380040002107303 0 0.0013581740339251522 0.00021313929171437875 0 0.0019577673773324019 0.00038924048439294346 0 0.0019727597991429833 0.00036130754924013254 0 0.0018962374978540458 0.00032271600967982017 0 0.0019727597991429833 0.00036130754924013254 0 0.0018962374978540458 0.00032271600967982017 0 0.0020111335787450424 0.00032975486619320454 0 0.001872144426072674 0.00040586454746462 0 0.0018962374978540458 0.00032271600967982017 0 0.0018253089856890693 0.00029714427208187184 0 0.001872144426072674 0.00040586454746462 0 0.0019577673773324019 0.00038924048439294346 0 0.0018962374978540458 0.00032271600967982017 0 0.0018962374978540458 0.00032271600967982017 0 0.0018253089856890693 0.00029714427208187184 0 0.001874308613368668 0.00024338087315579378 0 0.0017254842478261123 0.00073454431639474998 0 0.0017273630893170869 0.00080206839561760375 0 0.0017642572496578172 0.00075290404291239639 0 0.0018253089856890693 0.00029714427208187184 0 0.0017553847248701787 0.00033264574350686454 0 0.001739397819104797 0.00016875796301655188 0 0.001872144426072674 0.00040586454746462 0 0.0018253089856890693 0.00029714427208187184 0 0.0017553847248701787 0.00033264574350686454 0 0.0017690240016422021 0.00058297710560403532 0 0.0011808189327738889 0.00024547846828225833 0 0.0018253089856890693 0.00029714427208187184 0 0.001739397819104797 0.00016875796301655188 0 0.001874308613368668 0.00024338087315579378 0 0.0011808189327738889 0.00024547846828225833 0 0.0011610691734846407 7.7602143731190924e-05 0 0.00060623301962361086 -6.0895335224040679e-06 0 0.00052123902099538951 -4.115220735578066e-05 0 0.00053393861058599027 9.3809037015917847e-06 0 0.00060623301962361086 -6.0895335224040679e-06 0 0.00053393861058599027 9.3809037015917847e-06 0 0.00056557150001642232 4.550448055759091e-05 0 0.00052123902099538951 -4.115220735578066e-05 0 0.00048031174803959482 1.0826901703257526e-05 0 0.0004478851033577003 -1.7435334225809336e-05 0 0.00052123902099538951 -4.115220735578066e-05 0 0.0004532368320336343 -6.9469556587786922e-05 0 0.0004478851033577003 -1.7435334225809336e-05 0 0.00052123902099538951 -4.115220735578066e-05 0 0.00053393861058599027 9.3809037015917847e-06 0 0.00048031174803959482 1.0826901703257526e-05 0 0.0018097455101863502 0.00075360401895399078 0 0.0018011400912260702 0.00077897824598298208 0 0.0018255181021596947 0.00077853094557222722 0 0.0018097455101863502 0.00075360401895399078 0 0.0018504598114292717 0.00076551780332243782 0 0.0018255181021596947 0.00077853094557222722 0 0.0018097455101863502 0.00075360401895399078 0 0.0018504598114292717 0.00076551780332243782 0 0.0018294368461913694 0.00072496218936605279 0 0.0018504598114292717 0.00076551780332243782 0 0.0018294368461913694 0.00072496218936605279 0 0.0018737689318538934 0.00073523392181353269 0 0.0018097455101863502 0.00075360401895399078 0 0.0018294368461913694 0.00072496218936605279 0 0.0017888755898516177 0.00072596709331014422 0 0.0017549957860661372 0.00070035155278771566 0 0.0017888755898516177 0.00072596709331014422 0 0.0017642572496578172 0.00075290404291239639 0 0.0017549957860661372 0.00070035155278771566 0 0.0017254842478261123 0.00073454431639474998 0 0.0017642572496578172 0.00075290404291239639 0 0.0018097455101863502 0.00075360401895399078 0 0.0017642572496578172 0.00075290404291239639 0 0.0018011400912260702 0.00077897824598298208 0 0.0018097455101863502 0.00075360401895399078 0 0.0017888755898516177 0.00072596709331014422 0 0.0017642572496578172 0.00075290404291239639 0 0.0017273630893170869 0.00080206839561760375 0 0.0017798654067085592 0.00079704391364212755 0 0.0018036472903884319 0.00084335963059200484 0 0.0017798654067085592 0.00079704391364212755 0 0.0018023241068873411 0.00080760385330383422 0 0.0018011400912260702 0.00077897824598298208 0 0.0017642572496578172 0.00075290404291239639 0 0.0017798654067085592 0.00079704391364212755 0 0.0018011400912260702 0.00077897824598298208 0 0.0017273630893170869 0.00080206839561760375 0 0.0017642572496578172 0.00075290404291239639 0 0.0017798654067085592 0.00079704391364212755 0 0.0017798654067085592 0.00079704391364212755 0 0.0018023241068873411 0.00080760385330383422 0 0.0018036472903884319 0.00084335963059200484 0 0.0018174246130786375 0.00081493888333111493 0 0.0018023241068873411 0.00080760385330383422 0 0.0018112856758286228 0.00083186031181152324 0 0.0018174246130786375 0.00081493888333111493 0 0.0018214913631076561 0.00080018032825974919 0 0.0018023241068873411 0.00080760385330383422 0 0.0018214913631076561 0.00080018032825974919 0 0.0018023241068873411 0.00080760385330383422 0 0.0018011400912260702 0.00077897824598298208 0 0.0018214913631076561 0.00080018032825974919 0 0.0018011400912260702 0.00077897824598298208 0 0.0018255181021596947 0.00077853094557222722 0 0.0018214913631076561 0.00080018032825974919 0 0.0018255181021596947 0.00077853094557222722 0 0.0018477103183690338 0.00080361108975220803 0 0.0018504598114292717 0.00076551780332243782 0 0.0018255181021596947 0.00077853094557222722 0 0.0018477103183690338 0.00080361108975220803 0 0.0018214913631076561 0.00080018032825974919 0 0.0018477103183690338 0.00080361108975220803 0 0.0018338744102910762 0.0008199190872177454 0 0.0018477103183690338 0.00080361108975220803 0 0.0018338744102910762 0.0008199190872177454 0 0.0018450970066965354 0.00083412432766100098 0 0.0018174246130786375 0.00081493888333111493 0 0.0018214913631076561 0.00080018032825974919 0 0.0018338744102910762 0.0008199190872177454 0 0.0018477103183690338 0.00080361108975220803 0 0.0018755826076727105 0.0008252250141962843 0 0.00187772045992868 0.00079678798792634801 0 0.0018504598114292717 0.00076551780332243782 0 0.00187772045992868 0.00079678798792634801 0 0.0019081187437942598 0.00077159498257113514 0 0.0018477103183690338 0.00080361108975220803 0 0.0018755826076727105 0.0008252250141962843 0 0.0018450970066965354 0.00083412432766100098 0 0.0018755826076727105 0.0008252250141962843 0 0.00187772045992868 0.00079678798792634801 0 0.0019084155277166873 0.0008076874320954179 0 0.00187772045992868 0.00079678798792634801 0 0.0019081187437942598 0.00077159498257113514 0 0.0019084155277166873 0.0008076874320954179 0 0.0018504598114292717 0.00076551780332243782 0 0.0018477103183690338 0.00080361108975220803 0 0.00187772045992868 0.00079678798792634801 0 0.0018504598114292717 0.00076551780332243782 0 0.0018737689318538934 0.00073523392181353269 0 0.0019081187437942598 0.00077159498257113514 0 0.0018737689318538934 0.00073523392181353269 0 0.0019309477813329121 0.00072741602768416837 0 0.0019081187437942598 0.00077159498257113514 0 0.0019309477813329121 0.00072741602768416837 0 0.0019529857084922173 0.00077168575672318003 0 0.001977217119387276 0.00072963356120386142 0 0.0019309477813329121 0.00072741602768416837 0 0.0019081187437942598 0.00077159498257113514 0 0.0019529857084922173 0.00077168575672318003 0 0.0019084155277166873 0.0008076874320954179 0 0.0019306139926766406 0.00082681590087587895 0 0.0019529857084922173 0.00077168575672318003 0 0.0019081187437942598 0.00077159498257113514 0 0.0019084155277166873 0.0008076874320954179 0 0.0019529857084922173 0.00077168575672318003 0 0.0018755826076727105 0.0008252250141962843 0 0.0019084155277166873 0.0008076874320954179 0 0.0018937731282880435 0.00084645177729483518 0 0.0019084155277166873 0.0008076874320954179 0 0.0019306139926766406 0.00082681590087587895 0 0.0018937731282880435 0.00084645177729483518 0 0.0019306139926766406 0.00082681590087587895 0 0.0019789504178225207 0.00080082801177289631 0 0.0019529857084922173 0.00077168575672318003 0 0.0019306139926766406 0.00082681590087587895 0 0.0019789504178225207 0.00080082801177289631 0 0.0019646692325879945 0.00085186999408458635 0 0.0019789504178225207 0.00080082801177289631 0 0.0020062935614540505 0.00082203371235576065 0 0.0019646692325879945 0.00085186999408458635 0 0.0020062935614540505 0.00082203371235576065 0 0.0020205978392862892 0.00085488186608008335 0 0.0020520387753509505 0.00082080980614242184 0 0.0019789504178225207 0.00080082801177289631 0 0.0020062935614540505 0.00082203371235576065 0 0.0020286612419056381 0.00079274447252292548 0 0.0020062935614540505 0.00082203371235576065 0 0.0020286612419056381 0.00079274447252292548 0 0.0020520387753509505 0.00082080980614242184 0 0.0020286612419056381 0.00079274447252292548 0 0.0020739943945273336 0.00079154605466090901 0 0.0020520387753509505 0.00082080980614242184 0 0.0020286612419056381 0.00079274447252292548 0 0.0020543455594905311 0.00076942010769590421 0 0.0020739943945273336 0.00079154605466090901 0 0.0020286612419056381 0.00079274447252292548 0 0.0020543455594905311 0.00076942010769590421 0 0.0020115146363525256 0.00075751578688966698 0 0.0019789504178225207 0.00080082801177289631 0 0.0020286612419056381 0.00079274447252292548 0 0.0020115146363525256 0.00075751578688966698 0 0.0020543455594905311 0.00076942010769590421 0 0.0020115146363525256 0.00075751578688966698 0 0.0020693364928617121 0.00073496610026248612 0 0.0020115146363525256 0.00075751578688966698 0 0.0019529857084922173 0.00077168575672318003 0 0.001977217119387276 0.00072963356120386142 0 0.0019789504178225207 0.00080082801177289631 0 0.0020115146363525256 0.00075751578688966698 0 0.0019529857084922173 0.00077168575672318003 0 0.0020115146363525256 0.00075751578688966698 0 0.002015260542292183 0.00070704192290419843 0 0.001977217119387276 0.00072963356120386142 0 0.002015260542292183 0.00070704192290419843 0 0.001977217119387276 0.00072963356120386142 0 0.0019796381329722922 0.00069280449488164477 0 0.0020115146363525256 0.00075751578688966698 0 0.002015260542292183 0.00070704192290419843 0 0.0020693364928617121 0.00073496610026248612 0 0.002015260542292183 0.00070704192290419843 0 0.0020610482159388785 0.00068176140321932264 0 0.0020693364928617121 0.00073496610026248612 0 0.0020053612315497761 0.00065038387603381671 0 0.0020610482159388785 0.00068176140321932264 0 0.0020806773782878949 0.00062442414721296192 0 0.0020053612315497761 0.00065038387603381671 0 0.002015260542292183 0.00070704192290419843 0 0.0020610482159388785 0.00068176140321932264 0 0.0020053612315497761 0.00065038387603381671 0 0.002015260542292183 0.00070704192290419843 0 0.0019796381329722922 0.00069280449488164477 0 0.0019992040101271891 0.00066196988445154086 0 0.0019505997024011638 0.00069803762288777715 0 0.0019796381329722922 0.00069280449488164477 0 0.0020053612315497761 0.00065038387603381671 0 0.0019992040101271891 0.00066196988445154086 0 0.0019796381329722922 0.00069280449488164477 0 0.0019992040101271891 0.00066196988445154086 0 0.0019274868293756454 0.00064146914190342909 0 0.0019505997024011638 0.00069803762288777715 0 0.0019199145159835874 0.00066127339031104096 0 0.0019519647440492359 0.00069199496013440148 0 0.0019281558128991896 0.0006835598148905637 0 0.0019365122754408345 0.00070487788856340213 0 0.0019505997024011638 0.00069803762288777715 0 0.001895511234128617 0.00069386422300583232 0 0.0019289650550443657 0.00072308633067913789 0 0.0019365122754408345 0.00070487788856340213 0 0.0019309477813329121 0.00072741602768416837 0 0.0019505997024011638 0.00069803762288777715 0 0.0018468978339607027 0.00067579923053093151 0 0.0018737689318538934 0.00073523392181353269 0 0.0019309477813329121 0.00072741602768416837 0 0.0019309477813329121 0.00072741602768416837 0 0.0019505997024011638 0.00069803762288777715 0 0.0019796381329722922 0.00069280449488164477 0 0.0019309477813329121 0.00072741602768416837 0 0.001977217119387276 0.00072963356120386142 0 0.0019796381329722922 0.00069280449488164477 0 0.0025405733756417824 -3.9430478475806306e-05 0 0.0027995316681115449 -2.0161327396036511e-07 0 0.0021050986763732349 -1.3625133366390859e-07 0 0.0021050986763732349 -1.3625133366390859e-07 0 0.0023002490474059024 -2.2576509085542468e-05 0 0.002151898540385722 -5.2060886367950794e-07 0 0.0021050986763732349 -1.3625133366390859e-07 0 0.002151898540385722 -5.2060886367950794e-07 0 0.0019068447593445039 -3.8286770314467706e-06 0 0.0020446084700824997 2.8780045471319813e-05 0 0.0019362530061553557 -4.370212447998718e-06 0 0.0025405733756417824 -3.9430478475806306e-05 0 0.0021050986763732349 -1.3625133366390859e-07 0 0.0023002490474059024 -2.2576509085542468e-05 0 0.0025405733756417824 -3.9430478475806306e-05 0 0.0023002490474059024 -2.2576509085542468e-05 0 0.0024516340030453837 -4.3359830618373381e-05 0 0.0023002490474059024 -2.2576509085542468e-05 0 0.0023646354281202102 -2.4470060740122985e-05 0 0.002151898540385722 -5.2060886367950794e-07 0 0.0022247114086411711 5.2731126406102328e-05 0 0.0021589231787803574 4.567066108456843e-05 0 0.0024940217007625959 -4.702275464758996e-05 0 0.0023646354281202102 -2.4470060740122985e-05 0 0.0024516340030453837 -4.3359830618373381e-05 0 0.0023002490474059024 -2.2576509085542468e-05 0 0.0023646354281202102 -2.4470060740122985e-05 0 0.0024516340030453837 -4.3359830618373381e-05 0 0.0019596987677293915 0.00015610426348258778 0 0.0019558295850339957 0.00013209273621677485 0 0.0019524260275392824 0.00014523799662213485 0 0.0019574295527068275 0.00015568869755169457 0 0.0019524260275392824 0.00014523799662213485 0 0.0019470421773001745 0.00014649609204409205 0 0.0019565332851582073 0.00015383778029905157 0 0.0019574295527068275 0.00015568869755169457 0 0.0019524260275392824 0.00014523799662213485 0 0.0019565332851582073 0.00015383778029905157 0 0.0019596987677293915 0.00015610426348258778 0 0.0019524260275392824 0.00014523799662213485 0 0.0019558295850339957 0.00013209273621677485 0 0.0019320107336771529 0.00011651092964193301 0 0.0019265589522692323 9.0629313701614424e-05 0 0.0019558295850339957 0.00013209273621677485 0 0.0019524260275392824 0.00014523799662213485 0 0.0019320107336771529 0.00011651092964193301 0 0.0019524260275392824 0.00014523799662213485 0 0.0019320107336771529 0.00011651092964193301 0 0.0019470421773001745 0.00014649609204409205 0 0.0019320107336771529 0.00011651092964193301 0 0.0019167113344185321 9.5342139463621054e-05 0 0.0019242155840210465 0.00012341585966664018 0 0.0019167113344185321 9.5342139463621054e-05 0 0.0019265589522692323 9.0629313701614424e-05 0 0.0019034756022097766 7.2989807597177408e-05 0 0.0019320107336771529 0.00011651092964193301 0 0.0019167113344185321 9.5342139463621054e-05 0 0.0019265589522692323 9.0629313701614424e-05 0 0.0021589231787803574 4.567066108456843e-05 0 0.0020446084700824997 2.8780045471319813e-05 0 0.0019558295850339957 0.00013209273621677485 0 0.0019265589522692323 9.0629313701614424e-05 0 0.0019441793098640635 7.9357097907703991e-05 0 0.0019265589522692323 9.0629313701614424e-05 0 0.0019441793098640635 7.9357097907703991e-05 0 0.001909772501761841 5.0918235175446082e-05 0 0.0019441793098640635 7.9357097907703991e-05 0 0.001909772501761841 5.0918235175446082e-05 0 0.0019068447593445039 -3.8286770314467706e-06 0 0.001909772501761841 5.0918235175446082e-05 0 0.0018985332034993805 6.8637860878766602e-05 0 0.0018856344726096875 9.5435699108228289e-06 0 0.0013337005212713518 0.00021368615333317015 0 0.001329760928224289 0.00021098862400301834 0 0.0013454031181018916 0.00019034624578052444 0 0.001909772501761841 5.0918235175446082e-05 0 0.0019034756022097766 7.2989807597177408e-05 0 0.0018985332034993805 6.8637860878766602e-05 0 0.0019167113344185321 9.5342139463621054e-05 0 0.0019034756022097766 7.2989807597177408e-05 0 0.0019007813499085139 7.1411227856461886e-05 0 0.0017150250871632981 0.00024176361057305106 0 0.0016593067486189185 0.00029467620948157148 0 0.0017326212458173671 0.00023473578676885411 0 0.0017150250871632981 0.00024176361057305106 0 0.0019265589522692323 9.0629313701614424e-05 0 0.001909772501761841 5.0918235175446082e-05 0 0.0019034756022097766 7.2989807597177408e-05 0 0.0019224124248157681 0.00045873539003327726 0 0.001960744898767278 0.00044682965224884108 0 0.0019300738596773456 0.00046501418331698814 0 0.001960744898767278 0.00044682965224884108 0 0.0019300738596773456 0.00046501418331698814 0 0.0019762849632834396 0.00049999776349709591 0 0.001960744898767278 0.00044682965224884108 0 0.0020028397193721848 0.00046667651360404364 0 0.0019762849632834396 0.00049999776349709591 0 0.001960744898767278 0.00044682965224884108 0 0.0020243461638112235 0.00043004161612041796 0 0.0020028397193721848 0.00046667651360404364 0 0.001960744898767278 0.00044682965224884108 0 0.0019521802330762382 0.00041248428498127156 0 0.0019878747178095502 0.00040656744357322951 0 0.001960744898767278 0.00044682965224884108 0 0.0019878747178095502 0.00040656744357322951 0 0.0020243461638112235 0.00043004161612041796 0 0.0019224124248157681 0.00045873539003327726 0 0.001960744898767278 0.00044682965224884108 0 0.0019521802330762382 0.00041248428498127156 0 0.0017150250871632981 0.00024176361057305106 0 0.0019639467538995026 0.0002590972117682342 0 0.0019167113344185321 9.5342139463621054e-05 0 0.0019007813499085139 7.1411227856461886e-05 0 0.0019242155840210465 0.00012341585966664018 0 0.0019242155840210465 0.00012341585966664018 0 0.0019470421773001745 0.00014649609204409205 0 0.001959987693506002 0.00015818749027595453 0 0.0019320107336771529 0.00011651092964193301 0 0.0019242155840210465 0.00012341585966664018 0 0.0019470421773001745 0.00014649609204409205 0 0.0019636494438798817 0.00015839234630225576 0 0.0019470421773001745 0.00014649609204409205 0 0.001959987693506002 0.00015818749027595453 0 0.0019636494438798817 0.00015839234630225576 0 0.0019574295527068275 0.00015568869755169457 0 0.0019470421773001745 0.00014649609204409205 0 0.0020115388491396989 0.00022884702975538694 0 0.0019669316519822467 0.00025912754486756876 0 0.0019856336213757977 0.00016408285745145334 0 0.0019636494438798817 0.00015839234630225576 0 0.001959987693506002 0.00015818749027595453 0 0.0019521802330762382 0.00041248428498127156 0 0.0019780564889743495 0.00036077769299435689 0 0.0019878747178095502 0.00040656744357322951 0 0.0019639467538995026 0.0002590972117682342 0 0.0019669316519822467 0.00025912754486756876 0 0.0019780564889743495 0.00036077769299435689 0 0.0019878747178095502 0.00040656744357322951 0 0.0020280978529824446 0.00037704820908234361 0 0.0019878747178095502 0.00040656744357322951 0 0.0020280978529824446 0.00037704820908234361 0 0.0020243461638112235 0.00043004161612041796 0 0.0020280978529824446 0.00037704820908234361 0 0.0020576368282230612 0.00039941977354366047 0 0.0020243461638112235 0.00043004161612041796 0 0.0019780564889743495 0.00036077769299435689 0 0.0020280978529824446 0.00037704820908234361 0 0.0020517242078757821 0.0003341543227732559 0 0.0020084937128427727 0.00029484492813210117 0 0.0019780564889743495 0.00036077769299435689 0 0.0020517242078757821 0.0003341543227732559 0 0.0020280978529824446 0.00037704820908234361 0 0.0020517242078757821 0.0003341543227732559 0 0.0020839873215646319 0.00037074723000589914 0 0.0021172837098247525 0.00032635662208616316 0 0.0020517242078757821 0.0003341543227732559 0 0.0020839873215646319 0.00037074723000589914 0 0.0020280978529824446 0.00037704820908234361 0 0.0020839873215646319 0.00037074723000589914 0 0.0020576368282230612 0.00039941977354366047 0 0.0021021434676505649 0.00040287393677163844 0 0.0020839873215646319 0.00037074723000589914 0 0.0020576368282230612 0.00039941977354366047 0 0.0021021434676505649 0.00040287393677163844 0 0.0020576368282230612 0.00039941977354366047 0 0.0020633872791515082 0.0004280611888299278 0 0.0020576368282230612 0.00039941977354366047 0 0.0020633872791515082 0.0004280611888299278 0 0.0020243461638112235 0.00043004161612041796 0 0.0020633872791515082 0.0004280611888299278 0 0.0020553254627729313 0.00045251477110416587 0 0.0020243461638112235 0.00043004161612041796 0 0.0020553254627729313 0.00045251477110416587 0 0.0020243461638112235 0.00043004161612041796 0 0.002038603427536785 0.00046962874821727593 0 0.0020775066596896391 0.00046092351914081933 0 0.0020633872791515082 0.0004280611888299278 0 0.0020553254627729313 0.00045251477110416587 0 0.0020243461638112235 0.00043004161612041796 0 0.0020028397193721848 0.00046667651360404364 0 0.002038603427536785 0.00046962874821727593 0 0.0020028397193721848 0.00046667651360404364 0 0.002038603427536785 0.00046962874821727593 0 0.0020192007782684372 0.00049249546239791262 0 0.002038603427536785 0.00046962874821727593 0 0.0020628235379747885 0.00046895252488564994 0 0.0020578630705774276 0.00049495839151910564 0 0.0020775066596896391 0.00046092351914081933 0 0.0020553254627729313 0.00045251477110416587 0 0.0020628235379747885 0.00046895252488564994 0 0.0020553254627729313 0.00045251477110416587 0 0.002038603427536785 0.00046962874821727593 0 0.0020628235379747885 0.00046895252488564994 0 0.002038603427536785 0.00046962874821727593 0 0.0020578630705774276 0.00049495839151910564 0 0.0020192007782684372 0.00049249546239791262 0 0.0020192007782684372 0.00049249546239791262 0 0.002019724116405153 0.0005318380850414244 0 0.0019762849632834396 0.00049999776349709591 0 0.0020578630705774276 0.00049495839151910564 0 0.0020192007782684372 0.00049249546239791262 0 0.002019724116405153 0.0005318380850414244 0 0.0016233366303164461 0.00034562656051303451 0 0.0016218039873782315 0.00034644830808957291 0 0.0016184293865250548 0.0003419425018403911 0 0.0016166145309521286 0.00037614686818528663 0 0.0016634517010170121 0.00033308871959550026 0 0.0013964336426251021 0.00018388423046082614 0 0.0018519801191003008 0.0003950926424081475 0 0.0014253515381243028 0.00030219159839013599 0 0.0014253515381243028 0.00030219159839013599 0 0.0010922521373084742 0.00020586605030982588 0 0.0020725108083489651 0.00048150181547772648 0 0.0018519801191003008 0.0003950926424081475 0 0.0020943739792778238 0.00043946736661359693 0 0.002044852894751213 0.00044000870430908418 0 0.0020221398631075443 0.0003926016756281106 0 0.0020943739792778238 0.00043946736661359693 0 0.0020221398631075443 0.0003926016756281106 0 0.0020111335787450424 0.00032975486619320454 0 0.0020312167531799027 0.00046953551775269075 0 0.0020943739792778238 0.00043946736661359693 0 0.002044852894751213 0.00044000870430908418 0 0.0020312167531799027 0.00046953551775269075 0 0.002044852894751213 0.00044000870430908418 0 0.002016166925947352 0.00044661609342892274 0 0.002044852894751213 0.00044000870430908418 0 0.002016166925947352 0.00044661609342892274 0 0.0020221398631075443 0.0003926016756281106 0 0.0019577673773324019 0.00038924048439294346 0 0.002016166925947352 0.00044661609342892274 0 0.0020221398631075443 0.0003926016756281106 0 0.0018519801191003008 0.0003950926424081475 0 0.0013581740339251522 0.00021313929171437875 0 0.0019577673773324019 0.00038924048439294346 0 0.0019727597991429833 0.00036130754924013254 0 0.0020221398631075443 0.0003926016756281106 0 0.0014253515381243028 0.00030219159839013599 0 0.0013581740339251522 0.00021313929171437875 0 0.0019727597991429833 0.00036130754924013254 0 0.0020221398631075443 0.0003926016756281106 0 0.0020111335787450424 0.00032975486619320454 0 0.0004478851033577003 -1.7435334225809336e-05 0 0.00042115141404806377 -1.6952456816730631e-06 0 0.00040140535171782698 -3.0795677543931631e-05 0 0.0004532368320336343 -6.9469556587786922e-05 0 0.0004478851033577003 -1.7435334225809336e-05 0 0.00040140535171782698 -3.0795677543931631e-05 0 0.00042115141404806377 -1.6952456816730631e-06 0 0.00043572258939770597 1.5437610261445562e-05 0 0.00040086077937872633 2.5072834390852167e-05 0 0.00042115141404806377 -1.6952456816730631e-06 0 0.00040140535171782698 -3.0795677543931631e-05 0 0.00040086077937872633 2.5072834390852167e-05 0 0.0004478851033577003 -1.7435334225809336e-05 0 0.00042115141404806377 -1.6952456816730631e-06 0 0.00043572258939770597 1.5437610261445562e-05 0 0.00048031174803959482 1.0826901703257526e-05 0 0.0004478851033577003 -1.7435334225809336e-05 0 0.00043572258939770597 1.5437610261445562e-05 0 0.00029886496952754676 3.1877331079042504e-05 0 0.00029899880219154038 -6.3037432705274939e-06 0 0.0003343254672392183 4.6960582547481449e-05 0 0.00040140535171782698 -3.0795677543931631e-05 0 0.00035568327559178564 -5.7187712866138386e-05 0 0.00040086077937872633 2.5072834390852167e-05 0 0.00056095656693585778 4.2825263000637169e-05 0 0.00033068152408748802 1.2420833779903657e-05 0 0.0010732981585229553 9.8971012434440344e-05 0 0.0012760638542532404 0.00021094206817703497 0 0.0010467562178692416 0.00023094743467090331 0 0.0004532368320336343 -6.9469556587786922e-05 0 0.00040140535171782698 -3.0795677543931631e-05 0 0.00035568327559178564 -5.7187712866138386e-05 0 0.0013581740339251522 0.00021313929171437875 0 0.00056095656693585778 4.2825263000637169e-05 0 0.0010732981585229553 9.8971012434440344e-05 0 0.0010467562178692416 0.00023094743467090331 0 0.0010034927905490695 0.0001615766653971969 0 0.00077214040184718014 0.00011340258890934411 0 0.00080907721213198771 0.00017007641122327845 0 0.00080197832844119835 0.00012679411542794743 0 0.00056095656693585778 4.2825263000637169e-05 0 0.0010922521373084742 0.00020586605030982588 0 0.0010922521373084742 0.00020586605030982588 0 0.0010800612804032781 0.00014112824625963795 0 0.00080907721213198771 0.00017007641122327845 0 0.00083612731108083436 0.00014572056661819988 0 0.00080197832844119835 0.00012679411542794743 0 0.0012860899804521008 0.00016167556400824946 0 0.0012916381935902472 0.00015663363253603046 0 0.0013090685210419325 0.00016570212950789859 0 0.00083612731108083436 0.00014572056661819988 0 0.00088057863475361244 0.00010492253507780239 0 0.00081420528649861989 0.00011014847912746905 0 0.00085000341626457771 0.00013263378286553347 0 0.00060158885202922681 9.4940269194575535e-05 0 0.00064080353123173157 0.00010361114021917276 0 0.00063242219939281747 0.00010413778126308642 0 0.00063975931144150025 9.3798209255445151e-05 0 0.0010800612804032781 0.00014112824625963795 0 0.00085000341626457771 0.00013263378286553347 0 0.00029899880219154038 -6.3037432705274939e-06 0 0.00028462716350186051 -5.0871964284771018e-06 0 0.00028216283393253335 1.6693479675128127e-05 0 0.00077214040184718014 0.00011340258890934411 0 0.00080197832844119835 0.00012679411542794743 0 0.00081388396051447845 0.00010993698391236617 0 0.00056095656693585778 4.2825263000637169e-05 0 0.00060158885202922681 9.4940269194575535e-05 0 0.00062919688595984905 8.145372874521117e-05 0 0.00060158885202922681 9.4940269194575535e-05 0 0.00083612731108083436 0.00014572056661819988 0 0.00080197832844119835 0.00012679411542794743 0 0.00081420528649861989 0.00011014847912746905 0 0.00029886496952754676 3.1877331079042504e-05 0 0.00029899880219154038 -6.3037432705274939e-06 0 0.00028216283393253335 1.6693479675128127e-05 0 0.00029886496952754676 3.1877331079042504e-05 0 0.00028216283393253335 1.6693479675128127e-05 0 0.00026056854272405626 2.4042387659551352e-05 0 0.00029886496952754676 3.1877331079042504e-05 0 0.00026056854272405626 2.4042387659551352e-05 0 0.00031451897862655529 8.162624587740426e-05 0 0.00028462716350186051 -5.0871964284771018e-06 0 0.00028216283393253335 1.6693479675128127e-05 0 0.00026056854272405626 2.4042387659551352e-05 0 0.00060158885202922681 9.4940269194575535e-05 0 0.00045504130577063965 7.7699914189430702e-05 0 0.00064080353123173157 0.00010361114021917276 0 0.00063975931144150025 9.3798209255445151e-05 0 0.00064624291838022939 9.8807837597953186e-05 0 0.00075374657686995167 0.00013324082916598145 0 0.00075326244694425872 9.7821728290021061e-05 0 0.00071817032194415186 0.0001093924968028377 0 0.00070022724195905456 0.00015229440324093275 0 0.000771830839117367 8.7542805798823334e-05 0 0.00067763650641900202 0.00013406221408527498 0 0.00071817032194415186 0.0001093924968028377 0 0.00070022724195905456 0.00015229440324093275 0 0.00045504130577063965 7.7699914189430702e-05 0 0.00075374657686995167 0.00013324082916598145 0 0.0010982806950458697 0.00015056145440561048 0 0.0010972280207241537 0.00014973863148859523 0 0.0010920376089501398 0.00015182548584711213 0 0.0010120871798701202 0.00014567262197865777 0 0.0010136989348096489 0.00014446473522228783 0 0.0010176836081596092 0.00014513632443341755 0 0.0011488189378662404 0.00016087868880303809 0 0.0011044641333949183 0.00014326001462987157 0 0.00072280010970034397 0.0001408589747903728 0 0.00073644310648361688 0.00015154130588956156 0 0.00075747034653103737 0.00014962481964733932 0 0.0010800612804032781 0.00014112824625963795 0 0.0011488189378662404 0.00016087868880303809 0 0.0012916381935902472 0.00015663363253603046 0 0.0013200706386075748 0.00014916356320186916 0 0.0013090685210419325 0.00016570212950789859 0 0.000978852333578276 0.00012663770926600026 0 0.0011044641333949183 0.00014326001462987157 0 0.000978852333578276 0.00012663770926600026 0 0.0011488189378662404 0.00016087868880303809 0 0.0010136989348096489 0.00014446473522228783 0 0.0010171755683670762 0.0001447216706348705 0 0.0010176836081596092 0.00014513632443341755 0 0.00085000341626457771 0.00013263378286553347 0 0.000978852333578276 0.00012663770926600026 0 0.00082732712791749191 0.00013636645933181487 0 0.00085651078319542409 0.0001098597100048464 0 0.00088302358041379236 0.00013172813632869438 0 0.00085000341626457771 0.00013263378286553347 0 0.00075374657686995167 0.00013324082916598145 0 0.00075374657686995167 0.00013324082916598145 0 0.000978852333578276 0.00012663770926600026 0 0.0013200706386075748 0.00014916356320186916 0 0.0013229432232148154 0.00016323319166740362 0 0.0013090685210419325 0.00016570212950789859 0 0.0013229432232148154 0.00016323319166740362 0 0.001323844695894306 0.00017525545892402804 0 0.0013090685210419325 0.00016570212950789859 0 0.001323844695894306 0.00017525545892402804 0 0.0013043679317428856 0.000186323432839805 0 0.0013265667935777241 0.0001953706712105079 0 0.001323844695894306 0.00017525545892402804 0 0.0013090685210419325 0.00016570212950789859 0 0.0013043679317428856 0.000186323432839805 0 0.0012753534992017027 0.00025539379391939537 0 0.0012976110164972991 0.00023444789959342795 0 0.0013312578181317995 0.00028641486516345154 0 0.0010922521373084742 0.00020586605030982588 0 0.00139749978030281 0.00025999426807719444 0 0.0012860899804521008 0.00016167556400824946 0 0.0013090685210419325 0.00016570212950789859 0 0.0013043679317428856 0.000186323432839805 0 0.0018519801191003008 0.0003950926424081475 0 0.001818538875044073 0.00044624405253380011 0 0.0014253515381243028 0.00030219159839013599 0 0.00139749978030281 0.00025999426807719444 0 0.0016218039873782315 0.00034644830808957291 0 0.0016168098948261833 0.00034374810474074939 0 0.0016184293865250548 0.0003419425018403911 0 0.0020028397193721848 0.00046667651360404364 0 0.0020192007782684372 0.00049249546239791262 0 0.0019762849632834396 0.00049999776349709591 0 0.0016593067486189185 0.00029467620948157148 0 0.001818538875044073 0.00044624405253380011 0 0.0016141093841244738 0.00033796830450219284 0 0.0016168098948261833 0.00034374810474074939 0 0.0016184293865250548 0.0003419425018403911 0 0.0016593067486189185 0.00029467620948157148 0 0.00139749978030281 0.00025999426807719444 0 0.001329760928224289 0.00021098862400301834 0 0.0013149559733162406 0.0001887383186791397 0 0.0013265667935777241 0.0001953706712105079 0 0.00139749978030281 0.00025999426807719444 0 0.0012936231115673275 0.00017915233086005679 0 0.0021050986763732349 -1.3625133366390859e-07 0 0.0012577304604063867 3.141406829384131e-07 0 0.0019068447593445039 -3.8286770314467706e-06 0 0.0017150250871632981 0.00024176361057305106 0 0.0016011294108806817 8.6524504842710144e-05 0 0.001329760928224289 0.00021098862400301834 0 0.0013265667935777241 0.0001953706712105079 0 0.0013454031181018916 0.00019034624578052444 0 0.0013265667935777241 0.0001953706712105079 0 0.0013454031181018916 0.00019034624578052444 0 0.0013364186992715688 0.00017958903868495307 0 0.001909772501761841 5.0918235175446082e-05 0 0.0018856344726096875 9.5435699108228289e-06 0 0.0019068447593445039 -3.8286770314467706e-06 0 0.0016011294108806817 8.6524504842710144e-05 0 0.0016010150743295956 7.3760218479100193e-05 0 0.0013454031181018916 0.00019034624578052444 0 0.0013495983179140066 0.00017356229750491531 0 0.0013587561274628942 0.00015520503625470204 0 0.0018856344726096875 9.5435699108228289e-06 0 0.0017824363049910193 2.1555258273487506e-05 0 0.0019068447593445039 -3.8286770314467706e-06 0 0.0013495983179140066 0.00017356229750491531 0 0.0013364186992715688 0.00017958903868495307 0 0.001336811736646357 0.00016369916347755732 0 0.0013495983179140066 0.00017356229750491531 0 0.0013193008874961452 0.00015769496605296364 0 0.0013398879798273168 0.00014912350528703839 0 0.0013414880836009047 0.00016898949716918343 0 0.0013392703655932035 0.00017417878539180656 0 0.0013454031181018916 0.00019034624578052444 0 0.0013495983179140066 0.00017356229750491531 0 0.0013364186992715688 0.00017958903868495307 0 0.001323844695894306 0.00017525545892402804 0 0.0013265667935777241 0.0001953706712105079 0 0.0013364186992715688 0.00017958903868495307 0 0.0013229432232148154 0.00016323319166740362 0 0.001323844695894306 0.00017525545892402804 0 0.001336811736646357 0.00016369916347755732 0 0.001323844695894306 0.00017525545892402804 0 0.0013364186992715688 0.00017958903868495307 0 0.001336811736646357 0.00016369916347755732 0 0.0013200706386075748 0.00014916356320186916 0 0.0013229432232148154 0.00016323319166740362 0 0.001336811736646357 0.00016369916347755732 0 0.0011488189378662404 0.00016087868880303809 0 0.0013392703655932035 0.00017417878539180656 0 0.0013193008874961452 0.00015769496605296364 0 0.0013244086551116049 0.00013199256619859264 0 0.0013398879798273168 0.00014912350528703839 0 0.0012911792508079685 0.00013746296338923184 0 0.0013193008874961452 0.00015769496605296364 0 0.0013077120016966397 0.00013296054431885103 0 0.0013193008874961452 0.00015769496605296364 0 0.0013244086551116049 0.00013199256619859264 0 0.0013077120016966397 0.00013296054431885103 0 0.0013093280225242301 0.0001288520890819428 0 0.0011044641333949183 0.00014326001462987157 0 0.0011044641333949183 0.00014326001462987157 0 0.0010404971904737479 0.00014087763414060678 0 0.00072280010970034397 0.0001408589747903728 0 0.00075747034653103737 0.00014962481964733932 0 0.00077170518548438471 0.00012404145948270462 0 0.00075747034653103737 0.00014962481964733932 0 0.00077170518548438471 0.00012404145948270462 0 0.00080608868160667469 0.00013913051829745951 0 0.0013244086551116049 0.00013199256619859264 0 0.0013078304233538676 0.00013233151759539254 0 0.0013464825055480886 0.00012431034994046425 0 0.00072280010970034397 0.0001408589747903728 0 0.00077170518548438471 0.00012404145948270462 0 0.000771830839117367 8.7542805798823334e-05 0 0.00080608868160667469 0.00013913051829745951 0 0.00086245508427272414 0.00012925481157604815 0 0.00080652500576019104 0.00010152087646519833 0 0.00077170518548438471 0.00012404145948270462 0 0.00080608868160667469 0.00013913051829745951 0 0.00080652500576019104 0.00010152087646519833 0 0.0013464825055480886 0.00012431034994046425 0 0.0013398879798273168 0.00014912350528703839 0 0.0013587561274628942 0.00015520503625470204 0 0.0013464825055480886 0.00012431034994046425 0 0.0013587561274628942 0.00015520503625470204 0 0.0013804362204527445 0.00011451743749800916 0 0.0013244086551116049 0.00013199256619859264 0 0.0013464825055480886 0.00012431034994046425 0 0.0013398879798273168 0.00014912350528703839 0 0.0013495983179140066 0.00017356229750491531 0 0.0013398879798273168 0.00014912350528703839 0 0.0013587561274628942 0.00015520503625470204 0 0.0017824363049910193 2.1555258273487506e-05 0 0.0012577304604063867 3.141406829384131e-07 0 0.0019068447593445039 -3.8286770314467706e-06 0 0.0016010150743295956 7.3760218479100193e-05 0 0.0012482638167605725 8.3447557708555664e-05 0 0.0017824363049910193 2.1555258273487506e-05 0 0.0015423074300804642 6.9618441804179798e-05 0 0.0012577304604063867 3.141406829384131e-07 0 0.0010404971904737479 0.00014087763414060678 0 0.0012482638167605725 8.3447557708555664e-05 0 0.0012482638167605725 8.3447557708555664e-05 0 0.0012570461035239361 -9.7851875659450915e-09 0 0.00071684184736278136 -6.7341932287359186e-06 0 0.00058333489857565531 2.0348252370470824e-05 0 0.00084241974404224585 -1.425931514417501e-05 0 0.00080023676357666486 -9.9568449161996411e-08 0 0.00061827526343768014 1.0840750539822136e-07 0 0.00053301107630193678 1.4179678525676833e-05 0 0.00053911907046701093 2.6832382310514474e-05 0 0.0005635066891563061 1.3364982243637996e-05 0 0.00053301107630193678 1.4179678525676833e-05 0 0.00053911907046701093 2.6832382310514474e-05 0 0.00052447738773988531 2.6678421273550398e-05 0 0.00084241974404224585 -1.425931514417501e-05 0 0.00086133478569908181 -1.4576842890165729e-05 0 0.00084441780457311449 1.6792757346513097e-05 0 0.00086133478569908181 -1.4576842890165729e-05 0 0.00080023676357666486 -9.9568449161996411e-08 0 0.00097161810173499428 9.0037443106531631e-08 0 0.00084241974404224585 -1.425931514417501e-05 0 0.00086133478569908181 -1.4576842890165729e-05 0 0.00080023676357666486 -9.9568449161996411e-08 0 0.00097161810173499428 9.0037443106531631e-08 0 0.0009019652149744251 8.276628867408877e-05 0 0.00084441780457311449 1.6792757346513097e-05 0 0.00086133478569908181 -1.4576842890165729e-05 0 0.00097161810173499428 9.0037443106531631e-08 0 0.00084441780457311449 1.6792757346513097e-05 0 0.00097195482206269789 -3.6761272780351378e-08 0 0.0010121408854454953 3.9606415935233338e-05 0 0.0012565080959585353 1.3515675405277544e-09 0 0.00097224962863219806 -1.0749697203508934e-11 0 0.0011761896038156878 -1.4811138553370746e-05 0 0.001145740883314124 4.6212316078243837e-05 0 0.0012565080959585353 1.3515675405277544e-09 0 0.0011761896038156878 -1.4811138553370746e-05 0 0.00086245508427272414 0.00012925481157604815 0 0.0009019652149744251 8.276628867408877e-05 0 0.00083947368062041797 7.5670624928757762e-05 0 0.0012482638167605725 8.3447557708555664e-05 0 0.0010121408854454953 3.9606415935233338e-05 0 0.00086245508427272414 0.00012925481157604815 0 0.00083947368062041797 7.5670624928757762e-05 0 0.00080652500576019104 0.00010152087646519833 0 0.0009019652149744251 8.276628867408877e-05 0 0.00083947368062041797 7.5670624928757762e-05 0 0.00084441780457311449 1.6792757346513097e-05 0 0.00083947368062041797 7.5670624928757762e-05 0 0.00084441780457311449 1.6792757346513097e-05 0 0.00079423018633136499 5.1611591363088114e-05 0 0.00084441780457311449 1.6792757346513097e-05 0 0.00079423018633136499 5.1611591363088114e-05 0 0.00078149146684775592 5.5353395138535143e-06 0 0.00083947368062041797 7.5670624928757762e-05 0 0.00079423018633136499 5.1611591363088114e-05 0 0.00080652500576019104 0.00010152087646519833 0 0.00079423018633136499 5.1611591363088114e-05 0 0.00080652500576019104 0.00010152087646519833 0 0.000771830839117367 8.7542805798823334e-05 0 0.00079423018633136499 5.1611591363088114e-05 0 0.000771830839117367 8.7542805798823334e-05 0 0.00073099844191827862 6.5076944112485387e-05 0 0.00071817032194415186 0.0001093924968028377 0 0.000771830839117367 8.7542805798823334e-05 0 0.00073099844191827862 6.5076944112485387e-05 0 0.00077170518548438471 0.00012404145948270462 0 0.00080652500576019104 0.00010152087646519833 0 0.000771830839117367 8.7542805798823334e-05 0 0.00079423018633136499 5.1611591363088114e-05 0 0.00078149146684775592 5.5353395138535143e-06 0 0.00073099844191827862 6.5076944112485387e-05 0 0.00034990813229947418 8.4579935807656089e-05 0 0.00032783535660142483 9.6178641877506997e-05 0 0.00033115804278598967 0.00010202882059866013 0 0.00051527584222977089 4.1984987197633322e-05 0 0.00027053601415110134 0.00011781113713633147 0 0.00051527584222977089 4.1984987197633322e-05 0 0.00054300007779784529 8.7828575777301176e-05 0 0.00037855844295241935 7.4452967791992865e-05 0 0.00036900232940881723 5.1872114098255055e-05 0 0.00034266590452470088 6.1405558548940592e-05 0 0.00037855844295241935 7.4452967791992865e-05 0 0.00039699910221495898 4.8682366945781566e-05 0 0.00036900232940881723 5.1872114098255055e-05 0 0.00053911907046701093 2.6832382310514474e-05 0 0.00051553276481557304 3.8824561005610889e-05 0 0.00052447738773988531 2.6678421273550398e-05 0 0.00084241974404224585 -1.425931514417501e-05 0 0.00084441780457311449 1.6792757346513097e-05 0 0.00078149146684775592 5.5353395138535143e-06 0 0.00071684184736278136 -6.7341932287359186e-06 0 0.00051527584222977089 4.1984987197633322e-05 0 0.00051527584222977089 4.1984987197633322e-05 0 0.0004649614940370597 2.9848071984659501e-05 0 0.00033415154230130855 5.2359270320390839e-05 0 0.0002345601704729745 1.7034824498048682e-05 0 0.00041439352462028416 2.3872997320306375e-05 0 0.00039699910221495898 4.8682366945781566e-05 0 0.0003601535493488792 2.4219571156196177e-05 0 0.00033415154230130855 5.2359270320390839e-05 0 0.0004649614940370597 2.9848071984659501e-05 0 0.0003601535493488792 2.4219571156196177e-05 0 0.00036900232940881723 5.1872114098255055e-05 0 0.00034266590452470088 6.1405558548940592e-05 0 0.00039699910221495898 4.8682366945781566e-05 0 0.0003601535493488792 2.4219571156196177e-05 0 0.00036900232940881723 5.1872114098255055e-05 0 0.0002345601704729745 1.7034824498048682e-05 0 0.00021652343360242573 4.227047677978132e-06 0 0.0003601535493488792 2.4219571156196177e-05 0 0.0003062753799774222 1.6161865183399522e-05 0 0.00034266590452470088 6.1405558548940592e-05 0 0.0003062753799774222 1.6161865183399522e-05 0 0.00030983078910129449 8.0661470210228954e-05 0 0.00026034940477286653 5.798795125044333e-05 0 0.0003062753799774222 1.6161865183399522e-05 0 0.00030983078910129449 8.0661470210228954e-05 0 0.00034266590452470088 6.1405558548940592e-05 0 0.00030983078910129449 8.0661470210228954e-05 0 0.00034266590452470088 6.1405558548940592e-05 0 0.00032783535660142483 9.6178641877506997e-05 0 0.00037855844295241935 7.4452967791992865e-05 0 0.00034266590452470088 6.1405558548940592e-05 0 0.00032783535660142483 9.6178641877506997e-05 0 0.00032783535660142483 9.6178641877506997e-05 0 0.00031857471568942408 0.00010052816959999137 0 0.00030895004621432805 9.9435843039877801e-05 0 0.00032783535660142483 9.6178641877506997e-05 0 0.00033115804278598967 0.00010202882059866013 0 0.00031857471568942408 0.00010052816959999137 0 0.00045504130577063965 7.7699914189430702e-05 0 0.00054300007779784529 8.7828575777301176e-05 0 0.00031228410497605559 0.00010821307983162775 0 0.00033115804278598967 0.00010202882059866013 0 0.00031857471568942408 0.00010052816959999137 0 0.00067763650641900202 0.00013406221408527498 0 0.00071817032194415186 0.0001093924968028377 0 0.00073099844191827862 6.5076944112485387e-05 0 0.00031228410497605559 0.00010821307983162775 0 0.00030949291273700249 9.8487245788316316e-05 0 0.00031451897862655529 8.162624587740426e-05 0 0.00045504130577063965 7.7699914189430702e-05 0 0.00025152792553988776 6.5117482172460115e-05 0 0.00031228410497605559 0.00010821307983162775 0 0.00031857471568942408 0.00010052816959999137 0 0.00030949291273700249 9.8487245788316316e-05 0 0.00030949291273700249 9.8487245788316316e-05 0 0.00030895004621432805 9.9435843039877801e-05 0 0.00030250905864246286 9.9700909141744442e-05 0 0.00030895004621432805 9.9435843039877801e-05 0 0.00028243548534238037 0.00011841294965283706 0 0.00030250905864246286 9.9700909141744442e-05 0 0.00030983078910129449 8.0661470210228954e-05 0 0.00030895004621432805 9.9435843039877801e-05 0 0.00028243548534238037 0.00011841294965283706 0 0.00031857471568942408 0.00010052816959999137 0 0.00030949291273700249 9.8487245788316316e-05 0 0.00030895004621432805 9.9435843039877801e-05 0 0.00030983078910129449 8.0661470210228954e-05 0 0.00032783535660142483 9.6178641877506997e-05 0 0.00030895004621432805 9.9435843039877801e-05 0 0.00028243548534238037 0.00011841294965283706 0 0.00033444838863894193 0.00010366778778446681 0 0.00030250905864246286 9.9700909141744442e-05 0 0.00033444838863894193 0.00010366778778446681 0 0.00030250905864246286 9.9700909141744442e-05 0 0.00031451897862655529 8.162624587740426e-05 0 0.00030949291273700249 9.8487245788316316e-05 0 0.00030250905864246286 9.9700909141744442e-05 0 0.00031451897862655529 8.162624587740426e-05 0 0.00033444838863894193 0.00010366778778446681 0 0.00031451897862655529 8.162624587740426e-05 0 0.0003343254672392183 4.6960582547481449e-05 0 0.00029886496952754676 3.1877331079042504e-05 0 0.00031451897862655529 8.162624587740426e-05 0 0.0003343254672392183 4.6960582547481449e-05 0 0.00033444838863894193 0.00010366778778446681 0 0.0003343254672392183 4.6960582547481449e-05 0 0.00042154059272677221 0.00012650788457535897 0 0.00033068152408748802 1.2420833779903657e-05 0 0.00043402946349423318 0.00013733939229981811 0 0.00040086077937872633 2.5072834390852167e-05 0 0.00044775836719515046 5.4650756416367958e-05 0 0.00042154059272677221 0.00012650788457535897 0 0.00048031174803959482 1.0826901703257526e-05 0 0.00043572258939770597 1.5437610261445562e-05 0 0.00044775836719515046 5.4650756416367958e-05 0 0.00043572258939770597 1.5437610261445562e-05 0 0.00040086077937872633 2.5072834390852167e-05 0 0.00044775836719515046 5.4650756416367958e-05 0 0.00030818187729552207 0.00012458687786113826 0 0.00026852546046516267 0.00012881536502307205 0 0.00028243548534238037 0.00011841294965283706 0 0.00042154059272677221 0.00012650788457535897 0 0.00047490925982442177 0.00018288809518117474 0 0.00028243548534238037 0.00011841294965283706 0 0.00033444838863894193 0.00010366778778446681 0 0.00042154059272677221 0.00012650788457535897 0 0.00028243548534238037 0.00011841294965283706 0 0.00020037608251935679 5.9345270816902251e-05 0 0.00015007055509836965 9.6701262274004199e-05 0 0.00030983078910129449 8.0661470210228954e-05 0 0.00028243548534238037 0.00011841294965283706 0 0.00026034940477286653 5.798795125044333e-05 0 0.00028243548534238037 0.00011841294965283706 0 0.00020037608251935679 5.9345270816902251e-05 0 0.00026034940477286653 5.798795125044333e-05 0 0.0003062753799774222 1.6161865183399522e-05 0 0.00026034940477286653 5.798795125044333e-05 0 0.00017758078843604263 2.67213172724447e-06 0 0.00021652343360242573 4.227047677978132e-06 0 0.0001772565494963607 2.5515326481777616e-06 0 0.00020037608251935679 5.9345270816902251e-05 0 0.00026034940477286653 5.798795125044333e-05 0 0.00017758078843604263 2.67213172724447e-06 0 0.00020037608251935679 5.9345270816902251e-05 0 0.00017758078843604263 2.67213172724447e-06 0 0.00014945818769658892 3.2806755781364606e-05 0 0.00017758078843604263 2.67213172724447e-06 0 0.00013644580309442225 -8.3727820709656769e-06 0 0.00014963071238849925 -1.0770213726171311e-05 0 0.00013644580309442225 -8.3727820709656769e-06 0 0.000140747495996418 -5.920050685194677e-06 0 0.00014963071238849925 -1.0770213726171311e-05 0 0.0001268532557373724 -1.0504689892009776e-05 0 0.00017758078843604263 2.67213172724447e-06 0 0.00013644580309442225 -8.3727820709656769e-06 0 0.00019212769376315445 -3.2864398172239729e-05 0 0.00014285727160793903 -3.3031028732308947e-05 0 0.0001727345588251968 -8.1811954403205534e-05 0 0.00012088173798914305 -4.7559883134219945e-05 0 0.00027840102921606257 0.000106475855284559 0 0.00012451189279376811 -9.180490417555424e-06 0 0.00012982633462568574 -1.4511868671537929e-05 0 0.00012106252707115673 -1.2551215481619561e-05 0 0.00027840102921606257 0.000106475855284559 0 7.4641155084823339e-05 -3.2286498257368275e-05 0 0.00013644580309442225 -8.3727820709656769e-06 0 0.000140747495996418 -5.920050685194677e-06 0 0.00012106252707115673 -1.2551215481619561e-05 0 0.00013644580309442225 -8.3727820709656769e-06 0 0.00012106252707115673 -1.2551215481619561e-05 0 0.00011773978584486605 -1.3820389159669953e-05 0 0.00011773978584486605 -1.3820389159669953e-05 0 0.00010148125641442265 -2.2724655676594871e-05 0 0.00011441194742554413 -1.2380168303284122e-05 0 0.00013644580309442225 -8.3727820709656769e-06 0 0.00011773978584486605 -1.3820389159669953e-05 0 0.00011441194742554413 -1.2380168303284122e-05 0 0.0001087428253783423 -9.0132763711751178e-06 0 0.00012106252707115673 -1.2551215481619561e-05 0 0.00010148125641442265 -2.2724655676594871e-05 0 0.00012106252707115673 -1.2551215481619561e-05 0 0.00011773978584486605 -1.3820389159669953e-05 0 0.00010148125641442265 -2.2724655676594871e-05 0 8.3577668101253916e-05 -1.3982261450709748e-05 0 0.00010148125641442265 -2.2724655676594871e-05 0 8.2452167356584187e-05 -2.7338248986396826e-05 0 0.00010148125641442265 -2.2724655676594871e-05 0 9.4534925962600527e-05 -3.5456168349370632e-05 0 8.2452167356584187e-05 -2.7338248986396826e-05 0 0.00010148125641442265 -2.2724655676594871e-05 0 0.00010811729173793151 -2.1599905886425549e-05 0 9.4534925962600527e-05 -3.5456168349370632e-05 0 0.00010148125641442265 -2.2724655676594871e-05 0 0.00011441194742554413 -1.2380168303284122e-05 0 0.00010811729173793151 -2.1599905886425549e-05 0 0.00011441194742554413 -1.2380168303284122e-05 0 0.00011318494352051133 -5.7774054118988148e-06 0 0.00010811729173793151 -2.1599905886425549e-05 0 0.0001268532557373724 -1.0504689892009776e-05 0 0.00013644580309442225 -8.3727820709656769e-06 0 0.00011441194742554413 -1.2380168303284122e-05 0 0.00011696510992440346 1.2824613116236339e-05 0 0.0001268532557373724 -1.0504689892009776e-05 0 0.00011318494352051133 -5.7774054118988148e-06 0 0.0001268532557373724 -1.0504689892009776e-05 0 0.00011441194742554413 -1.2380168303284122e-05 0 0.00011318494352051133 -5.7774054118988148e-06 0 0.00011318494352051133 -5.7774054118988148e-06 0 0.0001367897681855103 7.1319117344804395e-06 0 0.00012981889208901412 -1.2063791897654159e-05 0 0.00011696510992440346 1.2824613116236339e-05 0 0.00011318494352051133 -5.7774054118988148e-06 0 0.0001367897681855103 7.1319117344804395e-06 0 0.00019177021089619408 5.4069421822063966e-05 0 0.0001367897681855103 7.1319117344804395e-06 0 0.00017240022713242253 6.0553321027264536e-06 0 0.00019177021089619408 5.4069421822063966e-05 0 0.00011696510992440346 1.2824613116236339e-05 0 0.0001367897681855103 7.1319117344804395e-06 0 0.0001367897681855103 7.1319117344804395e-06 0 0.00017240022713242253 6.0553321027264536e-06 0 0.00012981889208901412 -1.2063791897654159e-05 0 0.00017240022713242253 6.0553321027264536e-06 0 0.00012981889208901412 -1.2063791897654159e-05 0 0.00018400038252009785 -2.1986316614666484e-05 0 0.00012981889208901412 -1.2063791897654159e-05 0 0.0001202638682962577 -3.3547822280274547e-05 0 0.00018400038252009785 -2.1986316614666484e-05 0 0.00012981889208901412 -1.2063791897654159e-05 0 0.00010811729173793151 -2.1599905886425549e-05 0 0.0001202638682962577 -3.3547822280274547e-05 0 0.00011318494352051133 -5.7774054118988148e-06 0 0.00012981889208901412 -1.2063791897654159e-05 0 0.00010811729173793151 -2.1599905886425549e-05 0 0.00010811729173793151 -2.1599905886425549e-05 0 9.4534925962600527e-05 -3.5456168349370632e-05 0 0.0001202638682962577 -3.3547822280274547e-05 0 4.5647168922911166e-05 -2.9316323196786007e-05 0 9.4534925962600527e-05 -3.5456168349370632e-05 0 8.2452167356584187e-05 -2.7338248986396826e-05 0 4.5647168922911166e-05 -2.9316323196786007e-05 0 9.4534925962600527e-05 -3.5456168349370632e-05 0 6.94211930805397e-05 -4.408603789624596e-05 0 9.4534925962600527e-05 -3.5456168349370632e-05 0 6.94211930805397e-05 -4.408603789624596e-05 0 0.0001202638682962577 -3.3547822280274547e-05 0 6.94211930805397e-05 -4.408603789624596e-05 0 0.0001202638682962577 -3.3547822280274547e-05 0 0.00015839096355296285 -3.4951942226181434e-05 0 0.0001202638682962577 -3.3547822280274547e-05 0 0.00015839096355296285 -3.4951942226181434e-05 0 0.00018400038252009785 -2.1986316614666484e-05 0 6.94211930805397e-05 -4.408603789624596e-05 0 0.00015839096355296285 -3.4951942226181434e-05 0 9.0723662484679655e-05 -3.2534266458862737e-05 0 -4.6962117150492691e-05 -3.1948853959499718e-05 0 6.94211930805397e-05 -4.408603789624596e-05 0 9.0723662484679655e-05 -3.2534266458862737e-05 0 9.0723662484679655e-05 -3.2534266458862737e-05 0 2.1767675727321967e-05 -3.6418953756071368e-08 0 0.00031981222028103928 -1.9515033992554071e-07 0 -4.6962117150492691e-05 -3.1948853959499718e-05 0 9.0723662484679655e-05 -3.2534266458862737e-05 0 2.1767675727321967e-05 -3.6418953756071368e-08 0 0.00015839096355296285 -3.4951942226181434e-05 0 9.0723662484679655e-05 -3.2534266458862737e-05 0 0.00031981222028103928 -1.9515033992554071e-07 0 0.00031981222028103928 -1.9515033992554071e-07 0 0.00029872684795239366 -1.8373779598862674e-05 0 0.00061737996026179948 3.8398315922025196e-07 0 0.00015839096355296285 -3.4951942226181434e-05 0 0.00031981222028103928 -1.9515033992554071e-07 0 0.00029872684795239366 -1.8373779598862674e-05 0 0.00015839096355296285 -3.4951942226181434e-05 0 0.00029872684795239366 -1.8373779598862674e-05 0 0.00018400038252009785 -2.1986316614666484e-05 0 0.00017240022713242253 6.0553321027264536e-06 0 0.00018400038252009785 -2.1986316614666484e-05 0 0.00025494857125437373 1.3828668192042658e-05 0 0.00029872684795239366 -1.8373779598862674e-05 0 0.00018400038252009785 -2.1986316614666484e-05 0 0.00025494857125437373 1.3828668192042658e-05 0 0.00014002340617370917 0.00017879116144119595 0 0.00025494857125437373 1.3828668192042658e-05 0 0.00061737996026179948 3.8398315922025196e-07 0 0.00019177021089619408 5.4069421822063966e-05 0 0.00017240022713242253 6.0553321027264536e-06 0 0.00025494857125437373 1.3828668192042658e-05 0 0.00033415154230130855 5.2359270320390839e-05 0 0.00023027046587522593 6.6117953588213578e-05 0 0.00033415154230130855 5.2359270320390839e-05 0 0.00058333489857565531 2.0348252370470824e-05 0 0.00029872684795239366 -1.8373779598862674e-05 0 0.00025494857125437373 1.3828668192042658e-05 0 0.00061737996026179948 3.8398315922025196e-07 0 0.0018791425212522624 0.00086122716998528485 0 0.0018640517917262553 0.00087208394639968752 0 0.0018607721874552986 0.00088583312833733418 0 0.0018791425212522624 0.00086122716998528485 0 0.0018640517917262553 0.00087208394639968752 0 0.0018717403569935105 0.00086997615685000722 0 0.0018640517917262553 0.00087208394639968752 0 0.00185494723609503 0.00087106118563696968 0 0.0018717403569935105 0.00086997615685000722 0 0.0018640517917262553 0.00087208394639968752 0 0.00185494723609503 0.00087106118563696968 0 0.001850332911032201 0.00087602405584831066 0 0.0018640517917262553 0.00087208394639968752 0 0.0018607721874552986 0.00088583312833733418 0 0.001850332911032201 0.00087602405584831066 0 0.00093626869690307277 0.00028026393065160824 0 0.00087901877249126027 0.00021701024998761279 0 0.00083953828928482659 0.0002865381077877571 0 0.0014267217953885234 0.00050447691587195305 0 0.0013563334096165199 0.00053954869003749485 0 0.0020814081382439197 0.00062000562183464245 0 0.0018211677580820325 0.00071366790813946334 0 0.0018042349094040614 0.00056954286507784608 0 0.0018791425212522624 0.00086122716998528485 0 0.0020814081382439197 0.00062000562183464245 0 0.0018211677580820325 0.00071366790813946334 0 0.0020366235831990528 0.0008976148069468825 0 0.0014267217953885234 0.00050447691587195305 0 0.0018211677580820325 0.00071366790813946334 0 0.0016593005900226855 0.00067702754464299723 0 0.0018042349094040614 0.00056954286507784608 0 0.0018211677580820325 0.00071366790813946334 0 0.0016593005900226855 0.00067702754464299723 0 0.0017494578536606117 0.00081459588255557733 0 0.0013781642094776293 0.00087282184956440003 0 0.0012772580804560616 0.00053212444242636326 0 0.0010282902852395415 0.00069208288517342295 0 0.0013781642094776293 0.00087282184956440003 0 0.0010282902852395415 0.00069208288517342295 0 0.0010404250132842383 0.001000052157476071 0 0.0016593005900226855 0.00067702754464299723 0 0.0016237132670036563 0.00086131147840631469 0 0.0017494578536606117 0.00081459588255557733 0 0.0015251781386773999 0.00075013337343183542 0 0.0013567513819746349 0.001075604242454994 0 0.0013781642094776293 0.00087282184956440003 0 0.0011543562128059806 0.0012411466291955082 0 0.0010404250132842383 0.001000052157476071 0 0.0011543562128059806 0.0012411466291955082 0 0.0010404250132842383 0.001000052157476071 0 0.0010631442775077471 0.00118379556046937 0 0.0016237132670036563 0.00086131147840631469 0 0.0017494578536606117 0.00081459588255557733 0 0.0017285878799899806 0.00089318762340097422 0 0.0011543562128059806 0.0012411466291955082 0 0.0010631442775077471 0.00118379556046937 0 0.0010860163558264191 0.0012351045379805417 0 0.0018791425212522624 0.00086122716998528485 0 0.0018211677580820325 0.00071366790813946334 0 0.0017494578536606117 0.00081459588255557733 0 0.0017494578536606117 0.00081459588255557733 0 0.0018644027974482483 0.00091306988810723236 0 0.0017285878799899806 0.00089318762340097422 0 0.0018791425212522624 0.00086122716998528485 0 0.0017494578536606117 0.00081459588255557733 0 0.0018644027974482483 0.00091306988810723236 0 0.0018644027974482483 0.00091306988810723236 0 0.0019750283423058384 0.00090432641877390314 0 0.0018981843598582869 0.00087001349251666915 0 0.0018644027974482483 0.00091306988810723236 0 0.0017285878799899806 0.00089318762340097422 0 0.0016821734414631023 0.0010048419294752832 0 0.0018547960908597513 0.00092683942353281672 0 0.0018599948344393197 0.00093866454527546874 0 0.0016237132670036563 0.00086131147840631469 0 0.0016821734414631023 0.0010048419294752832 0 0.0015327968959830847 0.0010715516238998795 0 0.0013567513819746349 0.001075604242454994 0 0.0016178338804699389 0.0010864496536517243 0 0.0016237132670036563 0.00086131147840631469 0 0.0017285878799899806 0.00089318762340097422 0 0.0016821734414631023 0.0010048419294752832 0 0.0018599948344393197 0.00093866454527546874 0 0.0016178338804699389 0.0010864496536517243 0 0.0019750283423058384 0.00090432641877390314 0 0.0020205978392862892 0.00085488186608008335 0 0.0020481770214704218 0.00088836557285513042 0 0.0019750283423058384 0.00090432641877390314 0 0.0020205978392862892 0.00085488186608008335 0 0.0019646692325879945 0.00085186999408458635 0 0.0020062935614540505 0.00082203371235576065 0 0.0020205978392862892 0.00085488186608008335 0 0.0019646692325879945 0.00085186999408458635 0 0.0019750283423058384 0.00090432641877390314 0 0.0018981843598582869 0.00087001349251666915 0 0.0019646692325879945 0.00085186999408458635 0 0.0019306139926766406 0.00082681590087587895 0 0.0018981843598582869 0.00087001349251666915 0 0.0019646692325879945 0.00085186999408458635 0 0.0019306139926766406 0.00082681590087587895 0 0.0018981843598582869 0.00087001349251666915 0 0.0018937731282880435 0.00084645177729483518 0 0.0018937731282880435 0.00084645177729483518 0 0.0018812393226057143 0.0008764958565203048 0 0.0018730400043703603 0.00084922461522853455 0 0.0018981843598582869 0.00087001349251666915 0 0.0018937731282880435 0.00084645177729483518 0 0.0018812393226057143 0.0008764958565203048 0 0.0018791425212522624 0.00086122716998528485 0 0.0018644027974482483 0.00091306988810723236 0 0.0018812393226057143 0.0008764958565203048 0 0.0018644027974482483 0.00091306988810723236 0 0.0018981843598582869 0.00087001349251666915 0 0.0018812393226057143 0.0008764958565203048 0 0.0018791425212522624 0.00086122716998528485 0 0.0018812393226057143 0.0008764958565203048 0 0.0018717403569935105 0.00086997615685000722 0 0.00185494723609503 0.00087106118563696968 0 0.0018717403569935105 0.00086997615685000722 0 0.0018631619899375873 0.00085895263101080596 0 0.0018812393226057143 0.0008764958565203048 0 0.0018717403569935105 0.00086997615685000722 0 0.0018631619899375873 0.00085895263101080596 0 0.0018812393226057143 0.0008764958565203048 0 0.0018631619899375873 0.00085895263101080596 0 0.0018730400043703603 0.00084922461522853455 0 0.00185494723609503 0.00087106118563696968 0 0.0018631619899375873 0.00085895263101080596 0 0.0018239675345762007 0.00085541398829452279 0 0.0018631619899375873 0.00085895263101080596 0 0.0018730400043703603 0.00084922461522853455 0 0.0018450970066965354 0.00083412432766100098 0 0.0018755826076727105 0.0008252250141962843 0 0.0018937731282880435 0.00084645177729483518 0 0.0018730400043703603 0.00084922461522853455 0 0.0018755826076727105 0.0008252250141962843 0 0.0018730400043703603 0.00084922461522853455 0 0.0018450970066965354 0.00083412432766100098 0 0.0018338744102910762 0.0008199190872177454 0 0.0018450970066965354 0.00083412432766100098 0 0.0018112856758286228 0.00083186031181152324 0 0.0018631619899375873 0.00085895263101080596 0 0.0018450970066965354 0.00083412432766100098 0 0.0018078335024194257 0.00084085453409590231 0 0.001980082140514147 0.00095109915077453094 0 0.0015405091610529139 0.00052612745369238513 0 0.0018631619899375873 0.00085895263101080596 0 0.00180457527601098 0.00080908290305519543 0 0.0018239675345762007 0.00085541398829452279 0 0.0018450970066965354 0.00083412432766100098 0 0.0018078335024194257 0.00084085453409590231 0 0.0018112856758286228 0.00083186031181152324 0 0.0018023241068873411 0.00080760385330383422 0 0.0018036472903884319 0.00084335963059200484 0 0.0018112856758286228 0.00083186031181152324 0 0.0015405091610529139 0.00052612745369238513 0 0.0015568343597206786 0.00060571800147139407 0 0.0018174246130786375 0.00081493888333111493 0 0.0018338744102910762 0.0008199190872177454 0 0.0018112856758286228 0.00083186031181152324 0 0.0008078937902625227 3.7296819629000836e-05 0 0.0006462192955844796 7.0140992029193996e-05 0 0.00073665153833702703 0.00017553794889044552 0 0.0006187179682266401 -6.122670441811432e-05 0 0.0008078937902625227 3.7296819629000836e-05 0 0.0006462192955844796 7.0140992029193996e-05 0 0.0011808189327738889 0.00024547846828225833 0 0.0015405091610529139 0.00052612745369238513 0 0.0015405091610529139 0.00052612745369238513 0 0.00098476745514768462 0.00040222569138312515 0 0.0006462192955844796 7.0140992029193996e-05 0 0.00069867197237882751 0.0001406830806846546 0 0.00064508448384215686 0.00012771169547715243 0 0.00059783064696762741 8.6334786967455307e-06 0 0.00098476745514768462 0.00040222569138312515 0 0.00098476745514768462 0.00040222569138312515 0 0.00057139668085793508 0.00020236300735549019 0 0.00069867197237882751 0.0001406830806846546 0 0.00064508448384215686 0.00012771169547715243 0 0.00066833787287002568 0.00019625331808493171 0 0.00064508448384215686 0.00012771169547715243 0 0.00066833787287002568 0.00019625331808493171 0 0.00059795780155508867 0.00013030926328858576 0 0.00057139668085793508 0.00020236300735549019 0 0.0013898046991758734 0.00059139016271160343 0 0.00095807507769427101 0.00023705038968544544 0 0.00084475460544534834 0.00045157243379095836 0 0.0011465300171145604 0.00045199253968156714 0 0.00098476745514768462 0.00040222569138312515 0 0.0013898046991758734 0.00059139016271160343 0 0.0017794588066943789 0.00085251723641418685 0 0.0018055850551094768 0.00087853227669981184 0 0.0018239675345762007 0.00085541398829452279 0 0.00185494723609503 0.00087106118563696968 0 0.0018055850551094768 0.00087853227669981184 0 0.0018239675345762007 0.00085541398829452279 0 0.0019881055524907736 0.00086380793026147383 0 0.0013898046991758734 0.00059139016271160343 0 0.00180457527601098 0.00080908290305519543 0 0.0017794588066943789 0.00085251723641418685 0 0.0018239675345762007 0.00085541398829452279 0 0.00044775836719515046 5.4650756416367958e-05 0 0.00042154059272677221 0.00012650788457535897 0 0.00047659105013074244 8.7218146628044658e-05 0 0.00044775836719515046 5.4650756416367958e-05 0 0.00047659105013074244 8.7218146628044658e-05 0 0.00050064084590029361 4.8970585183992877e-05 0 0.00048031174803959482 1.0826901703257526e-05 0 0.00044775836719515046 5.4650756416367958e-05 0 0.00050064084590029361 4.8970585183992877e-05 0 0.00053393861058599027 9.3809037015917847e-06 0 0.00048031174803959482 1.0826901703257526e-05 0 0.00050064084590029361 4.8970585183992877e-05 0 0.00053393861058599027 9.3809037015917847e-06 0 0.00050064084590029361 4.8970585183992877e-05 0 0.00056557150001642232 4.550448055759091e-05 0 0.00047659105013074244 8.7218146628044658e-05 0 0.00050064084590029361 4.8970585183992877e-05 0 0.00052405431168127306 8.5240354548879368e-05 0 0.00050064084590029361 4.8970585183992877e-05 0 0.00052405431168127306 8.5240354548879368e-05 0 0.00056557150001642232 4.550448055759091e-05 0 0.0006187179682266401 -6.122670441811432e-05 0 0.0006462192955844796 7.0140992029193996e-05 0 0.00062242161700886822 9.6008107592147776e-05 0 0.00060623301962361086 -6.0895335224040679e-06 0 0.00056557150001642232 4.550448055759091e-05 0 0.00062242161700886822 9.6008107592147776e-05 0 0.0011808189327738889 0.00024547846828225833 0 0.00057888163883764148 -2.5387199893024414e-05 0 0.00056886217082364131 9.0107076637137537e-05 0 0.00056557150001642232 4.550448055759091e-05 0 0.00062242161700886822 9.6008107592147776e-05 0 0.00052405431168127306 8.5240354548879368e-05 0 0.00056886217082364131 9.0107076637137537e-05 0 0.00056557150001642232 4.550448055759091e-05 0 0.00052405431168127306 8.5240354548879368e-05 0 0.00056886217082364131 9.0107076637137537e-05 0 0.00054959804762601358 0.00011615582589307037 0 0.0006462192955844796 7.0140992029193996e-05 0 0.00064508448384215686 0.00012771169547715243 0 0.00062242161700886822 9.6008107592147776e-05 0 0.00057139668085793508 0.00020236300735549019 0 0.00026852546046516267 0.00012881536502307205 0 0.00066833787287002568 0.00019625331808493171 0 0.00055676109756693025 0.00015148934036755813 0 0.00047490925982442177 0.00018288809518117474 0 0.00066833787287002568 0.00019625331808493171 0 0.00059795780155508867 0.00013030926328858576 0 0.00055676109756693025 0.00015148934036755813 0 0.00056886217082364131 9.0107076637137537e-05 0 0.00062242161700886822 9.6008107592147776e-05 0 0.00059795780155508867 0.00013030926328858576 0 0.00064508448384215686 0.00012771169547715243 0 0.00062242161700886822 9.6008107592147776e-05 0 0.00059795780155508867 0.00013030926328858576 0 0.00059795780155508867 0.00013030926328858576 0 0.00055676109756693025 0.00015148934036755813 0 0.00054959804762601358 0.00011615582589307037 0 0.00056886217082364131 9.0107076637137537e-05 0 0.00059795780155508867 0.00013030926328858576 0 0.00054959804762601358 0.00011615582589307037 0 0.00055676109756693025 0.00015148934036755813 0 0.00054959804762601358 0.00011615582589307037 0 0.00050173459344394046 0.00012495689109096693 0 0.00047659105013074244 8.7218146628044658e-05 0 0.00052405431168127306 8.5240354548879368e-05 0 0.00050173459344394046 0.00012495689109096693 0 0.00052405431168127306 8.5240354548879368e-05 0 0.00054959804762601358 0.00011615582589307037 0 0.00050173459344394046 0.00012495689109096693 0 0.00055676109756693025 0.00015148934036755813 0 0.00050173459344394046 0.00012495689109096693 0 0.00047490925982442177 0.00018288809518117474 0 0.00042154059272677221 0.00012650788457535897 0 0.00050173459344394046 0.00012495689109096693 0 0.00047490925982442177 0.00018288809518117474 0 0.00042154059272677221 0.00012650788457535897 0 0.00047659105013074244 8.7218146628044658e-05 0 0.00050173459344394046 0.00012495689109096693 0 0.00015007055509836965 9.6701262274004199e-05 0 0.00012410447360096442 6.3929236879835697e-05 0 0.00014945818769658892 3.2806755781364606e-05 0 0.00020037608251935679 5.9345270816902251e-05 0 0.00015007055509836965 9.6701262274004199e-05 0 0.00014945818769658892 3.2806755781364606e-05 0 0.00057139668085793508 0.00020236300735549019 0 0.00039100997276012256 0.00013120371291140993 0 8.9793900570001316e-05 8.6746767702619533e-05 0 0.00012410447360096442 6.3929236879835697e-05 0 0.00011832968948706623 2.9731338661310174e-05 0 8.9793900570001316e-05 8.6746767702619533e-05 0 0.00015007055509836965 9.6701262274004199e-05 0 0.00012410447360096442 6.3929236879835697e-05 0 0.00012410447360096442 6.3929236879835697e-05 0 0.00011832968948706623 2.9731338661310174e-05 0 0.00014945818769658892 3.2806755781364606e-05 0 0.00011832968948706623 2.9731338661310174e-05 0 0.00014945818769658892 3.2806755781364606e-05 0 0.00014963071238849925 -1.0770213726171311e-05 0 0.00082291361769116773 0.0001544564583914778 0 0.00087901877249126027 0.00021701024998761279 0 0.00079447361608639389 0.00022694973466253312 0 0.00185494723609503 0.00087106118563696968 0 0.0018365353426055063 0.00086631560739283881 0 0.001850332911032201 0.00087602405584831066 0 0.0013898046991758734 0.00059139016271160343 0 0.0013563334096165199 0.00053954869003749485 0 0.00076346613013667831 0.00015369578356275309 0 0.00070116691554966497 0.00026198525506184605 0 0.00079447361608639389 0.00022694973466253312 0 0.00076346613013667831 0.00015369578356275309 0 0.00082291361769116773 0.0001544564583914778 0 0.00079447361608639389 0.00022694973466253312 0 0.00070116691554966497 0.00026198525506184605 0 0.00079447361608639389 0.00022694973466253312 0 0.00076767406993210534 0.00029279380458669866 0 0.00079447361608639389 0.00022694973466253312 0 0.00076767406993210534 0.00029279380458669866 0 0.00083953828928482659 0.0002865381077877571 0 0.00087901877249126027 0.00021701024998761279 0 0.00079447361608639389 0.00022694973466253312 0 0.00083953828928482659 0.0002865381077877571 0 0.00083953828928482659 0.0002865381077877571 0 0.00080833799462951374 0.00033885430816213836 0 0.00085254443107691809 0.00037442876235424278 0 0.00093626869690307277 0.00028026393065160824 0 0.00083953828928482659 0.0002865381077877571 0 0.00085254443107691809 0.00037442876235424278 0 0.00076767406993210534 0.00029279380458669866 0 0.00080833799462951374 0.00033885430816213836 0 0.00076607748429672901 0.00035126575976802466 0 0.00076767406993210534 0.00029279380458669866 0 0.00083953828928482659 0.0002865381077877571 0 0.00080833799462951374 0.00033885430816213836 0 0.00076767406993210534 0.00029279380458669866 0 0.00076607748429672901 0.00035126575976802466 0 0.00071837273399375044 0.00032701065585669152 0 0.00080833799462951374 0.00033885430816213836 0 0.00076607748429672901 0.00035126575976802466 0 0.00079845548224986732 0.00039608800282478463 0 0.00078613841508920717 0.00040428647910186019 0 0.00059885224859926225 0.00020390848750220829 0 0.00028158237294192517 -0.00012221014326893302 0 0.00028937070398741481 -0.00011154416129687332 0 0.00026203735448191584 -8.3667873947657675e-05 0 0.00059885224859926225 0.00020390848750220829 0 0.00046358580392885038 0.00016352396081166498 0 0.00076607748429672901 0.00035126575976802466 0 0.00079260119434320807 0.00038836835418926916 0 0.00071000506547853101 0.00037083787636529376 0 0.00059885224859926225 0.00020390848750220829 0 0.00054341865697777247 2.4135961592381342e-05 0 0.001024920298766835 0.00010834847794536371 0 0.00096325781679880873 0.00011339810724852769 0 0.00099002364223340451 0.00015489797611077885 0 0.00096325781679880873 0.00011339810724852769 0 0.00097486784756415637 0.000162050940988229 0 0.00099002364223340451 0.00015489797611077885 0 0.00086493630190592665 0.00015214684529409975 0 0.00079956594004960751 0.00017172273156705148 0 0.00080833799462951374 0.00033885430816213836 0 0.00079845548224986732 0.00039608800282478463 0 0.00085254443107691809 0.00037442876235424278 0 0.00060295297955919864 0.00015415138914367144 0 0.00063564068431984215 0.00019896563714391164 0 0.00070783254422582481 0.0001106014582705754 0 0.00059885224859926225 0.00020390848750220829 0 0.00079956594004960751 0.00017172273156705148 0 0.00054341865697777247 2.4135961592381342e-05 0 0.00079956594004960751 0.00017172273156705148 0 0.00017758078843604263 2.67213172724447e-06 0 0.00014945818769658892 3.2806755781364606e-05 0 0.00014963071238849925 -1.0770213726171311e-05 0 0.00039100997276012256 0.00013120371291140993 0 0.00040468197645624989 0.00020170953012524709 0 0.00070116691554966497 0.00026198525506184605 0 0.00071837273399375044 0.00032701065585669152 0 0.00064187008221755157 0.00036584558835589488 0 0.00071837273399375044 0.00032701065585669152 0 0.00071000506547853101 0.00037083787636529376 0 0.00064187008221755157 0.00036584558835589488 0 0.00070116691554966497 0.00026198525506184605 0 0.00076767406993210534 0.00029279380458669866 0 0.00071837273399375044 0.00032701065585669152 0 0.00076607748429672901 0.00035126575976802466 0 0.00071837273399375044 0.00032701065585669152 0 0.00071000506547853101 0.00037083787636529376 0 0.00079260119434320807 0.00038836835418926916 0 0.00071000506547853101 0.00037083787636529376 0 0.00068786838853784817 0.00042817779033666657 0 0.00071000506547853101 0.00037083787636529376 0 0.00064187008221755157 0.00036584558835589488 0 0.00068786838853784817 0.00042817779033666657 0 0.00058210593279573169 0.00046555354390885627 0 0.00064187008221755157 0.00036584558835589488 0 0.00068786838853784817 0.00042817779033666657 0 0.00027840102921606257 0.000106475855284559 0 0.00040468197645624989 0.00020170953012524709 0 0.00027840102921606257 0.000106475855284559 0 0.00046358580392885038 0.00016352396081166498 0 0.0001727345588251968 -8.1811954403205534e-05 0 0.00022541852522955 -0.00010187894005888574 0 0.00020631287889249519 -6.8425307790072586e-05 0 0.00022541852522955 -0.00010187894005888574 0 0.00023510569003703936 -5.7477978870823339e-05 0 0.00026203735448191584 -8.3667873947657675e-05 0 0.00022541852522955 -0.00010187894005888574 0 0.00023510569003703936 -5.7477978870823339e-05 0 0.00020631287889249519 -6.8425307790072586e-05 0 0.00019212769376315445 -3.2864398172239729e-05 0 0.00023510569003703936 -5.7477978870823339e-05 0 0.00020631287889249519 -6.8425307790072586e-05 0 0.00019212769376315445 -3.2864398172239729e-05 0 0.0001727345588251968 -8.1811954403205534e-05 0 0.00020631287889249519 -6.8425307790072586e-05 0 0.00028268678266017884 -0.00011027731670951753 0 0.00025896246249644441 -8.4356654185945435e-05 0 0.00031060261369619748 -7.164821303320119e-05 0 0.00054341865697777247 2.4135961592381342e-05 0 0.00064297177926261287 -3.4075740445663803e-05 0 0.001024920298766835 0.00010834847794536371 0 0.00096325781679880873 0.00011339810724852769 0 0.00095690103420124656 1.1922533062194853e-05 0 0.00054341865697777247 2.4135961592381342e-05 0 0.00025440515030480444 -7.5624407011091883e-05 0 0.00028158237294192517 -0.00012221014326893302 0 0.00022541852522955 -0.00010187894005888574 0 0.00026203735448191584 -8.3667873947657675e-05 0 0.00023510569003703936 -5.7477978870823339e-05 0 0.00025896246249644441 -8.4356654185945435e-05 0 0.00026891702002326449 -4.4194775217623402e-05 0 0.00024083139113773927 -6.290083371619314e-05 0 0.00025440515030480444 -7.5624407011091883e-05 0 0.00030192323335735699 -3.0242233994573578e-05 0 0.00026891702002326449 -4.4194775217623402e-05 0 0.00031060261369619748 -7.164821303320119e-05 0 0.00025896246249644441 -8.4356654185945435e-05 0 0.00026891702002326449 -4.4194775217623402e-05 0 0.00031060261369619748 -7.164821303320119e-05 0 0.00088569100186930373 -8.529251582372558e-05 0 0.00083162325313095519 7.6050423073297502e-06 0 0.00095690103420124656 1.1922533062194853e-05 0 0.00033901066614005896 -3.3523193090132822e-05 0 0.00030192323335735699 -3.0242233994573578e-05 0 0.00031060261369619748 -7.164821303320119e-05 0 0.00063505461715109078 -3.3295655916539736e-05 0 0.00064297177926261287 -3.4075740445663803e-05 0 0.00088569100186930373 -8.529251582372558e-05 0 0.00073598799537384684 -0.00010573293669833313 0 0.00083162325313095519 7.6050423073297502e-06 0 0.00096325781679880873 0.00011339810724852769 0 0.00095690103420124656 1.1922533062194853e-05 0 0.0009012789606781033 0.00010001668912814097 0 0.00083162325313095519 7.6050423073297502e-06 0 0.00095690103420124656 1.1922533062194853e-05 0 0.0009012789606781033 0.00010001668912814097 0 0.00083162325313095519 7.6050423073297502e-06 0 0.0009012789606781033 0.00010001668912814097 0 0.00082867627063872972 0.00016491633529954342 0 0.00093258854917085325 0.00014145923885074797 0 0.0009012789606781033 0.00010001668912814097 0 0.00090347898114174986 0.00018294311596134518 0 0.00096325781679880873 0.00011339810724852769 0 0.00093258854917085325 0.00014145923885074797 0 0.0009012789606781033 0.00010001668912814097 0 0.00097486784756415637 0.000162050940988229 0 0.00093258854917085325 0.00014145923885074797 0 0.00090347898114174986 0.00018294311596134518 0 0.00096325781679880873 0.00011339810724852769 0 0.00097486784756415637 0.000162050940988229 0 0.00093258854917085325 0.00014145923885074797 0 0.0009012789606781033 0.00010001668912814097 0 0.00082867627063872972 0.00016491633529954342 0 0.00090347898114174986 0.00018294311596134518 0 0.0014267217953885234 0.00050447691587195305 0 0.0013503975890094 0.0002377532914252087 0 0.0009142313327738567 0.00026123278657957954 0 0.00082867627063872972 0.00016491633529954342 0 0.00090347898114174986 0.00018294311596134518 0 0.0020814081382439197 0.00062000562183464245 0 0.0018724789035298925 0.00033488332707877028 0 0.0018042349094040614 0.00056954286507784608 0 0.0009142313327738567 0.00026123278657957954 0 0.00097486784756415637 0.000162050940988229 0 0.00090347898114174986 0.00018294311596134518 0 0.0009142313327738567 0.00026123278657957954 0 0.00097486784756415637 0.000162050940988229 0 0.00099043373625244593 0.00015483664911640783 0 0.0014267217953885234 0.00050447691587195305 0 0.00079956594004960751 0.00017172273156705148 0 0.0013781642094776293 0.00087282184956440003 0 0.0012772580804560616 0.00053212444242636326 0 0.0016417935376350794 0.00041281884649516321 0 0.0012772580804560616 0.00053212444242636326 0 0.0016417935376350794 0.00041281884649516321 0 0.0012941245962528869 0.0002316179281244667 0 0.0012772580804560616 0.00053212444242636326 0 0.0012941245962528869 0.0002316179281244667 0 0.001002505476273962 0.00037247881201790336 0 0.0012772580804560616 0.00053212444242636326 0 0.001002505476273962 0.00037247881201790336 0 0.0010282902852395415 0.00069208288517342295 0 0.0015251781386773999 0.00075013337343183542 0 0.0016396263560649947 0.00043700163501590532 0 0.0016593005900226855 0.00067702754464299723 0 0.0018042349094040614 0.00056954286507784608 0 0.0016417935376350794 0.00041281884649516321 0 0.0018724789035298925 0.00033488332707877028 0 0.0018042349094040614 0.00056954286507784608 0 0.0016417935376350794 0.00041281884649516321 0 0.0016417935376350794 0.00041281884649516321 0 0.0012941245962528869 0.0002316179281244667 0 0.0014959118356942629 -0.00012391512084790254 0 0.0013503975890094 0.0002377532914252087 0 0.0011484889866532841 -2.7984045922845823e-05 0 0.0018724789035298925 0.00033488332707877028 0 0.0016417935376350794 0.00041281884649516321 0 0.0014959118356942629 -0.00012391512084790254 0 0.0012941245962528869 0.0002316179281244667 0 0.0010607583452501173 -2.8905532370466445e-05 0 0.001002505476273962 0.00037247881201790336 0 0.0012941245962528869 0.0002316179281244667 0 0.0014959118356942629 -0.00012391512084790254 0 0.0010607583452501173 -2.8905532370466445e-05 0 0.00083162325313095519 7.6050423073297502e-06 0 0.00082867627063872972 0.00016491633529954342 0 0.00074264732880199857 6.73247822000789e-05 0 0.0014959118356942629 -0.00012391512084790254 0 0.0010750132698554827 -0.00059731382008152952 0 0.0010607583452501173 -2.8905532370466445e-05 0 0.0011484889866532841 -2.7984045922845823e-05 0 0.00065102708715215267 -0.0002425209785395937 0 0.00083162325313095519 7.6050423073297502e-06 0 0.00074264732880199857 6.73247822000789e-05 0 0.00074195774726370383 -1.5451045657422557e-05 0 0.00073598799537384684 -0.00010573293669833313 0 0.00083162325313095519 7.6050423073297502e-06 0 0.00074195774726370383 -1.5451045657422557e-05 0 0.00073598799537384684 -0.00010573293669833313 0 0.00074195774726370383 -1.5451045657422557e-05 0 0.00065724238858950188 -3.0532598202023668e-05 0 0.00074264732880199857 6.73247822000789e-05 0 0.00074195774726370383 -1.5451045657422557e-05 0 0.00065724238858950188 -3.0532598202023668e-05 0 0.00034931864455271946 -0.00035106690444808189 0 0.00053825325760749039 -0.00019574112710100928 0 0.00037204795650370135 -0.00021703223315711404 0 0.00053825325760749039 -0.00019574112710100928 0 0.00037204795650370135 -0.00021703223315711404 0 0.00044113580374694611 -8.6016954991078619e-05 0 0.00065102708715215267 -0.0002425209785395937 0 0.00062765298978460457 -0.0002112679751671139 0 0.00030614482755799089 -0.00012724228074412593 0 0.00037204795650370135 -0.00021703223315711404 0 0.00044113580374694611 -8.6016954991078619e-05 0 0.00022983548005460792 -0.00031386363627642868 0 0.00030614482755799089 -0.00012724228074412593 0 0.00037204795650370135 -0.00021703223315711404 0 0.00030614482755799089 -0.00012724228074412593 0 0.00023385132286504585 2.9740551453879993e-05 0 0.00041848393036375054 3.3161225832302867e-05 0 0.00030614482755799089 -0.00012724228074412593 0 0.00044113580374694611 -8.6016954991078619e-05 0 0.00041848393036375054 3.3161225832302867e-05 0 0.00076180047125469746 -0.00030163998561689054 0 0.00073900398310446644 0.00018145650520920735 0 0.00041848393036375054 3.3161225832302867e-05 0 0.00062765298978460457 -0.0002112679751671139 0 0.00042017868978011915 1.4201046304461369e-05 0 0.0010607583452501173 -2.8905532370466445e-05 0 0.00076180047125469746 -0.00030163998561689054 0 0.00073900398310446644 0.00018145650520920735 0 0.0010750132698554827 -0.00059731382008152952 0 0.0010607583452501173 -2.8905532370466445e-05 0 0.00076180047125469746 -0.00030163998561689054 0 -3.1648732692198768e-05 -0.00017619880499446515 0 0.00012030178388994173 -0.00014629016732001785 0 -5.1917103467296128e-06 -7.8494266002597903e-05 0 0.00011340661248889195 -0.00026509250940240771 0 -3.1648732692198768e-05 -0.00017619880499446515 0 0.00012030178388994173 -0.00014629016732001785 0 0.00022983548005460792 -0.00031386363627642868 0 0.00030614482755799089 -0.00012724228074412593 0 0.00012030178388994173 -0.00014629016732001785 0 0.00022983548005460792 -0.00031386363627642868 0 0.00011340661248889195 -0.00026509250940240771 0 0.00012030178388994173 -0.00014629016732001785 0 0.00012030178388994173 -0.00014629016732001785 0 0.00023385132286504585 2.9740551453879993e-05 0 3.6964224920336771e-05 0.00023021174594478125 0 0.00030614482755799089 -0.00012724228074412593 0 0.00012030178388994173 -0.00014629016732001785 0 0.00023385132286504585 2.9740551453879993e-05 0 0.00012030178388994173 -0.00014629016732001785 0 2.6010302468689048e-05 1.4966825561043412e-05 0 9.3815705470558919e-05 0.00011416086866997412 0 0.00012030178388994173 -0.00014629016732001785 0 2.6010302468689048e-05 1.4966825561043412e-05 0 -5.1917103467296128e-06 -7.8494266002597903e-05 0 0.00014588773564415888 -0.00013497231026571971 0 -4.3475600797349689e-05 0.00017872435029213287 0 2.6010302468689048e-05 1.4966825561043412e-05 0 -5.1917103467296128e-06 -7.8494266002597903e-05 0 -3.4206426942608448e-05 -9.3284649471789439e-06 0 3.0976088183418476e-05 9.424913582239711e-05 0 9.3815705470558919e-05 0.00011416086866997412 0 3.7046732401978221e-05 0.00016765114834123215 0 2.6010302468689048e-05 1.4966825561043412e-05 0 3.0976088183418476e-05 9.424913582239711e-05 0 -3.4066372232318084e-05 7.2767907838743907e-05 0 2.6010302468689048e-05 1.4966825561043412e-05 0 3.0976088183418476e-05 9.424913582239711e-05 0 9.3815705470558919e-05 0.00011416086866997412 0 3.6964224920336771e-05 0.00023021174594478125 0 0.0002793768721558352 0.00024134094986281001 0 0.00019700877660690257 0.00040501030790927232 0 0.00023385132286504585 2.9740551453879993e-05 0 3.6964224920336771e-05 0.00023021174594478125 0 0.0002793768721558352 0.00024134094986281001 0 0.00023385132286504585 2.9740551453879993e-05 0 0.0002793768721558352 0.00024134094986281001 0 0.00041848393036375054 3.3161225832302867e-05 0 3.6964224920336771e-05 0.00023021174594478125 0 0.00013759473324129868 0.0006331922506789962 0 0.00019700877660690257 0.00040501030790927232 0 0.0002793768721558352 0.00024134094986281001 0 0.0003369879904757256 0.00052537458414246942 0 0.00019700877660690257 0.00040501030790927232 0 0.0003369879904757256 0.00052537458414246942 0 0.00013759473324129868 0.0006331922506789962 0 0.00034114743504601666 0.00074122705060606546 0 0.0003369879904757256 0.00052537458414246942 0 0.00013759473324129868 0.0006331922506789962 0 0.00019700877660690257 0.00040501030790927232 0 -4.3475600797349689e-05 0.00017872435029213287 0 0.00075687188391880284 0.00053478839944772502 0 3.7046732401978221e-05 0.00016765114834123215 0 7.2960784099924779e-05 0.00022822038226839235 0 5.3925689263187802e-05 0.00016497287003561963 0 9.3815705470558919e-05 0.00011416086866997412 0 3.7046732401978221e-05 0.00016765114834123215 0 7.2960784099924779e-05 0.00022822038226839235 0 3.6964224920336771e-05 0.00023021174594478125 0 0.00013759473324129868 0.0006331922506789962 0 -3.7263135626093823e-05 0.0008572067262320708 0 0.0010607583452501173 -2.8905532370466445e-05 0 0.00073900398310446644 0.00018145650520920735 0 0.001002505476273962 0.00037247881201790336 0 0.00073900398310446644 0.00018145650520920735 0 0.00041848393036375054 3.3161225832302867e-05 0 0.00050445147884774038 0.00036628159314186932 0 0.0002793768721558352 0.00024134094986281001 0 0.00041848393036375054 3.3161225832302867e-05 0 0.00050445147884774038 0.00036628159314186932 0 0.00073900398310446644 0.00018145650520920735 0 0.00050445147884774038 0.00036628159314186932 0 0.00073709341321390913 0.0005424897622136964 0 0.0002793768721558352 0.00024134094986281001 0 0.0003369879904757256 0.00052537458414246942 0 0.00050445147884774038 0.00036628159314186932 0 0.0003369879904757256 0.00052537458414246942 0 0.00050445147884774038 0.00036628159314186932 0 0.00053523693317238043 0.00067644975913484025 0 0.0003369879904757256 0.00052537458414246942 0 0.00053523693317238043 0.00067644975913484025 0 0.00034114743504601666 0.00074122705060606546 0 0.00050445147884774038 0.00036628159314186932 0 0.00073709341321390913 0.0005424897622136964 0 0.00053523693317238043 0.00067644975913484025 0 0.00073900398310446644 0.00018145650520920735 0 0.00073709341321390913 0.0005424897622136964 0 0.001002505476273962 0.00037247881201790336 0 0.00073709341321390913 0.0005424897622136964 0 0.001002505476273962 0.00037247881201790336 0 0.0010282902852395415 0.00069208288517342295 0 0.00073709341321390913 0.0005424897622136964 0 0.0010282902852395415 0.00069208288517342295 0 0.00073787799146318722 0.00086140492105447853 0 0.00073787799146318722 0.00086140492105447853 0 0.0010404250132842383 0.001000052157476071 0 0.00082270065309529095 0.0010856032445856624 0 0.0010282902852395415 0.00069208288517342295 0 0.00073787799146318722 0.00086140492105447853 0 0.0010404250132842383 0.001000052157476071 0 0.0010404250132842383 0.001000052157476071 0 0.00082270065309529095 0.0010856032445856624 0 0.0010631442775077471 0.00118379556046937 0 0.00082270065309529095 0.0010856032445856624 0 0.0010631442775077471 0.00118379556046937 0 0.00072691420334217009 0.0013951311884201067 0 0.0010806423214112372 0.0011814856592296677 0 0.00079647373941876376 0.0013813858207792158 0 0.0010631442775077471 0.00118379556046937 0 0.0010860163558264191 0.0012351045379805417 0 0.0010394169096218243 0.0012594375982861493 0 0.00061282471778506987 0.0011584835916446329 0 0.00046202620326879013 0.0011238760535572957 0 0.00041133461905833391 0.0015933604022853518 0 0.00082270065309529095 0.0010856032445856624 0 0.00061282471778506987 0.0011584835916446329 0 0.00072691420334217009 0.0013951311884201067 0 0.00073787799146318722 0.00086140492105447853 0 0.00082270065309529095 0.0010856032445856624 0 0.00061282471778506987 0.0011584835916446329 0 0.00046202620326879013 0.0011238760535572957 0 0.00048776796430069735 0.00092241588444215417 0 0.00038129285473769136 0.00099149239974929623 0 0.00061282471778506987 0.0011584835916446329 0 0.00046202620326879013 0.0011238760535572957 0 0.00048776796430069735 0.00092241588444215417 0 0.00048776796430069735 0.00092241588444215417 0 0.00033679724265383958 0.00089361564925322491 0 0.00038129285473769136 0.00099149239974929623 0 0.00073787799146318722 0.00086140492105447853 0 0.00061282471778506987 0.0011584835916446329 0 0.00048776796430069735 0.00092241588444215417 0 0.00073787799146318722 0.00086140492105447853 0 0.00048776796430069735 0.00092241588444215417 0 0.00053523693317238043 0.00067644975913484025 0 0.00073709341321390913 0.0005424897622136964 0 0.00073787799146318722 0.00086140492105447853 0 0.00053523693317238043 0.00067644975913484025 0 0.00048776796430069735 0.00092241588444215417 0 0.00053523693317238043 0.00067644975913484025 0 0.00034114743504601666 0.00074122705060606546 0 0.00034114743504601666 0.00074122705060606546 0 0.00019562744727583524 0.000809990478073315 0 0.00033679724265383958 0.00089361564925322491 0 0.00013759473324129868 0.0006331922506789962 0 0.00019562744727583524 0.000809990478073315 0 -3.7263135626093823e-05 0.0008572067262320708 0 0.00013759473324129868 0.0006331922506789962 0 0.00034114743504601666 0.00074122705060606546 0 0.00019562744727583524 0.000809990478073315 0 0.00019562744727583524 0.000809990478073315 0 0.00024922640785445622 0.0009803060523271422 0 -3.7263135626093823e-05 0.0008572067262320708 0 0.00075687188391880284 0.00053478839944772502 0 0.00058170500730507621 0.00089937515482741456 0 0.00024922640785445622 0.0009803060523271422 0 -3.7263135626093823e-05 0.0008572067262320708 0 0.00027873310441035436 0.0011000101932210299 0 0.00019562744727583524 0.000809990478073315 0 0.00024922640785445622 0.0009803060523271422 0 0.00033679724265383958 0.00089361564925322491 0 0.00048776796430069735 0.00092241588444215417 0 0.00034114743504601666 0.00074122705060606546 0 0.00033679724265383958 0.00089361564925322491 0 0.00024922640785445622 0.0009803060523271422 0 0.00033679724265383958 0.00089361564925322491 0 0.00038129285473769136 0.00099149239974929623 0 0.00075687188391880284 0.00053478839944772502 0 0.00079473610285221241 0.00034024692034829784 0 0.0014586487293882862 0.00047895834316497623 0 0.0015505211887038455 0.00048364356714340745 0 0.0015712286849935901 0.0005629547956001918 0 0.0014586487293882862 0.00047895834316497623 0 0.0015361824111474766 0.00040297384428836572 0 0.0015505211887038455 0.00048364356714340745 0 0.00075687188391880284 0.00053478839944772502 0 0.0016261490867573254 0.00031119054888093558 0 0.0014586487293882862 0.00047895834316497623 0 0.0014669893027921134 0.0003228390440893588 0 0.0015361824111474766 0.00040297384428836572 0 0.0014433899579231473 0.00053871489273081758 0 0.0013268189629524762 0.00044918472807087343 0 0.0014669893027921134 0.0003228390440893588 0 0.00028313479588821199 0.001102181323877179 0 0.00033030650597503877 0.0011372643765706861 0 0.00041133461905833391 0.0015933604022853518 0 0.00046202620326879013 0.0011238760535572957 0 0.00033030650597503877 0.0011372643765706861 0 0.00041133461905833391 0.0015933604022853518 0 0.00028027561671497805 0.0011018236952425836 0 0.00033030650597503877 0.0011372643765706861 0 0.00034097824799295443 0.0010671102893158482 0 0.00058170500730507621 0.00089937515482741456 0 0.00055051954046973046 0.00090713422988046024 0 0.00046202620326879013 0.0011238760535572957 0 0.00033030650597503877 0.0011372643765706861 0 0.00034097824799295443 0.0010671102893158482 0 0.00046202620326879013 0.0011238760535572957 0 0.00034097824799295443 0.0010671102893158482 0 0.00038129285473769136 0.00099149239974929623 0 0.00024922640785445622 0.0009803060523271422 0 0.00034097824799295443 0.0010671102893158482 0 0.00038129285473769136 0.00099149239974929623 0 0.00024922640785445622 0.0009803060523271422 0 0.00028027561671497805 0.0011018236952425836 0 0.00034097824799295443 0.0010671102893158482 0 0.00049968827500752237 0.00094898343794222093 0 0.00058170500730507621 0.00089937515482741456 0 0.00058170500730507621 0.00089937515482741456 0 0.0011170411831003121 0.00092365519893360701 0 0.0013268189629524762 0.00044918472807087343 0 0.0013776765782317723 0.00030424202905653835 0 0.0012907885311720568 0.00026639739975897498 0 0.0013776765782317723 0.00030424202905653835 0 0.0012907885311720568 0.00026639739975897498 0 0.0014227702586204381 0.00018778721595617221 0 0.0013268189629524762 0.00044918472807087343 0 0.0013776765782317723 0.00030424202905653835 0 0.0014669893027921134 0.0003228390440893588 0 0.0014669893027921134 0.0003228390440893588 0 0.0015041630790565883 0.00023216144775801403 0 0.0015813296325956326 0.00030045884082212696 0 0.0014669893027921134 0.0003228390440893588 0 0.0015041630790565883 0.00023216144775801403 0 0.0014227702586204381 0.00018778721595617221 0 0.0013776765782317723 0.00030424202905653835 0 0.0014669893027921134 0.0003228390440893588 0 0.0014227702586204381 0.00018778721595617221 0 0.0015041630790565883 0.00023216144775801403 0 0.0014227702586204381 0.00018778721595617221 0 0.0015427704253989235 0.00011742078752251478 0 0.0016859082247145192 0.00043182071148687579 0 0.0018699200096921199 0.00034466019120623926 0 0.0011170411831003121 0.00092365519893360701 0 0.0016859082247145192 0.00043182071148687579 0 0.0015729800270150788 0.00092889762804964358 0 0.0018346955137393314 0.00076110132105061375 0 0.0015166514066877357 0.0006877632065040943 0 0.0018346955137393314 0.00076110132105061375 0 0.0015166514066877357 0.0006877632065040943 0 0.0017892196906818196 0.00056670055718211886 0 0.0021439638108797076 0.00085376344854100892 0 0.0021040227375830082 0.00084510913948891459 0 0.0020534047064854296 0.00089524613349182159 0 0.0010355357188417352 0.0012930151447844442 0 0.0010698930776352749 0.0012942668170160085 0 0.0010454548648334099 0.0012818334565248186 0 0.0010285782257046232 0.0012760772512837571 0 0.0010355357188417352 0.0012930151447844442 0 0.0010454548648334099 0.0012818334565248186 0 0.0011170411831003121 0.00092365519893360701 0 0.0017194269943345852 0.00093467972702963203 0 0.0021040227375830082 0.00084510913948891459 0 0.0020736534879519917 0.0008499205022671093 0 0.0020534047064854296 0.00089524613349182159 0 0.0017194269943345852 0.00093467972702963203 0 0.0016178338804699389 0.0010864496536517243 0 0.0020205978392862892 0.00085488186608008335 0 0.0020736534879519917 0.0008499205022671093 0 0.0020520387753509505 0.00082080980614242184 0 0.0020205978392862892 0.00085488186608008335 0 0.0020736534879519917 0.0008499205022671093 0 0.0020481770214704218 0.00088836557285513042 0 0.0020269495059264801 0.00075984525986412868 0 0.0016178338804699389 0.0010864496536517243 0 0.0011543562128059806 0.0012411466291955082 0 0.0010698930776352749 0.0012942668170160085 0 0.0010787315036604385 0.001259552347227993 0 0.0010575709642543418 0.0012748529031175633 0 0.0010394169096218243 0.0012594375982861493 0 0.0010454548648334099 0.0012818334565248186 0 0.0010698930776352749 0.0012942668170160085 0 0.0010575709642543418 0.0012748529031175633 0 0.0010454548648334099 0.0012818334565248186 0 0.0010698930776352749 0.0012942668170160085 0 0.0010575709642543418 0.0012748529031175633 0 0.0010787315036604385 0.001259552347227993 0 0.0011543562128059806 0.0012411466291955082 0 0.0010787315036604385 0.001259552347227993 0 0.0010860163558264191 0.0012351045379805417 0 0.0010787315036604385 0.001259552347227993 0 0.0010860163558264191 0.0012351045379805417 0 0.0010394169096218243 0.0012594375982861493 0 0.0010575709642543418 0.0012748529031175633 0 0.0010787315036604385 0.001259552347227993 0 0.0010394169096218243 0.0012594375982861493 0 0.00061282471778506987 0.0011584835916446329 0 0.00041133461905833391 0.0015933604022853518 0 0.00072691420334217009 0.0013951311884201067 0 0.0011170411831003121 0.00092365519893360701 0 0.00079647373941876376 0.0013813858207792158 0 0.0010285782257046232 0.0012760772512837571 0 0.0010394169096218243 0.0012594375982861493 0 0.0010454548648334099 0.0012818334565248186 0 0.0018084303432763552 0.00028562504458505339 0 0.0019009713877669472 0.00021721766854251195 0 0.001787060599762609 0.00022484964650630032 0 0.0018084303432763552 0.00028562504458505339 0 0.0018671204729042872 0.0003091556953909405 0 0.0019009713877669472 0.00021721766854251195 0 0.0018084303432763552 0.00028562504458505339 0 0.001787060599762609 0.00022484964650630032 0 0.0017201463338895487 0.00027995252659581793 0 0.0018084303432763552 0.00028562504458505339 0 0.001831243463049709 0.00034710315153363723 0 0.0017661251036172696 0.00034383600570690623 0 0.0018084303432763552 0.00028562504458505339 0 0.0018671204729042872 0.0003091556953909405 0 0.001831243463049709 0.00034710315153363723 0 0.0018671204729042872 0.0003091556953909405 0 0.0019204491677795976 0.00031151460823438521 0 0.0018921682227343328 0.0003539936915995227 0 0.0021581589907380756 0.00042979168777804595 0 0.0022096733391917239 0.00049667155357903771 0 0.0018671204729042872 0.0003091556953909405 0 0.0019204491677795976 0.00031151460823438521 0 0.0019009713877669472 0.00021721766854251195 0 0.0019204491677795976 0.00031151460823438521 0 0.0019009713877669472 0.00021721766854251195 0 0.0019783268313865498 0.00031930937401229757 0 0.002412014693944435 0.00063698844953861652 0 0.0024059806056795112 0.00062690226505646802 0 0.0024062236016578085 0.00063796036257782087 0 0.002412014693944435 0.00063698844953861652 0 0.0024080636345791577 0.00064936350426186818 0 0.0024157946285669955 0.0006459422345851337 0 0.002412014693944435 0.00063698844953861652 0 0.0024062236016578085 0.00063796036257782087 0 0.0024080636345791577 0.00064936350426186818 0 0.001787060599762609 0.00022484964650630032 0 0.0017614730174368282 0.00015993997424385687 0 0.0018284035112206638 0.00011991310093151316 0 0.0021581589907380756 0.00042979168777804595 0 0.0020988082550250234 0.0003471539844614355 0 0.0019009713877669472 0.00021721766854251195 0 0.001787060599762609 0.00022484964650630032 0 0.0018284035112206638 0.00011991310093151316 0 0.0017614730174368282 0.00015993997424385687 0 0.0016914951937485178 0.00018433539999025263 0 0.0017380638755317445 0.00011140854092721439 0 0.001787060599762609 0.00022484964650630032 0 0.0016914951937485178 0.00018433539999025263 0 0.0017201463338895487 0.00027995252659581793 0 0.001787060599762609 0.00022484964650630032 0 0.0017614730174368282 0.00015993997424385687 0 0.0016914951937485178 0.00018433539999025263 0 0.0015573575499844619 0.00023540192080424892 0 0.0018699200096921199 0.00034466019120623926 0 0.0016914951937485178 0.00018433539999025263 0 0.001599370224373155 0.00012544663290217308 0 0.001677218640571703 0.00012395394736346279 0 0.0016914951937485178 0.00018433539999025263 0 0.0016241349180611871 0.00028128965890688462 0 0.001599370224373155 0.00012544663290217308 0 0.0015041630790565883 0.00023216144775801403 0 0.0015813296325956326 0.00030045884082212696 0 0.0015427704253989235 0.00011742078752251478 0 0.0014669893027921134 0.0003228390440893588 0 0.0015813296325956326 0.00030045884082212696 0 0.0015361824111474766 0.00040297384428836572 0 0.0016914951937485178 0.00018433539999025263 0 0.0016241349180611871 0.00028128965890688462 0 0.0017201463338895487 0.00027995252659581793 0 0.0016241349180611871 0.00028128965890688462 0 0.0017201463338895487 0.00027995252659581793 0 0.0016988094500563014 0.00036609652960134065 0 0.0018084303432763552 0.00028562504458505339 0 0.0017201463338895487 0.00027995252659581793 0 0.0017661251036172696 0.00034383600570690623 0 0.0017201463338895487 0.00027995252659581793 0 0.0016988094500563014 0.00036609652960134065 0 0.0017661251036172696 0.00034383600570690623 0 0.0016988094500563014 0.00036609652960134065 0 0.0017498326623111538 0.00038367252572450657 0 0.0017661251036172696 0.00034383600570690623 0 0.0016988094500563014 0.00036609652960134065 0 0.001739967892509405 0.00043255539615867286 0 0.0016354572455779873 0.00046290229021462583 0 0.0016988094500563014 0.00036609652960134065 0 0.001739967892509405 0.00043255539615867286 0 0.0017498326623111538 0.00038367252572450657 0 0.001739967892509405 0.00043255539615867286 0 0.0017498326623111538 0.00038367252572450657 0 0.0017946670464530929 0.00039280479776802722 0 0.0015573575499844619 0.00023540192080424892 0 0.0016495279012486779 0.00048263775519742251 0 0.0015813296325956326 0.00030045884082212696 0 0.0015361824111474766 0.00040297384428836572 0 0.0016354572455779873 0.00046290229021462583 0 0.0016241349180611871 0.00028128965890688462 0 0.0016988094500563014 0.00036609652960134065 0 0.0016354572455779873 0.00046290229021462583 0 0.0015361824111474766 0.00040297384428836572 0 0.0015505211887038455 0.00048364356714340745 0 0.0016354572455779873 0.00046290229021462583 0 0.0015505211887038455 0.00048364356714340745 0 0.0016354572455779873 0.00046290229021462583 0 0.0016377204728608569 0.00052233576554642006 0 0.0015505211887038455 0.00048364356714340745 0 0.0016377204728608569 0.00052233576554642006 0 0.0015712286849935901 0.0005629547956001918 0 0.001739967892509405 0.00043255539615867286 0 0.0017034842785067518 0.00049204997043044785 0 0.0017728651421596289 0.000492267762245344 0 0.001739967892509405 0.00043255539615867286 0 0.0016354572455779873 0.00046290229021462583 0 0.0017034842785067518 0.00049204997043044785 0 0.0016354572455779873 0.00046290229021462583 0 0.0016377204728608569 0.00052233576554642006 0 0.0017034842785067518 0.00049204997043044785 0 0.0016377204728608569 0.00052233576554642006 0 0.0017034842785067518 0.00049204997043044785 0 0.0017145429202515281 0.00054940175469050023 0 0.0017728651421596289 0.000492267762245344 0 0.0017837479344603694 0.00055255833793678725 0 0.0017145429202515281 0.00054940175469050023 0 0.0017034842785067518 0.00049204997043044785 0 0.0017728651421596289 0.000492267762245344 0 0.0017145429202515281 0.00054940175469050023 0 0.0017728651421596289 0.000492267762245344 0 0.0018303384343195889 0.00050181643177904653 0 0.0017837479344603694 0.00055255833793678725 0 0.0018303384343195889 0.00050181643177904653 0 0.0018814075654245838 0.00045550738208576712 0 0.0018940531730509771 0.00051781392626071895 0 0.0018303384343195889 0.00050181643177904653 0 0.0018940531730509771 0.00051781392626071895 0 0.0018410364411556644 0.00055578348220612574 0 0.0018303384343195889 0.00050181643177904653 0 0.0018410364411556644 0.00055578348220612574 0 0.0017837479344603694 0.00055255833793678725 0 0.0018303384343195889 0.00050181643177904653 0 0.0018132805268878281 0.00044493194092540467 0 0.0018814075654245838 0.00045550738208576712 0 0.0018132805268878281 0.00044493194092540467 0 0.0018596885607673566 0.00040051745672755012 0 0.0018814075654245838 0.00045550738208576712 0 0.0017728651421596289 0.000492267762245344 0 0.0018303384343195889 0.00050181643177904653 0 0.0018132805268878281 0.00044493194092540467 0 0.001739967892509405 0.00043255539615867286 0 0.0017728651421596289 0.000492267762245344 0 0.0018132805268878281 0.00044493194092540467 0 0.001739967892509405 0.00043255539615867286 0 0.0018132805268878281 0.00044493194092540467 0 0.0017946670464530929 0.00039280479776802722 0 0.0017946670464530929 0.00039280479776802722 0 0.0018596885607673566 0.00040051745672755012 0 0.001831243463049709 0.00034710315153363723 0 0.0018132805268878281 0.00044493194092540467 0 0.0017946670464530929 0.00039280479776802722 0 0.0018596885607673566 0.00040051745672755012 0 0.0018671204729042872 0.0003091556953909405 0 0.001831243463049709 0.00034710315153363723 0 0.0018921682227343328 0.0003539936915995227 0 0.0018596885607673566 0.00040051745672755012 0 0.001831243463049709 0.00034710315153363723 0 0.0018921682227343328 0.0003539936915995227 0 0.0017946670464530929 0.00039280479776802722 0 0.001831243463049709 0.00034710315153363723 0 0.0017661251036172696 0.00034383600570690623 0 0.0017498326623111538 0.00038367252572450657 0 0.0017946670464530929 0.00039280479776802722 0 0.0017661251036172696 0.00034383600570690623 0 0.0019529557521895111 0.00034820629342006466 0 0.0019118755070214833 0.00040657039664354871 0 0.0019644531732717903 0.00046490758462268487 0 0.0019204491677795976 0.00031151460823438521 0 0.0019529557521895111 0.00034820629342006466 0 0.0019783268313865498 0.00031930937401229757 0 0.0021088290071547876 0.00045787749618323239 0 0.0022096733391917239 0.00049667155357903771 0 0.0019204491677795976 0.00031151460823438521 0 0.0019529557521895111 0.00034820629342006466 0 0.0018921682227343328 0.0003539936915995227 0 0.0019529557521895111 0.00034820629342006466 0 0.0018921682227343328 0.0003539936915995227 0 0.0019118755070214833 0.00040657039664354871 0 0.0018596885607673566 0.00040051745672755012 0 0.0018921682227343328 0.0003539936915995227 0 0.0019118755070214833 0.00040657039664354871 0 0.0018596885607673566 0.00040051745672755012 0 0.0019118755070214833 0.00040657039664354871 0 0.0018814075654245838 0.00045550738208576712 0 0.0019118755070214833 0.00040657039664354871 0 0.0019644531732717903 0.00046490758462268487 0 0.0018814075654245838 0.00045550738208576712 0 0.0019644531732717903 0.00046490758462268487 0 0.0018814075654245838 0.00045550738208576712 0 0.0018940531730509771 0.00051781392626071895 0 0.0019644531732717903 0.00046490758462268487 0 0.0019518293833367961 0.00055338564306993106 0 0.0020440742967089667 0.00056427238464350118 0 0.0019644531732717903 0.00046490758462268487 0 0.0018940531730509771 0.00051781392626071895 0 0.0019518293833367961 0.00055338564306993106 0 0.0019518293833367961 0.00055338564306993106 0 0.0019675355867762052 0.00063410127446109641 0 0.0018907933629913234 0.00058734416153199476 0 0.0019518293833367961 0.00055338564306993106 0 0.0019675355867762052 0.00063410127446109641 0 0.0020440742967089667 0.00056427238464350118 0 0.0019675355867762052 0.00063410127446109641 0 0.0018907933629913234 0.00058734416153199476 0 0.001885440090918767 0.00066244313166026686 0 0.0018940531730509771 0.00051781392626071895 0 0.0018907933629913234 0.00058734416153199476 0 0.0018410364411556644 0.00055578348220612574 0 0.0018940531730509771 0.00051781392626071895 0 0.0019518293833367961 0.00055338564306993106 0 0.0018907933629913234 0.00058734416153199476 0 0.0018907933629913234 0.00058734416153199476 0 0.0018410364411556644 0.00055578348220612574 0 0.0018065586956195925 0.00062005210899414526 0 0.0017837479344603694 0.00055255833793678725 0 0.0018065586956195925 0.00062005210899414526 0 0.0017373869203121408 0.00059600845981432244 0 0.0018410364411556644 0.00055578348220612574 0 0.0017837479344603694 0.00055255833793678725 0 0.0018065586956195925 0.00062005210899414526 0 0.0018907933629913234 0.00058734416153199476 0 0.0018065586956195925 0.00062005210899414526 0 0.001885440090918767 0.00066244313166026686 0 0.00073989175626442305 0.00037598720425113466 0 0.00099386828515520562 0.00047906085796359645 0 0.0018065586956195925 0.00062005210899414526 0 0.0018175404723427657 0.00074699874110232764 0 0.0016921940715599448 0.0006528932962077392 0 0.0018065586956195925 0.00062005210899414526 0 0.0018175404723427657 0.00074699874110232764 0 0.001885440090918767 0.00066244313166026686 0 0.0018175404723427657 0.00074699874110232764 0 0.001943849437681303 0.00072643030747669398 0 0.0019948784146681885 0.00081081721960364801 0 0.0018175404723427657 0.00074699874110232764 0 0.001943849437681303 0.00072643030747669398 0 0.001885440090918767 0.00066244313166026686 0 0.001943849437681303 0.00072643030747669398 0 0.002005254524146518 0.00076192138181916866 0 0.0020213432470136258 0.00071824215011996996 0 0.001943849437681303 0.00072643030747669398 0 0.0019948784146681885 0.00081081721960364801 0 0.002005254524146518 0.00076192138181916866 0 0.0019675355867762052 0.00063410127446109641 0 0.001943849437681303 0.00072643030747669398 0 0.0020213432470136258 0.00071824215011996996 0 0.0019675355867762052 0.00063410127446109641 0 0.001943849437681303 0.00072643030747669398 0 0.001885440090918767 0.00066244313166026686 0 9.0226934464913747e-05 0.00019430383842163659 0 -0.00014591609699948457 0.00011285765084387517 0 0.00079473610285221241 0.00034024692034829784 0 0.00099386828515520562 0.00047906085796359645 0 3.7046732401978221e-05 0.00016765114834123215 0 5.3925689263187802e-05 0.00016497287003561963 0 0.00013188430322700836 0.00024106274038576965 0 0.0016377204728608569 0.00052233576554642006 0 0.0015712286849935901 0.0005629547956001918 0 0.0016544785209913382 0.0005838390291076468 0 5.3925689263187802e-05 0.00016497287003561963 0 0.00016483573553156624 0.00021414036202349723 0 0.00013188430322700836 0.00024106274038576965 0 0.0015712286849935901 0.0005629547956001918 0 0.0016921940715599448 0.0006528932962077392 0 0.0016544785209913382 0.0005838390291076468 0 0.0016921940715599448 0.0006528932962077392 0 0.0016544785209913382 0.0005838390291076468 0 0.0016967455422763845 0.00059899123161900381 0 0.0016377204728608569 0.00052233576554642006 0 0.0016544785209913382 0.0005838390291076468 0 0.0017145429202515281 0.00054940175469050023 0 0.0016544785209913382 0.0005838390291076468 0 0.0017145429202515281 0.00054940175469050023 0 0.0016967455422763845 0.00059899123161900381 0 0.0017145429202515281 0.00054940175469050023 0 0.0017373869203121408 0.00059600845981432244 0 0.0016967455422763845 0.00059899123161900381 0 0.0017837479344603694 0.00055255833793678725 0 0.0017145429202515281 0.00054940175469050023 0 0.0017373869203121408 0.00059600845981432244 0 0.0016921940715599448 0.0006528932962077392 0 0.0017373869203121408 0.00059600845981432244 0 0.0016967455422763845 0.00059899123161900381 0 0.0018065586956195925 0.00062005210899414526 0 0.0016921940715599448 0.0006528932962077392 0 0.0017373869203121408 0.00059600845981432244 0 0.00033768983134903617 0.00033373202137420552 0 0.00016483573553156624 0.00021414036202349723 0 0.00013188430322700836 0.00024106274038576965 0 0.00073989175626442305 0.00037598720425113466 0 -0.00014591609699948457 0.00011285765084387517 0 -0.00026121309051290429 1.9426520016195235e-05 0 -0.00017136640301915624 1.7428933722706578e-05 0 -0.00014288856627576841 9.6733907630281883e-05 0 -0.00017136640301915624 1.7428933722706578e-05 0 -0.00014288856627576841 9.6733907630281883e-05 0 -0.00010404634495315018 4.4722741017662599e-05 0 -0.00017136640301915624 1.7428933722706578e-05 0 -0.00010404634495315018 4.4722741017662599e-05 0 -0.00013519756510657833 -2.5823683866045223e-05 0 3.7046732401978221e-05 0.00016765114834123215 0 -0.00014288856627576841 9.6733907630281883e-05 0 -6.1278171243889937e-05 9.5370960112331073e-05 0 -0.00014288856627576841 9.6733907630281883e-05 0 -6.1278171243889937e-05 9.5370960112331073e-05 0 -0.00010404634495315018 4.4722741017662599e-05 0 -6.1278171243889937e-05 9.5370960112331073e-05 0 -0.00010404634495315018 4.4722741017662599e-05 0 -3.4066372232318084e-05 7.2767907838743907e-05 0 -0.00010404634495315018 4.4722741017662599e-05 0 -3.4066372232318084e-05 7.2767907838743907e-05 0 -8.6967941180220236e-05 -4.5483572305939755e-06 0 2.6010302468689048e-05 1.4966825561043412e-05 0 -3.4066372232318084e-05 7.2767907838743907e-05 0 -3.4206426942608448e-05 -9.3284649471789439e-06 0 -3.4066372232318084e-05 7.2767907838743907e-05 0 -3.4206426942608448e-05 -9.3284649471789439e-06 0 -8.6967941180220236e-05 -4.5483572305939755e-06 0 3.7046732401978221e-05 0.00016765114834123215 0 -6.1278171243889937e-05 9.5370960112331073e-05 0 -3.4066372232318084e-05 7.2767907838743907e-05 0 3.0976088183418476e-05 9.424913582239711e-05 0 3.7046732401978221e-05 0.00016765114834123215 0 -3.4066372232318084e-05 7.2767907838743907e-05 0 -5.1917103467296128e-06 -7.8494266002597903e-05 0 -3.4206426942608448e-05 -9.3284649471789439e-06 0 -8.6083950083731085e-05 -7.7840213648406529e-05 0 -0.00010404634495315018 4.4722741017662599e-05 0 -8.6967941180220236e-05 -4.5483572305939755e-06 0 -0.00013519756510657833 -2.5823683866045223e-05 0 -3.4206426942608448e-05 -9.3284649471789439e-06 0 -8.6967941180220236e-05 -4.5483572305939755e-06 0 -8.6083950083731085e-05 -7.7840213648406529e-05 0 -8.6967941180220236e-05 -4.5483572305939755e-06 0 -8.6083950083731085e-05 -7.7840213648406529e-05 0 -0.00013519756510657833 -2.5823683866045223e-05 0 -0.00026121309051290429 1.9426520016195235e-05 0 -0.00017136640301915624 1.7428933722706578e-05 0 -0.00020421458518822988 -4.5464564963506693e-05 0 -0.00013519756510657833 -2.5823683866045223e-05 0 -0.00020421458518822988 -4.5464564963506693e-05 0 -0.00016429743324322351 -0.00010541960477938751 0 -8.6083950083731085e-05 -7.7840213648406529e-05 0 -0.00013519756510657833 -2.5823683866045223e-05 0 -0.00016429743324322351 -0.00010541960477938751 0 -0.00017136640301915624 1.7428933722706578e-05 0 -0.00013519756510657833 -2.5823683866045223e-05 0 -0.00020421458518822988 -4.5464564963506693e-05 0 -0.00020421458518822988 -4.5464564963506693e-05 0 -0.00016429743324322351 -0.00010541960477938751 0 -0.0002196466987231823 -0.00010202063578117627 0 -0.00020601567637288686 -0.00015320918032374879 0 -0.00016429743324322351 -0.00010541960477938751 0 -0.0002196466987231823 -0.00010202063578117627 0 -0.0001503597715906701 -0.00018990572225185067 0 -0.00020601567637288686 -0.00015320918032374879 0 -0.00016429743324322351 -0.00010541960477938751 0 -0.0001503597715906701 -0.00018990572225185067 0 -0.00016429743324322351 -0.00010541960477938751 0 -0.00010695422882181464 -0.00015607081571578489 0 -8.6083950083731085e-05 -7.7840213648406529e-05 0 -0.00016429743324322351 -0.00010541960477938751 0 -0.00010695422882181464 -0.00015607081571578489 0 -9.3991601613459044e-05 -0.00022513749895571554 0 -3.1648732692198768e-05 -0.00017619880499446515 0 -0.00010695422882181464 -0.00015607081571578489 0 -3.1648732692198768e-05 -0.00017619880499446515 0 -5.1917103467296128e-06 -7.8494266002597903e-05 0 -8.6083950083731085e-05 -7.7840213648406529e-05 0 -3.1648732692198768e-05 -0.00017619880499446515 0 -8.6083950083731085e-05 -7.7840213648406529e-05 0 -0.00010695422882181464 -0.00015607081571578489 0 0.001028821297683216 0.00038919776362946254 0 0.0016135961507271657 0.00080109167238823773 0 0.0015934238535052082 0.00075405762566323068 0 0.00073989175626442305 0.00037598720425113466 0 0.001955451643937082 0.00077993546316175888 0 0.00073989175626442305 0.00037598720425113466 0 0.00046914552694645828 0.00026561981883219674 0 0.001028821297683216 0.00038919776362946254 0 0.0015934238535052082 0.00075405762566323068 0 0.0016252907901310198 0.00063810761442943404 0 -0.00026121309051290429 1.9426520016195235e-05 0 -0.00032247276516951328 -7.3651560470261297e-05 0 -0.00035774622654679677 -7.3772795854939064e-05 0 -0.00032247276516951328 -7.3651560470261297e-05 0 -0.00026157027342394812 -7.4563016746067529e-05 0 -0.00030353840238094563 -0.00011122727554437482 0 -0.00032247276516951328 -7.3651560470261297e-05 0 -0.00036028493350013629 -8.096647102238399e-05 0 -0.00035774622654679677 -7.3772795854939064e-05 0 -0.00032247276516951328 -7.3651560470261297e-05 0 -0.0003634917085142468 -8.491265398123088e-05 0 -0.00033222588481657636 -0.00010173110933400736 0 -0.00034562744724905359 -1.9684512391726745e-05 0 0.00022671387011076561 0.0001297743250458767 0 0.0015934238535052082 0.00075405762566323068 0 0.0016252907901310198 0.00063810761442943404 0 0.0016743645584920538 0.00083244127997486475 0 0.00041445644755621654 0.00011353324278321775 0 0.00042268431600967708 0.00013472078954348792 0 0.00039056182440896036 0.00010931882003784832 0 0.0016121741296082376 0.00079251731953359085 0 0.0015934238535052082 0.00075405762566323068 0 0.0016743645584920538 0.00083244127997486475 0 0.00022671387011076561 0.0001297743250458767 0 0.00046914552694645828 0.00026561981883219674 0 0.00046914552694645828 0.00026561981883219674 0 0.00054371164404067257 0.00036536055549159642 0 -0.00026121309051290429 1.9426520016195235e-05 0 -0.00020421458518822988 -4.5464564963506693e-05 0 -0.00026157027342394812 -7.4563016746067529e-05 0 -0.00026121309051290429 1.9426520016195235e-05 0 -0.00032247276516951328 -7.3651560470261297e-05 0 -0.00026157027342394812 -7.4563016746067529e-05 0 -0.00020421458518822988 -4.5464564963506693e-05 0 -0.00026157027342394812 -7.4563016746067529e-05 0 -0.0002196466987231823 -0.00010202063578117627 0 -0.00026157027342394812 -7.4563016746067529e-05 0 -0.00026053298509756982 -0.00012998348407291301 0 -0.00030353840238094563 -0.00011122727554437482 0 -0.00026157027342394812 -7.4563016746067529e-05 0 -0.00026053298509756982 -0.00012998348407291301 0 -0.0002196466987231823 -0.00010202063578117627 0 -0.00020601567637288686 -0.00015320918032374879 0 -0.00026053298509756982 -0.00012998348407291301 0 -0.0002196466987231823 -0.00010202063578117627 0 -0.00027969333378264233 -0.00019458985360253303 0 -0.00020601567637288686 -0.00015320918032374879 0 -0.00026053298509756982 -0.00012998348407291301 0 -0.00027969333378264233 -0.00019458985360253303 0 -0.00026053298509756982 -0.00012998348407291301 0 -0.00030354954568540319 -0.0001512944678227056 0 -0.00026053298509756982 -0.00012998348407291301 0 -0.00030354954568540319 -0.0001512944678227056 0 -0.00030353840238094563 -0.00011122727554437482 0 -0.00030354954568540319 -0.0001512944678227056 0 -0.00030353840238094563 -0.00011122727554437482 0 -0.00033911783128348801 -0.00013627817620158534 0 -0.0003339439271583925 -0.00018159978167728045 0 -0.00030354954568540319 -0.0001512944678227056 0 -0.00033911783128348801 -0.00013627817620158534 0 -0.00030353840238094563 -0.00011122727554437482 0 -0.00033222588481657636 -0.00010173110933400736 0 -0.00033911783128348801 -0.00013627817620158534 0 -0.00032247276516951328 -7.3651560470261297e-05 0 -0.00030353840238094563 -0.00011122727554437482 0 -0.00033222588481657636 -0.00010173110933400736 0 -0.0003634917085142468 -8.491265398123088e-05 0 -0.00033222588481657636 -0.00010173110933400736 0 -0.00033911783128348801 -0.00013627817620158534 0 0.00065433064274833086 0.00025589047485725502 0 0.0016831943578305127 0.00061029221111588738 0 0.00023105950591091753 0.00010487812572755507 0 0.00065433064274833086 0.00025589047485725502 0 -0.00030812875467655661 4.1706563342305242e-05 0 -0.00020257298910431504 -2.8438873983749614e-05 0 -0.00011622760891048215 0.00018475533638009605 0 -0.00020257298910431504 -2.8438873983749614e-05 0 -9.9799665002832272e-05 0.00018713702243803183 0 -0.00011622760891048215 0.00018475533638009605 0 -0.0003697339507110017 -0.00014959242213232434 0 0.00022671387011076561 0.0001297743250458767 0 -0.00039995385420835161 -0.00021190868746440871 0 -0.0003634917085142468 -8.491265398123088e-05 0 -0.00033911783128348801 -0.00013627817620158534 0 0.0019948784146681885 0.00081081721960364801 0 0.0020532928611768173 0.000788622815046662 0 0.0020904155277429379 0.00085354194469332528 0 0.0016252907901310198 0.00063810761442943404 0 0.0016743645584920538 0.00083244127997486475 0 0.0020904155277429379 0.00085354194469332528 0 0.001955451643937082 0.00077993546316175888 0 0.0020140143661900641 0.00082017457055253372 0 0.00022671387011076561 0.0001297743250458767 0 0.00065433064274833086 0.00025589047485725502 0 0.00046914552694645828 0.00026561981883219674 0 0.00065433064274833086 0.00025589047485725502 0 0.0019948784146681885 0.00081081721960364801 0 0.0020532928611768173 0.000788622815046662 0 0.002005254524146518 0.00076192138181916866 0 0.0021767582511512036 0.00080137867879986066 0 0.0022161588221839314 0.00074600304171250722 0 0.0021248073105564072 0.00075151670346533311 0 0.0020532928611768173 0.000788622815046662 0 0.0021093903925702333 0.00079897063624927037 0 0.0021248073105564072 0.00075151670346533311 0 0.0021767582511512036 0.00080137867879986066 0 0.0021093903925702333 0.00079897063624927037 0 0.0021248073105564072 0.00075151670346533311 0 0.0020532928611768173 0.000788622815046662 0 0.0021093903925702333 0.00079897063624927037 0 0.0020904155277429379 0.00085354194469332528 0 0.0021767582511512036 0.00080137867879986066 0 0.0021093903925702333 0.00079897063624927037 0 0.0020904155277429379 0.00085354194469332528 0 0.0021767582511512036 0.00080137867879986066 0 0.0020904155277429379 0.00085354194469332528 0 0.0021925759268220158 0.00090259995688602964 0 0.0016743645584920538 0.00083244127997486475 0 0.0020904155277429379 0.00085354194469332528 0 0.0021925759268220158 0.00090259995688602964 0 0.00088599839477419037 0.00018392144614520512 0 0.00088729427881970393 0.00019254349677477932 0 0.00088789694053932535 0.00018901356967644268 0 0.0016831943578305127 0.00061029221111588738 0 0.0015469688396785647 0.00030300470150945421 0 0.00088599839477419037 0.00018392144614520512 0 0.00088789694053932535 0.00018901356967644268 0 0.00087905452222013984 0.00018719608569054227 0 0.00094679530230358392 -5.7960576411978661e-05 0 0.00098496653906029628 3.7343876332187729e-05 0 0.00091351105997894042 2.5189823380537483e-05 0 0.0015469688396785647 0.00030300470150945421 0 0.0017621127685167035 -0.00015989943458868304 0 0.0020891554450443981 8.8692696202662819e-05 0 0.0019973113426464072 9.7186706953391783e-05 0 0.0020112919069016542 8.8167468579400065e-05 0 0.0020891554450443981 8.8692696202662819e-05 0 0.0020112919069016542 8.8167468579400065e-05 0 0.0019922941504402145 7.2340708201111783e-05 0 0.0019972050436528731 9.6794253209093445e-05 0 0.0020112919069016542 8.8167468579400065e-05 0 0.0019922941504402145 7.2340708201111783e-05 0 0.0021029944051242258 -9.8724708315353255e-05 0 0.0020834778057555307 -8.153796500983257e-05 0 0.0021029944051242258 -9.8724708315353255e-05 0 0.002457340473222418 0.00036946104077623571 0 0.0023342467155483778 0.00090385512364952287 0 0.002270708063508885 0.00079489588086523969 0 0.0023764247410686255 0.00071990200775637672 0 0.0015469688396785647 0.00030300470150945421 0 0.002457340473222418 0.00036946104077623571 0 0.0020891554450443981 8.8692696202662819e-05 0 0.0019973113426464072 9.7186706953391783e-05 0 0.0020489968117933556 0.00033579002920871892 0 0.0021925759268220158 0.00090259995688602964 0 0.0023342467155483778 0.00090385512364952287 0 0.002270708063508885 0.00079489588086523969 0 0.0021767582511512036 0.00080137867879986066 0 0.0021925759268220158 0.00090259995688602964 0 0.002270708063508885 0.00079489588086523969 0 0.0021767582511512036 0.00080137867879986066 0 0.002270708063508885 0.00079489588086523969 0 0.0022161588221839314 0.00074600304171250722 0 0.002270708063508885 0.00079489588086523969 0 0.0022161588221839314 0.00074600304171250722 0 0.0022815740217701714 0.00071603195707769368 0 0.002270708063508885 0.00079489588086523969 0 0.0022815740217701714 0.00071603195707769368 0 0.0023764247410686255 0.00071990200775637672 0 0.0022815740217701714 0.00071603195707769368 0 0.0022357291664631585 0.00066656665101151298 0 0.0023186869104506141 0.00066320110177531364 0 0.0022161588221839314 0.00074600304171250722 0 0.0022815740217701714 0.00071603195707769368 0 0.0022357291664631585 0.00066656665101151298 0 0.0022815740217701714 0.00071603195707769368 0 0.0023764247410686255 0.00071990200775637672 0 0.0023186869104506141 0.00066320110177531364 0 0.002638435521597632 0.00014484110182279937 0 0.0026787083182259752 0.00032236679388746958 0 0.002605858506014047 0.000319986872044433 0 0.002457340473222418 0.00036946104077623571 0 0.0024333334229273704 0.00051586840932176328 0 0.0023764247410686255 0.00071990200775637672 0 0.0023186869104506141 0.00066320110177531364 0 0.002353874327200084 0.00058735712743118078 0 0.002457340473222418 0.00036946104077623571 0 0.002638835684722049 0.00020452044378251012 0 0.0026433088776932887 9.9912619522614959e-05 0 0.002605858506014047 0.000319986872044433 0 0.0025183164919259774 0.00020348652789067647 0 0.0023423253252290149 0.00062735516346531118 0 0.0023498932301759087 0.0006301935594678886 0 0.0023358551549565315 0.00063062394486998333 0 0.0023423253252290149 0.00062735516346531118 0 0.0023449585718838752 0.00062541640574967665 0 0.0023391074007324368 0.00062509695769642412 0 0.0023423253252290149 0.00062735516346531118 0 0.0023358551549565315 0.00063062394486998333 0 0.0023391074007324368 0.00062509695769642412 0 0.0023423253252290149 0.00062735516346531118 0 0.0023449585718838752 0.00062541640574967665 0 0.0023498932301759087 0.0006301935594678886 0 0.002426840662852934 0.00055676776179712961 0 0.0024333334229273704 0.00051586840932176328 0 0.0023449585718838752 0.00062541640574967665 0 0.0023457585219320513 0.00062768163864621897 0 0.0023473290603131694 0.00061911111845916651 0 0.0024333334229273704 0.00051586840932176328 0 0.0024494296746431889 0.00051409842547891983 0 0.0026787083182259752 0.00032236679388746958 0 0.002605858506014047 0.000319986872044433 0 0.0025362360569009495 0.00043113428417244432 0 0.0023106277165262624 0.00062806252577881792 0 0.0022700849074323332 0.00063005445899622244 0 0.0023220671495844314 0.00062504933286269956 0 0.0022503078571166502 0.00068308791828656699 0 0.0024333334229273704 0.00051586840932176328 0 0.0022357291664631585 0.00066656665101151298 0 0.0023186869104506141 0.00066320110177531364 0 0.002353874327200084 0.00058735712743118078 0 0.0023155871034394935 0.0006680287946549371 0 0.0023498932301759087 0.0006301935594678886 0 0.0023358551549565315 0.00063062394486998333 0 0.0023155871034394935 0.0006680287946549371 0 0.0023040335963902111 0.00063607853556844473 0 0.0023217584291334039 0.00063284247076252228 0 0.0023040335963902111 0.00063607853556844473 0 0.0023106277165262624 0.00062806252577881792 0 0.0022700849074323332 0.00063005445899622244 0 0.0023155871034394935 0.0006680287946549371 0 0.0023040335963902111 0.00063607853556844473 0 0.0022700849074323332 0.00063005445899622244 0 0.0023155871034394935 0.0006680287946549371 0 0.0023217584291334039 0.00063284247076252228 0 0.0023358551549565315 0.00063062394486998333 0 0.0023358551549565315 0.00063062394486998333 0 0.0023270879896356012 0.00062562915151675308 0 0.0023391074007324368 0.00062509695769642412 0 0.0023217584291334039 0.00063284247076252228 0 0.0023358551549565315 0.00063062394486998333 0 0.0023270879896356012 0.00062562915151675308 0 0.0023217584291334039 0.00063284247076252228 0 0.0023270879896356012 0.00062562915151675308 0 0.0023106277165262624 0.00062806252577881792 0 0.0023270879896356012 0.00062562915151675308 0 0.0023106277165262624 0.00062806252577881792 0 0.0023220671495844314 0.00062504933286269956 0 0.0023040335963902111 0.00063607853556844473 0 0.0023217584291334039 0.00063284247076252228 0 0.0023106277165262624 0.00062806252577881792 0 0.0022700849074323332 0.00063005445899622244 0 0.0021397661157894184 0.00059278033408398194 0 0.0021036062505866717 0.0004546516949536545 0 0.0022746433760019507 0.00063063506761104821 0 0.0022253153273581027 0.00054299285995827317 0 0.0023155871034394935 0.0006680287946549371 0 0.0022700849074323332 0.00063005445899622244 0 0.0021820219436430536 0.00067165904800826817 0 0.0022700849074323332 0.00063005445899622244 0 0.0021397661157894184 0.00059278033408398194 0 0.0021820219436430536 0.00067165904800826817 0 0.0021397661157894184 0.00059278033408398194 0 0.0021069242485643124 0.00064219497685731445 0 0.0021820219436430536 0.00067165904800826817 0 0.0021397661157894184 0.00059278033408398194 0 0.0020440742967089667 0.00056427238464350118 0 0.0021036062505866717 0.0004546516949536545 0 0.0019675355867762052 0.00063410127446109641 0 0.0020440742967089667 0.00056427238464350118 0 0.0020412948244329225 0.00065971114723419738 0 0.0021397661157894184 0.00059278033408398194 0 0.0020440742967089667 0.00056427238464350118 0 0.0021069242485643124 0.00064219497685731445 0 0.0020440742967089667 0.00056427238464350118 0 0.0021069242485643124 0.00064219497685731445 0 0.0020412948244329225 0.00065971114723419738 0 0.0021069242485643124 0.00064219497685731445 0 0.0020882143913182154 0.00070591431030747576 0 0.0020412948244329225 0.00065971114723419738 0 0.0020882143913182154 0.00070591431030747576 0 0.0020412948244329225 0.00065971114723419738 0 0.0020213432470136258 0.00071824215011996996 0 0.0019675355867762052 0.00063410127446109641 0 0.0020412948244329225 0.00065971114723419738 0 0.0020213432470136258 0.00071824215011996996 0 0.0020532928611768173 0.000788622815046662 0 0.002005254524146518 0.00076192138181916866 0 0.0020213432470136258 0.00071824215011996996 0 0.0020532928611768173 0.000788622815046662 0 0.0020882143913182154 0.00070591431030747576 0 0.0021248073105564072 0.00075151670346533311 0 0.0020532928611768173 0.000788622815046662 0 0.0020882143913182154 0.00070591431030747576 0 0.0020213432470136258 0.00071824215011996996 0 0.0023155871034394935 0.0006680287946549371 0 0.0021248073105564072 0.00075151670346533311 0 0.0021820219436430536 0.00067165904800826817 0 0.0022161588221839314 0.00074600304171250722 0 0.0022357291664631585 0.00066656665101151298 0 0.0021248073105564072 0.00075151670346533311 0 0.0022503078571166502 0.00068308791828656699 0 0.0021506855519679955 0.00073851316000420378 0 0.0020882143913182154 0.00070591431030747576 0 0.0021248073105564072 0.00075151670346533311 0 0.0021820219436430536 0.00067165904800826817 0 0.0021069242485643124 0.00064219497685731445 0 0.0020882143913182154 0.00070591431030747576 0 0.0021820219436430536 0.00067165904800826817 0 0.0017048434809624779 -0.00013003812066588301 0 0.0017686717080436895 -0.00010651521167298425 0 0.0017343619711921781 -3.9402876582841517e-05 0 0.0017686717080436895 -0.00010651521167298425 0 0.0017619991556931129 -0.00016810732717094886 0 0.0018293953041326814 -0.00016121203176221784 0 0.0017048434809624779 -0.00013003812066588301 0 0.0017686717080436895 -0.00010651521167298425 0 0.0017619991556931129 -0.00016810732717094886 0 0.0017048434809624779 -0.00013003812066588301 0 0.0016886430859575988 -0.0001936214759201346 0 0.0017619991556931129 -0.00016810732717094886 0 0.0017665102804329982 -0.00022190620308505085 0 0.0017619991556931129 -0.00016810732717094886 0 0.0018010140518663071 -0.00020523994507604657 0 0.0016886430859575988 -0.0001936214759201346 0 0.0017665102804329982 -0.00022190620308505085 0 0.0017619991556931129 -0.00016810732717094886 0 0.0017619991556931129 -0.00016810732717094886 0 0.0018293953041326814 -0.00016121203176221784 0 0.0018010140518663071 -0.00020523994507604657 0 0.0018293953041326814 -0.00016121203176221784 0 0.0018010140518663071 -0.00020523994507604657 0 0.0018272230835045724 -0.000246897872444824 0 0.0017665102804329982 -0.00022190620308505085 0 0.0018010140518663071 -0.00020523994507604657 0 0.0018035670044050296 -0.0002331486029771148 0 0.0018010140518663071 -0.00020523994507604657 0 0.0018035670044050296 -0.0002331486029771148 0 0.0018272230835045724 -0.000246897872444824 0 0.0018293953041326814 -0.00016121203176221784 0 0.0018272230835045724 -0.000246897872444824 0 0.0018861253885770271 -0.00018548566392628286 0 0.0018293953041326814 -0.00016121203176221784 0 0.0019259579843638611 -0.00010431825484132912 0 0.0018228826460560113 -1.3940739542972336e-05 0 0.0017686717080436895 -0.00010651521167298425 0 0.0018293953041326814 -0.00016121203176221784 0 0.0018228826460560113 -1.3940739542972336e-05 0 0.0018293953041326814 -0.00016121203176221784 0 0.0019259579843638611 -0.00010431825484132912 0 0.0018861253885770271 -0.00018548566392628286 0 0.0019259579843638611 -0.00010431825484132912 0 0.0018861253885770271 -0.00018548566392628286 0 0.0019533323376675648 -0.00022617902679782765 0 0.0018272230835045724 -0.000246897872444824 0 0.0018861253885770271 -0.00018548566392628286 0 0.0019533323376675648 -0.00022617902679782765 0 0.0018228986573612723 -0.00024974835346244908 0 0.0018762479190140955 -0.00024659528353347573 0 0.0020628107356572794 -0.00019191853825208875 0 0.0019259579843638611 -0.00010431825484132912 0 0.0019533323376675648 -0.00022617902679782765 0 0.0020628107356572794 -0.00019191853825208875 0 0.0019533323376675648 -0.00022617902679782765 0 0.0020593510259615858 -0.00020890617413837895 0 0.0018762479190140955 -0.00024659528353347573 0 0.0017621127685167035 -0.00015989943458868304 0 0.0021029944051242258 -9.8724708315353255e-05 0 0.0017621127685167035 -0.00015989943458868304 0 0.0025799905726318784 -0.0001953747743990508 0 0.0026433088776932887 9.9912619522614959e-05 0 0.0025072318303429445 -2.171480721435403e-05 0 0.0021029944051242258 -9.8724708315353255e-05 0 0.0021801371402884991 -9.9489447794989778e-05 0 0.0025799905726318784 -0.0001953747743990508 0 0.0023374577725843882 -4.4524562706518021e-05 0 0.0025072318303429445 -2.171480721435403e-05 0 0.0023374577725843882 -4.4524562706518021e-05 0 0.0025072318303429445 -2.171480721435403e-05 0 0.002462150682891435 9.0517014460277581e-05 0 0.0026433088776932887 9.9912619522614959e-05 0 0.0025072318303429445 -2.171480721435403e-05 0 0.002462150682891435 9.0517014460277581e-05 0 0.0026433088776932887 9.9912619522614959e-05 0 0.002462150682891435 9.0517014460277581e-05 0 0.0025183164919259774 0.00020348652789067647 0 0.002462150682891435 9.0517014460277581e-05 0 0.0025183164919259774 0.00020348652789067647 0 0.0023599268835365911 0.00021528901018164282 0 0.002605858506014047 0.000319986872044433 0 0.0025183164919259774 0.00020348652789067647 0 0.0024902844185177506 0.00031374506210762795 0 0.0024902844185177506 0.00031374506210762795 0 0.0023599268835365911 0.00021528901018164282 0 0.0023953781982240557 0.00040295094039544159 0 0.002605858506014047 0.000319986872044433 0 0.0024902844185177506 0.00031374506210762795 0 0.0025362360569009495 0.00043113428417244432 0 0.0025183164919259774 0.00020348652789067647 0 0.0024902844185177506 0.00031374506210762795 0 0.0023599268835365911 0.00021528901018164282 0 0.0023599268835365911 0.00021528901018164282 0 0.0022432725391187125 0.00037899556716372129 0 0.0023953781982240557 0.00040295094039544159 0 0.0023374577725843882 -4.4524562706518021e-05 0 0.002462150682891435 9.0517014460277581e-05 0 0.0023599268835365911 0.00021528901018164282 0 0.0023374577725843882 -4.4524562706518021e-05 0 0.0023599268835365911 0.00021528901018164282 0 0.002095375616242292 8.3771891522754161e-05 0 0.0021801371402884991 -9.9489447794989778e-05 0 0.0019393360670016588 4.6828508444959935e-05 0 0.0023599268835365911 0.00021528901018164282 0 0.002095375616242292 8.3771891522754161e-05 0 0.0022432725391187125 0.00037899556716372129 0 0.002095375616242292 8.3771891522754161e-05 0 0.0020273834978774166 0.00029868825216335581 0 0.0022432725391187125 0.00037899556716372129 0 0.0017471281119983237 0.00017025499675720057 0 0.002095375616242292 8.3771891522754161e-05 0 0.0020273834978774166 0.00029868825216335581 0 0.0017471281119983237 0.00017025499675720057 0 0.0018991067486758269 0.00048167292949829668 0 0.0020273834978774166 0.00029868825216335581 0 0.001753010874537054 0.00016640498911419047 0 0.0019393360670016588 4.6828508444959935e-05 0 0.0017471281119983237 0.00017025499675720057 0 0.0018228826460560113 -1.3940739542972336e-05 0 0.0017343619711921781 -3.9402876582841517e-05 0 0.0017686717080436895 -0.00010651521167298425 0 0.0018228826460560113 -1.3940739542972336e-05 0 0.0017343619711921781 -3.9402876582841517e-05 0 0.0018991067486758269 0.00048167292949829668 0 0.0020569382180664407 0.00067920708136208778 0 0.002094181832123673 0.00047793848128163419 0 0.0018991067486758269 0.00048167292949829668 0 0.0020273834978774166 0.00029868825216335581 0 0.002094181832123673 0.00047793848128163419 0 0.0020273834978774166 0.00029868825216335581 0 0.002094181832123673 0.00047793848128163419 0 0.0022432725391187125 0.00037899556716372129 0 0.002094181832123673 0.00047793848128163419 0 0.0022432725391187125 0.00037899556716372129 0 0.0022279878407704106 0.00057824901679767423 0 0.0020569382180664407 0.00067920708136208778 0 0.002094181832123673 0.00047793848128163419 0 0.0022279878407704106 0.00057824901679767423 0 0.0020569382180664407 0.00067920708136208778 0 0.0022279878407704106 0.00057824901679767423 0 0.0022339939659954296 0.00068823734450350945 0 0.0022279878407704106 0.00057824901679767423 0 0.0023217727020790899 0.00064947403440999952 0 0.0022339939659954296 0.00068823734450350945 0 0.0022279878407704106 0.00057824901679767423 0 0.0023217727020790899 0.00064947403440999952 0 0.0023441142513183268 0.00056520789396870719 0 0.0022432725391187125 0.00037899556716372129 0 0.0022279878407704106 0.00057824901679767423 0 0.0023441142513183268 0.00056520789396870719 0 0.0022432725391187125 0.00037899556716372129 0 0.0023953781982240557 0.00040295094039544159 0 0.0023441142513183268 0.00056520789396870719 0 0.0023510055723257 0.00056824054038843053 0 0.0024494296746431889 0.00051409842547891983 0 0.0023441142513183268 0.00056520789396870719 0 0.0023508435736682839 0.00061298509037245119 0 0.0023516540786555334 0.00061127662338710908 0 0.0023953781982240557 0.00040295094039544159 0 0.0023441142513183268 0.00056520789396870719 0 0.0025362360569009495 0.00043113428417244432 0 0.0024902844185177506 0.00031374506210762795 0 0.0023953781982240557 0.00040295094039544159 0 0.0025362360569009495 0.00043113428417244432 0 0.0023508435736682839 0.00061298509037245119 0 0.0023516540786555334 0.00061127662338710908 0 0.0023473290603131694 0.00061911111845916651 0 0.0023217727020790899 0.00064947403440999952 0 0.0023441142513183268 0.00056520789396870719 0 0.0023516540786555334 0.00061127662338710908 0 0.0023217727020790899 0.00064947403440999952 0 0.0023516540786555334 0.00061127662338710908 0 0.0023431001711132562 0.00065008620955088914 0 0.0023516540786555334 0.00061127662338710908 0 0.0023431001711132562 0.00065008620955088914 0 0.0023506904569538158 0.00063951559391555227 0 0.0023431001711132562 0.00065008620955088914 0 0.0023423195176423459 0.00068730610493156024 0 0.0023506904569538158 0.00063951559391555227 0 0.0023217727020790899 0.00064947403440999952 0 0.0023431001711132562 0.00065008620955088914 0 0.0023423195176423459 0.00068730610493156024 0 0.0023423195176423459 0.00068730610493156024 0 0.0023536784657901284 0.00069947706745121659 0 0.0023413298332111299 0.00072834940854332991 0 0.0023423195176423459 0.00068730610493156024 0 0.0023145845949485602 0.0007353169210408732 0 0.0023413298332111299 0.00072834940854332991 0 0.0023145845949485602 0.0007353169210408732 0 0.0022963769295702981 0.0007089607028652003 0 0.0022582936229092608 0.00077129916845587927 0 0.0023145845949485602 0.0007353169210408732 0 0.0022582936229092608 0.00077129916845587927 0 0.0023169167607063287 0.00075871645830927973 0 0.0023217727020790899 0.00064947403440999952 0 0.0023423195176423459 0.00068730610493156024 0 0.0022963769295702981 0.0007089607028652003 0 0.0023217727020790899 0.00064947403440999952 0 0.0022963769295702981 0.0007089607028652003 0 0.0022339939659954296 0.00068823734450350945 0 0.0023423195176423459 0.00068730610493156024 0 0.0023145845949485602 0.0007353169210408732 0 0.0022963769295702981 0.0007089607028652003 0 0.0022963769295702981 0.0007089607028652003 0 0.0022339939659954296 0.00068823734450350945 0 0.0022582936229092608 0.00077129916845587927 0 0.0020569382180664407 0.00067920708136208778 0 0.0022339939659954296 0.00068823734450350945 0 0.0021849354458999899 0.00074707841998270593 0 0.0022339939659954296 0.00068823734450350945 0 0.0021849354458999899 0.00074707841998270593 0 0.0022582936229092608 0.00077129916845587927 0 0.0021849354458999899 0.00074707841998270593 0 0.0022582936229092608 0.00077129916845587927 0 0.0021418813584325124 0.00080699381330727048 0 0.0023862516492030223 0.00081711436465760692 0 0.0021418813584325124 0.00080699381330727048 0 0.0022603770738529468 0.00080383227133552239 0 0.0022582936229092608 0.00077129916845587927 0 0.0021418813584325124 0.00080699381330727048 0 0.0022603770738529468 0.00080383227133552239 0 0.0019839314418687872 0.00074236059419021457 0 0.0020569382180664407 0.00067920708136208778 0 0.0021418813584325124 0.00080699381330727048 0 0.0020569382180664407 0.00067920708136208778 0 0.0021849354458999899 0.00074707841998270593 0 0.0021418813584325124 0.00080699381330727048 0 0.0023416600123821922 0.0006358058338752279 0 0.0023556319428581669 0.00065442450555773719 0 0.0023542754948679815 0.00062797468904982978 0 0.0022253153273581027 0.00054299285995827317 0 0.0022096733391917239 0.00049667155357903771 0 0.0019529557521895111 0.00034820629342006466 0 0.0021036062505866717 0.0004546516949536545 0 0.00198580742349447 0.00031278908676648446 0 0.0023556319428581669 0.00065442450555773719 0 0.0023542754948679815 0.00062797468904982978 0 0.0023811211486083144 0.00065426120538344208 0 0.0019529557521895111 0.00034820629342006466 0 0.0019644531732717903 0.00046490758462268487 0 0.0021036062505866717 0.0004546516949536545 0 0.0019644531732717903 0.00046490758462268487 0 0.0020440742967089667 0.00056427238464350118 0 0.0021036062505866717 0.0004546516949536545 0 0.0022700849074323332 0.00063005445899622244 0 0.0023542754948679815 0.00062797468904982978 0 0.0023220671495844314 0.00062504933286269956 0 0.0023416600123821922 0.0006358058338752279 0 0.0023542754948679815 0.00062797468904982978 0 0.0023220671495844314 0.00062504933286269956 0 0.0023270879896356012 0.00062562915151675308 0 0.0023220671495844314 0.00062504933286269956 0 0.0023373454867913011 0.00062458092335127263 0 0.0023270879896356012 0.00062562915151675308 0 0.0023373454867913011 0.00062458092335127263 0 0.0023391074007324368 0.00062509695769642412 0 0.0023220671495844314 0.00062504933286269956 0 0.0023373454867913011 0.00062458092335127263 0 0.0023447087448773586 0.00063453152222216116 0 0.0023373454867913011 0.00062458092335127263 0 0.0023459809677671339 0.00062320699787481886 0 0.0023447087448773586 0.00063453152222216116 0 0.0023416600123821922 0.0006358058338752279 0 0.0023220671495844314 0.00062504933286269956 0 0.0023447087448773586 0.00063453152222216116 0 0.0023457585219320513 0.00062768163864621897 0 0.0023508435736682839 0.00061298509037245119 0 0.0023473290603131694 0.00061911111845916651 0 0.0023473290603131694 0.00061911111845916651 0 0.002343590832513307 0.00062254499615027397 0 0.0023459809677671339 0.00062320699787481886 0 0.0023449585718838752 0.00062541640574967665 0 0.0023473290603131694 0.00061911111845916651 0 0.002343590832513307 0.00062254499615027397 0 0.0023449585718838752 0.00062541640574967665 0 0.002343590832513307 0.00062254499615027397 0 0.0023391074007324368 0.00062509695769642412 0 0.0023373454867913011 0.00062458092335127263 0 0.002343590832513307 0.00062254499615027397 0 0.0023391074007324368 0.00062509695769642412 0 0.0023373454867913011 0.00062458092335127263 0 0.002343590832513307 0.00062254499615027397 0 0.0023459809677671339 0.00062320699787481886 0 0.0023516540786555334 0.00061127662338710908 0 0.0023473290603131694 0.00061911111845916651 0 0.0023459809677671339 0.00062320699787481886 0 0.0023459809677671339 0.00062320699787481886 0 0.0023506904569538158 0.00063951559391555227 0 0.0023447087448773586 0.00063453152222216116 0 0.0023506904569538158 0.00063951559391555227 0 0.0023447087448773586 0.00063453152222216116 0 0.0023534845522766661 0.0006645507445980079 0 0.0023516540786555334 0.00061127662338710908 0 0.0023459809677671339 0.00062320699787481886 0 0.0023506904569538158 0.00063951559391555227 0 0.0023556319428581669 0.00065442450555773719 0 0.0023447087448773586 0.00063453152222216116 0 0.0023534845522766661 0.0006645507445980079 0 0.0023416600123821922 0.0006358058338752279 0 0.0023556319428581669 0.00065442450555773719 0 0.0023447087448773586 0.00063453152222216116 0 0.0023556319428581669 0.00065442450555773719 0 0.0023534845522766661 0.0006645507445980079 0 0.0023589842648054321 0.00068059255894615525 0 0.0023423195176423459 0.00068730610493156024 0 0.0023506904569538158 0.00063951559391555227 0 0.0023534845522766661 0.0006645507445980079 0 0.0023423195176423459 0.00068730610493156024 0 0.0023534845522766661 0.0006645507445980079 0 0.0023536784657901284 0.00069947706745121659 0 0.0023536784657901284 0.00069947706745121659 0 0.0023589842648054321 0.00068059255894615525 0 0.0023600400928057473 0.00070494876488236659 0 0.0023534845522766661 0.0006645507445980079 0 0.0023536784657901284 0.00069947706745121659 0 0.0023589842648054321 0.00068059255894615525 0 0.0023589842648054321 0.00068059255894615525 0 0.0023704188896418463 0.00067926969002738151 0 0.0023600400928057473 0.00070494876488236659 0 0.0024056296750361982 0.00067394506703090525 0 0.0023715287401114954 0.00067757530126706861 0 0.0023556319428581669 0.00065442450555773719 0 0.0023589842648054321 0.00068059255894615525 0 0.0023704188896418463 0.00067926969002738151 0 0.0023556319428581669 0.00065442450555773719 0 0.0023704188896418463 0.00067926969002738151 0 0.0023811211486083144 0.00065426120538344208 0 0.0024056296750361982 0.00067394506703090525 0 0.0022096733391917239 0.00049667155357903771 0 0.002398634837098226 0.00063868080194461746 0 0.0024059806056795112 0.00062690226505646802 0 0.0024062236016578085 0.00063796036257782087 0 0.002398634837098226 0.00063868080194461746 0 0.0024062236016578085 0.00063796036257782087 0 0.0024080636345791577 0.00064936350426186818 0 0.0024080636345791577 0.00064936350426186818 0 0.0024120261621536831 0.0006613031159623914 0 0.002400910705241456 0.0006668936647258243 0 0.002398634837098226 0.00063868080194461746 0 0.0024080636345791577 0.00064936350426186818 0 0.0023884196494050229 0.00065260056582167123 0 0.0024080636345791577 0.00064936350426186818 0 0.002400910705241456 0.0006668936647258243 0 0.0023884196494050229 0.00065260056582167123 0 0.0023600400928057473 0.00070494876488236659 0 0.0023552470488188829 0.00071443528293039886 0 0.0023639625942969947 0.00069780638130125731 0 0.0023536784657901284 0.00069947706745121659 0 0.0023600400928057473 0.00070494876488236659 0 0.0023552470488188829 0.00071443528293039886 0 0.0023536784657901284 0.00069947706745121659 0 0.0023552470488188829 0.00071443528293039886 0 0.0023413298332111299 0.00072834940854332991 0 0.0023552470488188829 0.00071443528293039886 0 0.0023639625942969947 0.00069780638130125731 0 0.002346504353611876 0.0007357964371181734 0 0.002400910705241456 0.0006668936647258243 0 0.0023884196494050229 0.00065260056582167123 0 0.0023639625942969947 0.00069780638130125731 0 0.0023715287401114954 0.00067757530126706861 0 0.0023653780222117225 0.00069571757643328391 0 0.002400910705241456 0.0006668936647258243 0 0.0023639625942969947 0.00069780638130125731 0 0.0023927254071858914 0.00067348684412810514 0 0.0023639625942969947 0.00069780638130125731 0 0.0023927254071858914 0.00067348684412810514 0 0.0023773319286077284 0.00068220673702966341 0 0.0023639625942969947 0.00069780638130125731 0 0.0023773319286077284 0.00068220673702966341 0 0.0023701069559340987 0.00070337290297559584 0 0.0023927254071858914 0.00067348684412810514 0 0.0024096814005483279 0.00066120777617699683 0 0.0023931083889341597 0.00066644483775069258 0 0.0023927254071858914 0.00067348684412810514 0 0.0023773319286077284 0.00068220673702966341 0 0.0023931083889341597 0.00066644483775069258 0 0.0024096814005483279 0.00066120777617699683 0 0.0024219554644465116 0.0006586893161943544 0 0.0024358084005213811 0.00065209520912052656 0 0.0023927254071858914 0.00067348684412810514 0 0.0024096814005483279 0.00066120777617699683 0 0.0024219554644465116 0.0006586893161943544 0 0.0024120261621536831 0.0006613031159623914 0 0.002400910705241456 0.0006668936647258243 0 0.0024219554644465116 0.0006586893161943544 0 0.0024120261621536831 0.0006613031159623914 0 0.0024219554644465116 0.0006586893161943544 0 0.0024128168266144591 0.00065953726276795526 0 0.002400910705241456 0.0006668936647258243 0 0.0023927254071858914 0.00067348684412810514 0 0.0024219554644465116 0.0006586893161943544 0 0.0023818125340792336 0.0007691692197422397 0 0.0023462079452413768 0.00078965805169397369 0 0.0023058825946160482 0.00078674452081274365 0 0.0024312371052708287 0.00077923881497389308 0 0.0023818125340792336 0.0007691692197422397 0 0.0023462079452413768 0.00078965805169397369 0 0.0023462079452413768 0.00078965805169397369 0 0.0022603770738529468 0.00080383227133552239 0 0.0023058825946160482 0.00078674452081274365 0 0.0022582936229092608 0.00077129916845587927 0 0.0022603770738529468 0.00080383227133552239 0 0.0023058825946160482 0.00078674452081274365 0 0.0022582936229092608 0.00077129916845587927 0 0.0023058825946160482 0.00078674452081274365 0 0.0023169167607063287 0.00075871645830927973 0 0.0023058825946160482 0.00078674452081274365 0 0.0023371422958012185 0.00076421851804315665 0 0.0023169167607063287 0.00075871645830927973 0 0.0023818125340792336 0.0007691692197422397 0 0.0023371422958012185 0.00076421851804315665 0 0.0023684110820861104 0.00074733897324564212 0 0.0023818125340792336 0.0007691692197422397 0 0.0023058825946160482 0.00078674452081274365 0 0.0023371422958012185 0.00076421851804315665 0 0.0023371422958012185 0.00076421851804315665 0 0.0023584610143312264 0.00073292691979322613 0 0.0023684110820861104 0.00074733897324564212 0 0.0023371422958012185 0.00076421851804315665 0 0.002346504353611876 0.0007357964371181734 0 0.0023584610143312264 0.00073292691979322613 0 0.0023169167607063287 0.00075871645830927973 0 0.0023413298332111299 0.00072834940854332991 0 0.002346504353611876 0.0007357964371181734 0 0.0023371422958012185 0.00076421851804315665 0 0.0023169167607063287 0.00075871645830927973 0 0.002346504353611876 0.0007357964371181734 0 0.0023145845949485602 0.0007353169210408732 0 0.0023169167607063287 0.00075871645830927973 0 0.0023413298332111299 0.00072834940854332991 0 0.0023552470488188829 0.00071443528293039886 0 0.0023413298332111299 0.00072834940854332991 0 0.002346504353611876 0.0007357964371181734 0 0.0023639625942969947 0.00069780638130125731 0 0.002346504353611876 0.0007357964371181734 0 0.0023584610143312264 0.00073292691979322613 0 0.0023639625942969947 0.00069780638130125731 0 0.0023701069559340987 0.00070337290297559584 0 0.0023584610143312264 0.00073292691979322613 0 0.0023773319286077284 0.00068220673702966341 0 0.0023701069559340987 0.00070337290297559584 0 0.0023770901284870709 0.00067120826197734527 0 0.0023701069559340987 0.00070337290297559584 0 0.0023584610143312264 0.00073292691979322613 0 0.0023958757020212974 0.00072064247500915047 0 0.0023701069559340987 0.00070337290297559584 0 0.0023958757020212974 0.00072064247500915047 0 0.0023951371955699854 0.00067898198968264914 0 0.0023584610143312264 0.00073292691979322613 0 0.0023684110820861104 0.00074733897324564212 0 0.0023958757020212974 0.00072064247500915047 0 0.0023684110820861104 0.00074733897324564212 0 0.0023958757020212974 0.00072064247500915047 0 0.0024492742231032776 0.00073801595787416189 0 0.0023958757020212974 0.00072064247500915047 0 0.0024492742231032776 0.00073801595787416189 0 0.0024657352501596093 0.00069506324347209773 0 0.002463336318280105 0.00076649102677132409 0 0.0023818125340792336 0.0007691692197422397 0 0.0024492742231032776 0.00073801595787416189 0 0.0023818125340792336 0.0007691692197422397 0 0.0023684110820861104 0.00074733897324564212 0 0.0024492742231032776 0.00073801595787416189 0 0.0025414681814434404 0.000673260076525356 0 0.0024657352501596093 0.00069506324347209773 0 0.0024500866317825379 0.00063657254741769263 0 0.0025414681814434404 0.000673260076525356 0 0.0024500866317825379 0.00063657254741769263 0 0.0025273813651464469 0.00057742258995277236 0 0.0025615815750136663 0.00073165174966061618 0 0.0024492742231032776 0.00073801595787416189 0 0.0024657352501596093 0.00069506324347209773 0 0.0023958757020212974 0.00072064247500915047 0 0.0024657352501596093 0.00069506324347209773 0 0.0023951371955699854 0.00067898198968264914 0 0.0024657352501596093 0.00069506324347209773 0 0.0024500866317825379 0.00063657254741769263 0 0.0023951371955699854 0.00067898198968264914 0 0.0024500866317825379 0.00063657254741769263 0 0.0023886704546773321 0.00063183599631365535 0 0.0023951371955699854 0.00067898198968264914 0 0.0023886704546773321 0.00063183599631365535 0 0.0023951371955699854 0.00067898198968264914 0 0.0023770901284870709 0.00067120826197734527 0 0.0023701069559340987 0.00070337290297559584 0 0.0023951371955699854 0.00067898198968264914 0 0.0023770901284870709 0.00067120826197734527 0 0.0023886704546773321 0.00063183599631365535 0 0.0023770901284870709 0.00067120826197734527 0 0.0023802501373074427 0.00064563747382149637 0 0.0023770901284870709 0.00067120826197734527 0 0.0023802501373074427 0.00064563747382149637 0 0.002382859541548626 0.00066399966958087401 0 0.0023886704546773321 0.00063183599631365535 0 0.0023802501373074427 0.00064563747382149637 0 0.0023833027166463177 0.00060624236078893725 0 0.0023802501373074427 0.00064563747382149637 0 0.0023833027166463177 0.00060624236078893725 0 0.0023841818675620348 0.00064643238515582375 0 0.0023833027166463177 0.00060624236078893725 0 0.0023841818675620348 0.00064643238515582375 0 0.0023855715324149779 0.00065098146397644431 0 0.0024168165258131803 0.0005335201472142691 0 0.0024783047252113178 0.00054043363606520408 0 0.002473287226939212 0.00046721789182846977 0 0.0024350222133025325 0.00045926849268789751 0 0.0025427369923432972 0.00042269013364461976 0 0.002473287226939212 0.00046721789182846977 0 0.0024350222133025325 0.00045926849268789751 0 0.0024296738720582032 0.00046700532870256196 0 0.0024350222133025325 0.00045926849268789751 0 0.0024296738720582032 0.00046700532870256196 0 0.0024387919952197053 0.00053889404819587063 0 0.0024168165258131803 0.0005335201472142691 0 0.0024450580516858634 0.00053988192867579163 0 0.0023886704546773321 0.00063183599631365535 0 0.0023833027166463177 0.00060624236078893725 0 0.0024387919952197053 0.00053889404819587063 0 0.0024500866317825379 0.00063657254741769263 0 0.0023886704546773321 0.00063183599631365535 0 0.0024387919952197053 0.00053889404819587063 0 0.0024395048475684663 0.0004125915436450364 0 0.0024387919952197053 0.00053889404819587063 0 0.0025071684909776385 0.00046256122608248032 0 0.0024395048475684663 0.0004125915436450364 0 0.0024296738720582032 0.00046700532870256196 0 0.0024387919952197053 0.00053889404819587063 0 0.0024387919952197053 0.00053889404819587063 0 0.0025071684909776385 0.00046256122608248032 0 0.0025273813651464469 0.00057742258995277236 0 0.0024500866317825379 0.00063657254741769263 0 0.0024387919952197053 0.00053889404819587063 0 0.0025273813651464469 0.00057742258995277236 0 0.0024162068353731306 0.00065367026097117964 0 0.0024358084005213811 0.00065209520912052656 0 0.0024089517497995292 0.00065785664384608437 0 0.0024162068353731306 0.00065367026097117964 0 0.0024358084005213811 0.00065209520912052656 0 0.0024405192152097857 0.00065219482838402884 0 0.0024641089916299895 0.0006469702477816541 0 0.0024358084005213811 0.00065209520912052656 0 0.0024625653872876901 0.00064781188855986922 0 0.0024641089916299895 0.0006469702477816541 0 0.0024358084005213811 0.00065209520912052656 0 0.0024405192152097857 0.00065219482838402884 0 0.0024219554644465116 0.0006586893161943544 0 0.0024358084005213811 0.00065209520912052656 0 0.0024625653872876901 0.00064781188855986922 0 0.0024096814005483279 0.00066120777617699683 0 0.0024358084005213811 0.00065209520912052656 0 0.0024089517497995292 0.00065785664384608437 0 0.0024096814005483279 0.00066120777617699683 0 0.0024089517497995292 0.00065785664384608437 0 0.0023931083889341597 0.00066644483775069258 0 0.0024089517497995292 0.00065785664384608437 0 0.0023931083889341597 0.00066644483775069258 0 0.0023961433100516184 0.00065685195088358689 0 0.0023931083889341597 0.00066644483775069258 0 0.002382859541548626 0.00066399966958087401 0 0.0023961433100516184 0.00065685195088358689 0 0.0023773319286077284 0.00068220673702966341 0 0.0023931083889341597 0.00066644483775069258 0 0.002382859541548626 0.00066399966958087401 0 0.0023773319286077284 0.00068220673702966341 0 0.0023770901284870709 0.00067120826197734527 0 0.002382859541548626 0.00066399966958087401 0 0.0023802501373074427 0.00064563747382149637 0 0.002382859541548626 0.00066399966958087401 0 0.0023878925062222533 0.00065188052773317202 0 0.002382859541548626 0.00066399966958087401 0 0.0023878925062222533 0.00065188052773317202 0 0.0023961433100516184 0.00065685195088358689 0 0.0024162068353731306 0.00065367026097117964 0 0.0024089517497995292 0.00065785664384608437 0 0.0023961433100516184 0.00065685195088358689 0 0.0023878925062222533 0.00065188052773317202 0 0.0023961433100516184 0.00065685195088358689 0 0.0024001517387441571 0.00065366312557884265 0 0.0024162068353731306 0.00065367026097117964 0 0.0023961433100516184 0.00065685195088358689 0 0.0024001517387441571 0.00065366312557884265 0 0.0024162068353731306 0.00065367026097117964 0 0.0024001517387441571 0.00065366312557884265 0 0.0024198690891802728 0.00065842841255279376 0 0.0024001517387441571 0.00065366312557884265 0 0.0023993611601377082 0.00065729494609860213 0 0.0023841818675620348 0.00064643238515582375 0 0.0024001517387441571 0.00065366312557884265 0 0.0023993611601377082 0.00065729494609860213 0 0.0024198690891802728 0.00065842841255279376 0 0.0023802501373074427 0.00064563747382149637 0 0.0023878925062222533 0.00065188052773317202 0 0.0023841818675620348 0.00064643238515582375 0 0.0023878925062222533 0.00065188052773317202 0 0.0024001517387441571 0.00065366312557884265 0 0.0023841818675620348 0.00064643238515582375 0 0.0023993611601377082 0.00065729494609860213 0 0.0023841818675620348 0.00064643238515582375 0 0.0023855715324149779 0.00065098146397644431 0 0.0025427369923432972 0.00042269013364461976 0 0.0025409954459487565 0.00047614780364744461 0 0.0026284658528041298 0.00045945377561485004 0 0.002473287226939212 0.00046721789182846977 0 0.0025427369923432972 0.00042269013364461976 0 0.0025409954459487565 0.00047614780364744461 0 0.0024783047252113178 0.00054043363606520408 0 0.0025277218375882263 0.0005547492925361973 0 0.0023993611601377082 0.00065729494609860213 0 0.0023855715324149779 0.00065098146397644431 0 0.0024132663336452085 0.00067763644908315729 0 0.0025427369923432972 0.00042269013364461976 0 0.0026284658528041298 0.00045945377561485004 0 0.0027349373897150977 0.00044592901590864589 0 0.0023993611601377082 0.00065729494609860213 0 0.0024132663336452085 0.00067763644908315729 0 0.0024198690891802728 0.00065842841255279376 0 0.00263430987462348 0.00052668427147519218 0 0.0026284658528041298 0.00045945377561485004 0 0.0027349373897150977 0.00044592901590864589 0 0.0025277218375882263 0.0005547492925361973 0 0.0028891922847435942 0.00062014039646828814 0 0.0028453925678968649 0.00048830494541479078 0 0.0027349373897150977 0.00044592901590864589 0 0.0028801353751259505 0.00048474611144621975 0 0.0024132663336452085 0.00067763644908315729 0 0.0024389147790953077 0.00067340419215407635 0 0.0024648072368134537 0.00069403190663243494 0 0.0024132663336452085 0.00067763644908315729 0 0.0024389147790953077 0.00067340419215407635 0 0.0024198690891802728 0.00065842841255279376 0 0.0024162068353731306 0.00065367026097117964 0 0.0024198690891802728 0.00065842841255279376 0 0.0024405192152097857 0.00065219482838402884 0 0.0024389147790953077 0.00067340419215407635 0 0.0024198690891802728 0.00065842841255279376 0 0.0024413728903107585 0.00066029037166930797 0 0.0024198690891802728 0.00065842841255279376 0 0.0024413728903107585 0.00066029037166930797 0 0.0024405192152097857 0.00065219482838402884 0 0.0024641089916299895 0.0006469702477816541 0 0.0024405192152097857 0.00065219482838402884 0 0.002462662672463093 0.00065769117043297325 0 0.0024413728903107585 0.00066029037166930797 0 0.002462662672463093 0.00065769117043297325 0 0.002456306710359 0.00066843753906094521 0 0.0024413728903107585 0.00066029037166930797 0 0.0024405192152097857 0.00065219482838402884 0 0.002462662672463093 0.00065769117043297325 0 0.0024641089916299895 0.0006469702477816541 0 0.002462662672463093 0.00065769117043297325 0 0.0024888151441242443 0.00065166243267856258 0 0.002462662672463093 0.00065769117043297325 0 0.0024768687610695192 0.00066607593538618325 0 0.0024888151441242443 0.00065166243267856258 0 0.002462662672463093 0.00065769117043297325 0 0.0024768687610695192 0.00066607593538618325 0 0.002456306710359 0.00066843753906094521 0 0.0024389147790953077 0.00067340419215407635 0 0.0024413728903107585 0.00066029037166930797 0 0.002456306710359 0.00066843753906094521 0 0.0024389147790953077 0.00067340419215407635 0 0.002456306710359 0.00066843753906094521 0 0.0024648072368134537 0.00069403190663243494 0 0.0024768687610695192 0.00066607593538618325 0 0.0024648072368134537 0.00069403190663243494 0 0.0025108914614625989 0.00066086871943381266 0 0.0028891922847435942 0.00062014039646828814 0 0.0024125507019889737 0.0007323197223957624 0 0.0024768687610695192 0.00066607593538618325 0 0.002456306710359 0.00066843753906094521 0 0.0024648072368134537 0.00069403190663243494 0 0.002523125109934497 0.00069089221009492748 0 0.0024811111453639238 0.00068072849600511384 0 0.0025108914614625989 0.00066086871943381266 0 0.002523125109934497 0.00069089221009492748 0 0.0025108914614625989 0.00066086871943381266 0 0.0025736128780650095 0.00064563503738447776 0 0.0025108914614625989 0.00066086871943381266 0 0.0025736128780650095 0.00064563503738447776 0 0.0025283157168239745 0.00064246670321852211 0 0.0025108914614625989 0.00066086871943381266 0 0.0024888151441242443 0.00065166243267856258 0 0.0025283157168239745 0.00064246670321852211 0 0.0024768687610695192 0.00066607593538618325 0 0.0025108914614625989 0.00066086871943381266 0 0.0024888151441242443 0.00065166243267856258 0 0.0026776351973277495 0.00066860068737987577 0 0.0025736128780650095 0.00064563503738447776 0 0.0025332155394957425 0.00062966869497047505 0 0.0025736128780650095 0.00064563503738447776 0 0.0025283157168239745 0.00064246670321852211 0 0.0025332155394957425 0.00062966869497047505 0 0.0025162538110429615 0.00056353607572131681 0 0.0026776351973277495 0.00066860068737987577 0 0.0025332155394957425 0.00062966869497047505 0 0.002523125109934497 0.00069089221009492748 0 0.0026776351973277495 0.00066860068737987577 0 0.0025736128780650095 0.00064563503738447776 0 0.0025283157168239745 0.00064246670321852211 0 0.0024913385409749255 0.00064197840604011676 0 0.0024895440077268979 0.00063849518351531231 0 0.0025283157168239745 0.00064246670321852211 0 0.0024895440077268979 0.00063849518351531231 0 0.0025332155394957425 0.00062966869497047505 0 0.0024888151441242443 0.00065166243267856258 0 0.0025283157168239745 0.00064246670321852211 0 0.0024913385409749255 0.00064197840604011676 0 0.0024641089916299895 0.0006469702477816541 0 0.0024888151441242443 0.00065166243267856258 0 0.0024913385409749255 0.00064197840604011676 0 0.0024641089916299895 0.0006469702477816541 0 0.0024913385409749255 0.00064197840604011676 0 0.0024625653872876901 0.00064781188855986922 0 0.0024913385409749255 0.00064197840604011676 0 0.0024895440077268979 0.00063849518351531231 0 0.0024625653872876901 0.00064781188855986922 0 0.0024895440077268979 0.00063849518351531231 0 0.0024657324360542873 0.00064528931880313413 0 0.0024625653872876901 0.00064781188855986922 0 0.0024657324360542873 0.00064528931880313413 0 0.0024625653872876901 0.00064781188855986922 0 0.0024520682074349264 0.00065528373879041751 0 0.0023949986900233949 0.00063343803913589413 0 0.0024473064287408855 0.00064862572018158972 0 0.0023888347357133599 0.00068739381504375971 0 0.0024463837610313351 0.00064548423398485253 0 0.0023965975488381059 0.00066774379632004749 0 0.0024657324360542873 0.00064528931880313413 0 0.002443291640646396 0.00064012356483563403 0 0.0024525532397282092 0.00065648616973550881 0 0.0024895440077268979 0.00063849518351531231 0 0.0024657324360542873 0.00064528931880313413 0 0.002443291640646396 0.00064012356483563403 0 0.0024895440077268979 0.00063849518351531231 0 0.0024473064287408855 0.00064862572018158972 0 0.0024698268123734498 0.00062653656448175715 0 0.002483857895664843 0.00063648166818341381 0 0.0024463837610313351 0.00064548423398485253 0 0.0024473064287408855 0.00064862572018158972 0 0.0024158383172065141 0.00061566139255157424 0 0.0024698268123734498 0.00062653656448175715 0 0.0023949986900233949 0.00063343803913589413 0 0.0024473064287408855 0.00064862572018158972 0 0.0024158383172065141 0.00061566139255157424 0 0.0024158383172065141 0.00061566139255157424 0 0.0024698268123734498 0.00062653656448175715 0 0.0024320944001867701 0.00059157995347141235 0 0.0024158383172065141 0.00061566139255157424 0 0.0024320944001867701 0.00059157995347141235 0 0.0023716172835517003 0.0005779466187136223 0 0.0024698268123734498 0.00062653656448175715 0 0.0025332155394957425 0.00062966869497047505 0 0.0024320944001867701 0.00059157995347141235 0 0.0024895440077268979 0.00063849518351531231 0 0.0024698268123734498 0.00062653656448175715 0 0.0025332155394957425 0.00062966869497047505 0 0.0024528965268026293 0.00054783396971714833 0 0.0025332155394957425 0.00062966869497047505 0 0.0024320944001867701 0.00059157995347141235 0 0.0024528965268026293 0.00054783396971714833 0 0.0025162538110429615 0.00056353607572131681 0 0.0025332155394957425 0.00062966869497047505 0 0.0024528965268026293 0.00054783396971714833 0 0.0024320944001867701 0.00059157995347141235 0 0.0023712881202533542 0.00053759083734783138 0 0.0024320944001867701 0.00059157995347141235 0 0.0023712881202533542 0.00053759083734783138 0 0.0023716172835517003 0.0005779466187136223 0 0.0023712881202533542 0.00053759083734783138 0 0.0023335436367991338 0.00054379365021101913 0 0.0023716172835517003 0.0005779466187136223 0 0.0023716172835517003 0.0005779466187136223 0 0.0023272842070777029 0.0005687687363583302 0 0.0023721952424556447 0.00060972151757724248 0 0.0023335436367991338 0.00054379365021101913 0 0.0023716172835517003 0.0005779466187136223 0 0.0023272842070777029 0.0005687687363583302 0 0.0024158383172065141 0.00061566139255157424 0 0.0023716172835517003 0.0005779466187136223 0 0.0023721952424556447 0.00060972151757724248 0 0.0022433695940153537 0.00043185275967352741 0 0.0023166020516816217 0.00041655466880823598 0 0.0022763752859367796 0.00053414593674592332 0 0.0022489396167934576 0.00035130412933633047 0 0.0022433695940153537 0.00043185275967352741 0 0.0023166020516816217 0.00041655466880823598 0 0.0023335436367991338 0.00054379365021101913 0 0.0022984813775285494 0.00053143999196519898 0 0.0023272842070777029 0.0005687687363583302 0 0.0022984813775285494 0.00053143999196519898 0 0.0023272842070777029 0.0005687687363583302 0 0.0022763752859367796 0.00053414593674592332 0 0.0023103714670681427 0.00046993041359224907 0 0.0022768633878966619 0.00053457376413221789 0 0.0022763752859367796 0.00053414593674592332 0 0.0023099068414338094 0.00059127678745217438 0 0.0022597501201454071 0.0006402634010752459 0 0.0023272842070777029 0.0005687687363583302 0 0.0023099068414338094 0.00059127678745217438 0 0.0023359426196536293 0.00060887799214030694 0 0.0023272842070777029 0.0005687687363583302 0 0.0022763752859367796 0.00053414593674592332 0 0.0023099068414338094 0.00059127678745217438 0 0.0023099068414338094 0.00059127678745217438 0 0.0023206890292513478 0.00062970386951072559 0 0.0023359426196536293 0.00060887799214030694 0 0.0023099068414338094 0.00059127678745217438 0 0.0023206890292513478 0.00062970386951072559 0 0.0022597501201454071 0.0006402634010752459 0 0.0022589178354027405 0.00062278436358060446 0 0.0021706599813263445 0.00063323537737092542 0 0.0023949986900233949 0.00063343803913589413 0 0.0024158383172065141 0.00061566139255157424 0 0.0023721952424556447 0.00060972151757724248 0 0.0023272842070777029 0.0005687687363583302 0 0.0023721952424556447 0.00060972151757724248 0 0.0023359426196536293 0.00060887799214030694 0 0.0023721952424556447 0.00060972151757724248 0 0.0023359426196536293 0.00060887799214030694 0 0.0023430275238596632 0.00062922944684059656 0 0.0022589178354027405 0.00062278436358060446 0 0.0023352916135735745 0.00062620769439930373 0 0.0023206890292513478 0.00062970386951072559 0 0.0023359426196536293 0.00060887799214030694 0 0.0023430275238596632 0.00062922944684059656 0 0.0023949986900233949 0.00063343803913589413 0 0.0023721952424556447 0.00060972151757724248 0 0.0023430275238596632 0.00062922944684059656 0 0.0023949986900233949 0.00063343803913589413 0 0.0023430275238596632 0.00062922944684059656 0 0.0023888347357133599 0.00068739381504375971 0 0.0023430275238596632 0.00062922944684059656 0 0.002303296317497542 0.00069447822627285917 0 0.0023888347357133599 0.00068739381504375971 0 0.0021963244833321676 0.00061097886131866556 0 0.0023430275238596632 0.00062922944684059656 0 0.002303296317497542 0.00069447822627285917 0 0.0021963244833321676 0.00061097886131866556 0 0.002303296317497542 0.00069447822627285917 0 0.0022059817844184704 0.00070458896642512767 0 0.002303296317497542 0.00069447822627285917 0 0.0022347183389193051 0.0007404348126832062 0 0.002294558278944028 0.0007611118286563835 0 0.002303296317497542 0.00069447822627285917 0 0.0022347183389193051 0.0007404348126832062 0 0.0022059817844184704 0.00070458896642512767 0 0.0022347183389193051 0.0007404348126832062 0 0.002294558278944028 0.0007611118286563835 0 0.0022206644826004624 0.00077548027713013844 0 0.002303296317497542 0.00069447822627285917 0 0.002294558278944028 0.0007611118286563835 0 0.0023888347357133599 0.00068739381504375971 0 0.0023083273000042252 0.00073109646505063665 0 0.0023965975488381059 0.00066774379632004749 0 0.0023246845172009483 0.00069537361930084758 0 0.0023821660845336689 0.00069586087333080239 0 0.0024071216858018584 0.00064715481329222441 0 0.0021963244833321676 0.00061097886131866556 0 0.0020806773782878949 0.00062442414721296192 0 0.0021248221056484264 0.00068945175567200327 0 0.0020610482159388785 0.00068176140321932264 0 0.0020806773782878949 0.00062442414721296192 0 0.0021248221056484264 0.00068945175567200327 0 0.0021963244833321676 0.00061097886131866556 0 0.0021248221056484264 0.00068945175567200327 0 0.0022059817844184704 0.00070458896642512767 0 0.0022347183389193051 0.0007404348126832062 0 0.0022059817844184704 0.00070458896642512767 0 0.0021466120512227353 0.00076388074931017661 0 0.0021248221056484264 0.00068945175567200327 0 0.0022059817844184704 0.00070458896642512767 0 0.0021466120512227353 0.00076388074931017661 0 0.0022347183389193051 0.0007404348126832062 0 0.0021466120512227353 0.00076388074931017661 0 0.0022206644826004624 0.00077548027713013844 0 0.0020610482159388785 0.00068176140321932264 0 0.0021248221056484264 0.00068945175567200327 0 0.0020693364928617121 0.00073496610026248612 0 0.0021248221056484264 0.00068945175567200327 0 0.0020693364928617121 0.00073496610026248612 0 0.0021466120512227353 0.00076388074931017661 0 0.0020693364928617121 0.00073496610026248612 0 0.0020907229518184818 0.00076999924625149321 0 0.0021466120512227353 0.00076388074931017661 0 0.0020543455594905311 0.00076942010769590421 0 0.0020739943945273336 0.00079154605466090901 0 0.0020907229518184818 0.00076999924625149321 0 0.0020543455594905311 0.00076942010769590421 0 0.0020693364928617121 0.00073496610026248612 0 0.0020907229518184818 0.00076999924625149321 0 0.0020907229518184818 0.00076999924625149321 0 0.0021124550077202 0.00078971317637458783 0 0.0021466120512227353 0.00076388074931017661 0 0.0020739943945273336 0.00079154605466090901 0 0.0020907229518184818 0.00076999924625149321 0 0.0021124550077202 0.00078971317637458783 0 0.0021466120512227353 0.00076388074931017661 0 0.002194546715436983 0.00083652846921497407 0 0.0021688963914933261 0.00084444141096652961 0 0.0021431687924673578 0.00076477378690640804 0 0.0021519356542690949 0.00083502591393311211 0 0.0021124550077202 0.00078971317637458783 0 0.0021466120512227353 0.00076388074931017661 0 0.0021315309525345256 0.00080103736208774032 0 0.0021466120512227353 0.00076388074931017661 0 0.002194546715436983 0.00083652846921497407 0 0.0022206644826004624 0.00077548027713013844 0 0.0021897231933120081 0.00095013916234288633 0 0.0021688963914933261 0.00084444141096652961 0 0.0022265128755693895 0.00087245064038313875 0 0.0021439638108797076 0.00085376344854100892 0 0.0021315309525345256 0.00080103736208774032 0 0.0021180004484761678 0.00082376135273052383 0 0.0017194269943345852 0.00093467972702963203 0 0.0021519356542690949 0.00083502591393311211 0 0.002194546715436983 0.00083652846921497407 0 0.0021688963914933261 0.00084444141096652961 0 0.0022265128755693895 0.00087245064038313875 0 0.0021040227375830082 0.00084510913948891459 0 0.0021180004484761678 0.00082376135273052383 0 0.0020956661579541935 0.00081618533201103963 0 0.0021439638108797076 0.00085376344854100892 0 0.0021040227375830082 0.00084510913948891459 0 0.0021180004484761678 0.00082376135273052383 0 0.0021180004484761678 0.00082376135273052383 0 0.0021149976785482592 0.00080626108326308519 0 0.0020956661579541935 0.00081618533201103963 0 0.0021124550077202 0.00078971317637458783 0 0.0021315309525345256 0.00080103736208774032 0 0.0021149976785482592 0.00080626108326308519 0 0.0021315309525345256 0.00080103736208774032 0 0.0021180004484761678 0.00082376135273052383 0 0.0021149976785482592 0.00080626108326308519 0 0.0020739943945273336 0.00079154605466090901 0 0.0021124550077202 0.00078971317637458783 0 0.0020956661579541935 0.00081618533201103963 0 0.0021124550077202 0.00078971317637458783 0 0.0021149976785482592 0.00080626108326308519 0 0.0020956661579541935 0.00081618533201103963 0 0.0021040227375830082 0.00084510913948891459 0 0.0020736534879519917 0.0008499205022671093 0 0.0020956661579541935 0.00081618533201103963 0 0.0020736534879519917 0.0008499205022671093 0 0.0020956661579541935 0.00081618533201103963 0 0.0020520387753509505 0.00082080980614242184 0 0.0020739943945273336 0.00079154605466090901 0 0.0020956661579541935 0.00081618533201103963 0 0.0020520387753509505 0.00082080980614242184 0 0.0023821660845336689 0.00069586087333080239 0 0.0023485283886430144 0.00078285675693372703 0 0.0024254537589919706 0.00084269743663173879 0 0.0024148627157140629 0.00073690889377360589 0 0.0022571746766166692 0.00071145889766547666 0 0.0023821660845336689 0.00069586087333080239 0 0.0023956754586396518 0.00072137377357478331 0 0.0024044308222919519 0.00070220884672337908 0 0.0023246845172009483 0.00069537361930084758 0 0.0023821660845336689 0.00069586087333080239 0 0.0023485283886430144 0.00078285675693372703 0 0.0023083273000042252 0.00073109646505063665 0 0.0022034128947991806 0.00082967635514623838 0 0.0023246845172009483 0.00069537361930084758 0 0.0023485283886430144 0.00078285675693372703 0 0.0022872441075533685 0.00078681403807554862 0 0.002294558278944028 0.0007611118286563835 0 0.002194546715436983 0.00083652846921497407 0 0.0022206644826004624 0.00077548027713013844 0 0.0023246845172009483 0.00069537361930084758 0 0.002194546715436983 0.00083652846921497407 0 0.0022872441075533685 0.00078681403807554862 0 0.002194546715436983 0.00083652846921497407 0 0.0022872441075533685 0.00078681403807554862 0 0.0022784504050491162 0.0008320807564529552 0 0.0023485283886430144 0.00078285675693372703 0 0.0022872441075533685 0.00078681403807554862 0 0.0022784504050491162 0.0008320807564529552 0 0.0022784504050491162 0.0008320807564529552 0 0.0022265128755693895 0.00087245064038313875 0 0.0023073825321757312 0.00089934686190218849 0 0.0017194269943345852 0.00093467972702963203 0 0.0020766124878532802 0.00071634274289728429 0 0.0023485283886430144 0.00078285675693372703 0 0.0022784504050491162 0.0008320807564529552 0 0.0023073825321757312 0.00089934686190218849 0 0.0021897231933120081 0.00095013916234288633 0 0.0022265128755693895 0.00087245064038313875 0 0.0023073825321757312 0.00089934686190218849 0 0.002194546715436983 0.00083652846921497407 0 0.0022784504050491162 0.0008320807564529552 0 0.0022265128755693895 0.00087245064038313875 0 0.0017892196906818196 0.00056670055718211886 0 0.0020600466860491808 0.000447127871436738 0 0.0020940199015707667 0.00059470781061589492 0 0.0018346955137393314 0.00076110132105061375 0 0.0017892196906818196 0.00056670055718211886 0 0.0020940199015707667 0.00059470781061589492 0 0.0023485283886430144 0.00078285675693372703 0 0.0023073825321757312 0.00089934686190218849 0 0.0024254537589919706 0.00084269743663173879 0 0.0020766124878532802 0.00071634274289728429 0 0.0022571746766166692 0.00071145889766547666 0 0.0023576541488199436 0.00072621244337293229 0 0.0023636297361318498 0.00075777521720239661 0 0.0024138690425105059 0.00073108094875641127 0 0.0022571746766166692 0.00071145889766547666 0 0.0018699200096921199 0.00034466019120623926 0 0.0023576541488199436 0.00072621244337293229 0 0.0024230429113116557 0.00070695697500592269 0 0.0024138690425105059 0.00073108094875641127 0 0.001599370224373155 0.00012544663290217308 0 0.001677218640571703 0.00012395394736346279 0 0.0016811370950809269 7.445291271384966e-05 0 0.0018699200096921199 0.00034466019120623926 0 0.0020522721245071597 0.00040063540066051864 0 0.0023956754586396518 0.00072137377357478331 0 0.0024044308222919519 0.00070220884672337908 0 0.0024230429113116557 0.00070695697500592269 0 0.0022571746766166692 0.00071145889766547666 0 0.0024552112579357063 0.00069731218748070637 0 0.0024190450094482181 0.00069127813569241003 0 0.0024044308222919519 0.00070220884672337908 0 0.0024230429113116557 0.00070695697500592269 0 0.0024190450094482181 0.00069127813569241003 0 0.0024044308222919519 0.00070220884672337908 0 0.0024159585363602723 0.00067927152332600824 0 0.0024421488055553953 0.0006800691030705027 0 0.0024459610094507188 0.00066768191483013324 0 0.0024337629950667542 0.00067790746013145166 0 0.0022180228305109053 0.00052694538421675153 0 0.0024724933588728998 0.00074892974511910093 0 0.0024190450094482181 0.00069127813569241003 0 0.0024230429113116557 0.00070695697500592269 0 0.0024337629950667542 0.00067790746013145166 0 0.0024230429113116557 0.00070695697500592269 0 0.002451069836248018 0.00070607996127539183 0 0.0024337629950667542 0.00067790746013145166 0 0.0024230429113116557 0.00070695697500592269 0 0.002451069836248018 0.00070607996127539183 0 0.0024138690425105059 0.00073108094875641127 0 0.0022180228305109053 0.00052694538421675153 0 0.0020522721245071597 0.00040063540066051864 0 0.0017637904919078674 2.5464175299576923e-05 0 0.0016811370950809269 7.445291271384966e-05 0 0.0017380638755317445 0.00011140854092721439 0 0.001677218640571703 0.00012395394736346279 0 0.0016811370950809269 7.445291271384966e-05 0 0.0017380638755317445 0.00011140854092721439 0 0.0016914951937485178 0.00018433539999025263 0 0.001677218640571703 0.00012395394736346279 0 0.0017380638755317445 0.00011140854092721439 0 0.0022180228305109053 0.00052694538421675153 0 0.0020988082550250234 0.0003471539844614355 0 0.0017637904919078674 2.5464175299576923e-05 0 0.0017380638755317445 0.00011140854092721439 0 0.0018284035112206638 0.00011991310093151316 0 0.0017614730174368282 0.00015993997424385687 0 0.0017380638755317445 0.00011140854092721439 0 0.0018284035112206638 0.00011991310093151316 0 0.0024185849704088775 0.00065310647492270303 0 0.0024157946285669955 0.0006459422345851337 0 0.0024141469800400129 0.000654017887103381 0 0.0024080636345791577 0.00064936350426186818 0 0.0024157946285669955 0.0006459422345851337 0 0.0024141469800400129 0.000654017887103381 0 0.0024120261621536831 0.0006613031159623914 0 0.0024141469800400129 0.000654017887103381 0 0.0024128168266144591 0.00065953726276795526 0 0.0024080636345791577 0.00064936350426186818 0 0.0024120261621536831 0.0006613031159623914 0 0.0024141469800400129 0.000654017887103381 0 0.0024185849704088775 0.00065310647492270303 0 0.0024141469800400129 0.000654017887103381 0 0.0024128168266144591 0.00065953726276795526 0 0.0024421488055553953 0.0006800691030705027 0 0.0024459610094507188 0.00066768191483013324 0 0.0024521665718195387 0.00065905474334075479 0 0.0022180228305109053 0.00052694538421675153 0 0.0024652529134877783 0.00066929573744809552 0 0.0024459610094507188 0.00066768191483013324 0 0.0024521665718195387 0.00065905474334075479 0 0.0024525532397282092 0.00065648616973550881 0 0.0024219554644465116 0.0006586893161943544 0 0.0024521665718195387 0.00065905474334075479 0 0.0024520682074349264 0.00065528373879041751 0 0.0024108123454897098 0.00066034223318015603 0 0.0024652529134877783 0.00066929573744809552 0 0.0024219554644465116 0.0006586893161943544 0 0.0024625653872876901 0.00064781188855986922 0 0.0024520682074349264 0.00065528373879041751 0 0.0024657324360542873 0.00064528931880313413 0 0.0024520682074349264 0.00065528373879041751 0 0.0024525532397282092 0.00065648616973550881 0 0.0024521665718195387 0.00065905474334075479 0 0.0024520682074349264 0.00065528373879041751 0 0.0024525532397282092 0.00065648616973550881 0 0.002443291640646396 0.00064012356483563403 0 0.0024525532397282092 0.00065648616973550881 0 0.0024366311080790894 0.00065835676077101229 0 0.002443291640646396 0.00064012356483563403 0 0.0024366311080790894 0.00065835676077101229 0 0.0024071216858018584 0.00064715481329222441 0 0.0024366311080790894 0.00065835676077101229 0 0.0024071216858018584 0.00064715481329222441 0 0.0024159585363602723 0.00067927152332600824 0 0.0023821660845336689 0.00069586087333080239 0 0.0024071216858018584 0.00064715481329222441 0 0.0024159585363602723 0.00067927152332600824 0 0.0023821660845336689 0.00069586087333080239 0 0.0024044308222919519 0.00070220884672337908 0 0.0024159585363602723 0.00067927152332600824 0 0.0024190450094482181 0.00069127813569241003 0 0.0024159585363602723 0.00067927152332600824 0 0.0024337629950667542 0.00067790746013145166 0 0.0024366311080790894 0.00065835676077101229 0 0.0024159585363602723 0.00067927152332600824 0 0.0024337629950667542 0.00067790746013145166 0 0.0024459610094507188 0.00066768191483013324 0 0.0024525532397282092 0.00065648616973550881 0 0.0024366311080790894 0.00065835676077101229 0 0.0024459610094507188 0.00066768191483013324 0 0.0024366311080790894 0.00065835676077101229 0 0.0024337629950667542 0.00067790746013145166 0 
</DataArray>
</PointData>
<CellData Scalars="region_id,cross_section_updated," Vectors="" Tensors="stress,">
<DataArray type="Float64" Name="region_id" format="ascii">
6 5 5 5 5 5 5 5 5 5 5 5 5 5 5 5 5 5 6 5 5 5 6 5 6 5 5 5 5 5 6 5 5 5 5 5 5 6 5 5 6 6 5 5 5 5 5 5 5 6 5 5 5 5 6 5 5 5 5 6 5 5 5 5 5 5 5 5 5 5 5 5 5 5 5 5 5 6 5 5 5 5 5 5 5 5 5 5 5 5 6 5 5 5 5 5 6 5 5 5 5 5 5 5 5 5 6 5 5 5 5 5 5 5 5 5 5 5 5 5 5 5 6 5 5 5 5 5 5 5 6 5 5 5 5 5 5 5 6 5 5 5 5 5 6 5 5 6 5 5 5 5 5 5 5 5 5 5 5 5 5 5 5 5 5 5 5 5 5 5 5 5 5 5 6 5 5 5 6 5 5 5 5 5 5 5 5 5 6 5 5 5 5 5 5 5 5 6 5 5 5 5 6 5 5 5 6 5 5 6 5 5 5 5 5 6 5 6 5 5 5 5 6 5 6 5 5 5 6 5 5 6 6 5 6 6 5 5 6 6 5 5 5 6 5 6 5 6 5 5 5 5 5 6 6 5 5 5 5 5 5 5 5 5 5 6 5 5 5 5 5 5 5 6 6 5 5 5 5 5 5 5 5 6 5 5 5 5 6 5 5 6 5 5 5 6 5 5 5 5 5 5 5 5 6 5 6 5 5 5 5 5 6 5 5 5 5 5 5 5 5 5 5 5 5 5 5 5 6 5 6 6 5 6 5 5 6 5 5 5 5 5 5 5 5 5 6 5 5 6 6 5 5 5 5 6 6 5 6 5 5 5 6 5 5 5 5 6 5 5 5 6 5 6 6 5 5 6 5 5 6 5 5 6 5 5 5 5 5 5 5 5 5 5 5 5 5 5 6 5 5 5 5 6 5 5 5 5 5 5 6 5 5 5 5 5 5 5 5 5 5 5 5 5 5 5 5 5 5 5 5 5 5 5 5 5 5 5 5 5 5 5 5 5 5 5 5 5 5 5 5 5 5 5 5 5 5 5 6 5 5 5 5 5 5 6 5 6 5 5 6 5 5 5 6 5 5 5 5 6 5 5 5 5 5 5 5 5 5 5 5 5 5 5 6 5 5 5 5 5 5 5 6 5 5 5 6 5 5 5 5 5 6 5 5 5 5 5 6 5 5 5 5 5 5 5 6 6 5 5 5 5 5 5 6 5 6 5 6 5 5 5 6 5 5 5 5 6 5 5 5 5 5 5 5 5 5 6 5 5 6 5 5 6 5 6 5 5 6 5 5 5 5 5 5 5 5 6 5 5 5 5 5 5 5 6 5 5 5 6 5 5 5 5 5 5 5 5 5 5 5 5 5 5 5 5 5 5 5 5 5 5 5 5 5 5 5 5 5 6 5 5 5 5 6 5 5 5 5 5 5 5 5 6 5 5 6 5 5 5 5 6 5 5 5 5 5 6 5 5 5 5 5 5 5 5 5 5 5 5 5 5 5 5 5 5 5 5 5 5 5 5 5 5 5 5 5 5 5 5 5 5 5 5 5 5 5 5 5 5 5 5 5 5 5 5 5 5 5 5 5 5 5 5 5 5 5 5 5 5 5 5 5 5 5 5 5 5 5 5 5 5 5 5 5 5 5 5 5 5 5 5 5 5 5 5 6 5 5 5 6 5 6 6 5 6 5 5 5 5 5 5 5 5 5 5 5 5 5 5 5 5 5 5 5 5 5 5 5 5 5 5 5 5 5 5 5 5 5 5 5 5 5 5 6 6 5 5 5 5 6 5 5 5 5 5 5 5 5 5 5 5 5 5 5 5 5 6 5 5 5 5 5 5 5 5 5 5 5 5 5 5 5 5 5 5 5 5 5 5 5 5 5 5 6 5 5 5 6 5 5 5 5 6 5 5 6 5 5 6 5 5 5 6 5 5 5 5 5 5 5 5 5 5 5 5 5 5 5 5 5 6 5 5 5 5 5 5 5 5 5 6 5 5 5 5 5 5 5 5 5 6 5 5 5 5 6 5 5 5 5 5 5 5 5 5 5 6 5 5 5 5 5 5 5 5 5 6 5 6 5 5 5 6 5 5 6 5 6 5 5 6 5 6 5 5 5 5 5 6 6 5 5 5 5 5 5 5 5 5 5 5 5 5 5 5 5 5 5 5 5 5 5 5 5 5 5 5 5 5 6 5 6 5 5 5 5 5 5 6 5 5 5 5 5 5 6 6 5 5 6 5 5 6 5 5 6 5 5 5 5 6 5 5 5 5 6 5 5 6 5 6 5 5 5 5 5 5 5 5 5 5 5 5 5 5 5 5 5 5 5 5 5 5 5 5 5 5 5 5 5 6 5 5 5 5 5 5 5 5 5 5 5 6 5 5 5 6 5 5 6 6 5 5 5 6 5 5 6 6 5 5 5 5 5 5 5 6 5 5 5 5 5 6 5 6 5 6 5 5 5 5 5 5 6 5 5 6 5 5 5 5 5 5 5 6 5 5 5 5 5 6 5 5 5 5 5 5 5 5 5 5 5 5 5 5 6 5 5 5 5 5 5 6 5 5 5 6 6 5 5 5 5 6 5 5 5 5 5 6 6 5 5 5 6 5 5 5 5 5 5 6 5 6 5 5 6 5 6 5 5 5 5 5 5 6 5 5 5 5 5 5 5 5 5 5 5 5 5 5 5 5 5 6 5 5 5 5 5 6 5 5 6 5 5 5 5 5 5 5 5 5 5 5 5 5 5 5 5 5 5 5 5 5 5 5 5 6 5 5 5 6 5 5 5 6 6 5 6 5 5 6 5 5 6 5 5 6 5 5 5 5 5 5 5 5 5 5 5 5 5 6 5 5 6 5 5 6 5 5 5 5 5 5 5 5 6 6 5 5 6 5 5 5 6 5 5 5 6 5 5 5 5 5 5 5 5 5 5 5 5 5 5 5 5 6 5 5 6 5 5 5 5 5 6 5 6 5 6 6 5 6 5 5 6 5 6 5 6 5 5 5 5 5 5 6 5 5 5 5 5 5 5 5 5 6 5 6 5 5 5 5 5 5 5 5 5 5 5 5 5 5 5 6 5 5 5 6 5 5 5 5 5 5 5 5 5 5 5 5 5 5 5 5 6 5 5 5 6 5 6 5 5 5 5 5 5 5 5 5 5 5 5 6 5 5 5 5 5 6 5 6 5 6 5 5 6 5 5 5 6 6 5 5 6 5 6 6 6 5 6 5 6 5 6 6 5 5 5 5 5 6 6 5 5 5 5 5 6 5 5 5 6 5 6 5 6 6 5 5 5 6 5 6 5 5 5 6 5 5 5 6 6 5 5 6 5 5 5 5 6 5 6 5 5 6 5 6 5 5 6 5 5 5 5 5 6 5 5 5 6 5 5 5 6 5 5 5 6 5 6 5 5 5 5 5 5 5 5 5 5 5 5 6 5 5 5 6 5 5 5 5 5 5 5 6 5 5 5 5 5 5 5 5 5 5 5 5 5 5 5 5 5 5 5 5 5 5 5 5 5 5 5 5 5 5 5 5 5 5 5 5 5 5 5 6 5 5 5 5 6 5 5 5 5 5 5 5 5 5 6 5 5 5 5 5 5 5 6 5 5 5 6 5 5 5 6 5 5 6 5 5 5 6 5 5 5 5 5 5 6 5 6 5 5 6 5 5 5 5 5 5 5 5 6 5 5 5 6 5 5 5 5 5 5 5 5 5 5 6 5 5 6 5 5 5 5 5 5 5 6 5 5 5 5 5 5 5 5 5 5 5 5 6 5 5 5 5 6 5 5 6 5 5 5 6 5 5 5 5 5 5 5 5 5 5 5 5 5 5 5 5 5 5 5 5 5 5 6 5 5 5 5 5 5 5 5 5 5 5 5 5 5 5 5 6 5 5 5 5 5 5 5 5 5 6 5 5 5 5 5 5 5 5 5 5 5 5 5 5 5 5 5 6 6 6 6 5 5 5 5 6 5 6 5 5 6 6 5 6 5 5 6 5 5 6 5 5 6 5 5 6 5 5 5 5 5 5 5 6 5 5 5 5 5 5 5 5 5 5 5 6 5 5 5 6 5 5 5 6 5 5 5 5 5 6 5 5 5 6 6 5 5 5 6 5 6 5 5 5 5 5 6 5 5 5 5 5 5 5 5 5 5 5 5 5 5 5 5 5 5 5 6 5 6 5 5 5 5 6 5 5 5 5 6 5 5 5 6 5 5 5 5 6 5 5 6 5 6 5 5 5 5 5 6 6 5 6 6 5 5 6 5 5 5 5 5 5 5 5 5 5 6 5 5 5 5 5 5 5 5 6 5 5 5 5 5 5 5 5 6 5 5 5 5 6 5 5 5 6 5 5 5 5 5 5 5 5 5 5 5 5 5 5 5 5 5 5 5 5 5 5 5 5 5 5 5 5 5 5 5 5 5 5 5 6 5 6 5 5 5 5 5 5 5 5 5 5 5 5 5 5 5 5 5 5 6 5 5 5 5 5 6 5 5 5 6 5 5 6 5 5 5 5 5 6 5 6 5 5 5 5 5 6 5 5 5 6 5 5 6 5 6 5 5 6 5 5 5 6 6 5 5 5 6 5 5 5 5 5 5 5 5 5 5 6 6 5 5 6 5 5 6 5 5 5 5 5 6 5 5 5 6 6 5 5 5 5 6 6 6 5 6 5 5 5 5 5 5 5 6 5 5 5 5 5 5 5 5 5 5 5 5 5 5 6 5 5 5 5 5 6 5 5 5 5 6 5 5 5 5 5 5 6 5 5 5 5 5 5 5 5 6 5 5 5 5 5 5 6 5 5 5 5 6 5 5 5 5 5 5 5 5 5 5 5 6 5 5 5 5 5 6 5 5 6 5 5 5 6 5 6 5 5 6 6 5 5 5 6 5 5 5 5 6 5 5 5 5 5 5 5 5 5 5 5 5 5 5 6 6 5 5 5 6 5 6 5 6 5 6 5 5 5 6 5 5 5 6 5 5 5 6 6 5 6 5 5 5 5 6 5 6 5 5 5 5 5 5 5 5 5 5 5 6 5 5 5 5 5 5 6 5 6 5 5 6 5 5 6 5 5 5 5 5 5 5 5 5 6 5 5 5 5 5 5 5 5 5 5 5 5 5 5 5 6 6 5 5 5 5 6 5 5 5 5 5 5 6 5 5 5 5 6 5 5 5 5 5 5 6 5 5 6 5 5 5 5 5 6 5 5 5 6 5 5 5 5 5 6 5 6 5 6 5 5 5 5 5 5 5 5 5 5 5 5 5 6 5 5 5 6 5 5 5 5 5 5 5 6 5 5 5 5 5 5 5 5 6 5 5 6 5 5 6 5 5 5 5 5 5 5 5 6 5 5 5 5 5 5 6 5 5 5 5 5 5 5 5 5 6 5 5 5 5 5 6 5 5 5 5 5 5 5 5 5 6 5 5 5 5 5 5 6 5 5 5 5 5 5 5 5 6 5 5 5 6 5 5 5 5 5 5 5 5 5 5 5 5 5 5 5 5 5 5 5 5 5 5 5 5 5 5 5 5 5 5 5 5 5 5 5 5 5 5 5 6 5 5 5 6 5 5 6 5 5 5 5 5 5 5 5 5 5 5 5 5 5 5 5 5 5 5 5 5 5 5 5 5 5 5 6 5 6 5 5 5 5 5 5 5 6 5 5 6 5 5 5 6 5 5 5 5 5 6 5 5 5 5 5 5 5 5 5 5 5 5 6 5 5 5 6 5 5 6 5 5 5 5 5 5 5 5 5 5 5 5 6 5 6 5 5 5 5 5 5 5 5 5 6 5 5 5 5 5 5 5 5 6 5 5 5 5 5 6 5 5 5 5 5 5 5 5 5 5 5 5 5 6 5 6 6 5 5 5 5 5 5 6 5 5 5 5 6 5 5 5 6 5 5 5 5 5 5 5 5 5 5 6 5 5 5 5 6 5 5 6 5 6 5 5 5 5 6 5 5 5 5 5 6 6 5 5 5 5 5 5 6 5 5 6 5 5 6 5 5 5 5 5 6 5 5 5 5 5 5 5 5 5 5 6 5 5 5 5 5 5 5 5 5 5 5 5 5 5 5 6 5 5 5 6 5 5 6 5 5 5 5 5 5 6 5 6 5 5 5 5 5 5 5 5 5 6 6 5 5 6 5 6 6 5 5 5 5 5 5 5 5 5 6 5 5 5 5 5 5 5 5 5 5 5 5 5 5 5 5 5 6 5 5 5 5 5 5 5 5 5 5 5 5 5 5 5 5 5 5 6 5 5 5 6 5 5 5 6 5 6 5 5 6 5 5 5 6 5 5 6 5 6 5 5 6 5 6 5 5 6 5 5 5 5 5 5 6 5 5 6 5 5 5 5 5 5 5 5 5 5 6 5 6 5 5 5 6 6 5 5 5 5 6 5 5 5 5 5 6 5 5 5 5 5 6 5 5 5 6 5 5 6 5 5 5 5 5 5 5 6 5 5 5 6 5 5 5 6 5 5 5 5 5 5 6 5 5 6 5 5 5 5 6 5 6 5 5 6 5 5 5 5 6 5 5 5 5 5 5 5 5 5 5 5 5 5 5 5 5 5 5 5 5 5 5 5 5 5 5 5 5 5 5 5 5 5 5 5 5 6 5 5 5 6 5 5 5 5 5 5 5 5 5 5 5 5 5 5 5 6 5 5 5 5 5 5 5 6 5 5 5 5 5 5 5 5 5 5 5 5 6 5 6 5 5 5 5 5 6 5 5 6 5 5 6 6 5 5 6 5 5 6 5 5 6 5 5 5 5 5 6 5 5 5 5 5 5 5 5 6 5 5 5 5 5 5 5 5 6 5 5 5 5 5 6 5 5 5 5 5 5 5 5 5 5 5 5 5 5 5 5 6 5 5 6 5 5 5 5 5 5 5 5 5 5 5 5 5 5 5 6 5 5 5 5 5 5 5 6 5 5 5 5 5 5 5 5 5 5 5 5 5 6 5 5 5 5 5 5 5 6 6 5 5 5 5 5 5 6 5 5 5 5 5 5 5 5 5 5 5 5 5 5 5 6 5 5 5 5 5 5 5 5 5 5 6 5 5 5 5 5 5 5 5 5 5 6 5 5 6 5 5 5 5 5 5 5 5 5 5 6 6 5 5 6 5 5 5 5 5 5 6 5 6 5 5 5 5 5 6 5 5 5 5 5 5 5 5 5 5 6 5 5 5 5 5 6 5 5 5 5 5 5 5 5 5 5 5 5 5 5 5 5 5 5 5 5 5 5 5 5 5 5 5 5 5 5 6 6 5 5 5 5 6 5 5 5 5 5 5 5 5 5 5 5 5 5 5 5 5 5 5 5 5 5 5 5 5 5 5 5 5 6 5 5 5 5 5 5 5 5 5 5 5 5 5 5 5 5 5 5 5 5 5 5 6 5 6 5 5 5 5 5 5 5 5 5 5 5 5 5 5 5 5 5 5 6 5 5 6 5 5 5 5 5 5 5 6 6 6 5 5 5 5 5 6 5 5 5 5 5 5 5 5 5 5 5 5 5 5 5 5 5 5 5 5 5 5 5 5 5 5 5 6 5 5 5 5 6 5 5 6 5 5 6 5 5 6 5 6 5 5 5 5 5 5 5 5 5 5 5 5 6 5 5 5 6 5 5 5 5 5 5 5 5 5 5 6 5 5 6 6 5 5 5 6 6 6 5 5 5 5 5 6 5 6 6 5 5 6 6 5 6 5 5 6 5 5 5 6 6 6 6 5 5 5 5 5 5 5 5 5 5 5 5 5 5 5 5 5 5 5 5 5 5 6 5 5 5 6 5 5 5 5 5 5 5 5 5 5 5 5 5 5 5 5 5 5 5 5 5 5 5 5 5 6 5 5 5 6 5 5 5 5 6 5 5 5 6 5 5 5 5 5 5 5 5 5 5 5 5 5 6 5 6 5 5 5 5 5 5 5 5 5 5 5 5 5 5 5 5 5 5 5 5 5 5 5 5 6 6 6 5 5 5 5 5 5 6 5 5 5 5 5 5 5 5 5 5 5 6 5 5 5 5 5 5 5 5 5 5 5 5 5 5 5 6 5 5 6 6 5 5 6 5 5 5 5 5 5 5 5 5 5 5 5 5 5 5 5 5 5 5 5 5 5 6 5 5 6 5 5 5 5 5 5 5 5 5 5 5 5 6 5 5 5 5 5 5 5 5 5 5 6 5 5 5 5 5 5 5 5 5 6 5 5 6 5 5 5 6 5 5 5 6 5 5 5 5 5 5 6 5 5 5 5 5 5 5 5 5 6 5 5 6 5 6 5 5 6 5 5 5 5 5 5 5 5 5 5 5 5 5 6 5 5 5 5 5 5 5 5 5 5 5 6 5 5 5 5 5 6 6 6 5 5 5 5 5 5 5 5 5 5 5 5 5 5 5 5 5 5 5 5 5 5 5 5 5 6 5 6 5 5 6 5 5 5 5 5 5 5 6 5 5 5 5 5 5 5 5 5 6 5 5 6 5 5 5 5 5 5 5 5 6 5 5 5 5 6 5 5 5 5 5 5 5 5 5 5 5 5 5 5 5 5 5 5 5 5 5 5 5 5 5 5 5 5 6 5 5 6 5 5 5 5 5 5 5 6 5 5 5 5 5 5 6 5 5 5 5 5 5 5 5 5 5 6 5 5 5 5 5 5 5 5 5 5 6 5 5 5 5 5 6 5 5 6 5 5 5 5 5 5 5 5 5 5 5 5 5 5 5 5 6 5 5 5 5 5 5 5 5 5 5 5 5 5 5 5 5 5 5 5 6 5 5 5 5 6 5 5 5 6 5 5 5 6 5 5 5 6 5 6 5 5 5 5 5 5 5 5 5 5 5 5 5 5 5 5 5 5 5 5 5 6 5 5 5 6 5 5 5 5 5 6 5 5 5 6 5 5 5 5 5 5 5 5 5 5 5 6 6 5 5 5 5 5 6 5 5 5 5 6 5 5 6 5 5 5 5 5 5 5 5 5 5 5 5 5 5 5 5 5 5 5 5 5 5 5 5 5 5 5 5 5 5 5 5 5 5 5 5 5 6 5 5 5 5 5 6 5 6 5 5 5 5 5 5 5 5 5 5 5 5 5 5 5 5 5 5 5 5 5 5 6 5 5 5 6 6 5 5 6 5 5 5 5 5 5 5 5 5 5 5 5 6 6 5 5 5 5 5 5 6 5 5 5 5 6 5 5 5 5 6 5 5 5 5 6 5 5 5 5 5 5 6 6 5 5 5 5 6 5 5 5 5 5 5 5 5 5 5 6 5 5 5 6 5 5 5 5 6 6 5 5 5 5 5 5 5 5 5 5 5 6 5 5 5 6 5 5 5 5 5 5 5 5 6 5 5 5 5 5 5 5 5 5 5 5 5 5 5 5 5 5 5 5 5 5 5 5 5 5 5 5 5 5 5 5 5 5 5 5 5 5 5 5 5 6 5 5 5 5 5 5 5 5 5 5 5 5 5 5 5 5 5 5 5 5 5 5 5 5 5 5 5 5 5 5 5 5 5 6 5 5 5 6 5 5 5 5 5 5 5 6 5 6 5 5 5 5 5 5 5 5 5 5 6 5 5 5 5 6 5 6 5 5 5 5 5 5 5 5 5 5 5 5 5 5 5 5 5 5 5 5 5 5 5 5 5 5 5 5 5 5 5 5 5 5 5 5 5 5 5 5 5 5 5 5 5 5 5 5 5 5 5 6 5 5 5 5 5 5 5 5 5 5 5 5 6 5 5 5 6 5 6 6 5 5 5 5 5 5 5 5 6 5 5 6 5 5 5 6 5 5 5 5 5 5 5 5 6 5 5 6 5 5 5 5 5 5 5 6 6 5 5 5 5 5 6 5 5 5 6 5 5 5 5 5 5 5 5 6 5 5 5 6 5 5 5 5 5 6 5 5 5 6 5 5 5 5 5 5 5 5 5 5 5 5 5 5 5 5 5 5 5 5 5 5 5 5 5 5 5 5 5 5 5 5 5 5 5 5 5 5 5 5 5 5 5 5 5 5 5 5 5 6 5 5 5 6 5 5 5 6 5 5 5 5 5 5 5 5 6 5 5 6 5 5 5 5 5 5 5 5 5 5 5 6 5 5 5 5 5 5 5 5 5 6 5 6 5 6 6 5 5 5 5 5 5 5 5 5 5 5 5 5 5 5 5 5 5 5 5 5 5 5 5 5 5 5 5 5 5 5 5 5 5 5 5 5 5 5 5 5 5 5 5 5 5 5 5 5 5 5 5 5 5 5 5 5 5 5 5 5 5 5 5 5 5 5 5 5 5 5 5 5 5 5 5 5 5 5 5 5 5 5 5 5 5 5 5 5 5 5 5 5 5 5 5 5 5 5 5 5 5 6 5 5 6 5 5 6 5 5 6 5 5 5 5 5 5 5 5 5 5 5 5 5 5 5 5 5 5 5 5 5 5 5 5 5 5 6 6 5 5 5 5 5 5 5 5 5 5 5 5 6 5 5 5 6 5 6 5 5 5 6 5 5 5 5 5 5 6 5 5 5 5 5 5 5 5 5 6 5 5 5 5 5 5 6 5 5 6 5 5 5 5 5 5 6 5 5 5 5 5 5 5 5 5 5 5 5 5 5 5 5 5 5 5 5 5 6 5 6 5 5 5 5 5 5 5 5 5 5 5 5 5 5 6 5 5 5 6 5 5 5 5 5 5 5 5 5 6 5 5 5 5 5 5 5 5 5 6 5 5 5 5 5 5 5 5 5 5 5 5 5 5 5 5 5 5 5 5 5 5 5 5 5 6 5 5 5 5 5 5 5 5 5 5 6 5 5 6 5 5 5 5 5 5 5 5 5 5 5 5 5 5 5 5 5 5 5 6 5 5 5 5 5 5 5 5 5 5 5 5 5 5 5 5 5 5 5 5 5 5 5 5 5 5 5 5 5 5 5 5 5 5 5 6 5 5 6 5 5 5 5 6 5 5 5 6 5 5 5 5 5 5 5 5 5 5 5 6 5 5 5 5 5 5 5 5 5 5 5 5 5 5 5 5 5 5 6 5 6 5 5 5 5 5 5 5 5 5 5 5 5 5 5 5 6 5 5 6 5 5 5 6 5 5 5 5 6 5 5 6 5 5 5 5 5 5 5 5 6 5 5 5 6 5 5 6 5 5 5 5 5 5 5 5 5 5 5 5 5 5 5 5 6 5 5 5 5 6 5 5 5 5 5 5 5 5 5 5 6 5 5 6 5 5 5 5 5 5 6 5 5 5 5 5 5 5 5 6 6 5 5 5 5 5 5 6 5 5 5 5 5 5 5 5 5 5 5 5 5 5 6 5 6 5 5 5 5 5 5 5 5 5 5 5 5 6 5 5 5 5 5 5 5 5 5 5 5 5 6 5 5 5 5 5 5 5 6 5 5 5 5 5 5 5 5 6 5 5 6 5 5 5 5 5 5 6 5 5 5 5 5 5 5 5 5 5 6 5 5 5 5 5 5 6 5 5 5 5 5 5 6 5 5 5 6 5 5 5 5 5 5 5 5 5 5 5 6 5 5 5 5 5 5 6 5 5 5 5 5 6 5 5 5 5 5 6 5 5 5 5 5 5 5 5 6 5 5 5 5 5 5 5 6 5 5 6 5 5 5 5 5 5 5 5 5 5 5 5 5 5 5 5 5 5 5 5 5 5 6 5 5 6 5 5 6 5 5 5 5 5 5 5 5 5 5 5 5 5 5 5 5 5 5 5 5 5 5 5 5 5 5 5 5 5 5 5 5 5 5 5 5 5 5 5 5 5 5 5 5 5 5 5 5 5 5 5 5 5 5 5 5 5 5 5 5 5 5 5 5 5 5 6 5 5 5 5 6 5 5 5 5 5 5 6 5 5 5 5 5 5 5 5 5 5 5 6 5 5 5 5 5 6 5 5 5 5 5 5 5 5 5 5 5 5 5 5 5 5 5 5 5 6 5 5 5 5 5 5 6 5 5 5 5 5 6 5 5 5 5 5 5 5 5 5 5 6 5 5 5 5 5 5 5 5 5 5 5 6 5 5 5 5 5 5 5 5 6 5 5 5 6 5 5 5 5 6 5 5 5 5 5 5 5 6 5 6 5 6 5 5 5 5 5 5 5 5 5 5 5 5 5 6 5 5 5 5 5 5 5 5 5 6 5 5 5 5 5 5 5 5 5 5 5 5 5 5 5 5 5 5 5 5 6 5 5 5 6 5 5 5 5 5 5 5 5 5 5 5 5 5 6 5 5 5 6 5 5 6 5 5 5 6 6 5 5 5 6 5 5 5 6 5 6 6 5 6 6 6 5 5 5 5 5 5 6 5 5 6 5 5 6 5 5 5 5 5 5 5 5 5 6 5 6 5 5 5 5 5 5 5 5 5 5 5 5 5 5 6 5 5 5 5 6 5 5 5 5 6 5 6 5 5 5 5 5 6 5 5 6 5 5 5 6 5 5 5 5 5 6 5 6 6 5 5 5 6 5 5 6 6 5 5 5 5 6 5 6 5 5 5 5 5 5 6 5 5 5 5 5 5 5 5 5 5 5 5 5 5 5 6 5 5 5 6 5 6 6 5 6 5 6 5 5 6 5 5 5 6 5 5 5 5 6 5 5 5 5 5 5 6 6 5 5 5 6 6 5 5 6 5 6 5 6 6 5 5 5 5 5 5 5 5 5 5 5 5 5 6 5 5 5 5 5 5 5 5 5 5 5 5 5 6 5 5 5 6 6 5 5 5 5 5 5 5 5 5 5 5 5 5 6 5 5 5 5 5 6 5 5 5 5 5 5 5 6 5 5 6 5 5 5 5 5 5 5 5 5 5 6 5 5 5 6 5 6 5 5 5 5 5 5 5 5 5 5 5 5 5 5 5 5 5 6 6 5 5 5 5 6 5 5 5 5 5 5 6 5 5 5 5 6 6 5 5 5 6 5 5 6 5 5 5 5 5 5 5 6 5 5 6 5 6 6 5 5 6 6 5 6 5 5 5 5 5 5 5 5 5 5 6 5 5 5 6 6 5 6 5 5 5 5 5 5 6 5 6 5 5 5 5 5 5 5 5 5 5 5 6 5 5 5 5 5 5 5 5 5 5 5 5 5 5 5 5 5 5 6 5 5 5 5 6 5 5 6 6 5 5 5 5 6 5 5 5 5 5 5 5 6 5 5 5 6 5 5 5 5 5 6 5 5 5 5 5 6 5 5 5 5 5 6 5 5 5 5 5 5 5 5 5 6 5 5 5 5 6 5 6 5 6 5 5 5 6 5 6 5 5 6 5 5 5 5 5 5 6 5 5 6 5 6 5 5 5 5 5 5 5 5 6 5 5 5 5 5 5 5 5 5 6 5 5 5 5 5 6 5 6 5 5 5 5 5 5 5 5 5 5 5 5 5 5 5 5 5 5 5 5 5 5 5 5 6 5 5 5 6 5 5 6 5 5 5 5 5 5 6 5 5 5 5 5 5 5 5 5 5 5 5 6 6 5 5 5 6 5 6 5 5 5 6 5 5 5 5 6 5 6 5 5 5 5 5 5 6 5 5 5 5 5 5 6 5 6 5 5 5 5 6 5 5 5 5 5 5 5 5 5 6 5 6 5 5 5 5 5 5 5 5 5 5 5 5 5 5 5 5 5 5 5 5 5 5 5 5 5 5 6 5 5 6 5 5 5 5 5 5 5 5 5 5 5 5 5 5 5 5 5 5 5 5 5 5 5 5 5 5 5 5 5 5 6 5 5 5 5 5 5 5 5 5 5 5 5 5 5 5 5 6 5 5 5 5 5 5 5 5 5 5 5 5 5 5 6 5 5 5 5 5 5 5 5 5 5 5 5 5 5 5 5 5 5 5 5 5 5 5 5 5 5 6 5 5 5 5 5 5 5 5 5 5 5 5 5 5 5 6 5 5 5 6 5 5 5 5 5 5 5 5 5 5 5 5 5 5 5 5 5 6 5 5 5 6 5 5 5 5 6 5 5 6 5 5 5 5 5 5 5 5 5 5 5 6 5 5 5 6 5 6 5 5 5 5 5 5 5 6 5 5 5 5 5 6 5 5 5 5 5 6 5 5 5 5 5 6 5 5 5 5 5 5 5 5 5 5 5 5 5 5 6 5 5 5 5 6 5 6 5 5 5 5 5 6 5 5 5 5 6 5 5 5 5 5 5 6 5 5 6 5 5 5 5 5 5 6 5 5 5 5 6 5 5 5 6 5 5 5 5 5 5 6 5 5 5 5 5 5 5 5 5 5 5 5 5 5 5 5 5 5 5 5 5 5 6 5 6 5 5 5 5 5 5 5 5 5 5 5 5 5 5 5 5 5 5 5 6 6 5 5 5 5 5 5 5 5 6 5 5 5 5 5 5 5 5 5 5 5 6 5 5 5 6 5 5 6 5 5 5 5 5 5 5 5 5 5 5 5 5 5 5 6 5 5 5 5 6 5 5 5 6 5 5 5 5 5 5 5 5 5 6 5 5 5 5 5 5 5 5 5 5 5 5 5 5 5 5 5 5 5 5 6 5 5 5 6 5 5 5 6 5 5 5 5 5 6 5 5 6 5 5 6 6 5 5 6 5 5 5 5 5 5 6 5 5 6 5 5 6 5 5 5 5 5 5 6 5 5 5 5 5 5 5 5 5 5 5 5 5 5 5 5 5 5 6 5 5 5 5 6 5 5 5 5 5 5 5 5 5 5 5 5 5 5 5 5 5 5 5 5 5 5 5 5 5 5 5 5 5 5 5 5 5 5 6 5 5 6 5 5 5 5 6 5 5 5 5 5 5 6 5 5 5 5 5 5 5 5 5 5 5 5 5 5 5 5 5 5 5 6 5 5 6 5 6 5 5 6 5 5 5 5 5 5 5 5 5 5 5 5 6 5 5 5 5 5 6 5 5 5 5 5 5 5 5 5 5 5 5 5 5 5 5 5 5 5 5 5 6 6 5 5 5 5 5 5 5 5 5 6 5 6 5 5 6 5 6 5 5 5 5 5 5 6 6 5 5 5 5 6 5 5 5 5 5 6 5 6 5 5 5 5 5 5 5 5 5 5 5 5 5 5 6 5 5 5 5 5 5 6 5 5 5 5 5 6 5 5 5 5 5 5 5 5 5 5 5 5 5 5 5 5 5 5 5 5 5 5 5 5 5 6 5 5 5 5 5 5 5 5 5 5 5 5 5 5 5 5 5 5 5 5 5 5 5 5 5 5 5 5 5 5 5 5 5 5 5 5 5 5 5 5 5 5 5 5 5 5 5 5 5 5 6 5 5 5 5 6 5 5 5 5 5 5 5 5 5 5 5 5 5 5 5 5 5 5 5 5 6 5 5 6 5 5 5 5 6 5 5 5 5 5 5 6 5 5 5 5 5 5 5 5 5 5 5 5 6 5 6 5 5 5 5 5 5 5 5 5 5 5 5 6 5 5 5 5 5 6 5 5 5 6 6 5 5 5 5 6 5 5 5 5 5 5 5 6 5 5 5 5 5 5 5 5 5 5 6 5 5 5 5 5 5 5 5 5 5 5 5 6 6 5 5 5 5 6 6 5 5 5 5 5 5 5 6 5 5 6 5 5 5 5 6 5 5 5 5 5 5 5 6 5 5 6 6 5 5 5 5 5 5 5 5 6 6 5 6 6 5 5 5 6 5 6 5 5 5 5 5 5 5 5 5 5 5 5 5 5 5 5 5 5 5 5 5 5 5 5 5 5 5 5 5 5 5 5 5 5 6 6 5 5 5 5 5 5 5 5 5 5 5 5 6 5 5 5 5 5 5 5 6 5 5 5 5 5 5 5 6 5 5 5 5 5 5 5 5 5 6 5 5 5 5 6 6 5 5 5 5 5 5 5 5 5 5 5 5 5 6 5 5 5 5 5 5 5 5 5 5 5 5 5 5 5 5 5 5 5 5 5 5 5 5 5 5 5 5 5 6 5 6 5 5 5 6 5 6 5 5 5 5 5 5 5 5 5 5 5 5 5 5 5 5 6 5 5 5 5 5 5 5 5 5 5 5 5 5 5 5 5 5 5 5 5 5 6 5 6 5 5 5 5 5 5 5 5 5 6 5 5 6 5 5 6 5 5 6 5 5 5 5 5 5 5 5 5 5 5 5 5 5 5 5 5 5 5 6 5 5 5 6 5 5 5 5 5 5 5 5 5 5 5 5 5 5 5 5 5 5 5 5 5 5 5 5 5 5 5 5 5 5 5 5 5 5 5 5 5 5 5 5 5 5 5 5 5 5 5 5 5 5 5 5 5 5 5 5 5 5 5 6 5 5 5 5 5 5 5 5 5 5 5 5 5 5 5 5 5 5 5 5 5 5 6 5 5 5 5 5 5 5 5 5 5 5 5 6 5 5 5 5 6 5 5 5 5 5 5 5 5 5 6 5 5 5 5 5 5 5 5 5 5 5 5 5 5 5 5 5 5 5 5 6 5 5 5 5 5 5 5 5 5 5 5 5 5 5 5 5 6 5 6 5 5 5 5 5 5 5 5 5 5 5 5 5 5 5 5 5 5 5 5 5 5 5 5 5 5 5 5 5 5 5 5 5 5 5 5 5 5 5 5 5 5 5 5 5 5 5 5 5 5 5 5 5 5 5 5 5 5 5 5 5 5 5 5 5 5 5 5 5 6 5 5 5 5 5 6 5 5 5 5 5 5 5 5 5 5 5 5 5 6 5 5 5 5 5 5 5 5 6 5 5 5 5 6 6 5 5 6 5 6 5 5 5 5 5 5 6 5 5 6 5 5 5 5 5 5 6 5 5 5 5 5 5 5 5 5 5 5 5 5 5 5 5 5 5 6 5 5 5 5 5 5 5 5 6 5 5 5 5 6 5 5 5 5 5 5 5 5 5 5 5 5 5 6 5 5 5 5 6 5 5 5 5 5 5 5 6 5 5 5 5 6 5 5 5 5 5 5 6 5 5 5 5 6 5 5 5 5 5 5 5 5 5 5 5 6 5 5 5 5 5 5 5 5 5 6 5 5 5 6 5 5 5 6 5 5 5 5 5 5 5 6 5 5 5 6 5 5 5 5 5 5 5 6 5 5 6 5 5 5 5 5 5 5 5 6 5 5 5 5 5 5 5 6 5 5 6 5 5 5 5 5 5 5 5 5 6 5 5 5 5 6 5 5 6 5 5 5 5 6 5 5 5 5 5 6 5 5 5 5 5 5 5 5 5 5 5 5 5 5 6 5 5 5 5 5 5 5 5 5 6 5 5 5 5 5 5 6 5 5 5 5 5 5 5 5 5 5 5 5 5 5 5 5 5 5 5 5 5 5 5 5 5 5 5 5 5 5 5 5 5 5 5 5 5 5 5 5 5 5 5 6 5 5 5 5 5 6 5 5 5 5 5 6 5 5 5 5 5 5 5 5 5 5 5 5 5 5 5 5 5 5 5 5 5 6 5 6 5 5 5 6 5 6 5 5 5 6 5 5 5 5 5 5 5 5 5 5 5 6 6 5 5 5 5 5 5 5 5 5 6 6 5 5 5 5 5 5 5 5 5 5 6 5 5 5 5 5 5 5 5 6 6 5 5 5 5 5 6 5 5 5 5 5 6 5 6 5 5 5 5 5 6 5 5 5 5 5 5 6 5 5 5 5 5 5 5 5 5 5 6 5 6 5 6 5 5 5 5 5 5 5 5 5 5 5 5 6 5 5 5 6 5 5 6 5 5 5 5 5 6 5 5 5 5 5 5 5 5 5 5 5 5 5 5 5 5 5 5 5 5 6 5 5 5 5 5 5 5 5 5 5 5 5 5 5 5 5 5 5 5 5 5 5 5 5 5 5 5 6 5 5 5 5 5 5 5 5 5 6 5 5 5 5 5 6 5 5 5 5 5 5 5 5 5 5 5 5 5 5 5 5 5 5 5 5 5 5 5 6 5 6 5 5 5 5 5 5 5 5 6 5 5 5 6 5 5 6 5 6 5 5 5 5 5 5 6 6 6 5 5 5 6 5 5 5 5 5 5 5 5 5 6 5 5 5 6 5 5 5 5 6 5 5 5 5 5 5 5 5 5 5 5 5 5 5 5 5 5 6 5 5 5 5 5 6 5 5 6 6 5 5 6 5 5 5 5 5 5 5 5 5 6 5 6 5 6 5 5 5 5 6 5 5 6 5 5 5 6 5 5 5 5 5 6 5 5 5 6 5 5 5 5 5 6 5 5 5 5 5 5 5 5 5 6 5 5 5 6 5 5 5 5 5 5 5 5 5 5 5 6 5 5 5 5 6 5 6 5 5 5 5 5 6 6 5 5 5 5 5 5 5 5 5 6 5 5 5 5 5 6 5 5 5 5 5 5 5 5 6 5 6 5 5 6 5 5 5 5 5 5 5 5 6 5 5 6 5 5 5 5 6 5 5 5 5 5 5 5 5 5 5 5 5 5 5 5 5 5 6 5 5 5 5 5 5 5 5 5 5 5 5 6 5 5 6 6 6 5 6 5 5 5 5 5 5 6 5 6 5 5 5 5 5 5 5 5 5 5 6 5 5 5 5 5 5 6 5 5 5 6 5 5 6 6 5 5 5 5 5 6 5 5 5 6 5 5 5 5 5 5 5 5 5 5 5 5 6 5 5 5 5 5 5 5 6 5 5 5 5 5 5 5 5 5 5 6 5 5 5 5 6 5 6 5 5 5 6 5 5 5 6 5 5 5 5 5 5 5 5 5 5 5 5 5 6 5 5 5 5 6 5 5 5 5 5 5 5 5 5 5 5 5 6 5 5 6 5 5 5 5 5 5 5 5 5 5 5 6 6 5 5 5 5 5 5 5 5 5 5 5 5 5 5 5 5 5 5 5 5 5 5 6 5 5 5 5 5 5 5 5 5 5 5 5 5 5 5 5 5 5 5 5 5 5 5 5 5 6 5 5 5 5 5 5 5 5 5 5 5 5 5 6 6 5 5 5 5 5 5 6 5 5 5 6 6 5 5 5 5 5 5 6 5 5 5 5 6 5 5 5 6 5 6 5 5 5 5 5 5 5 5 5 5 5 5 6 5 5 6 5 5 5 5 5 5 5 5 5 6 5 5 5 6 6 5 5 5 5 5 5 5 5 5 5 5 6 5 6 5 5 5 5 5 5 6 5 5 6 5 5 5 5 5 5 5 6 5 5 5 5 5 5 5 5 6 5 5 5 5 5 5 5 5 5 5 5 5 6 6 5 5 5 5 6 5 5 6 5 5 5 5 5 5 5 5 5 6 5 5 5 5 6 5 5 5 5 5 5 5 5 5 5 6 5 5 5 6 5 5 5 5 5 6 5 5 5 5 5 5 5 5 5 6 5 5 5 5 5 5 5 5 5 5 5 5 5 5 5 5 5 5 5 5 5 5 5 5 5 5 5 5 5 6 6 5 5 5 5 5 5 5 5 5 5 5 5 6 5 5 5 5 5 5 5 5 5 5 5 5 5 5 5 5 5 5 5 5 6 5 5 5 5 5 5 5 5 5 5 5 5 5 5 5 6 5 5 5 5 5 5 5 5 5 5 5 5 5 6 6 5 5 5 5 5 5 5 5 5 5 5 5 5 5 5 5 5 5 5 5 5 5 5 5 5 5 5 5 5 5 5 5 5 5 5 5 5 5 5 6 5 5 5 5 6 5 5 5 5 5 5 5 5 5 5 5 5 5 5 5 5 5 5 6 5 6 5 6 5 5 5 5 5 5 5 5 5 5 5 5 5 5 6 5 5 5 5 5 5 5 5 5 5 5 6 6 5 5 5 5 5 5 5 5 5 5 5 5 5 5 5 5 5 5 5 5 5 5 5 6 5 5 5 5 5 5 6 5 5 5 5 5 5 5 5 6 5 5 5 5 6 5 5 5 5 5 5 5 5 5 5 5 5 5 6 5 5 6 5 5 5 5 5 5 6 5 5 5 5 5 5 5 5 5 5 6 5 5 5 5 6 5 5 5 5 5 5 5 5 5 5 5 5 5 5 6 5 5 6 5 5 5 5 5 5 5 6 5 5 5 6 5 6 5 5 5 5 6 5 5 5 6 5 5 5 6 5 5 5 5 5 5 5 5 5 5 6 6 5 5 6 6 5 5 5 5 5 6 5 6 6 5 5 5 5 5 5 5 5 6 5 6 5 5 5 5 5 5 5 5 5 5 5 5 5 5 5 5 5 5 5 5 5 5 5 5 5 5 5 5 5 5 5 5 5 5 5 5 5 5 5 5 5 5 5 5 5 5 5 5 5 5 5 5 5 5 5 5 5 5 5 5 5 5 5 5 5 6 5 6 5 5 5 5 5 5 5 6 5 5 5 6 5 5 5 5 5 5 5 5 5 5 5 5 6 5 5 5 5 5 5 5 6 6 5 5 5 5 5 5 5 5 6 5 5 5 5 5 6 5 5 6 5 5 5 5 5 5 5 5 5 5 5 5 5 5 5 5 5 5 5 5 5 5 5 5 6 6 6 5 5 5 5 5 5 6 5 6 5 5 5 5 5 5 5 5 5 6 5 5 6 5 5 6 6 5 5 5 6 5 6 5 5 6 6 5 5 5 5 5 6 5 6 5 5 6 5 5 6 5 6 5 6 6 5 6 5 6 6 5 5 5 5 5 6 5 6 6 5 5 6 5 6 5 6 5 6 5 5 5 6 5 5 5 5 6 5 5 5 5 5 6 5 5 5 6 6 5 5 5 5 5 5 5 5 5 5 5 6 5 6 6 6 5 5 5 5 5 5 5 5 6 5 5 5 6 5 5 5 5 5 5 5 5 5 5 5 6 6 5 5 5 5 6 6 6 5 6 5 5 6 5 5 5 5 5 5 5 6 5 5 5 6 5 5 5 5 5 5 5 5 5 5 5 5 6 5 5 5 6 5 5 5 5 5 5 6 5 5 5 5 5 5 6 5 6 5 5 5 5 5 5 5 5 5 5 5 5 5 5 5 5 5 5 5 5 5 5 5 5 5 5 5 5 5 5 5 5 5 5 5 5 5 5 5 5 5 6 6 5 5 5 5 5 5 5 6 5 5 6 5 5 5 5 5 6 5 5 5 5 5 5 5 5 5 6 5 6 5 6 5 5 5 5 5 5 5 5 5 5 5 5 5 5 5 5 5 5 5 5 6 5 5 5 6 5 5 5 6 6 5 6 6 5 5 6 5 6 5 5 6 5 5 5 5 5 5 5 5 5 5 6 5 5 5 5 6 5 5 5 5 5 5 5 5 5 5 5 5 5 5 6 5 5 5 5 5 5 6 5 5 5 5 5 5 5 5 5 5 5 6 5 6 5 6 5 5 6 5 5 6 6 5 6 5 5 5 5 5 5 5 6 6 5 5 5 5 5 5 6 5 6 5 5 6 5 5 5 5 6 5 5 5 5 5 5 5 5 5 6 5 5 5 5 6 5 5 5 5 6 5 5 5 6 5 5 5 5 5 6 5 5 5 5 5 5 6 5 5 5 5 5 6 5 5 5 5 5 5 5 5 5 5 6 5 5 5 5 5 5 5 5 5 5 5 6 5 5 5 5 5 5 5 5 5 5 5 5 5 5 5 5 5 5 6 5 5 5 5 5 5 5 5 5 5 5 5 5 5 5 6 5 5 5 5 6 5 5 6 5 5 5 5 5 6 5 5 5 5 6 6 5 5 5 5 5 5 5 6 6 5 5 5 5 5 6 5 6 5 5 6 5 5 5 5 5 5 5 5 6 5 5 5 5 5 5 5 6 5 5 5 5 5 5 6 5 5 5 5 6 5 5 5 5 5 5 5 5 5 5 5 5 6 5 5 5 5 5 5 5 5 5 5 5 5 5 5 5 5 5 5 5 5 5 5 5 5 5 5 5 5 6 5 5 5 5 5 5 5 5 5 5 5 5 5 5 5 5 5 6 5 5 5 5 5 5 5 5 6 6 5 5 5 5 5 5 5 5 5 5 5 5 6 5 5 5 5 5 5 5 5 5 5 5 5 5 5 5 5 5 5 5 5 5 5 5 5 5 5 5 5 6 6 5 5 5 5 5 6 5 5 5 6 6 5 5 5 5 5 5 5 5 5 5 5 5 5 5 6 6 5 5 6 5 5 5 6 6 6 5 5 5 5 5 5 5 5 5 6 5 5 6 5 5 5 6 6 5 6 5 5 5 5 5 5 5 5 5 5 6 5 6 5 5 5 5 5 6 5 6 5 5 6 5 5 5 5 5 5 5 5 5 5 5 5 6 5 5 5 5 5 5 5 5 5 5 5 5 5 5 5 6 5 5 5 5 5 5 5 5 5 5 5 5 5 5 5 5 5 5 6 5 5 6 6 5 6 5 5 5 5 5 5 5 5 5 5 5 5 6 5 5 5 5 6 5 5 5 5 5 5 5 5 5 5 5 5 6 5 5 5 5 5 5 5 5 5 5 5 5 5 5 5 5 5 5 5 5 5 5 5 5 5 6 5 5 5 5 5 5 5 5 5 5 5 5 5 5 5 5 5 5 5 5 5 5 5 5 5 5 5 5 5 6 5 5 6 5 5 5 5 5 5 5 5 5 5 6 5 5 5 5 5 5 5 5 5 5 5 5 5 5 5 5 5 5 5 5 5 5 5 5 5 5 5 5 5 5 5 5 5 5 5 5 5 5 5 5 5 5 5 5 5 5 5 6 5 5 5 6 5 5 5 5 5 5 5 5 5 5 5 5 5 5 5 5 5 5 5 5 5 5 5 5 5 5 5 5 5 5 6 5 5 5 5 6 5 5 5 5 5 5 5 5 5 5 5 5 5 5 5 6 5 5 5 5 5 5 5 5 5 5 5 5 5 5 5 5 5 5 5 6 5 5 5 6 5 5 5 5 5 5 5 5 5 5 5 5 5 5 5 5 5 5 6 5 5 5 5 5 6 5 5 5 6 5 5 5 5 5 5 5 5 5 5 6 5 5 5 5 5 5 5 5 5 5 5 5 5 5 5 6 5 5 5 5 6 5 5 5 5 5 5 5 5 5 5 5 5 6 5 5 6 5 5 5 5 5 5 6 5 5 5 5 5 5 6 5 6 5 5 6 5 6 5 5 5 6 5 5 5 6 5 5 5 6 5 5 5 5 5 5 5 5 6 5 5 6 5 5 5 5 5 5 5 5 5 5 5 5 
</DataArray>
<DataArray type="Float64" Name="stress" NumberOfComponents="9" format="ascii">
2.1541574902782585 0.79830175819338678 0 0.79830175819338678 0.37563903135156879 0 0 0 0 83.70373114926042 142.70315277970892 0 142.70315277970892 412.28865313251112 0 0 0 0 496.22959668312177 -103.49414967174913 0 -103.49414967174913 3.0053272175179031 0 0 0 0 35.070249952164886 3.1627814972494805 0 3.1627814972494805 0.16878995668372498 0 0 0 0 0.53674907372078451 -1.5700912171346459 0 -1.5700912171346459 156.93405101839414 0 0 0 0 -9.1710404882633156 39.866677212655034 0 39.866677212655034 301.90486174342982 0 0 0 0 194.08562012669427 137.93027208536051 0 137.93027208536051 168.23225215986298 0 0 0 0 -8.4743562613984977 39.249877724746341 0 39.249877724746341 198.43152318437427 0 0 0 0 65.046787382713092 105.7694810222432 0 105.7694810222432 136.55202553050336 0 0 0 0 212.21785964311493 218.37214216458452 0 218.37214216458452 293.33926929323007 0 0 0 0 498.55235403484312 105.41972976846407 0 105.41972976846407 -27.568298355347189 0 0 0 0 -22.37272191243818 154.31600996334117 0 154.31600996334117 64.425869467156218 0 0 0 0 -32.693523735359122 -64.656869238721242 0 -64.656869238721242 1.1800061350340059 0 0 0 0 67.980430217465255 71.690602401983199 0 71.690602401983199 144.72401884193633 0 0 0 0 269.22864679967824 121.62615648265404 0 121.62615648265404 59.741565066464666 0 0 0 0 21.040185495003243 55.689364398364958 0 55.689364398364958 -126.95535103141307 0 0 0 0 9.3669439195946325 11.783760194161829 0 11.783760194161829 -111.93225028944227 0 0 0 0 251.64607501433238 -130.63720463829202 0 -130.63720463829202 -89.598563420649626 0 0 0 0 0.93797466572276988 0.035600716392455212 0 0.035600716392455212 -0.19842766002964263 0 0 0 0 333.57457063676634 -101.04767870835525 0 -101.04767870835525 -118.62297756963129 0 0 0 0 77.158838594850067 136.09391522309619 0 136.09391522309619 -110.09266855071502 0 0 0 0 -0.97675103880283132 60.622178313698853 0 60.622178313698853 -116.0223456817121 0 0 0 0 4.2810376961865444 1.9713886319290417 0 1.9713886319290417 0.49468699507694491 0 0 0 0 -9.472085661123856 -60.136556217085023 0 -60.136556217085023 -56.181185387253997 0 0 0 0 0.6506057681012436 0.35523655937133647 0 0.35523655937133647 0.038851827130759728 0 0 0 0 47.291557897719031 127.03126343809504 0 127.03126343809504 -88.754160566991715 0 0 0 0 26.069366942261695 48.220085405019745 0 48.220085405019745 61.8334950900081 0 0 0 0 9.1619451284132083 69.47553427714746 0 69.47553427714746 81.889083796089892 0 0 0 0 5.7036674013324955 42.510277977908359 0 42.510277977908359 73.282717442661252 0 0 0 0 15.42189627996504 22.013092681078291 0 22.013092681078291 7.9264887911225514 0 0 0 0 3.7323268667332528 0.32459733268639823 0 0.32459733268639823 -0.42722168086698464 0 0 0 0 9.3018171986112748 55.95184549322704 0 55.95184549322704 129.44755631383237 0 0 0 0 8.6540103883598931 42.205987709561953 0 42.205987709561953 126.61654200997987 0 0 0 0 14.241353806288316 30.224076680745668 0 30.224076680745668 140.37696691915846 0 0 0 0 -8.9084533182758605 45.323711374075913 0 45.323711374075913 131.03232334525791 0 0 0 0 -10.246881294164268 65.50117166119631 0 65.50117166119631 142.88315837068575 0 0 0 0 4.9474288446926948 1.106132213999504 0 1.106132213999504 0.0028144662414973879 0 0 0 0 5.4158951465696816 1.4248392363174829 0 1.4248392363174829 0.20118663681150642 0 0 0 0 20.686002191338048 -3.3195985425220669 0 -3.3195985425220669 4.9432383312906039 0 0 0 0 12.317569491788163 18.683941281232308 0 18.683941281232308 117.81000570073689 0 0 0 0 1.1415466807701904 0.93357622444517396 0 0.93357622444517396 0.30100052553552686 0 0 0 0 4.4921115896368988 1.0984031379625576 0 1.0984031379625576 0.12788874018909596 0 0 0 0 5.2147093422754551 2.2443848093284799 0 2.2443848093284799 1.1412352106921446 0 0 0 0 5.5506673561940261 1.3303514077173966 0 1.3303514077173966 0.067574475205219309 0 0 0 0 7.1611138241787557 1.5744886554821111 0 1.5744886554821111 -0.01169205177098448 0 0 0 0 8.3541002944039064 1.4523296018746932 0 1.4523296018746932 -0.00017527425411151612 0 0 0 0 5.4904686004501855 1.3266334952938736 0 1.3266334952938736 0.13441592867177532 0 0 0 0 7.0921696441382664 1.5499197727008323 0 1.5499197727008323 -1.3708955183219018 0 0 0 0 4.8581415140615718 0.85700289145853503 0 0.85700289145853503 1.1700886059755078 0 0 0 0 6.4059764565354698 1.5212910655476999 0 1.5212910655476999 0.1743649123626099 0 0 0 0 7.0371381397744699 2.3287729050942119 0 2.3287729050942119 -0.40353299003135135 0 0 0 0 6.8647063495645853 2.6730495672052257 0 2.6730495672052257 1.3876382545266495 0 0 0 0 7.2974669481936871 2.1384931089083921 0 2.1384931089083921 1.6281529130950005 0 0 0 0 5.3686879774668341 2.1847719678104482 0 2.1847719678104482 2.9440013895716106 0 0 0 0 3.9732406892629513 -0.41856129191418212 0 -0.41856129191418212 -1.0941590894845084 0 0 0 0 6.434962670373352 3.2677985706291963 0 3.2677985706291963 3.1126826017548606 0 0 0 0 9.8458033327151497 2.6050882323017106 0 2.6050882323017106 -0.91806777720563559 0 0 0 0 9.8880813982621021 2.2151687439344556 0 2.2151687439344556 -3.2713633902695278 0 0 0 0 9.0531104087494896 1.7253222982398597 0 1.7253222982398597 -1.8823653409061691 0 0 0 0 8.3327127129081973 1.6953040123731562 0 1.6953040123731562 0.24147049022574385 0 0 0 0 7.27862478400084 1.5386029078699721 0 1.5386029078699721 -0.068006964630285438 0 0 0 0 8.2822250119570526 2.8627919973922644 0 2.8627919973922644 1.3986649292750997 0 0 0 0 7.7035327426128788 2.7892064512633041 0 2.7892064512633041 1.4770749825435558 0 0 0 0 8.427379694899173 2.6167050050757794 0 2.6167050050757794 -0.68691876919160677 0 0 0 0 8.3681606422142067 4.1841031616581503 0 4.1841031616581503 1.1881406184744083 0 0 0 0 8.4929359500274586 4.7563455301001749 0 4.7563455301001749 1.8105766986256846 0 0 0 0 10.861773652713964 5.5655646774972922 0 5.5655646774972922 -2.0905597170157648 0 0 0 0 3.5456384244607762 6.4088314431306728 0 6.4088314431306728 5.6955487619574683 0 0 0 0 4.6570969996282656 4.3058167372273033 0 4.3058167372273033 5.8252710937466645 0 0 0 0 6.7461253427027259 5.6575366641074742 0 5.6575366641074742 2.2684821933144939 0 0 0 0 7.9607306755769969 7.6771531908569557 0 7.6771531908569557 5.4198366770833672 0 0 0 0 7.1445282834465615 4.354291754451225 0 4.354291754451225 4.7959051949617901 0 0 0 0 7.1662563706649962 4.145695264343022 0 4.145695264343022 3.0440521511965244 0 0 0 0 5.0694685483613284 4.1708342268382239 0 4.1708342268382239 4.7807842831691119 0 0 0 0 3.9670507962509873 3.2341004646490319 0 3.2341004646490319 5.6191832148104481 0 0 0 0 6.6093297939341937 3.0499642562833884 0 3.0499642562833884 4.7794323411626465 0 0 0 0 6.6133842963172356 3.1046791789245844 0 3.1046791789245844 5.4789822171452442 0 0 0 0 4.4544204172271584 -0.48753169344315772 0 -0.48753169344315772 -1.2244510822459138 0 0 0 0 6.8940986629568215 3.8276222537858118 0 3.8276222537858118 4.5954756621343904 0 0 0 0 7.5175074642856998 4.1567216052076432 0 4.1567216052076432 4.4341028990251345 0 0 0 0 209.17271632801203 -82.08115060765472 0 -82.08115060765472 92.139875049382042 0 0 0 0 7.0235895862304005 3.3007176439503043 0 3.3007176439503043 5.4746259594122932 0 0 0 0 8.7004972564027412 3.0759669803626366 0 3.0759669803626366 4.1775984206348085 0 0 0 0 8.2942022092975094 2.1012730679856304 0 2.1012730679856304 5.2892464458610675 0 0 0 0 8.0558965546406398 3.3958719211289861 0 3.3958719211289861 4.037828152005261 0 0 0 0 7.358515953659662 3.5819937446240857 0 3.5819937446240857 4.0299707434183061 0 0 0 0 7.6381194317618792 3.3629361625042549 0 3.3629361625042549 2.504190701875288 0 0 0 0 7.5768331063418373 3.5407979356106729 0 3.5407979356106729 3.1692098449304211 0 0 0 0 7.723881460411576 3.7470599263601585 0 3.7470599263601585 3.0887949427645793 0 0 0 0 123.97935918339135 118.38766974032569 0 118.38766974032569 7.2333402205483459 0 0 0 0 0.70093496638826824 0.23533741873906067 0 0.23533741873906067 0.052892587397982194 0 0 0 0 7.587903670653759 5.5784704659235729 0 5.5784704659235729 6.2682171398864739 0 0 0 0 3.7615562910905282 1.2053929088017412 0 1.2053929088017412 2.6820772852720438 0 0 0 0 7.3725535485791625 4.2436621365943665 0 4.2436621365943665 3.6756731195002885 0 0 0 0 6.2296357161867491 2.3740524222186821 0 2.3740524222186821 4.7719560057778381 0 0 0 0 6.2631077299593017 2.7085826526601977 0 2.7085826526601977 7.5030517577561113 0 0 0 0 2.5082080677796128 -0.52871670301749063 0 -0.52871670301749063 -0.97959980780774014 0 0 0 0 0.97110728396364721 2.1708900484309197 0 2.1708900484309197 5.3455501883785246 0 0 0 0 0.44445503957058463 4.0714873941117844 0 4.0714873941117844 8.3323382970421562 0 0 0 0 4.2076773182707257 4.0410938941149936 0 4.0410938941149936 6.251397573781901 0 0 0 0 -52.374187781762885 59.074157655063516 0 59.074157655063516 93.366131285189212 0 0 0 0 -31.457476419494924 110.33311116066869 0 110.33311116066869 171.50359553964879 0 0 0 0 24.69208870276816 126.45629159401554 0 126.45629159401554 95.5128221646886 0 0 0 0 74.572889430301984 73.504283652249242 0 73.504283652249242 75.414438498736757 0 0 0 0 -14.2810122393239 175.69174682290091 0 175.69174682290091 107.14272962378357 0 0 0 0 7.088394797356159 2.6340473949565606 0 2.6340473949565606 3.9715577756984146 0 0 0 0 1.6998576999133945 1.0032737887998255 0 1.0032737887998255 0.41629404548885424 0 0 0 0 180.28533915602293 30.789859957281031 0 30.789859957281031 -90.776343793546204 0 0 0 0 115.05364896138144 -19.617807175580751 0 -19.617807175580751 -95.766559674771159 0 0 0 0 -0.986419236911388 -18.803652133226194 0 -18.803652133226194 -60.876632835510918 0 0 0 0 54.199950328569685 -8.9960513659840444 0 -8.9960513659840444 -58.201085229520416 0 0 0 0 12.46646743504698 30.438776889126906 0 30.438776889126906 -26.206228228372439 0 0 0 0 91.988938064918329 0.57343744656031248 0 0.57343744656031248 -65.989445257603791 0 0 0 0 97.879943529494994 12.5439014438751 0 12.5439014438751 -65.444069981488198 0 0 0 0 89.953192068016051 5.0568703612976957 0 5.0568703612976957 -72.040211282082097 0 0 0 0 83.067890090714172 13.530870915358033 0 13.530870915358033 -40.627934147804709 0 0 0 0 125.78949030446893 23.017142441583953 0 23.017142441583953 -24.740453188750656 0 0 0 0 93.586242069506625 0.41405689568554038 0 0.41405689568554038 -38.064678521421719 0 0 0 0 48.387894069913273 34.582842178993872 0 34.582842178993872 -7.4615861627401481 0 0 0 0 35.292897366540274 19.453495456123697 0 19.453495456123697 -24.930380927469173 0 0 0 0 4.3698931337676186 0.26701028461447152 0 0.26701028461447152 -1.5748967309260564 0 0 0 0 1.773444800015568 -0.73766591599752473 0 -0.73766591599752473 -0.39484145752527411 0 0 0 0 0.96812410314895025 -0.30608699513756221 0 -0.30608699513756221 -0.89079831132694631 0 0 0 0 2.084645827231725 0.575515187249664 0 0.575515187249664 0.19610314122695627 0 0 0 0 97.408092275034505 15.348518678641124 0 15.348518678641124 -23.210742471872418 0 0 0 0 18.96110405484751 43.454619453154436 0 43.454619453154436 -24.682370282660017 0 0 0 0 76.122447680254481 -2.2768426640926691 0 -2.2768426640926691 -34.256335000316533 0 0 0 0 133.9844950492552 -27.725117493790783 0 -27.725117493790783 -26.45706427381382 0 0 0 0 34.811862134847615 -29.629557568954688 0 -29.629557568954688 5.4794601437157837 0 0 0 0 4.3703722857280809 0.37661159446158265 0 0.37661159446158265 -0.96907379622777512 0 0 0 0 0.10972153707741228 -0.5994640320134188 0 -0.5994640320134188 -0.36295838227942462 0 0 0 0 2.2787692932361097 -0.0041327478124060235 0 -0.0041327478124060235 -0.093725356254196868 0 0 0 0 3.0249260253840475 0.99212773216304129 0 0.99212773216304129 -0.29294113043209791 0 0 0 0 2.3322079972344909 0.3546629087412283 0 0.3546629087412283 0.17094707374502605 0 0 0 0 2.734876567927131 -0.76971390488725788 0 -0.76971390488725788 -0.2579590937993288 0 0 0 0 -0.82356060132588027 5.8743726624922585 0 5.8743726624922585 32.550482135033562 0 0 0 0 81.252445233292747 -52.345601800703022 0 -52.345601800703022 11.09097084418697 0 0 0 0 141.63074247140639 -66.161082262865818 0 -66.161082262865818 93.80958263042686 0 0 0 0 0.045830446132245406 -0.29262534639748594 0 -0.29262534639748594 0.69547358507537727 0 0 0 0 22.156427801122845 9.6934849677451993 0 9.6934849677451993 7.2643732002358661 0 0 0 0 17.342500257240317 5.7671403807894279 0 5.7671403807894279 1.993134609306793 0 0 0 0 19.142521672748444 3.9500323674589382 0 3.9500323674589382 -1.5415052070915465 0 0 0 0 11.867880895222697 10.857265572625071 0 10.857265572625071 24.00234176822098 0 0 0 0 3.6541686587461299 -0.20837466409704319 0 -0.20837466409704319 9.2171168994932771 0 0 0 0 0.47799183267208534 0.58178934656424275 0 0.58178934656424275 -0.060913768323698367 0 0 0 0 39.954516554464135 0.093057891282199989 0 0.093057891282199989 8.6140692772569594 0 0 0 0 -7.0316510377815575 -3.1788883340139584 0 -3.1788883340139584 21.667193746022122 0 0 0 0 0.11298530548814512 -0.58974888920685231 0 -0.58974888920685231 -0.053538192830304178 0 0 0 0 5.698168332507521 -6.7749855221959887 0 -6.7749855221959887 1.4669922512967162 0 0 0 0 16.03955407331523 -2.2665669575652885 0 -2.2665669575652885 -7.5484854639014145 0 0 0 0 13.710499939479632 0.86723853187346833 0 0.86723853187346833 -3.2014362823580313 0 0 0 0 20.364259104646408 71.008823776673239 0 71.008823776673239 13.633657761695467 0 0 0 0 99.829851284479446 34.550843317585233 0 34.550843317585233 -7.4651178887202398 0 0 0 0 83.748202505510562 22.425016883339321 0 22.425016883339321 -5.4447108012015484 0 0 0 0 204.23429132234014 7.2022412576131103 0 7.2022412576131103 -15.424791660874966 0 0 0 0 164.4369924458515 -27.066467602376832 0 -27.066467602376832 -44.333364038890636 0 0 0 0 357.33143374932479 -70.966855377038485 0 -70.966855377038485 -54.496872916407824 0 0 0 0 273.65496674161659 103.91872479481185 0 103.91872479481185 -32.120398104057969 0 0 0 0 56.601423673276258 72.212799972502822 0 72.212799972502822 8.6701419442781003 0 0 0 0 69.738091149754837 82.147015803511479 0 82.147015803511479 -24.011368789221109 0 0 0 0 -35.057839934695949 -6.7867529326353804 0 -6.7867529326353804 -40.957417317660997 0 0 0 0 -53.403598338210941 72.789454958445333 0 72.789454958445333 28.027883895247726 0 0 0 0 5.9311226578065543 55.653342557413325 0 55.653342557413325 31.833364561722412 0 0 0 0 117.20818964039972 54.75352799554696 0 54.75352799554696 11.684301799914795 0 0 0 0 18.367153063732985 30.336525134470328 0 30.336525134470328 18.199005595039836 0 0 0 0 29.492136970232423 48.716966249435323 0 48.716966249435323 -2.0615099147432261 0 0 0 0 234.36530716229754 -2.6512454177480294 0 -2.6512454177480294 -57.195420756616784 0 0 0 0 499.92931270099962 55.941505677954275 0 55.941505677954275 -117.45628386209371 0 0 0 0 222.50937967645223 -37.341440329227297 0 -37.341440329227297 -121.82520017616582 0 0 0 0 229.37767111915673 93.02084116774806 0 93.02084116774806 -85.488642143800959 0 0 0 0 191.35742434547046 150.25655966257497 0 150.25655966257497 32.836471250939098 0 0 0 0 20.479571510986716 98.031157677937983 0 98.031157677937983 91.247911784154979 0 0 0 0 -8.3908279350744124 39.269739597144081 0 39.269739597144081 38.546194223794515 0 0 0 0 499.06087324682449 232.68101149280429 0 232.68101149280429 -35.609738232656795 0 0 0 0 1.9279705014462607 0.99167846721875641 0 0.99167846721875641 0.4045019439051657 0 0 0 0 493.31513115131281 -25.412207608311171 0 -25.412207608311171 -111.84656394209169 0 0 0 0 107.27321801385733 239.16047008745727 0 239.16047008745727 208.6930229625481 0 0 0 0 20.297386222025125 1.1053366968411353 0 1.1053366968411353 -27.163498718941412 0 0 0 0 4.5464112390411842 1.8902613140724291 0 1.8902613140724291 0.44365638248799893 0 0 0 0 16.192755271928036 58.136052060688591 0 58.136052060688591 -111.04144239036054 0 0 0 0 -23.553646636716621 23.639038224925031 0 23.639038224925031 -10.537495817661124 0 0 0 0 14.41958718917158 2.7242234117336679 0 2.7242234117336679 -78.257568759135879 0 0 0 0 2.1749317396461265 41.024396245036215 0 41.024396245036215 26.080043627738593 0 0 0 0 -0.061852723738411441 38.147159260539041 0 38.147159260539041 51.903085937229768 0 0 0 0 7.8389776331005123 33.844194800982812 0 33.844194800982812 -11.837490840170148 0 0 0 0 54.235271594752703 61.464388565647717 0 61.464388565647717 -6.4126320534831223 0 0 0 0 9.2405340573733383 13.110348108631834 0 13.110348108631834 -17.055921299562797 0 0 0 0 15.392572714977177 7.3465151393185941 0 7.3465151393185941 -16.644357706687217 0 0 0 0 4.9582076602779921 -1.9221666375365238 0 -1.9221666375365238 0.24044730455191532 0 0 0 0 6.6499990225729562 -14.608449819416592 0 -14.608449819416592 -19.747506594090584 0 0 0 0 42.95542018958713 -7.201277330724702 0 -7.201277330724702 -20.973552538653166 0 0 0 0 -0.14746589568449053 -14.789839758621007 0 -14.789839758621007 -1.9451784029540704 0 0 0 0 22.036962196185414 21.105523897334816 0 21.105523897334816 8.5371139999359613 0 0 0 0 0.69562664945442521 8.1368307998561633 0 8.1368307998561633 27.727389025225495 0 0 0 0 37.421651582574896 -14.890433716515304 0 -14.890433716515304 6.4169292784478644 0 0 0 0 18.490441523393201 -6.5015836962259108 0 -6.5015836962259108 3.0929404497434314 0 0 0 0 23.719971420071033 -1.2887884326382657 0 -1.2887884326382657 -0.012215337129198636 0 0 0 0 0.29846956283820703 -0.21530827598372504 0 -0.21530827598372504 0.16811414172058675 0 0 0 0 30.611773816649929 8.6078082768588828 0 8.6078082768588828 1.7343489662613143 0 0 0 0 4.1869977092792396 3.9432981201881914 0 3.9432981201881914 3.8488193052408697 0 0 0 0 6.1947359790533483 -0.24457359515521876 0 -0.24457359515521876 -1.7191618344229971 0 0 0 0 1.3227120440196813 -2.4464938449050138 0 -2.4464938449050138 0.011324869788910372 0 0 0 0 1.0006744349042478 -0.57081980829549117 0 -0.57081980829549117 0.34914408427451643 0 0 0 0 -3.4762876026998129 3.953537652160982 0 3.953537652160982 14.786136857115856 0 0 0 0 16.498062680942894 -30.030921824839943 0 -30.030921824839943 4.0581965786480794 0 0 0 0 -2.9858651713411746 6.3837677733567944 0 6.3837677733567944 7.6860774775899188 0 0 0 0 5.3034071537990535 -3.0461572204788236 0 -3.0461572204788236 1.0502129675763463 0 0 0 0 -4.4873816903291299 -20.620308079866341 0 -20.620308079866341 -4.863436847744488 0 0 0 0 -6.4930592204709683 -5.1037760295279284 0 -5.1037760295279284 37.141585027363753 0 0 0 0 0.0037519037029909441 -0.21394103918922447 0 -0.21394103918922447 0.27751661605890549 0 0 0 0 16.107924622834616 0.99404361352435444 0 0.99404361352435444 -2.2264420855997713 0 0 0 0 -14.987795496557737 13.884495407041559 0 13.884495407041559 -6.2891321962140978 0 0 0 0 20.029794240210322 -8.3567277959442521 0 -8.3567277959442521 0.61886602921018152 0 0 0 0 5.8316595167880223 -3.2594025914329698 0 -3.2594025914329698 4.5859838134877862 0 0 0 0 9.4086797989984916 -9.092912347447303 0 -9.092912347447303 13.332891217887919 0 0 0 0 5.4294637616507284 -4.8069947752486044 0 -4.8069947752486044 0.87214413813486624 0 0 0 0 7.4775936214755347 -2.1386958704472647 0 -2.1386958704472647 1.4348424531306714 0 0 0 0 3.9130833554040052 1.3461185688209873 0 1.3461185688209873 -0.22275931992503084 0 0 0 0 9.1283211046210226 1.5219106743199156 0 1.5219106743199156 -1.6681188734897887 0 0 0 0 10.294992229576565 -0.45961465171735938 0 -0.45961465171735938 1.446471754152185 0 0 0 0 9.1213995230100409 1.779269320690446 0 1.779269320690446 -8.8397386252507886 0 0 0 0 -4.6671733054123479 -9.7416763490505502 0 -9.7416763490505502 1.7451936925053815 0 0 0 0 5.9711809131486966 -3.5737716796241727 0 -3.5737716796241727 1.0670068672920807 0 0 0 0 9.053804860341188 -5.4096663714693136 0 -5.4096663714693136 -6.8553624372876385 0 0 0 0 1.5129871139823479 -1.1429232484908471 0 -1.1429232484908471 0.54640156974811283 0 0 0 0 1.7072262364454218 -2.4549735579678695 0 -2.4549735579678695 -0.38572019740695174 0 0 0 0 0.90071400937813451 -1.7414427413422686 0 -1.7414427413422686 0.12066760720745151 0 0 0 0 -1.5953607573683257 7.8056806358693933 0 7.8056806358693933 0.026753676125494539 0 0 0 0 2.1705310124421686 -0.8432915106864165 0 -0.8432915106864165 0.30457336002755808 0 0 0 0 1.5194191344853607 -0.16819462945883973 0 -0.16819462945883973 -0.0018430796229936181 0 0 0 0 3.8567510321299778 -0.98869071687988708 0 -0.98869071687988708 -0.92189034228726996 0 0 0 0 4.3784133593489969 -0.95141594193800572 0 -0.95141594193800572 -0.55973349785984539 0 0 0 0 3.493061455184673 -3.0589494272903872 0 -3.0589494272903872 -0.038691267194682646 0 0 0 0 17.159169908685726 -27.293393500538926 0 -27.293393500538926 51.733394034310606 0 0 0 0 2.4157535295282671 2.3103070280708895 0 2.3103070280708895 -0.98714524497986056 0 0 0 0 0.091370468976720076 -0.45081394887977178 0 -0.45081394887977178 0.17217432077216982 0 0 0 0 6.3265900910046184 -5.1654896994230883 0 -5.1654896994230883 -0.88306537697648191 0 0 0 0 4.5768275802693097 -1.3251271457546068 0 -1.3251271457546068 -1.2860105445879526 0 0 0 0 3.6502261760150105 -0.65549328770108062 0 -0.65549328770108062 -0.21177470987949695 0 0 0 0 4.995984520670909 -2.357111676078592 0 -2.357111676078592 -0.30536451841833945 0 0 0 0 8.0738990531172021 -2.0845296784857368 0 -2.0845296784857368 -1.1744369268393688 0 0 0 0 9.0933118987268244 -6.3686832440992305 0 -6.3686832440992305 -0.72996772083536143 0 0 0 0 8.9260592328773782 0.0027340689239565563 0 0.0027340689239565563 -0.93853855909081929 0 0 0 0 2.8525887902613238 0.4835258839119021 0 0.4835258839119021 -1.4990496773418893 0 0 0 0 8.3397601774595387 0.30522445146764454 0 0.30522445146764454 0.92266966804905337 0 0 0 0 7.2974922674686198 0.37189332197462543 0 0.37189332197462543 -0.028418164324677211 0 0 0 0 7.7245482966577583 1.7339324590633358 0 1.7339324590633358 -0.22380479883646842 0 0 0 0 4.0054279219083213 -1.233447842242704 0 -1.233447842242704 -1.5289890705079068 0 0 0 0 8.1089065005799057 0.22253609563212251 0 0.22253609563212251 1.432532097182563 0 0 0 0 11.979846867744527 0.99406321563523292 0 0.99406321563523292 -1.0676876448833141 0 0 0 0 9.0085386364080478 0.26496430474006122 0 0.26496430474006122 -0.44204423925421882 0 0 0 0 15.207315310414742 0.90806001132736469 0 0.90806001132736469 -9.6339192811523162 0 0 0 0 12.454729629302165 0.027419730618930771 0 0.027419730618930771 -1.4701835545624995 0 0 0 0 10.32230006305744 1.3249209123280989 0 1.3249209123280989 -0.41819487339715689 0 0 0 0 14.260177081861688 2.8318248674208526 0 2.8318248674208526 -0.12637084806956803 0 0 0 0 14.664944771711816 10.826026295468502 0 10.826026295468502 -15.455321658648359 0 0 0 0 13.559377167091952 9.0000397822602416 0 9.0000397822602416 0.18900964910297802 0 0 0 0 6.8244229254914899 10.178185687390229 0 10.178185687390229 -0.0031779047675755123 0 0 0 0 2.2028455591462262 6.0940000942517258 0 6.0940000942517258 6.6583873787834591 0 0 0 0 1.5940970140363788 7.9600068420974139 0 7.9600068420974139 13.608603613734886 0 0 0 0 5.8087311145282001 13.365593063993519 0 13.365593063993519 8.0497841060316979 0 0 0 0 5.1695123783874806 14.47916353486352 0 14.47916353486352 9.2317446881207843 0 0 0 0 -1.3975967996304917 -44.848461807719644 0 -44.848461807719644 15.851541627885069 0 0 0 0 16.087653818884064 1.0712535758681554 0 1.0712535758681554 -0.6010021424455374 0 0 0 0 14.771756975558674 20.558886961604017 0 20.558886961604017 -1.0086365183754253 0 0 0 0 3.5455220714634343 -1.8804334931486153 0 -1.8804334931486153 -0.99519432032791788 0 0 0 0 185.79827316912269 -107.3388461712151 0 -107.3388461712151 12.958108663603184 0 0 0 0 11.794703613264574 25.83260513704343 0 25.83260513704343 24.063316468537039 0 0 0 0 1.4986846576175594 1.1437164415534653 0 1.1437164415534653 12.980931343292696 0 0 0 0 0.54120907238029758 7.0134174912737421 0 7.0134174912737421 25.661318923576147 0 0 0 0 64.484915822897165 -52.742990999217881 0 -52.742990999217881 -17.959612101335324 0 0 0 0 22.333066766371303 -0.93857477735733497 0 -0.93857477735733497 -0.58701505373650775 0 0 0 0 103.61516076156568 78.77541766074026 0 78.77541766074026 -39.688936642463602 0 0 0 0 5.8782053875061422 4.5728395823055976 0 4.5728395823055976 0.12706320106304525 0 0 0 0 0.16884432083199385 0.55207159210977608 0 0.55207159210977608 1.0566089625144128 0 0 0 0 1.0749354593735916 -1.733602349148839 0 -1.733602349148839 8.0018769433104922 0 0 0 0 1.5805692157009616 4.8505562159992337 0 4.8505562159992337 7.2621431188301244 0 0 0 0 1.5076511761235452 6.4032251779307217 0 6.4032251779307217 11.970187456512804 0 0 0 0 0.44487544584444549 4.3302310955549785 0 4.3302310955549785 9.5389523283638482 0 0 0 0 2.1750378843353246 -2.6892383324276352 0 -2.6892383324276352 -0.43239367383506533 0 0 0 0 56.183704799270345 10.045423950534669 0 10.045423950534669 25.996125966130464 0 0 0 0 1.6451498060414451 0.35100405663820311 0 0.35100405663820311 -1.9016129298918862 0 0 0 0 1.7330485414422583 -0.087673820988158013 0 -0.087673820988158013 -0.82805475222727409 0 0 0 0 1.5212074818100447 0.65012784482756203 0 0.65012784482756203 -1.0306045241423365 0 0 0 0 2.0538517648456036 -0.81129013277711692 0 -0.81129013277711692 -1.9538717682037827 0 0 0 0 23.604580413869371 -0.48675803755544322 0 -0.48675803755544322 -0.61914692939737392 0 0 0 0 14.673668590955458 8.1942702658930919 0 8.1942702658930919 -3.9895007091263324 0 0 0 0 1.0332245687586692 0.67784576844255184 0 0.67784576844255184 -0.53024733809242264 0 0 0 0 4.3753006945163975 5.138950945699678 0 5.138950945699678 0.66603103399495101 0 0 0 0 49.344587301514366 -12.086199627631117 0 -12.086199627631117 6.7701802772645578 0 0 0 0 0.9468734983856848 0.52257128578570899 0 0.52257128578570899 0.21634247883446278 0 0 0 0 0.62455360956569805 0.48191377664240065 0 0.48191377664240065 -0.35001318465446418 0 0 0 0 1.6377706374951231 0.78877187497386103 0 0.78877187497386103 -0.35339630676585898 0 0 0 0 1.1365680537110165 0.020750264962444476 0 0.020750264962444476 0.14032263573669468 0 0 0 0 31.420859198846301 -22.052143025421827 0 -22.052143025421827 2.1137911077588569 0 0 0 0 4.4776549406124353 5.126172786678179 0 5.126172786678179 0.93549172911655165 0 0 0 0 -0.66149038419143835 17.972647832154003 0 17.972647832154003 -0.74561698076013272 0 0 0 0 33.861044699928243 -0.34278275760163979 0 -0.34278275760163979 -8.8148069279919099 0 0 0 0 34.216630372097825 -12.175176195602205 0 -12.175176195602205 0.46244381459817419 0 0 0 0 31.957167462594043 11.42183249252237 0 11.42183249252237 -3.7139460680232474 0 0 0 0 13.919821017856066 -2.2542684722260162 0 -2.2542684722260162 14.660327557620548 0 0 0 0 43.397634548411816 -13.565451099834805 0 -13.565451099834805 -8.4155416990329286 0 0 0 0 28.879465845886443 -1.0442037142258869 0 -1.0442037142258869 1.9687055026667508 0 0 0 0 44.233762850108178 -11.572061687038968 0 -11.572061687038968 -0.55977738702924285 0 0 0 0 -0.65376922931177006 -1.0287817560485886 0 -1.0287817560485886 0.79282432590865026 0 0 0 0 28.428142773505897 0.53890280852198202 0 0.53890280852198202 2.1749239237101037 0 0 0 0 5.1216231205997786 -5.3341970068374938 0 -5.3341970068374938 1.9687277405815151 0 0 0 0 14.494385412630436 -2.6136545093689847 0 -2.6136545093689847 1.1167714756818441 0 0 0 0 -10.080175356062682 -8.475341131236604 0 -8.475341131236604 21.512152892748915 0 0 0 0 11.562649074727233 -2.6313757725856703 0 -2.6313757725856703 2.576750556035563 0 0 0 0 10.832568618484402 -4.9913317106431236 0 -4.9913317106431236 1.6427436998415033 0 0 0 0 11.345573596434406 -4.0429163913401709 0 -4.0429163913401709 0.42001987352227843 0 0 0 0 3.911316784793053 -5.3330837041981987 0 -5.3330837041981987 1.5492104962603488 0 0 0 0 11.562911211537539 -11.11360622287404 0 -11.11360622287404 -5.6489841984592459 0 0 0 0 12.466982372569873 -5.0581712043055802 0 -5.0581712043055802 0.89389985100171998 0 0 0 0 11.550024611868139 -5.8783359619642397 0 -5.8783359619642397 2.3591026687174974 0 0 0 0 13.036607387508411 -2.3298518895417146 0 -2.3298518895417146 -0.36263652834787763 0 0 0 0 11.559854457762412 -3.6740143191103982 0 -3.6740143191103982 -0.6073759974394477 0 0 0 0 2.47054658291745 2.2207800545852479 0 2.2207800545852479 0.14729569433541201 0 0 0 0 -1.3794327144441922 -2.8457928130033423 0 -2.8457928130033423 1.7453429023216813 0 0 0 0 4.6473094123184637 -2.343755276915374 0 -2.343755276915374 2.2849869395270161 0 0 0 0 5.4801120757527855 -1.7767741327464086 0 -1.7767741327464086 2.328816015521511 0 0 0 0 1.3779555958844867 -0.41835748776526316 0 -0.41835748776526316 2.4680347411257912 0 0 0 0 11.345326410817506 -3.412645016577585 0 -3.412645016577585 0.76433271114780155 0 0 0 0 6.2867507681212373 -1.3850725723902144 0 -1.3850725723902144 0.5345292532934991 0 0 0 0 13.689204180231172 -4.8052348796586557 0 -4.8052348796586557 2.9200454975824641 0 0 0 0 5.5207531618352021 -4.8473298831064238 0 -4.8473298831064238 2.9290799474779305 0 0 0 0 15.16229382433994 -13.234993625621769 0 -13.234993625621769 3.2292464662152724 0 0 0 0 3.2269345546415771 -1.4357047920275274 0 -1.4357047920275274 0.22855459450692761 0 0 0 0 2.1609070504146075 -4.2037330710785454 0 -4.2037330710785454 1.5405218922346648 0 0 0 0 4.3611095576033847 -3.9562138348110505 0 -3.9562138348110505 1.4375107470609896 0 0 0 0 4.4204259814551605 -3.2260848800349411 0 -3.2260848800349411 0.49859811642963159 0 0 0 0 16.39357005617785 13.462184841875796 0 13.462184841875796 -6.4130626766284422 0 0 0 0 0.83293470597486419 -0.11963932578060366 0 -0.11963932578060366 -0.27844939838406058 0 0 0 0 -14.822051760907016 -4.3611175979737027 0 -4.3611175979737027 2.255041930273137 0 0 0 0 -5.4465741484218597 -10.702031529495173 0 -10.702031529495173 2.8429535037906817 0 0 0 0 0.072649483561079364 0.30459190667513347 0 0.30459190667513347 0.002673224476513969 0 0 0 0 -32.41523826806224 -19.237976272491466 0 -19.237976272491466 32.928253435945152 0 0 0 0 5.2137536560694571 -4.7931258170526689 0 -4.7931258170526689 4.0326842177149018 0 0 0 0 3.4164261053156224 -0.23668389197189299 0 -0.23668389197189299 8.4118909758198015 0 0 0 0 5.2583325302257435 -2.6320109178545295 0 -2.6320109178545295 5.0851076904456249 0 0 0 0 -0.089737638179940404 -1.3927345042192769 0 -1.3927345042192769 7.4752856913380583 0 0 0 0 -2.899506590087185 -11.767491197798563 0 -11.767491197798563 2.305611226462986 0 0 0 0 31.265746940002828 -19.93519570751215 0 -19.93519570751215 7.3523696812169419 0 0 0 0 6.0652553685358725 1.7801350015750472 0 1.7801350015750472 9.4359857460801777 0 0 0 0 4.104305043460954 -4.7490353789992525 0 -4.7490353789992525 19.107358746726277 0 0 0 0 1.2185357812107895 -0.30936957519320529 0 -0.30936957519320529 0.68323789842539606 0 0 0 0 4.4041683727598411 -2.4572803042775195 0 -2.4572803042775195 5.0948890725458114 0 0 0 0 4.1306160011590691 1.3234398539367191 0 1.3234398539367191 7.2067080868860103 0 0 0 0 1.2573817390761555 -0.29912925582983796 0 -0.29912925582983796 -0.19237951529040842 0 0 0 0 -0.1950073373762109 -0.93263935208513971 0 -0.93263935208513971 0.57809008718882671 0 0 0 0 0.30424751261307392 -2.5424766989578984 0 -2.5424766989578984 1.4219282011420091 0 0 0 0 1.4048391291562439 -2.4978806964248577 0 -2.4978806964248577 0.10831178428730937 0 0 0 0 0.018504935535020195 -4.425881447065791 0 -4.425881447065791 -0.49726824967484617 0 0 0 0 10.102280720373528 -0.68943128187635239 0 -0.68943128187635239 -13.719011384847136 0 0 0 0 4.3888271721460725 1.7371006459861906 0 1.7371006459861906 0.63841311888987584 0 0 0 0 5.7823933073797349 -1.3589468604793282 0 -1.3589468604793282 -0.085087354381958802 0 0 0 0 31.142810115364227 -30.62095332007425 0 -30.62095332007425 11.137949715449281 0 0 0 0 12.025230258036174 -2.5896906441923857 0 -2.5896906441923857 -5.0876556877400319 0 0 0 0 16.337245608472585 -12.598712649192748 0 -12.598712649192748 -6.3816416801706737 0 0 0 0 16.940383967761363 -18.997934935453202 0 -18.997934935453202 0.36543553545425311 0 0 0 0 17.943663940193801 -15.853210612847192 0 -15.853210612847192 -5.1499460153311816 0 0 0 0 0.14543060934477126 -0.38926022025228768 0 -0.38926022025228768 0.36843351779101363 0 0 0 0 6.5272664619715215 -3.0534587709448715 0 -3.0534587709448715 -2.858165084040138 0 0 0 0 46.022306619689516 -13.858376205862584 0 -13.858376205862584 -15.220650946587284 0 0 0 0 1.7766113008983666 -12.444823070699613 0 -12.444823070699613 44.016908829193881 0 0 0 0 0.4139048707454549 -4.2494394695578208 0 -4.2494394695578208 5.745608429623644 0 0 0 0 0.4684207483819236 -0.9870746198713185 0 -0.9870746198713185 0.72151173309295258 0 0 0 0 -0.87088569927254866 -3.242396482810932 0 -3.242396482810932 6.6405593040750546 0 0 0 0 -3.2543165543788746 -9.9603801994194328 0 -9.9603801994194328 -5.2108996291522089 0 0 0 0 7.0319328085479356 -3.9021730919505444 0 -3.9021730919505444 0.32863979739704519 0 0 0 0 2.6165710351830125 -3.375545941397684 0 -3.375545941397684 1.0229333158590332 0 0 0 0 10.423068843614601 -3.4724127489703562 0 -3.4724127489703562 0.27389444352093051 0 0 0 0 2.1153504005251307 -3.700923560387178 0 -3.700923560387178 1.5891517448476935 0 0 0 0 2.7427889406286958 -0.72895936769326397 0 -0.72895936769326397 0.38869780390195818 0 0 0 0 8.4778346646169211 -4.243480514847235 0 -4.243480514847235 4.2469305138922664 0 0 0 0 13.34886802802248 -10.033382714056401 0 -10.033382714056401 2.9064179047046537 0 0 0 0 4.6110553947196404 -7.2444463635148004 0 -7.2444463635148004 4.1699282185687574 0 0 0 0 -4.6145004754962429 -13.628725829595169 0 -13.628725829595169 14.756732323120787 0 0 0 0 4.7915296517269326 -14.227003170369272 0 -14.227003170369272 8.6632231138698899 0 0 0 0 6.5028723042441801 -8.6476422161035629 0 -8.6476422161035629 5.6357855926744103 0 0 0 0 14.043203259470829 -15.004738478296076 0 -15.004738478296076 -2.1412487468800236 0 0 0 0 26.841907316397737 -8.9957367520777893 0 -8.9957367520777893 0.014195837556911783 0 0 0 0 -0.090890139470692688 -0.035113908733222843 0 -0.035113908733222843 0.092183828888359187 0 0 0 0 8.3295628872856469 -7.3131285142609386 0 -7.3131285142609386 10.159298744692421 0 0 0 0 12.618789728363481 1.8268660769663256 0 1.8268660769663256 5.7361867333513601 0 0 0 0 18.069421274793513 -2.1709751443273433 0 -2.1709751443273433 5.4018080093193817 0 0 0 0 27.304580216340582 4.52413651612585 0 4.52413651612585 -0.56324698834350784 0 0 0 0 36.855423269946186 2.3851417240568367 0 2.3851417240568367 -4.8388927218400113 0 0 0 0 27.335333590603113 4.1713618409481228 0 4.1713618409481228 3.4303540511375843 0 0 0 0 21.025506561572911 6.2773693139657212 0 6.2773693139657212 8.2428330154276637 0 0 0 0 38.343502096642624 11.808333138312548 0 11.808333138312548 3.5424446924118058 0 0 0 0 19.835967893909128 8.2265700165207818 0 8.2265700165207818 6.9611802883639484 0 0 0 0 13.009546839104587 0.57613499662630829 0 0.57613499662630829 5.6172646675578619 0 0 0 0 13.842203843929383 -3.2198754122383662 0 -3.2198754122383662 -0.060323749461701937 0 0 0 0 9.4194489805904595 -6.4254589084706595 0 -6.4254589084706595 2.1630942976981942 0 0 0 0 9.7460794505409467 -6.7192911730329428 0 -6.7192911730329428 -1.7402154339779372 0 0 0 0 11.268464678903001 0.22035817674299096 0 0.22035817674299096 -2.4075167717431327 0 0 0 0 2.8654574663999419 -0.14016665289861319 0 -0.14016665289861319 0.70379107787278217 0 0 0 0 10.996152252564571 -4.7086014736258903 0 -4.7086014736258903 -3.5133203521579617 0 0 0 0 23.62699146822888 -12.078084160863149 0 -12.078084160863149 3.2766236157335129 0 0 0 0 2.1147070975621318 -4.1084577577635457 0 -4.1084577577635457 7.541893435860402 0 0 0 0 10.468883214356765 17.521783114400172 0 17.521783114400172 12.381928028723678 0 0 0 0 0.20718172554757786 0.42638506445604385 0 0.42638506445604385 0.26345285161548482 0 0 0 0 69.375086582337644 -35.789498413082811 0 -35.789498413082811 10.41782214622765 0 0 0 0 28.44419860970811 -9.2243817620583286 0 -9.2243817620583286 -2.9914312152079674 0 0 0 0 0.37286133514135145 4.2656761133255543 0 4.2656761133255543 6.4009173498070027 0 0 0 0 16.027703471003406 24.278712310915125 0 24.278712310915125 23.947720236672581 0 0 0 0 60.383744051790472 23.267093079045754 0 23.267093079045754 23.823998549132966 0 0 0 0 21.359912109370271 -12.59165665895631 0 -12.59165665895631 38.551527012652912 0 0 0 0 0.1470794487240692 0.02652323065058404 0 0.02652323065058404 -0.087006680302621042 0 0 0 0 56.854621660173507 -21.731354727755274 0 -21.731354727755274 8.2854159779795964 0 0 0 0 20.309136793520793 2.2400676743753341 0 2.2400676743753341 7.6380644762343763 0 0 0 0 22.789563513401845 -14.730708057026419 0 -14.730708057026419 0.40032624012519591 0 0 0 0 30.650221720398804 -5.1765020106699922 0 -5.1765020106699922 -0.30452189596257995 0 0 0 0 45.366838229954737 24.71479174977793 0 24.71479174977793 8.5188764099550554 0 0 0 0 73.385571591083135 6.9266481789521208 0 6.9266481789521208 -6.0913747915611793 0 0 0 0 40.810252566450799 2.3180847669684681 0 2.3180847669684681 -4.9894135868104854 0 0 0 0 34.875123315039673 0.38084005128155241 0 0.38084005128155241 -6.3646528703557124 0 0 0 0 41.31125297087965 2.688982624477319 0 2.688982624477319 -5.6115007478741745 0 0 0 0 18.924078534898399 -3.1964115598323701 0 -3.1964115598323701 -2.358143642396783 0 0 0 0 35.135587384570044 -8.8363382814063556 0 -8.8363382814063556 -3.3335722018003935 0 0 0 0 20.777987941879474 0.49035193653793385 0 0.49035193653793385 -3.3726308604885276 0 0 0 0 31.099821585131053 -2.3513998782016046 0 -2.3513998782016046 -3.9681958192879847 0 0 0 0 31.650219381272905 0.70424189402601201 0 0.70424189402601201 -5.4161805448376299 0 0 0 0 35.198541581840971 -0.034565766416484678 0 -0.034565766416484678 -4.7394752652826924 0 0 0 0 35.134588696893843 0.5763823591295818 0 0.5763823591295818 -6.7590416606427652 0 0 0 0 39.449949946510515 -2.5168362789055081 0 -2.5168362789055081 -6.2872232105486887 0 0 0 0 37.26202375679236 2.3736845027150721 0 2.3736845027150721 -7.182991999439821 0 0 0 0 31.575958238322869 2.7911444012493867 0 2.7911444012493867 -4.9652388489221266 0 0 0 0 31.365181540476442 1.2430680618941494 0 1.2430680618941494 -6.1141284400751488 0 0 0 0 28.624174586045228 6.9756873991972128 0 6.9756873991972128 -2.9027422992325 0 0 0 0 31.109533872227075 10.415481933729026 0 10.415481933729026 -0.42330786032948708 0 0 0 0 21.084811512196211 17.454252843327637 0 17.454252843327637 16.098244901951091 0 0 0 0 39.916753082355172 7.4107545292006876 0 7.4107545292006876 -1.1355471698122983 0 0 0 0 46.461361206410402 14.588299283331139 0 14.588299283331139 0.11065421970479861 0 0 0 0 71.26660572023593 -6.1766515473959913 0 -6.1766515473959913 -4.7638065155422851 0 0 0 0 42.012790574794053 0.23049306391044411 0 0.23049306391044411 -6.2621521652284855 0 0 0 0 42.297599368183 0.43693406523684075 0 0.43693406523684075 -6.2710794255881979 0 0 0 0 48.546360348236703 -6.2546174585460221 0 -6.2546174585460221 -5.4448683057605507 0 0 0 0 38.642629522728384 -12.792788237832269 0 -12.792788237832269 4.0920498533009777 0 0 0 0 36.239774806987953 -9.0421490124674904 0 -9.0421490124674904 4.5300208461007401 0 0 0 0 45.028720361320666 -20.135362129028337 0 -20.135362129028337 15.371298314198953 0 0 0 0 29.128251200861996 -11.261478663165065 0 -11.261478663165065 15.757106464212463 0 0 0 0 23.662680809128688 -3.3120151577216461 0 -3.3120151577216461 4.2529511796091128 0 0 0 0 29.202025365048939 -11.488065717381907 0 -11.488065717381907 0.45666341905359786 0 0 0 0 32.341426299783052 -6.6768840652018469 0 -6.6768840652018469 -1.1160812660827446 0 0 0 0 29.717584389325282 -5.9067048027609879 0 -5.9067048027609879 -3.6425226414859253 0 0 0 0 29.769153075254508 -6.3748244800181055 0 -6.3748244800181055 -3.966314896533305 0 0 0 0 38.59865003620871 -8.6218681054633635 0 -8.6218681054633635 -3.8963861557510597 0 0 0 0 37.342017253266022 -3.2876584223961345 0 -3.2876584223961345 -6.229924106382299 0 0 0 0 33.28084699960209 -4.8971159418484547 0 -4.8971159418484547 -3.4157715195833589 0 0 0 0 34.383444795675132 -1.4787608395098175 0 -1.4787608395098175 -6.4329307048947157 0 0 0 0 27.29834965050577 -5.2108131782773626 0 -5.2108131782773626 2.2436801622345399 0 0 0 0 24.860482265466089 -8.8312278680941887 0 -8.8312278680941887 -1.9130924652018848 0 0 0 0 19.345649998163935 -4.2893578559808816 0 -4.2893578559808816 6.5198997671755592 0 0 0 0 15.30115631463832 -11.520021575547872 0 -11.520021575547872 4.5081349017450236 0 0 0 0 9.3903606637786652 -2.972473362505383 0 -2.972473362505383 -5.7463276824406648 0 0 0 0 1.7356357070552839 -1.702691712253035 0 -1.702691712253035 0.29034430294057967 0 0 0 0 10.620980965037234 -3.3300761823955298 0 -3.3300761823955298 -5.646174115779047 0 0 0 0 19.055642131967033 -6.363687496548323 0 -6.363687496548323 0.88348858219362114 0 0 0 0 17.940267080142803 -9.9729963768857139 0 -9.9729963768857139 -1.5575112662710922 0 0 0 0 17.633412851924732 -9.9543881697129066 0 -9.9543881697129066 3.4490830686886227 0 0 0 0 4.9793001151601857 -3.1346107393626426 0 -3.1346107393626426 3.8298390482453328 0 0 0 0 5.1963163434239164 -1.2043810942730353 0 -1.2043810942730353 -1.3232987662888718 0 0 0 0 1.4958702864192936 -1.1678675436427906 0 -1.1678675436427906 -2.5351265963172955 0 0 0 0 1.3602674594621931 -5.2353168628653748 0 -5.2353168628653748 0.26352329544643283 0 0 0 0 0.8708870838438223 0.067512078268473275 0 0.067512078268473275 -0.27459090717342116 0 0 0 0 4.5981964527090895 3.1046266091898644 0 3.1046266091898644 -2.4218115643801639 0 0 0 0 -1.4552655024372143 -3.9045581796022901 0 -3.9045581796022901 -0.0050197225609736051 0 0 0 0 1.8884530326082949 -1.6977755450024929 0 -1.6977755450024929 -2.8478314912202323 0 0 0 0 14.039630820690945 -3.5242484449399285 0 -3.5242484449399285 -3.7441623840897478 0 0 0 0 14.652801134940091 1.2892242193847778 0 1.2892242193847778 -2.0202836353817162 0 0 0 0 4.3055228024563803 3.1240248892646605 0 3.1240248892646605 -4.3006034854288373 0 0 0 0 0.83041431057191772 -0.2065223753160037 0 -0.2065223753160037 -0.73591671338465181 0 0 0 0 6.0497139424778652 2.5521120334668126 0 2.5521120334668126 -4.5543192677315574 0 0 0 0 3.3632428800510752 1.7019617465964245 0 1.7019617465964245 -3.4438756089450635 0 0 0 0 5.5008701100905455 0.88364659168632897 0 0.88364659168632897 -3.363370004967436 0 0 0 0 8.2714938343870017 3.729650573545598 0 3.729650573545598 -9.8518695112194905 0 0 0 0 3.8609197262819723 -1.6196479344673946 0 -1.6196479344673946 -3.8120231749352698 0 0 0 0 5.9888094998123051 -1.2949507051528144 0 -1.2949507051528144 -7.5969461533132403 0 0 0 0 6.2575357378273111 0.49343939747609511 0 0.49343939747609511 -5.7641805907511525 0 0 0 0 15.243392186230267 0.50846304341524728 0 0.50846304341524728 -7.2724723349628277 0 0 0 0 -20.662061885160256 12.562153309264559 0 12.562153309264559 14.996531577073073 0 0 0 0 105.85916353689117 -56.411270848869904 0 -56.411270848869904 -3.3984824621109198 0 0 0 0 104.53627991826306 -63.877892762111685 0 -63.877892762111685 11.123111653062992 0 0 0 0 105.45482052744592 -52.606289667253222 0 -52.606289667253222 24.863166992210992 0 0 0 0 102.97405053090915 -61.536399291573787 0 -61.536399291573787 17.209586890362381 0 0 0 0 98.044424610945271 -19.58512560286005 0 -19.58512560286005 19.915412162443943 0 0 0 0 242.75361413618339 51.543774254328895 0 51.543774254328895 -73.660169246220761 0 0 0 0 322.78991581924129 28.361103721078997 0 28.361103721078997 -69.926500249451635 0 0 0 0 436.89688130759714 111.37041776118087 0 111.37041776118087 -74.337082591247793 0 0 0 0 500.03462032282005 163.56208692922814 0 163.56208692922814 -110.57410343230758 0 0 0 0 226.07771565323128 55.907994575194273 0 55.907994575194273 18.582340118127291 0 0 0 0 2.7199128373897423 0.47836989856896839 0 0.47836989856896839 -0.041475175435565739 0 0 0 0 89.152046997617617 173.9561525368342 0 173.9561525368342 2.978982080786281 0 0 0 0 298.32581614805531 226.49207069923824 0 226.49207069923824 -53.896795606345414 0 0 0 0 500.15725848201782 46.353972712681163 0 46.353972712681163 218.22591432081319 0 0 0 0 634.16386139437236 41.074546754217195 0 41.074546754217195 -29.357044358319541 0 0 0 0 528.36969662298247 -45.505148331913816 0 -45.505148331913816 -132.88230996701307 0 0 0 0 267.31889045661228 -155.21906914626487 0 -155.21906914626487 -35.946379892603233 0 0 0 0 -56.717284048013425 -5.399887614092858 0 -5.399887614092858 -18.892182326271097 0 0 0 0 5.042953302268451 0.94627501374101008 0 0.94627501374101008 -0.14040312707856434 0 0 0 0 45.924230977240313 81.559906892193553 0 81.559906892193553 -166.92611905147811 0 0 0 0 66.448440158597805 -15.186210509626335 0 -15.186210509626335 -143.02193893134171 0 0 0 0 18.190410951822741 -29.31696620053247 0 -29.31696620053247 13.209423737917817 0 0 0 0 2.3218006434539262 0.4531320172751423 0 0.4531320172751423 0.028146918842869018 0 0 0 0 60.025587060503312 125.02527592029767 0 125.02527592029767 -14.90408771004536 0 0 0 0 201.56910057816822 -124.40301833150842 0 -124.40301833150842 -15.703819102199013 0 0 0 0 93.016941257998042 29.461968974481433 0 29.461968974481433 -68.836857130292401 0 0 0 0 268.75262274879424 9.4926029976493211 0 9.4926029976493211 162.71709829036286 0 0 0 0 307.36268331162319 -39.79177850827044 0 -39.79177850827044 -38.621398517743643 0 0 0 0 0.27697523845929273 -0.22929065962683026 0 -0.22929065962683026 -0.25318095412840946 0 0 0 0 164.39066784588249 -51.6651088763887 0 -51.6651088763887 -16.66362509643529 0 0 0 0 166.62503971272963 -56.671760521010036 0 -56.671760521010036 -15.604816798123508 0 0 0 0 71.050100746715543 -118.87661171267118 0 -118.87661171267118 17.806925121521637 0 0 0 0 -8.4641128671571551 27.206472300682904 0 27.206472300682904 2.5588937427453402 0 0 0 0 11.159906287070044 -18.381239715143522 0 -18.381239715143522 7.9412810302803791 0 0 0 0 4.4473054903438172 5.048568556467087 0 5.048568556467087 0.99493825662988833 0 0 0 0 21.053281344880816 4.042043128448455 0 4.042043128448455 -3.4535337104722714 0 0 0 0 18.229306652196101 1.1131888707220128 0 1.1131888707220128 -6.485078697650728 0 0 0 0 18.74477158458285 5.149423131051968 0 5.149423131051968 -2.3099869283727799 0 0 0 0 18.582036057571713 6.1821067692337017 0 6.1821067692337017 0.38718194829550612 0 0 0 0 17.984438467610744 4.500566978003647 0 4.500566978003647 -0.06075003262719747 0 0 0 0 10.334740074748879 1.7541267446016917 0 1.7541267446016917 4.8641812100382253 0 0 0 0 12.610857959196437 -7.5615012251283673 0 -7.5615012251283673 36.011769297064802 0 0 0 0 1.0100308843470636 -0.305913624508932 0 -0.305913624508932 1.6377738498585703 0 0 0 0 3.1897683413916127 4.8284852423651863 0 4.8284852423651863 1.0845931585385895 0 0 0 0 -20.792849832647335 17.467475456398404 0 17.467475456398404 19.736244788983413 0 0 0 0 -6.653746724663506 -4.4961375634350134 0 -4.4961375634350134 -11.459152049559577 0 0 0 0 -0.48188352817487612 -9.604530593264883 0 -9.604530593264883 15.756197520930769 0 0 0 0 -7.3402095242217911 -2.3256722006046004 0 -2.3256722006046004 1.2259274164767362 0 0 0 0 3.2377535890773288 -1.3118476354071049 0 -1.3118476354071049 2.868283754325148 0 0 0 0 -3.7983340049323715 7.8546369332681643 0 7.8546369332681643 -3.2477001602696873 0 0 0 0 -0.82958163961266962 0.13427086269708077 0 0.13427086269708077 0.40371034035041409 0 0 0 0 -3.0266282779393805 6.8077812748295301 0 6.8077812748295301 10.674201005067715 0 0 0 0 1.3251199484833327 4.5575622472657269 0 4.5575622472657269 2.4193701208461498 0 0 0 0 27.531368979627587 16.465982888851755 0 16.465982888851755 -12.461814996655789 0 0 0 0 -1.2850706478476663 -0.45821397212252535 0 -0.45821397212252535 0.68375449194207716 0 0 0 0 7.6024272763520457 3.1299808324964147 0 3.1299808324964147 7.2687042716467829 0 0 0 0 7.535477757877743 9.3130065404894466 0 9.3130065404894466 4.0637995122141461 0 0 0 0 7.7016698478255421 10.507554429600887 0 10.507554429600887 -0.63431924527278949 0 0 0 0 4.1722970053082946 4.5504212559190531 0 4.5504212559190531 1.7325827439973869 0 0 0 0 8.2053343112929724 3.5881036970206921 0 3.5881036970206921 -0.72833274296831974 0 0 0 0 18.697202107778139 -3.5117091480472595 0 -3.5117091480472595 0.92505610392245785 0 0 0 0 121.08174715687164 -70.429430178732062 0 -70.429430178732062 -11.890466667625203 0 0 0 0 102.29415808489284 -58.916880493549264 0 -58.916880493549264 12.137746822131987 0 0 0 0 0.099986721308329418 -0.66187085672155277 0 -0.66187085672155277 -0.38624148708583805 0 0 0 0 187.82009471996935 -43.066686997386228 0 -43.066686997386228 -24.117421614358236 0 0 0 0 41.653823139061387 1.5984535731585225 0 1.5984535731585225 -6.0691867878580581 0 0 0 0 149.52466524336614 -24.762095257164056 0 -24.762095257164056 5.4490994928048622 0 0 0 0 91.590231315756682 -28.70909486173597 0 -28.70909486173597 5.7642068665560942 0 0 0 0 104.36151457345841 -49.423028721449924 0 -49.423028721449924 16.359783298198593 0 0 0 0 99.065112609363496 -57.264997131741971 0 -57.264997131741971 12.542302892645878 0 0 0 0 83.702826659080756 -55.551956687988557 0 -55.551956687988557 27.479797392997384 0 0 0 0 78.395156598413905 -39.273405244981141 0 -39.273405244981141 14.648667128100499 0 0 0 0 74.797697008737487 -33.831849617561389 0 -33.831849617561389 18.071311186195977 0 0 0 0 0.80216142003623969 -0.81192164225814167 0 -0.81192164225814167 0.0083367378067327469 0 0 0 0 81.276215274311653 -36.759781164352624 0 -36.759781164352624 13.244271963739806 0 0 0 0 18.177585141785244 2.3699363375991851 0 2.3699363375991851 -2.1229219054424675 0 0 0 0 4.7410303788040444 3.9744101640634639 0 3.9744101640634639 1.3549273595899862 0 0 0 0 37.653454520157538 -11.786324522771801 0 -11.786324522771801 11.513029038405241 0 0 0 0 1.7804089074979856 5.1263852774110461 0 5.1263852774110461 4.6090869476392697 0 0 0 0 -0.1904377803517292 -0.12069544663132348 0 -0.12069544663132348 -0.01371240596510459 0 0 0 0 -7.4272769611507101 -0.86270606355427049 0 -0.86270606355427049 4.7734262915936085 0 0 0 0 1.2537944189268679 3.1082767367816366 0 3.1082767367816366 1.5884688467286519 0 0 0 0 69.620736502942236 -46.799666788734683 0 -46.799666788734683 15.927086220878612 0 0 0 0 72.295563430328912 -39.594565835443603 0 -39.594565835443603 34.74877028156984 0 0 0 0 0.87408331083396007 0.28279011968670531 0 0.28279011968670531 0.015133230952838472 0 0 0 0 8.5074728249355758 -1.2072725024384567 0 -1.2072725024384567 1.7632182175398157 0 0 0 0 20.643390767892015 2.8907055084669651 0 2.8907055084669651 -2.0140012553822544 0 0 0 0 7.2301565509087595 2.3950060404293367 0 2.3950060404293367 3.2078044872206988 0 0 0 0 5.9681120904633644 6.6864571130174966 0 6.6864571130174966 0.033677257178680975 0 0 0 0 8.8702445740759686 4.668075921091301 0 4.668075921091301 -0.57619939975438683 0 0 0 0 17.279317403976165 7.3262348202350722 0 7.3262348202350722 -0.36924052213493042 0 0 0 0 18.430958217295483 6.3333763888414296 0 6.3333763888414296 -1.0920170175144222 0 0 0 0 12.847148584090974 0.60630464834400755 0 0.60630464834400755 -0.40268632305196661 0 0 0 0 -0.024903114590037134 -0.07821495841299253 0 -0.07821495841299253 -0.045568325978699198 0 0 0 0 13.063406724105334 10.164923298708203 0 10.164923298708203 6.2343261583619665 0 0 0 0 7.428944144221532 6.3172751316722326 0 6.3172751316722326 4.4893462658302781 0 0 0 0 7.6952665884246017 6.04279690020023 0 6.04279690020023 0.17214598697825068 0 0 0 0 6.4529633799520525 4.1064517131524809 0 4.1064517131524809 2.4081504912861078 0 0 0 0 6.5799127647987916 3.0640061806377048 0 3.0640061806377048 5.8558437030694295 0 0 0 0 2.6877571241957412 3.3866937244301312 0 3.3866937244301312 10.243985705169791 0 0 0 0 61.111538578205 -21.821037343338503 0 -21.821037343338503 17.839314712438423 0 0 0 0 0.27676601729955763 0.024060135502843139 0 0.024060135502843139 -0.27522490794750215 0 0 0 0 2.7310465299206044 -0.83280064124670616 0 -0.83280064124670616 -10.340416233333912 0 0 0 0 -14.866829668098035 7.0808053854698585 0 7.0808053854698585 15.940567655701727 0 0 0 0 1.0046060553613643 1.6818856730200196 0 1.6818856730200196 3.1981446231182815 0 0 0 0 -0.18167496305402842 3.1481451125875211 0 3.1481451125875211 0.26538873141627584 0 0 0 0 -1.6859993224479695 -4.6533771242648356 0 -4.6533771242648356 12.379338039573611 0 0 0 0 27.975037774949442 5.1200226296364093 0 5.1200226296364093 -2.2193420598281932 0 0 0 0 31.223708313632187 -19.706173955336901 0 -19.706173955336901 43.3945075789714 0 0 0 0 34.343009419886585 14.366621818779777 0 14.366621818779777 17.436271958019944 0 0 0 0 131.48663680081518 -77.5345611332842 0 -77.5345611332842 46.489798425790191 0 0 0 0 29.575699854280174 -10.265308582788975 0 -10.265308582788975 86.135032192045614 0 0 0 0 78.311995837556424 -39.310971226255347 0 -39.310971226255347 43.386485565064085 0 0 0 0 83.495830085335911 -26.522609194399141 0 -26.522609194399141 12.745413737273918 0 0 0 0 68.260853629788016 -41.958575588559981 0 -41.958575588559981 30.121091573526741 0 0 0 0 95.425292489515414 -71.066235769430904 0 -71.066235769430904 55.650807266006424 0 0 0 0 101.12912114719074 -42.671609831560261 0 -42.671609831560261 18.195134171223604 0 0 0 0 189.77950051898461 -45.279654691297416 0 -45.279654691297416 5.758410675370925 0 0 0 0 180.08119049871129 -70.996131602614042 0 -70.996131602614042 24.662190589516889 0 0 0 0 145.57370545887898 -65.38490056808719 0 -65.38490056808719 18.395087078101682 0 0 0 0 177.62303106454965 -16.443702476410689 0 -16.443702476410689 12.049958708251729 0 0 0 0 106.28230691769568 -54.461267899677146 0 -54.461267899677146 19.70821260031493 0 0 0 0 105.75380432072961 -60.639683382848851 0 -60.639683382848851 30.470737682914667 0 0 0 0 499.70666422539398 -44.552807563517042 0 -44.552807563517042 -88.391163360024223 0 0 0 0 233.74030092170051 -68.94370020993955 0 -68.94370020993955 12.98429666451807 0 0 0 0 283.42035599033443 -114.24569830778489 0 -114.24569830778489 5.6945623888237762 0 0 0 0 500.15270716249324 -130.86020176802012 0 -130.86020176802012 -65.113067840095013 0 0 0 0 332.67062282608094 -56.631556643552038 0 -56.631556643552038 -82.22872782777533 0 0 0 0 324.3260297685747 -177.53276841527327 0 -177.53276841527327 0.27335817896927939 0 0 0 0 119.11000250746702 -111.82482920809008 0 -111.82482920809008 68.008618299121309 0 0 0 0 285.79847599733694 -105.95733538544832 0 -105.95733538544832 2.3809306974674627 0 0 0 0 248.45973650073302 -211.6666933127766 0 -211.6666933127766 129.33604996982169 0 0 0 0 290.57264966333605 -179.2516007333731 0 -179.2516007333731 0.4122786215510672 0 0 0 0 498.98996585864188 -327.38126184459037 0 -327.38126184459037 71.820872377320455 0 0 0 0 375.70853432742115 228.81718256466672 0 228.81718256466672 56.510113617836247 0 0 0 0 2.4820336074198401 -1.1390298178278497 0 -1.1390298178278497 0.95106215346344014 0 0 0 0 77.660111382717332 -272.55151596401822 0 -272.55151596401822 393.08227306514863 0 0 0 0 2.1609515169384395 -40.312310600630838 0 -40.312310600630838 151.44970323621982 0 0 0 0 77.086290963162355 -34.447055112339626 0 -34.447055112339626 -2.9405028068849219 0 0 0 0 0.67698251300134871 -52.421280531133391 0 -52.421280531133391 -7.0030568034029557 0 0 0 0 5.3978218030557912 -2.9875977050420586 0 -2.9875977050420586 1.567002195042446 0 0 0 0 95.303739854861306 -78.591901769349292 0 -78.591901769349292 -12.682997356718584 0 0 0 0 136.56937319367626 143.67819662028197 0 143.67819662028197 55.76458557721913 0 0 0 0 499.46215314192705 138.14205537187095 0 138.14205537187095 -63.839996801296095 0 0 0 0 350.52787166651888 33.153651652959482 0 33.153651652959482 -46.45306408665153 0 0 0 0 27.378837783551944 15.69526445264389 0 15.69526445264389 -7.7830263009524288 0 0 0 0 53.323574145523253 -9.7925689033981911 0 -9.7925689033981911 8.0571204597630413 0 0 0 0 20.412127752264496 -3.2119721154452918 0 -3.2119721154452918 12.758362131010784 0 0 0 0 38.29354061485401 14.20437815806838 0 14.20437815806838 -23.44844335936466 0 0 0 0 7.4561274072195332 -2.6106113533245736 0 -2.6106113533245736 1.6000938501545918 0 0 0 0 21.417525902173907 10.274963848848785 0 10.274963848848785 -23.38273059724645 0 0 0 0 18.102745466201668 -14.995043199197994 0 -14.995043199197994 -38.539549619356364 0 0 0 0 14.555654407676517 0.67778357653690224 0 0.67778357653690224 -0.49671294798422005 0 0 0 0 17.648142284737787 -10.739669048823231 0 -10.739669048823231 -39.183056488910125 0 0 0 0 13.439020553387081 -21.53295276713645 0 -21.53295276713645 -12.19096846666676 0 0 0 0 24.908423168045488 14.797157382152665 0 14.797157382152665 -95.549246865196096 0 0 0 0 -21.696627294534665 4.4379977946322278 0 4.4379977946322278 2.3515841040045444 0 0 0 0 5.9991852375903729 0.16437626292572327 0 0.16437626292572327 0.66665075344070768 0 0 0 0 57.905035082223094 -42.609728905235755 0 -42.609728905235755 -60.2575407903106 0 0 0 0 -4.100190977820148 -18.478640215929595 0 -18.478640215929595 19.171690068015845 0 0 0 0 13.288858527770572 -18.057398684785596 0 -18.057398684785596 -11.627990134799063 0 0 0 0 550.92659618352627 102.13704484001804 0 102.13704484001804 -32.237976472294697 0 0 0 0 284.08091689175126 -90.552948221412919 0 -90.552948221412919 33.674262034375715 0 0 0 0 2.2887458929812254 0.87105774313435891 0 0.87105774313435891 0.24481070820880668 0 0 0 0 -34.47339975003797 -4.32048624637752 0 -4.32048624637752 59.097266785941272 0 0 0 0 -84.779657710764695 0.93734998825765814 0 0.93734998825765814 78.590015021383252 0 0 0 0 151.1083428353777 69.047935674660025 0 69.047935674660025 39.556527661947271 0 0 0 0 149.76149361581656 191.13261588587625 0 191.13261588587625 102.13397909802845 0 0 0 0 128.1621174897582 135.18633031404559 0 135.18633031404559 37.109206312192548 0 0 0 0 397.77288379025049 238.55229949875863 0 238.55229949875863 42.318613360711069 0 0 0 0 562.16343760513109 111.56668976432168 0 111.56668976432168 -49.545693059557969 0 0 0 0 500.11979469620655 91.232136282911412 0 91.232136282911412 217.77592196469493 0 0 0 0 499.87321033249964 92.149395377540301 0 92.149395377540301 -86.152482306530558 0 0 0 0 369.92451981934573 105.79240405456994 0 105.79240405456994 -37.506296223981195 0 0 0 0 386.98441982735585 19.727882729979143 0 19.727882729979143 -75.152587725795158 0 0 0 0 200.13211932199647 16.444020723200566 0 16.444020723200566 -6.9360363213094978 0 0 0 0 316.77626415645591 86.850866865129333 0 86.850866865129333 -11.066682253282551 0 0 0 0 216.45623771622058 14.591526340889068 0 14.591526340889068 -7.4772964322581572 0 0 0 0 215.62783468352063 66.985961503064544 0 66.985961503064544 -2.3825371404802071 0 0 0 0 365.40957778176613 142.14988035681091 0 142.14988035681091 3.1469898779806513 0 0 0 0 211.01396660594492 70.486542127262368 0 70.486542127262368 19.737714834847495 0 0 0 0 85.833077978283654 66.504772427648632 0 66.504772427648632 47.933359662942721 0 0 0 0 29.078846763957699 -4.4075603590241483 0 -4.4075603590241483 47.785498592773877 0 0 0 0 110.32831982327207 21.92055147474872 0 21.92055147474872 32.784722096370821 0 0 0 0 103.78726942628327 30.448936583676208 0 30.448936583676208 27.198105434209424 0 0 0 0 48.448396148694201 -16.827862542222437 0 -16.827862542222437 11.874649999025486 0 0 0 0 16.553588137009683 -2.2765306591319394 0 -2.2765306591319394 32.880363624865467 0 0 0 0 22.12030144174787 -7.8058327469236026 0 -7.8058327469236026 29.836885571911068 0 0 0 0 32.249686162067519 2.7114213500472886 0 2.7114213500472886 31.456787506842915 0 0 0 0 20.285047685931659 -2.4408793471296057 0 -2.4408793471296057 17.753578124816926 0 0 0 0 59.078563625103016 -7.6128884817622833 0 -7.6128884817622833 17.029287777357936 0 0 0 0 74.438809179052441 -10.000489317705586 0 -10.000489317705586 23.441700079757197 0 0 0 0 50.045339835978666 9.1272005356552128 0 9.1272005356552128 25.688183065229452 0 0 0 0 40.357596622020537 -4.5977683868711949 0 -4.5977683868711949 19.946374447633445 0 0 0 0 27.204916986711396 5.130756162587744 0 5.130756162587744 26.721777266224905 0 0 0 0 157.79158037817251 44.214181289087335 0 44.214181289087335 22.958204282037819 0 0 0 0 112.94234785747358 -1.3173899036232939 0 -1.3173899036232939 20.450893075495671 0 0 0 0 55.526046706970192 6.9940589087755782 0 6.9940589087755782 39.659483674904237 0 0 0 0 97.714086065281663 12.386349734599278 0 12.386349734599278 24.44646883413866 0 0 0 0 166.21687316082716 -18.210398278707537 0 -18.210398278707537 15.504697432092655 0 0 0 0 114.0848271417733 -0.85026080740587062 0 -0.85026080740587062 23.727119885558096 0 0 0 0 102.70630226106232 -18.674205487304157 0 -18.674205487304157 23.080801109042056 0 0 0 0 67.161794391106014 -6.1623662628561 0 -6.1623662628561 39.224260825441796 0 0 0 0 208.63180658438614 -48.490460376397834 0 -48.490460376397834 17.788568416833087 0 0 0 0 49.397441014029027 3.7913175760198499 0 3.7913175760198499 16.810603181572603 0 0 0 0 23.176176714898247 7.5169781241977418 0 7.5169781241977418 15.291854382462077 0 0 0 0 18.119338506480744 -5.6593659655738051 0 -5.6593659655738051 24.300574895960835 0 0 0 0 28.686136109992731 -4.0198099729314904 0 -4.0198099729314904 28.486430042047033 0 0 0 0 82.278355222448226 5.5371215488691945 0 5.5371215488691945 22.328056401852805 0 0 0 0 49.646551363157414 1.7851238013993509 0 1.7851238013993509 32.877878161678794 0 0 0 0 51.297518329880404 15.065542406663397 0 15.065542406663397 26.61884628638569 0 0 0 0 48.582821637024608 9.6159629012447141 0 9.6159629012447141 17.332739980057184 0 0 0 0 40.84723026010397 5.8831548358277814 0 5.8831548358277814 34.286383438187002 0 0 0 0 38.063466844108916 0.73773018104396826 0 0.73773018104396826 26.050382264819433 0 0 0 0 31.207268968375502 11.96086222126447 0 11.96086222126447 19.002944051558899 0 0 0 0 12.772659314910925 11.123155539233494 0 11.123155539233494 22.20374863899821 0 0 0 0 23.929770375407315 3.9796156109961771 0 3.9796156109961771 15.718298087819477 0 0 0 0 9.4282341749294574 19.652592023121819 0 19.652592023121819 15.911101841589387 0 0 0 0 28.370220219671978 16.210162257495298 0 16.210162257495298 9.3338709206750625 0 0 0 0 28.025163257937379 13.236118532104189 0 13.236118532104189 26.865723927053953 0 0 0 0 35.291850230440104 24.228289980486629 0 24.228289980486629 12.822583144630514 0 0 0 0 43.352970948911207 27.010062939110384 0 27.010062939110384 9.7978117105683253 0 0 0 0 46.846416693994342 2.8872862356088866 0 2.8872862356088866 23.700820771240771 0 0 0 0 27.848694816162151 14.986374444818292 0 14.986374444818292 7.0328462160117482 0 0 0 0 111.77335772198558 -26.421400636953322 0 -26.421400636953322 27.325621920494356 0 0 0 0 67.29203670584684 15.069719036411959 0 15.069719036411959 23.252074472482882 0 0 0 0 100.36440272415803 -32.651428708905783 0 -32.651428708905783 43.88495267570358 0 0 0 0 48.913614275335931 16.459081113142844 0 16.459081113142844 26.442469478435058 0 0 0 0 73.361750012702032 -54.977634596478026 0 -54.977634596478026 76.517261580974719 0 0 0 0 198.70943021024868 -62.459679681630227 0 -62.459679681630227 26.635404524488962 0 0 0 0 401.32844466444021 -77.37404435437459 0 -77.37404435437459 -30.655009485012407 0 0 0 0 195.50765645520835 -122.97887949643298 0 -122.97887949643298 14.832401734787567 0 0 0 0 458.12171687391537 -174.54641410017109 0 -174.54641410017109 -6.436261808533061 0 0 0 0 518.19365337519503 -6.3212054611514219 0 -6.3212054611514219 7.3290207157289551 0 0 0 0 401.10588768255457 -76.090680196647213 0 -76.090680196647213 -24.513913273114543 0 0 0 0 499.88750348400362 -32.292158154167062 0 -32.292158154167062 -85.731216993750678 0 0 0 0 362.94279951987664 8.2353443633706718 0 8.2353443633706718 -79.262242704779112 0 0 0 0 327.37856267987081 -26.854707971479634 0 -26.854707971479634 -26.967843954171997 0 0 0 0 230.22965905902765 -31.633619849055044 0 -31.633619849055044 -21.019842030030574 0 0 0 0 -10.15057239163616 -76.81881060004855 0 -76.81881060004855 -68.825964251518712 0 0 0 0 -43.879366390819996 -49.386460267012239 0 -49.386460267012239 -12.606836560724787 0 0 0 0 -61.068103383360722 -13.887541260768103 0 -13.887541260768103 -80.782909426894548 0 0 0 0 -103.73511747550947 -39.827752100100611 0 -39.827752100100611 6.3455533721325992 0 0 0 0 -82.585293736324957 -68.351483374051753 0 -68.351483374051753 40.180850183378425 0 0 0 0 -81.332779564757629 -56.669639706765423 0 -56.669639706765423 46.972658429102466 0 0 0 0 3.7434245070517136 -79.680940117222121 0 -79.680940117222121 39.65169316651054 0 0 0 0 -19.057675934474901 -44.090844617188623 0 -44.090844617188623 -15.865389053178319 0 0 0 0 49.395633214684494 -16.665752522845878 0 -16.665752522845878 -11.703065380672797 0 0 0 0 62.368937075450845 24.980602846551648 0 24.980602846551648 -50.525196115785548 0 0 0 0 50.333659976166928 -57.453502171012929 0 -57.453502171012929 -41.893603535621878 0 0 0 0 8.0967095304140457 -21.301513095676 0 -21.301513095676 -72.773521194356249 0 0 0 0 14.362412944816242 16.34638123502868 0 16.34638123502868 -114.05565836434948 0 0 0 0 5.6272541855915037 -1.5534303592761232 0 -1.5534303592761232 -0.78540812310965746 0 0 0 0 5.1636355899572663 -4.72264775328415 0 -4.72264775328415 -5.2927000527589598 0 0 0 0 16.366647103962833 -42.652611707923384 0 -42.652611707923384 -88.697861455900011 0 0 0 0 9.2252330442869379 -0.15339632946574966 0 -0.15339632946574966 -0.21338107326801037 0 0 0 0 4.8208433854800967 -0.82941242065634757 0 -0.82941242065634757 -0.73154912497591829 0 0 0 0 3.0442113324825186 -3.1466192311215764 0 -3.1466192311215764 -4.0670932151826946 0 0 0 0 4.1993321767825709 -0.74553929954585119 0 -0.74553929954585119 0.096125060746875324 0 0 0 0 3.7685221431012472 -2.0171354037505687 0 -2.0171354037505687 -0.060725501850554364 0 0 0 0 -14.186651897943193 -66.412751398740852 0 -66.412751398740852 -93.533051428364843 0 0 0 0 1.1931669946659695 1.2205131490014747 0 1.2205131490014747 2.8632729930922221 0 0 0 0 -44.091850843125485 19.948970936841242 0 19.948970936841242 8.4231262153429753 0 0 0 0 12.325334642036069 -0.16333736041326574 0 -0.16333736041326574 1.2046479940256631 0 0 0 0 11.567291387794057 -0.22104471322694508 0 -0.22104471322694508 2.080502389044284 0 0 0 0 -7.5871079112584994 10.151750429936648 0 10.151750429936648 0.17986095482674891 0 0 0 0 -32.619073733831101 6.794894822995337 0 6.794894822995337 9.9771262465518831 0 0 0 0 -12.275051211152459 20.839214299457883 0 20.839214299457883 8.8263242912997413 0 0 0 0 9.2021074514814245 21.511055845297122 0 21.511055845297122 2.2213135653668656 0 0 0 0 4.5317510564400436 9.7253548977889537 0 9.7253548977889537 9.9137218844332011 0 0 0 0 -7.7978455934271551 13.851886769733404 0 13.851886769733404 13.785284795931332 0 0 0 0 16.1788957263052 12.792968534730669 0 12.792968534730669 19.343712520217821 0 0 0 0 8.3208670850217459 4.5780667126429222 0 4.5780667126429222 14.857223582034266 0 0 0 0 10.116457547361279 16.894361459173478 0 16.894361459173478 13.825057287895874 0 0 0 0 -5.7029477395717549 16.231452806366384 0 16.231452806366384 15.404218639327198 0 0 0 0 -5.6906116834143177 9.5933456730339728 0 9.5933456730339728 10.209068720072025 0 0 0 0 -1.4817807568979333 5.0690463392097911 0 5.0690463392097911 6.8044278680610759 0 0 0 0 2.2849713838404568 11.623332898272146 0 11.623332898272146 16.140028712464613 0 0 0 0 -19.552638497969383 7.4996562756294409 0 7.4996562756294409 7.4690843646514224 0 0 0 0 -8.3955970442912076 4.4832455954777259 0 4.4832455954777259 1.9343230618642338 0 0 0 0 -7.2655880536904078 11.292153496193578 0 11.292153496193578 1.0663777482558103 0 0 0 0 -22.732313839858762 12.006137181803503 0 12.006137181803503 2.1079869225964956 0 0 0 0 -20.312405593100266 -1.5073289252976849 0 -1.5073289252976849 -9.1736619981333831 0 0 0 0 -34.226670668838779 -10.711881812179918 0 -10.711881812179918 2.9576478998481548 0 0 0 0 -32.180328676241515 -5.9579992828680517 0 -5.9579992828680517 11.430948750684195 0 0 0 0 -16.213737376787321 3.6545734865198227 0 3.6545734865198227 -2.7077843800351218 0 0 0 0 -21.561049827003444 -0.46035575555251285 0 -0.46035575555251285 12.747181606413072 0 0 0 0 -13.347468248412042 0.66500111027027486 0 0.66500111027027486 17.300972858006048 0 0 0 0 -16.991645692844031 -5.7869798136374371 0 -5.7869798136374371 9.696191518292153 0 0 0 0 -16.162244299569466 2.7816232223929287 0 2.7816232223929287 10.877900829648411 0 0 0 0 -9.7199631721414335 0.17976788409770705 0 0.17976788409770705 13.132791373650321 0 0 0 0 -11.513979594277771 3.826201288711701 0 3.826201288711701 6.5028477967053817 0 0 0 0 -3.4591516942354019 3.1659889822534528 0 3.1659889822534528 20.020163664069258 0 0 0 0 -3.3220038169820327 1.3482335136409915 0 1.3482335136409915 8.1225051438958928 0 0 0 0 -0.069304654796724208 -5.9270963810879209 0 -5.9270963810879209 16.496047784594978 0 0 0 0 -2.7853580788141699 -0.9026429158641065 0 -0.9026429158641065 13.551269693766116 0 0 0 0 9.8508404885578784 1.8132984224633191 0 1.8132984224633191 19.569970327259099 0 0 0 0 9.732071932648978 3.3375266746075027 0 3.3375266746075027 11.124443672263574 0 0 0 0 -103.63265925785271 -69.009417048698793 0 -69.009417048698793 35.126446427532301 0 0 0 0 9.6786044573409526 5.6028796380895756 0 5.6028796380895756 -4.3995935194914182 0 0 0 0 1.9094628307475219 -0.050809950419717254 0 -0.050809950419717254 -0.29967575494486098 0 0 0 0 7.3784227649801402 -2.7175952376718264 0 -2.7175952376718264 1.1047406626248417 0 0 0 0 -23.456380288636865 6.8628485576170277 0 6.8628485576170277 -21.966727387941788 0 0 0 0 -33.181746610564005 -13.201027003414424 0 -13.201027003414424 -7.961847917720462 0 0 0 0 -9.5650801785641306 -59.964608354430879 0 -59.964608354430879 34.522049085189792 0 0 0 0 -74.920493452202209 -80.912552394190925 0 -80.912552394190925 6.4856716932981726 0 0 0 0 0.73461550224698957 -2.4322157519508014 0 -2.4322157519508014 4.37529616556247 0 0 0 0 -58.413785706552972 -7.7596596226056658 0 -7.7596596226056658 23.397448761781394 0 0 0 0 -76.56478987010837 -59.577791209413746 0 -59.577791209413746 55.254496342596212 0 0 0 0 -44.171054309645115 -18.435371437662184 0 -18.435371437662184 -25.06287594166821 0 0 0 0 -47.718031759945461 7.969129647893558 0 7.969129647893558 23.889974876317922 0 0 0 0 -0.23764643052891188 -7.3726079163325409 0 -7.3726079163325409 27.881349714363644 0 0 0 0 10.335023227263264 5.1916726911388054 0 5.1916726911388054 17.53312440343916 0 0 0 0 -2.1396167916391278 0.80267283197489547 0 0.80267283197489547 13.18029948890144 0 0 0 0 -23.737327379043563 -10.403758424448291 0 -10.403758424448291 14.910718888969841 0 0 0 0 -22.657052423321147 -2.1223767481230382 0 -2.1223767481230382 23.569890497427394 0 0 0 0 -19.782970104199649 8.0330994080479226 0 8.0330994080479226 2.4742209102072898 0 0 0 0 -0.07703921289430582 -1.9312397100674872 0 -1.9312397100674872 26.354803782829915 0 0 0 0 -6.7551295075099915 -11.64481456920992 0 -11.64481456920992 22.312425317134426 0 0 0 0 -17.422872693426143 -18.810942073180136 0 -18.810942073180136 12.354770869818694 0 0 0 0 0.97510095476400238 -14.986913512901785 0 -14.986913512901785 0.26086956599457523 0 0 0 0 6.3416092709585428 -24.781758912763536 0 -24.781758912763536 16.521491973357818 0 0 0 0 -92.77714860190099 36.216838055711662 0 36.216838055711662 27.573599561931985 0 0 0 0 -0.62321845646464458 -2.6004318984775363 0 -2.6004318984775363 3.65403592150113 0 0 0 0 -30.505705639803637 -17.665514112827623 0 -17.665514112827623 -48.8407734413654 0 0 0 0 -13.742418454234212 47.373209050819241 0 47.373209050819241 29.201820264855442 0 0 0 0 7.7362167337869323 10.339829900259019 0 10.339829900259019 14.778088007948782 0 0 0 0 -24.188068137185837 -11.491180056864323 0 -11.491180056864323 22.736873103735121 0 0 0 0 -44.844334012472245 -20.854055588777328 0 -20.854055588777328 83.359453699713185 0 0 0 0 -43.819322208866765 -4.4502354810622542 0 -4.4502354810622542 46.562939562210431 0 0 0 0 -52.504415128720211 -49.553949082888039 0 -49.553949082888039 -8.6022317130118608 0 0 0 0 0.35786062628085347 12.790627159433598 0 12.790627159433598 36.308109692734888 0 0 0 0 -6.3127285831578774 -25.596671354625983 0 -25.596671354625983 51.398578065434322 0 0 0 0 -30.268539111701102 -58.617628875013907 0 -58.617628875013907 47.58770745810898 0 0 0 0 -69.135515171685256 -46.229448637889618 0 -46.229448637889618 49.382277389708293 0 0 0 0 -64.616691937066207 -58.825699933590386 0 -58.825699933590386 36.829550025432354 0 0 0 0 -7.5045209097118004 17.355950089530609 0 17.355950089530609 159.33859117749284 0 0 0 0 37.273448927979189 -86.43057063991057 0 -86.43057063991057 135.00827520259145 0 0 0 0 160.77713911247338 -84.083578624315464 0 -84.083578624315464 27.805440894631374 0 0 0 0 185.75899400576918 68.144674309953302 0 68.144674309953302 21.017791085976114 0 0 0 0 101.02947364910051 77.262047296513288 0 77.262047296513288 56.038604919154864 0 0 0 0 185.92197870714472 -17.206983767603219 0 -17.206983767603219 -8.166312339069691 0 0 0 0 54.166516971513829 -2.5368204032963604 0 -2.5368204032963604 -8.6372482551157646 0 0 0 0 79.256665484561381 6.8247721594771065 0 6.8247721594771065 -7.1601136772907239 0 0 0 0 16.895479083386817 37.953778752145013 0 37.953778752145013 5.8962872734637131 0 0 0 0 0.92685063630187869 13.967331123196516 0 13.967331123196516 -11.115766087515226 0 0 0 0 5.7901052998061573 1.3652990708000061 0 1.3652990708000061 -9.9268580864428486 0 0 0 0 51.724979545560927 5.1970470065379004 0 5.1970470065379004 -15.42022827376087 0 0 0 0 12.294597947875161 -22.443938072624771 0 -22.443938072624771 -1.9007925740028213 0 0 0 0 -61.406156496940639 -0.77599303329577651 0 -0.77599303329577651 18.125051593432318 0 0 0 0 2.132688598790871 -2.3431770034165451 0 -2.3431770034165451 2.015906555338264 0 0 0 0 -20.775305323842076 20.825239640309093 0 20.825239640309093 -2.0784364100828725 0 0 0 0 13.627749875045538 -8.6573785938323056 0 -8.6573785938323056 -6.2247337429484162 0 0 0 0 16.040283879664457 -9.7844206696687195 0 -9.7844206696687195 -7.6719461518699035 0 0 0 0 15.553370697169644 1.2618100365327003 0 1.2618100365327003 -1.0198752798194444 0 0 0 0 14.891645101755785 12.566904438205256 0 12.566904438205256 -12.73966340838578 0 0 0 0 13.653417880519555 6.1425581989259967 0 6.1425581989259967 -13.080058898247785 0 0 0 0 6.127934381323854 -0.42227781788559415 0 -0.42227781788559415 -2.9583053891460054 0 0 0 0 3.6432376692944217 11.811801921704028 0 11.811801921704028 -1.8926649048769377 0 0 0 0 2.8674428889247618 2.9272937806505706 0 2.9272937806505706 -1.332258286863012 0 0 0 0 18.816961643192371 3.1507083654780104 0 3.1507083654780104 9.5454385937866846 0 0 0 0 15.43506022391739 15.105372832092826 0 15.105372832092826 -3.6585090984636679 0 0 0 0 3.3469221135201721 0.71306693210366623 0 0.71306693210366623 0.10936461356701205 0 0 0 0 27.375619328198809 8.2716558449079116 0 8.2716558449079116 -28.218365952953917 0 0 0 0 7.464252594001664 17.633144416559503 0 17.633144416559503 -15.919916938092229 0 0 0 0 4.8348226735543918 1.1328037237738486 0 1.1328037237738486 0.35549430787551306 0 0 0 0 4.0660561299073379 -1.8798248115513019 0 -1.8798248115513019 1.518081112388785 0 0 0 0 8.3903633270861064 2.1870748836077141 0 2.1870748836077141 -8.654491927097439 0 0 0 0 32.088170482529222 37.601254410413993 0 37.601254410413993 24.392649449576595 0 0 0 0 1.2987706779960959 0.17822354560073173 0 0.17822354560073173 0.034251590791887665 0 0 0 0 1.8285261635537609 -2.6583680990812155 0 -2.6583680990812155 10.913547401323012 0 0 0 0 22.036213493002833 -24.896006976822036 0 -24.896006976822036 -1.1687068474786315 0 0 0 0 55.741979447880112 9.0551426268034447 0 9.0551426268034447 -19.051516013189314 0 0 0 0 105.18715933360272 -59.775693648848971 0 -59.775693648848971 12.675269976766231 0 0 0 0 149.2493823227901 27.876476470587107 0 27.876476470587107 -37.187167529766498 0 0 0 0 122.69786014373676 9.8356519570047567 0 9.8356519570047567 -1.1229442722155518 0 0 0 0 -9.4421445391926682 -20.259873515106221 0 -20.259873515106221 103.23130901917068 0 0 0 0 91.045168829518843 -65.918229622467379 0 -65.918229622467379 51.275394854040314 0 0 0 0 38.523810493352357 -16.941891785150858 0 -16.941891785150858 14.922225927977671 0 0 0 0 25.799963281997407 -14.041858919997821 0 -14.041858919997821 44.140728833228479 0 0 0 0 1.8267273711317102 26.912885892039526 0 26.912885892039526 15.25085732457319 0 0 0 0 24.357807893883546 3.691612346543792 0 3.691612346543792 10.761382327988201 0 0 0 0 17.901746173358333 2.2733154817620402 0 2.2733154817620402 14.145041706429385 0 0 0 0 20.236056010427149 4.3730485101032404 0 4.3730485101032404 10.957634671004257 0 0 0 0 18.436871598713878 -4.6782249360192054 0 -4.6782249360192054 0.24496089494979856 0 0 0 0 20.947301017714608 -1.0174120802761131 0 -1.0174120802761131 -11.983582395083999 0 0 0 0 16.569688173755821 -5.535901386390492 0 -5.535901386390492 -1.001065319764308 0 0 0 0 0.076815694274941393 0.034959323361928085 0 0.034959323361928085 -0.67642391039449778 0 0 0 0 17.230726274795643 -4.5590331941077338 0 -4.5590331941077338 -0.20737875496661218 0 0 0 0 18.265109471186406 -1.4592380479203939 0 -1.4592380479203939 -6.3239574075440714 0 0 0 0 13.105789703083246 0.37890959439091887 0 0.37890959439091887 -4.8226948388411301 0 0 0 0 15.428227600555147 1.1210127530301435 0 1.1210127530301435 -12.211645683953975 0 0 0 0 14.752301348351466 2.9161199884577229 0 2.9161199884577229 -10.105239243522078 0 0 0 0 13.293904932961595 3.3463959130360195 0 3.3463959130360195 -9.300623652684294 0 0 0 0 12.140107883649762 7.6968718070020259 0 7.6968718070020259 -15.1946210616032 0 0 0 0 22.09737563786075 -2.8707319903232076 0 -2.8707319903232076 -5.3562285279350874 0 0 0 0 15.549333817149659 -3.2094175368902373 0 -3.2094175368902373 -3.370850036059835 0 0 0 0 -0.054666773667039426 -0.32639816688432788 0 -0.32639816688432788 -1.8545343569560799 0 0 0 0 55.202611015845832 -17.825056213585015 0 -17.825056213585015 -4.4063380212643324 0 0 0 0 54.957465373743617 -24.627362371147797 0 -24.627362371147797 -2.9901197781859992 0 0 0 0 68.547311752784481 -27.493103840377728 0 -27.493103840377728 -14.818876092511402 0 0 0 0 49.235437948266281 -27.697084586915231 0 -27.697084586915231 -4.6358738002028304 0 0 0 0 60.733871700900181 -17.968908001864918 0 -17.968908001864918 -9.0264824490723186 0 0 0 0 76.02255490427342 -9.0967904165399318 0 -9.0967904165399318 -3.8839998675008474 0 0 0 0 8.2890020903223558 0.66719247819740701 0 0.66719247819740701 -1.62752950562043 0 0 0 0 9.4797341495950604 1.1451512027691138 0 1.1451512027691138 -1.7228272403666551 0 0 0 0 8.1317206058961347 2.0534004195665005 0 2.0534004195665005 -1.9801119480652574 0 0 0 0 1.8301967017593608 -1.748505596309883 0 -1.748505596309883 -2.650205015714155 0 0 0 0 6.5022441504579547 0.59677227782316322 0 0.59677227782316322 -2.5553262521744351 0 0 0 0 5.6229333467290417 4.2345420387665484 0 4.2345420387665484 1.6315837796744859 0 0 0 0 0.82020152761742793 1.0651742147752117 0 1.0651742147752117 0.60288330843013682 0 0 0 0 -1.1946951806138486 6.3737200308343702 0 6.3737200308343702 7.2882152909619151 0 0 0 0 -0.059602200829544927 0.10758279498407397 0 0.10758279498407397 0.21432907199316609 0 0 0 0 26.652144904964189 -1.2384936698627484 0 -1.2384936698627484 3.5828984368189354 0 0 0 0 9.4769964442175478 10.13676219623062 0 10.13676219623062 2.4973822237729877 0 0 0 0 6.9087186494307389 2.8687415909864171 0 2.8687415909864171 -5.9916902237056533 0 0 0 0 20.532647392081344 3.3280275026582196 0 3.3280275026582196 -6.002426731787466 0 0 0 0 12.539126382896939 5.6458903827256677 0 5.6458903827256677 -18.445687116243562 0 0 0 0 5.8468316645066807 0.46287266064072696 0 0.46287266064072696 -10.985907506324224 0 0 0 0 12.510023130805166 5.1838433381464881 0 5.1838433381464881 -11.709568427046065 0 0 0 0 10.397874619516188 1.2807021217158763 0 1.2807021217158763 -18.549933380544473 0 0 0 0 5.4566392444885423 -2.6347626112210492 0 -2.6347626112210492 -23.264565620416704 0 0 0 0 4.4910818282451146 7.6359312704300066 0 7.6359312704300066 -8.465644656682457 0 0 0 0 1.9436916394806261 0.60242408656768021 0 0.60242408656768021 -0.81218858251487824 0 0 0 0 2.74439062035799 3.6247327585172542 0 3.6247327585172542 -3.749185048651043 0 0 0 0 2.4662339744883184 6.3232551088834157 0 6.3232551088834157 0.69621657004250892 0 0 0 0 4.5016489012996317 4.8341648276140461 0 4.8341648276140461 1.7364936322714932 0 0 0 0 7.7466829330824112 1.7781547235550335 0 1.7781547235550335 -17.768337625890794 0 0 0 0 6.1798326025282222 -3.789008985765534 0 -3.789008985765534 -11.352069577776618 0 0 0 0 3.0190049443135649 -3.8758195339674302 0 -3.8758195339674302 5.4387008871212856 0 0 0 0 14.307323480117702 16.832844639897132 0 16.832844639897132 -9.1920306136154863 0 0 0 0 2.4596965674190869 8.4006667763145231 0 8.4006667763145231 8.9065283639729103 0 0 0 0 18.507315600051243 -0.47377008727008985 0 -0.47377008727008985 -2.5977707924487845 0 0 0 0 0.013244712006407866 0.26352961083597215 0 0.26352961083597215 -0.4427543039761489 0 0 0 0 9.3833758354485326 10.344013899955641 0 10.344013899955641 2.9262608274801778 0 0 0 0 4.115245787800438 0.33449864311128685 0 0.33449864311128685 -1.6458725379717396 0 0 0 0 2.83251592084207 3.937507062857037 0 3.937507062857037 -5.1473468352789951 0 0 0 0 -0.26812549493843107 -1.4671759417165049 0 -1.4671759417165049 -4.0502766165233481 0 0 0 0 3.4328407848238385 1.9036896244980426 0 1.9036896244980426 -3.5495276061885761 0 0 0 0 4.036235777922963 0.9458484554949802 0 0.9458484554949802 -3.540290455116077 0 0 0 0 5.1363739844859992 -0.068796372255292226 0 -0.068796372255292226 -2.8033307973725528 0 0 0 0 3.6531456079187592 1.707430347980246 0 1.707430347980246 -4.9302451821730813 0 0 0 0 4.5902688386292088 0.21588046530279836 0 0.21588046530279836 -2.6949555167500492 0 0 0 0 5.9977161290519234 1.5054759239984641 0 1.5054759239984641 -4.0316600287659696 0 0 0 0 4.931225246882029 -0.46588084287038134 0 -0.46588084287038134 -0.43676345369939223 0 0 0 0 8.1508282094450806 1.2408204381678729 0 1.2408204381678729 -3.2584790138344601 0 0 0 0 6.3289612827006749 0.28198209955377074 0 0.28198209955377074 -4.1270443090901923 0 0 0 0 4.7211372059974508 0.73163607166675471 0 0.73163607166675471 -2.2485979803322049 0 0 0 0 5.8894291472524856 -14.949130578429504 0 -14.949130578429504 -21.004957976504954 0 0 0 0 7.3262781621487916 0.38800179989007688 0 0.38800179989007688 -3.6507272043024308 0 0 0 0 7.8150269687935179 1.6275468571813576 0 1.6275468571813576 -2.7831873658875566 0 0 0 0 -18.466180763300144 -23.267052398070973 0 -23.267052398070973 -19.039090916413102 0 0 0 0 16.184979456160363 -2.5019898102748357 0 -2.5019898102748357 -22.167823126810617 0 0 0 0 6.9107210730426232 8.1410240497384194 0 8.1410240497384194 -11.426084087717868 0 0 0 0 7.3241872101773424 1.0056098274796597 0 1.0056098274796597 -3.0792873479516629 0 0 0 0 6.9935309107993824 1.1640227698624446 0 1.1640227698624446 -0.71265086352224638 0 0 0 0 7.9091920571770631 2.0656147760110022 0 2.0656147760110022 -3.0072655181738934 0 0 0 0 3.9824358663827297 -10.229294810400802 0 -10.229294810400802 -25.397664724252536 0 0 0 0 22.910479034080709 4.3443231822534472 0 4.3443231822534472 -20.048635154023827 0 0 0 0 19.393168578664245 8.3963849496949479 0 8.3963849496949479 -12.507301547653697 0 0 0 0 30.947664706045998 12.489843096395703 0 12.489843096395703 -15.76456711463311 0 0 0 0 36.735047261144246 20.860827118259635 0 20.860827118259635 -12.603002430320885 0 0 0 0 37.071989070856944 7.6065836406562539 0 7.6065836406562539 -18.137986499217959 0 0 0 0 46.582165519587534 25.907724156524182 0 25.907724156524182 -4.8815972971942756 0 0 0 0 51.071539846632049 7.8734589036359637 0 7.8734589036359637 -22.911698989626984 0 0 0 0 43.799888484549228 40.016159603413399 0 40.016159603413399 18.534251018096541 0 0 0 0 125.2522745731776 61.39306238695594 0 61.39306238695594 24.137497961091611 0 0 0 0 131.67866473264166 -68.971405478922421 0 -68.971405478922421 81.049086080538501 0 0 0 0 76.686646329765239 -6.6004072412023653 0 -6.6004072412023653 -1.9294600660650758 0 0 0 0 78.111157057334822 29.156928920094572 0 29.156928920094572 -7.532529576795838 0 0 0 0 45.164818974990339 -8.8356696283557881 0 -8.8356696283557881 22.891534293718109 0 0 0 0 43.197923534638448 -2.1723791015424752 0 -2.1723791015424752 3.2314484790967981 0 0 0 0 53.824346929196508 3.5311981574726019 0 3.5311981574726019 18.791144885243256 0 0 0 0 41.961217566744381 -43.742496848193923 0 -43.742496848193923 88.685982008145515 0 0 0 0 3.7121816975322872 5.1378803050108672 0 5.1378803050108672 27.845499977314486 0 0 0 0 -1.9458665091547118 -9.492683567904578 0 -9.492683567904578 11.696902941871258 0 0 0 0 10.991951344823519 -23.524166377834092 0 -23.524166377834092 26.613024831830444 0 0 0 0 10.935301284102309 -24.69011371587645 0 -24.69011371587645 -8.518995073116912 0 0 0 0 32.49210413685887 -15.965104794460899 0 -15.965104794460899 -3.5792699595971271 0 0 0 0 14.342743158386611 2.1754078041108897 0 2.1754078041108897 -19.65846423179255 0 0 0 0 34.514988062716839 6.8371177578992501 0 6.8371177578992501 -4.6874493695869432 0 0 0 0 21.228318878224059 -16.026725708091661 0 -16.026725708091661 -46.406799778982531 0 0 0 0 -1.668343188351173 5.1755660082678787 0 5.1755660082678787 -20.156683184103258 0 0 0 0 22.965082005214754 -3.0647268248508226 0 -3.0647268248508226 -23.189480555421142 0 0 0 0 1.4237884383851451 -17.303464422199454 0 -17.303464422199454 -55.822007646928682 0 0 0 0 -18.462512763397399 -17.716310590059948 0 -17.716310590059948 -10.005526023179755 0 0 0 0 1.9493069449431388 -0.92916570700993095 0 -0.92916570700993095 -2.0649645519837252 0 0 0 0 1.3060672065707877 -18.314686082939332 0 -18.314686082939332 -19.213913761645927 0 0 0 0 5.0882660063962639 0.78172216741872536 0 0.78172216741872536 -2.7669759693678291 0 0 0 0 -1.4380214197958594 -9.7499656357091453 0 -9.7499656357091453 -16.380267088969049 0 0 0 0 -3.0732323128226824 -17.844360289626202 0 -17.844360289626202 -0.076852248050727212 0 0 0 0 -10.042356265780654 -6.0513194257003988 0 -6.0513194257003988 16.463046826895948 0 0 0 0 -5.6382435098794303 2.7726747944066759 0 2.7726747944066759 8.3956765121079897 0 0 0 0 -8.630326452467898 -5.686107940211059 0 -5.686107940211059 -2.4015934302956339 0 0 0 0 -6.8089188791650486 -8.5288962790280038 0 -8.5288962790280038 -0.99503304647464574 0 0 0 0 0.91224396397701168 -1.4060533459355484 0 -1.4060533459355484 -2.0678967054501509 0 0 0 0 -4.3448340513976405 -3.5135675744229502 0 -3.5135675744229502 -4.4430016466405959 0 0 0 0 -6.0080542169948217 -9.9401589206238725 0 -9.9401589206238725 -7.2420731052070551 0 0 0 0 -6.7296308463936612 -1.7878810564055954 0 -1.7878810564055954 4.5533858405575245 0 0 0 0 5.9853275974096505 1.9572154430715969 0 1.9572154430715969 -2.1944904783336341 0 0 0 0 4.9583419773634887 0.94077787269219471 0 0.94077787269219471 -1.5254074851553696 0 0 0 0 5.1830314331930367 2.0335199563574378 0 2.0335199563574378 -1.3139967507264032 0 0 0 0 4.6777293895665029 -0.042258635099014175 0 -0.042258635099014175 -2.8377558052651972 0 0 0 0 4.2142716298638598 0.13898686478632793 0 0.13898686478632793 -2.4907894719949466 0 0 0 0 7.8210020822189108 -6.35881897795241 0 -6.35881897795241 -4.5984854385818323 0 0 0 0 72.717393531268499 45.331930841023905 0 45.331930841023905 29.931444565497941 0 0 0 0 1.4376008072558926 0.22089518435395661 0 0.22089518435395661 0.94074038413913286 0 0 0 0 -6.2812344560552447 4.225459108046266 0 4.225459108046266 32.005755180871802 0 0 0 0 52.722637747428962 25.026606365596422 0 25.026606365596422 9.9405693225685354 0 0 0 0 4.270720378717666 1.0433787777423942 0 1.0433787777423942 -0.047463834629340673 0 0 0 0 19.980101818346157 93.539273498025977 0 93.539273498025977 175.40700464872515 0 0 0 0 0.80711059160603327 38.987443559656185 0 38.987443559656185 63.762311210689631 0 0 0 0 1.574250676734156 0.36274111953597621 0 0.36274111953597621 0.17816382526245433 0 0 0 0 23.15109820066391 -21.083484013546979 0 -21.083484013546979 27.270279234756572 0 0 0 0 107.02742798820145 -90.446287782627905 0 -90.446287782627905 67.833734783975899 0 0 0 0 91.470477206952751 -47.581755964509256 0 -47.581755964509256 10.671072406971007 0 0 0 0 22.072452438048458 -13.306975729241685 0 -13.306975729241685 18.047056460116096 0 0 0 0 1.7814350708958702 0.076892921946281945 0 0.076892921946281945 -3.182711101897997 0 0 0 0 31.452601752490864 -12.751359732485923 0 -12.751359732485923 4.5440732580491385 0 0 0 0 11.040945884038592 3.4081263682463714 0 3.4081263682463714 -5.3416988280268143 0 0 0 0 12.228879933161807 10.831243819176734 0 10.831243819176734 -16.517591976027006 0 0 0 0 16.337750280926116 2.8695356282781113 0 2.8695356282781113 -10.038838190737806 0 0 0 0 8.1018060692518219 4.5933013500167554 0 4.5933013500167554 1.3455503818496413 0 0 0 0 15.372623750022285 7.0655379206039015 0 7.0655379206039015 -17.051727688001392 0 0 0 0 11.934369815888203 11.697863772450262 0 11.697863772450262 -10.309179800982406 0 0 0 0 11.074531814338791 4.929396092417015 0 4.929396092417015 0.51051204640580328 0 0 0 0 10.932414351798798 2.2171610233218502 0 2.2171610233218502 -23.147646189725606 0 0 0 0 2.5594724629676833 1.884004351901754 0 1.884004351901754 -0.098893862937286192 0 0 0 0 12.184151997624213 8.4123193388294446 0 8.4123193388294446 -14.716785760976222 0 0 0 0 11.893921866924984 5.1105326028755371 0 5.1105326028755371 -13.386374840504232 0 0 0 0 7.60371571513042 5.0339884845500364 0 5.0339884845500364 -8.3826230471404415 0 0 0 0 15.181454937012859 14.357959216332347 0 14.357959216332347 -4.5058219751458637 0 0 0 0 22.053593088919115 10.444615111985513 0 10.444615111985513 -14.144685542029436 0 0 0 0 15.382257018919063 15.294462133370985 0 15.294462133370985 -1.1218468316446888 0 0 0 0 4.9711395776903373 1.0963337211553608 0 1.0963337211553608 -3.7755711120630622 0 0 0 0 5.4169015916577337 11.419670811601918 0 11.419670811601918 0.50917519203130723 0 0 0 0 7.0574062027917535 17.078681524160515 0 17.078681524160515 12.93449480509571 0 0 0 0 5.5858809691089846 12.15271235509249 0 12.15271235509249 0.29110004475586493 0 0 0 0 2.0081044279750131 10.465482698617393 0 10.465482698617393 33.942089874708017 0 0 0 0 -1.536327866206193 30.465059476326701 0 30.465059476326701 26.081062260356703 0 0 0 0 3.7024210960917117 34.781423365546857 0 34.781423365546857 22.295523754747137 0 0 0 0 13.356893106584721 28.341369442215864 0 28.341369442215864 11.666426962748517 0 0 0 0 13.831078634844744 40.464941908202491 0 40.464941908202491 23.133810391107531 0 0 0 0 22.285099143929983 24.57021983251343 0 24.57021983251343 -2.0242957898611564 0 0 0 0 26.342587853313034 30.577530187348202 0 30.577530187348202 6.7038219195569582 0 0 0 0 14.324649249713275 29.572515877097658 0 29.572515877097658 12.063763213009224 0 0 0 0 24.966980075021638 37.043057741231678 0 37.043057741231678 13.387565690164848 0 0 0 0 23.209672699563271 31.545794159939874 0 31.545794159939874 6.4164673326075103 0 0 0 0 46.405462885290035 43.43536984127789 0 43.43536984127789 12.505115993592824 0 0 0 0 13.480834449449503 39.937069470913627 0 39.937069470913627 24.481351163990666 0 0 0 0 3.3852624623409611 29.086246682268524 0 29.086246682268524 18.706348014678042 0 0 0 0 13.125706411690544 49.279469348747895 0 49.279469348747895 48.180839633514665 0 0 0 0 16.092234509431364 23.60123218253926 0 23.60123218253926 14.554017838212403 0 0 0 0 25.493580610565004 39.249445893911002 0 39.249445893911002 -36.172583061301339 0 0 0 0 24.103109871331753 39.031130178566272 0 39.031130178566272 9.0906702703125575 0 0 0 0 20.386952486751397 20.507940089249814 0 20.507940089249814 2.0183661253350316 0 0 0 0 20.155942705810958 -0.0028354712501510448 0 -0.0028354712501510448 -5.7451012080828434 0 0 0 0 -0.66544968434368101 0.36172468883846021 0 0.36172468883846021 0.29837010800888764 0 0 0 0 56.759276467160817 9.9324053478743508 0 9.9324053478743508 -9.3573864624145244 0 0 0 0 26.822996468470592 -29.084644298909424 0 -29.084644298909424 26.617705229128546 0 0 0 0 31.788760891066886 95.953365585415213 0 95.953365585415213 -137.37200042728858 0 0 0 0 30.732738051842716 63.808288157534207 0 63.808288157534207 84.348666861227912 0 0 0 0 30.096885310757898 85.790786585606952 0 85.790786585606952 32.105863645407453 0 0 0 0 80.124515736777994 -8.2267898422778387 0 -8.2267898422778387 -59.41113845054042 0 0 0 0 -7.4474354831741039 37.297073054204191 0 37.297073054204191 84.144902250753375 0 0 0 0 -6.9676160116141546 48.104249762133122 0 48.104249762133122 90.753248365221623 0 0 0 0 30.452915165144077 7.0540620474046136 0 7.0540620474046136 2.0965208771760331 0 0 0 0 54.886479008721835 38.80242664013042 0 38.80242664013042 -26.725282180231034 0 0 0 0 32.386891991910488 -19.466983634125256 0 -19.466983634125256 -91.06666848454438 0 0 0 0 -0.12458432962188581 -1.6432939869419325 0 -1.6432939869419325 -0.21921897361855458 0 0 0 0 2.6718210819108208 -16.161230409619932 0 -16.161230409619932 -0.49842468137798335 0 0 0 0 -31.096321361679657 21.118523177445695 0 21.118523177445695 -26.975975671365077 0 0 0 0 5.4878760626424992 -1.5148920057594637 0 -1.5148920057594637 0.82690429049387149 0 0 0 0 8.9725327968094231 -1.4974456122633781 0 -1.4974456122633781 -1.1294261871339879 0 0 0 0 8.6172263983555695 -3.5370195956555062 0 -3.5370195956555062 -2.7514973054391589 0 0 0 0 9.9812721702419367 -0.73940399354722075 0 -0.73940399354722075 -3.546667185212276 0 0 0 0 7.1935929700231389 -0.47674053818771045 0 -0.47674053818771045 -0.57874182100820171 0 0 0 0 5.0213793459108036 -0.95282941739425264 0 -0.95282941739425264 -1.2537693190876453 0 0 0 0 13.031191873159969 3.0443738429652001 0 3.0443738429652001 -0.88799522316776347 0 0 0 0 11.069772475458194 7.005131723756981 0 7.005131723756981 -7.6317988704087867 0 0 0 0 15.935770059205424 -15.879102329194041 0 -15.879102329194041 -19.621775271119589 0 0 0 0 9.1949763312211701 -0.18350975870328545 0 -0.18350975870328545 -1.3688112952697307 0 0 0 0 -6.3602128608345083 -6.5634822204577574 0 -6.5634822204577574 0.41189285404077225 0 0 0 0 21.286435055473703 9.1048470996330053 0 9.1048470996330053 -22.899642118213819 0 0 0 0 5.2919955205239262 0.87116866301952633 0 0.87116866301952633 0.19151457503832164 0 0 0 0 1.4713161749614585 1.0904631567734711 0 1.0904631567734711 0.50463704461715952 0 0 0 0 23.575195655158041 47.474032583524846 0 47.474032583524846 69.579988245625188 0 0 0 0 47.574012116187077 -22.321333846258256 0 -22.321333846258256 18.14511530973915 0 0 0 0 -0.87036997320137743 20.318177764459705 0 20.318177764459705 39.525379468882178 0 0 0 0 18.061768027123435 -1.6125449350969348 0 -1.6125449350969348 -10.980399345255165 0 0 0 0 5.7267238958070266 -5.587083163558539 0 -5.587083163558539 13.4070014840878 0 0 0 0 -2.2275548107118084 3.7197923008063043 0 3.7197923008063043 7.7765374384267716 0 0 0 0 42.506299633901108 -18.715357198480064 0 -18.715357198480064 0.8890965474116399 0 0 0 0 8.5667556965205591 -0.6788365433054534 0 -0.6788365433054534 -0.61556332722568063 0 0 0 0 -3.5728879971666174 -3.3416030650224116 0 -3.3416030650224116 0.25746597446504182 0 0 0 0 14.223824377333813 -0.48933354350801039 0 -0.48933354350801039 -6.7346807238982365 0 0 0 0 5.2745725284316052 6.520620054057229 0 6.520620054057229 4.9162108477831623 0 0 0 0 15.780761250883213 -12.991952793600042 0 -12.991952793600042 -32.500287932752201 0 0 0 0 32.591395976723106 -15.575456911247784 0 -15.575456911247784 -12.142034338914623 0 0 0 0 8.2770831002897758 -1.9832107567603017 0 -1.9832107567603017 -0.63551859989209514 0 0 0 0 30.697838638119602 24.260020454383163 0 24.260020454383163 19.55397938809665 0 0 0 0 0.48886977369571538 0.12130117870126877 0 0.12130117870126877 -0.42294369954463962 0 0 0 0 29.252884652226776 15.473376528344115 0 15.473376528344115 1.1694233199347082 0 0 0 0 3.2633815014187078 -0.57813305764734746 0 -0.57813305764734746 -1.967643903205003 0 0 0 0 6.0539950181318716 0.60450694149536588 0 0.60450694149536588 -0.9554287457206101 0 0 0 0 6.5153218097314038 1.5151836304852964 0 1.5151836304852964 0.43559281055238586 0 0 0 0 9.3461834254691958 0.10495434656636071 0 0.10495434656636071 -0.24409638942563561 0 0 0 0 9.365465466977005 0.60962041680600176 0 0.60962041680600176 -0.6662452578286775 0 0 0 0 -0.76398407938864921 2.2800292359484331 0 2.2800292359484331 -2.6111363171693256 0 0 0 0 1.230552939840436 0.98522745546034685 0 0.98522745546034685 -3.4763219098002764 0 0 0 0 0.13275145871310245 0.27288250525372071 0 0.27288250525372071 -1.1382945297505653 0 0 0 0 -3.6895862538576694 0.63688575409797465 0 0.63688575409797465 -0.70863871470670858 0 0 0 0 -9.3096774306518455 3.7484075089741964 0 3.7484075089741964 -0.83896354785649407 0 0 0 0 -0.301141349128077 0.22956864623975859 0 0.22956864623975859 -0.11058813987289876 0 0 0 0 -2.8439268573897607 9.8289850172029887 0 9.8289850172029887 1.0946463398630613 0 0 0 0 -7.6564897751636636 0.44838398795351608 0 0.44838398795351608 5.734234693371377 0 0 0 0 -3.3878154300346068 -2.5481397465985935 0 -2.5481397465985935 20.970016568460665 0 0 0 0 -0.8709824275556457 14.528516571772514 0 14.528516571772514 9.5677428041397832 0 0 0 0 -1.2652491750195622 10.114101510442325 0 10.114101510442325 -6.5070439036572907 0 0 0 0 -2.1088580932159857 5.9578597823257979 0 5.9578597823257979 -4.4920090209627688 0 0 0 0 29.083778530476138 10.517449139235566 0 10.517449139235566 5.0353993818067124 0 0 0 0 -0.24703754916380394 1.3737503391932457 0 1.3737503391932457 -0.74311323159895459 0 0 0 0 -0.31217226063927228 5.5244527977403521 0 5.5244527977403521 -9.3086071546237577 0 0 0 0 57.493458797137009 37.159758010723223 0 37.159758010723223 3.1724947414345479 0 0 0 0 53.375533074801751 40.938912148354603 0 40.938912148354603 17.894676280551323 0 0 0 0 35.342660525310862 39.191224014381874 0 39.191224014381874 35.243195036372185 0 0 0 0 55.519581412265779 71.912892666478882 0 71.912892666478882 47.911779628155841 0 0 0 0 0.0064421819432221028 0.46542061254851474 0 0.46542061254851474 -0.43363105015882258 0 0 0 0 17.926813150801991 7.1209916705061591 0 7.1209916705061591 -54.847594276041995 0 0 0 0 22.545195526976386 60.276412254350753 0 60.276412254350753 28.165758174473183 0 0 0 0 78.25881730793526 60.509235143939819 0 60.509235143939819 5.8663386634208052 0 0 0 0 74.680129816787485 49.506870444376574 0 49.506870444376574 -25.703876495949004 0 0 0 0 181.18886610134996 27.283704311527099 0 27.283704311527099 -37.769682208720312 0 0 0 0 86.942911888131675 -32.777166081629048 0 -32.777166081629048 20.156214489218996 0 0 0 0 16.487956270268796 56.258506394638616 0 56.258506394638616 177.42632859205236 0 0 0 0 97.880791411662813 28.014930540669006 0 28.014930540669006 -6.1187466213408754 0 0 0 0 58.770110953690619 22.600069583342815 0 22.600069583342815 -6.8355091782423898 0 0 0 0 59.25384100710744 15.120424749722758 0 15.120424749722758 3.9757576817429481 0 0 0 0 39.534043373497752 37.679199307492823 0 37.679199307492823 16.282859976025577 0 0 0 0 8.0170596176444633 4.2074770668451151 0 4.2074770668451151 4.0696316275740854 0 0 0 0 -0.3186288797857344 -18.421858913297967 0 -18.421858913297967 -33.594061269146223 0 0 0 0 1.1546385558434764 -22.431274378839248 0 -22.431274378839248 -39.061459932342586 0 0 0 0 8.6955246037113838 -2.049993387610888 0 -2.049993387610888 -0.46693171721008608 0 0 0 0 35.772908442093012 22.74038853162466 0 22.74038853162466 12.300038282948321 0 0 0 0 14.93301142441851 35.588266027792884 0 35.588266027792884 54.052163878989404 0 0 0 0 50.616646601402863 35.210929083679673 0 35.210929083679673 4.0588530005416743 0 0 0 0 69.085924222947142 50.482083000433676 0 50.482083000433676 12.506586565581642 0 0 0 0 26.051677339666639 17.731275245011147 0 17.731275245011147 9.8985001703904061 0 0 0 0 81.734089812738603 2.2570665670212406 0 2.2570665670212406 -3.9673459697659155 0 0 0 0 -0.12327952676037146 1.5493735524914647 0 1.5493735524914647 1.9980528393066739 0 0 0 0 221.61434749452928 32.147823866020644 0 32.147823866020644 -15.299273116179961 0 0 0 0 75.811582605402236 233.97104750285106 0 233.97104750285106 103.43593021819788 0 0 0 0 -48.717757313706613 15.40200109708087 0 15.40200109708087 52.820004869255911 0 0 0 0 -0.082416781004107431 0.091777462382166775 0 0.091777462382166775 1.125756164733017 0 0 0 0 7.5804443290918506 -1.6419041550567508 0 -1.6419041550567508 -0.52888612338038299 0 0 0 0 128.57724510408366 39.838826505857924 0 39.838826505857924 71.389615538128012 0 0 0 0 39.730430314450132 75.133717409462292 0 75.133717409462292 67.188059487723535 0 0 0 0 30.574875002983024 10.476509361374884 0 10.476509361374884 33.052329998905066 0 0 0 0 -0.33343970687947433 7.5434695733560773 0 7.5434695733560773 -20.569725137491773 0 0 0 0 0.61830388481857446 2.3938344794328215 0 2.3938344794328215 -2.0046512386345023 0 0 0 0 35.064691803479036 20.452031912496814 0 20.452031912496814 -18.694554897112013 0 0 0 0 8.2405068569669311 43.682746421669151 0 43.682746421669151 9.0512790714435027 0 0 0 0 26.042695817046365 -43.027997092738886 0 -43.027997092738886 -108.77341521526102 0 0 0 0 19.289848248357373 -36.357572176349549 0 -36.357572176349549 -65.597796578241343 0 0 0 0 28.211552978702343 -56.627220989604623 0 -56.627220989604623 -1.1834574293546893 0 0 0 0 0.3421481663276309 0.056796828755556916 0 0.056796828755556916 -0.25412860671230231 0 0 0 0 1.9930641595134748 1.1388671998471127 0 1.1388671998471127 -2.9907248925850158 0 0 0 0 13.18001954368151 22.297221645572108 0 22.297221645572108 42.80567562780152 0 0 0 0 3.598468471610996 53.449731220368498 0 53.449731220368498 17.537673066447496 0 0 0 0 20.402112850228207 1.1959718379141009 0 1.1959718379141009 2.3161931094948613 0 0 0 0 0.65928656214623338 0.12130033952152885 0 0.12130033952152885 -0.50642477295234545 0 0 0 0 6.4645591585744455 11.8419490622382 0 11.8419490622382 -19.603787002962036 0 0 0 0 29.653403208012321 34.36932682207788 0 34.36932682207788 19.457537536354081 0 0 0 0 2.9543480988060935 2.1746046870009028 0 2.1746046870009028 -1.1458432396536438 0 0 0 0 2.6903858367512044 1.2236908308464554 0 1.2236908308464554 -2.8818745570968431 0 0 0 0 3.1140607849218895 2.2526248508103528 0 2.2526248508103528 -1.2660095129575524 0 0 0 0 6.9681972880974854 0.6828211197477998 0 0.6828211197477998 -1.2232483360037918 0 0 0 0 3.5017031044093105 1.720670669235485 0 1.720670669235485 -1.3673264747913887 0 0 0 0 2.3197218847352019 3.3281287342124521 0 3.3281287342124521 -2.6213298403348819 0 0 0 0 3.6750644005035888 -0.77311400046193324 0 -0.77311400046193324 -1.8228664232300473 0 0 0 0 28.094732775817022 50.867128962801246 0 50.867128962801246 -10.546160977033878 0 0 0 0 51.829123471382786 19.93796464078028 0 19.93796464078028 5.6951565080699993 0 0 0 0 1.6552721367905188 0.46616482725960817 0 0.46616482725960817 -1.0698636161600876 0 0 0 0 4.9138810573180081 9.2879731253179898 0 9.2879731253179898 25.731093127019903 0 0 0 0 3.1537059500617017 0.099536746122500297 0 0.099536746122500297 -2.19959941726212 0 0 0 0 9.0153644405587556 45.030333722220632 0 45.030333722220632 53.244762999491968 0 0 0 0 6.4819180179019327 2.0352397796617749 0 2.0352397796617749 -1.059900140649237 0 0 0 0 6.3389028166001822 1.3028690346972311 0 1.3028690346972311 0.75227529455790432 0 0 0 0 5.6667087392075359 1.1699779340664804 0 1.1699779340664804 1.1490768265527294 0 0 0 0 9.064413120757024 -1.0100723837934211 0 -1.0100723837934211 0.62312446264465393 0 0 0 0 4.9001046442028837 2.0203985321648688 0 2.0203985321648688 0.075701340301336018 0 0 0 0 2.389932760138969 0.23195968699448688 0 0.23195968699448688 -2.5805219568777455 0 0 0 0 4.1206236822575875 1.2851681575962886 0 1.2851681575962886 -2.2536061290592357 0 0 0 0 4.1316461021274193 1.1259893552142017 0 1.1259893552142017 -0.66587176871173881 0 0 0 0 5.4972841761194218 2.1262802783702188 0 2.1262802783702188 -1.1713313160987511 0 0 0 0 4.7495060411916938 2.7632415634470329 0 2.7632415634470329 -1.2473765399096397 0 0 0 0 4.197726167993892 1.8455588019991707 0 1.8455588019991707 -1.7850371956398572 0 0 0 0 3.8108639128644199 3.0703804127178671 0 3.0703804127178671 -1.287437346262827 0 0 0 0 4.7346114737310927 2.5291183549812573 0 2.5291183549812573 -1.1819590945195699 0 0 0 0 4.9907418202476492 3.2684413109275923 0 3.2684413109275923 -0.4298961645860615 0 0 0 0 6.2273973478031479 2.8979703175204978 0 2.8979703175204978 -0.95151904644458796 0 0 0 0 6.471200673049907 4.2050414791434889 0 4.2050414791434889 0.55688139482193577 0 0 0 0 5.7802562099592478 2.9435721747529406 0 2.9435721747529406 -0.37599033922263914 0 0 0 0 5.6789017307331022 2.6944464362819596 0 2.6944464362819596 0.14554258619409666 0 0 0 0 5.3190733638617758 2.0232692866999447 0 2.0232692866999447 0.25212822571987159 0 0 0 0 5.7714431950381595 3.1372646808894897 0 3.1372646808894897 1.0058674462218393 0 0 0 0 5.7045884411634233 3.1084410049788733 0 3.1084410049788733 1.2073876279720428 0 0 0 0 19.177457086998913 14.421078033373611 0 14.421078033373611 1.2563006378069312 0 0 0 0 -0.35453858889499656 -3.8806738720753176 0 -3.8806738720753176 7.5644812769491594 0 0 0 0 -0.013524837182805172 -0.040407728814132682 0 -0.040407728814132682 -0.21003817017167714 0 0 0 0 6.0104546192769135 3.4419724670645797 0 3.4419724670645797 1.5561699425268243 0 0 0 0 5.4888458664065638 2.6475453629590016 0 2.6475453629590016 2.2340111441251427 0 0 0 0 3.938082959230087 1.7725596774944137 0 1.7725596774944137 1.8371888873500879 0 0 0 0 6.2795675485195943 4.6354956021733358 0 4.6354956021733358 5.2243397604408131 0 0 0 0 5.6221165255302594 -8.9345355843444452 0 -8.9345355843444452 7.3692799973352017 0 0 0 0 -0.048142585233009849 -0.11323687849695308 0 -0.11323687849695308 -0.079216482004774491 0 0 0 0 34.089190055266656 -13.488848379363787 0 -13.488848379363787 13.511913157100546 0 0 0 0 19.818931160006741 -7.3613655277655266 0 -7.3613655277655266 3.1308376370619584 0 0 0 0 0.097606636167735461 -0.043791653897056748 0 -0.043791653897056748 -0.055240841835587584 0 0 0 0 54.41795190559381 3.535499254140035 0 3.535499254140035 -6.6017927397443046 0 0 0 0 35.81120528728961 11.405300777017565 0 11.405300777017565 15.629740364217568 0 0 0 0 40.062082941359506 -0.0091389753000843399 0 -0.0091389753000843399 3.7045351209065274 0 0 0 0 41.378778660114719 6.2846552429332716 0 6.2846552429332716 15.052221552960953 0 0 0 0 8.3973835225172593 13.272433968774951 0 13.272433968774951 11.677275358705238 0 0 0 0 28.323121041463594 9.7410679062670216 0 9.7410679062670216 -1.8875361937554724 0 0 0 0 20.085799549109254 2.0842851804954492 0 2.0842851804954492 19.052056530350665 0 0 0 0 28.63681209659822 17.441373332831475 0 17.441373332831475 14.956905872635541 0 0 0 0 57.585039048748456 23.617732535111138 0 23.617732535111138 30.902554842934101 0 0 0 0 48.729888759146718 -4.888186463062091 0 -4.888186463062091 30.357118339730111 0 0 0 0 181.69232118384451 61.482724905618333 0 61.482724905618333 10.297020589074211 0 0 0 0 42.577075070547757 89.238127541864742 0 89.238127541864742 47.533009569971654 0 0 0 0 188.35167675162575 38.763137247737326 0 38.763137247737326 16.177704619346873 0 0 0 0 46.951282961409021 12.537866520475461 0 12.537866520475461 3.7534288126996245 0 0 0 0 79.757265625472741 2.7165370633393988 0 2.7165370633393988 6.2953837742682186 0 0 0 0 53.372407562528934 -4.4266486409567278 0 -4.4266486409567278 -1.2251282307065381 0 0 0 0 499.86374215873695 94.747697422580273 0 94.747697422580273 -75.418522990051869 0 0 0 0 285.3717469349873 124.36195993830316 0 124.36195993830316 -3.2581998963703005 0 0 0 0 285.69962294989477 124.87360109674695 0 124.87360109674695 -11.086390885660373 0 0 0 0 351.30951456832088 149.36587350639593 0 149.36587350639593 -4.8296488459062834 0 0 0 0 499.42958681395783 292.78369709076981 0 292.78369709076981 77.419729706207804 0 0 0 0 208.07158554396403 86.347868118192906 0 86.347868118192906 35.218999017982227 0 0 0 0 25.149777546962468 51.968301390290577 0 51.968301390290577 107.7724946332861 0 0 0 0 250.07813853190328 211.10050719403148 0 211.10050719403148 156.22045786600495 0 0 0 0 0.27375199444010467 0.17608022920564048 0 0.17608022920564048 0.14141373782445765 0 0 0 0 186.74468579347081 110.46039347076182 0 110.46039347076182 19.308593040865979 0 0 0 0 280.55425365247828 227.50118152890008 0 227.50118152890008 127.34080617795563 0 0 0 0 4.50996081820072 1.4738373851911426 0 1.4738373851911426 -1.3394227361035291 0 0 0 0 5.217182270904388 0.72932930952388897 0 0.72932930952388897 -0.31346533072184501 0 0 0 0 24.888390646739481 19.119957070536277 0 19.119957070536277 -62.406210547917276 0 0 0 0 2.3534412076887463 1.4890329715562274 0 1.4890329715562274 -0.23753029170694617 0 0 0 0 108.53280659378697 81.912180349590358 0 81.912180349590358 83.93166189982125 0 0 0 0 2.9482568118417269 0.69423128690851366 0 0.69423128690851366 -0.57856110889176882 0 0 0 0 2.0815959051349409 1.3016343845830605 0 1.3016343845830605 0.25304740797281239 0 0 0 0 222.14269745448678 313.52798091008793 0 313.52798091008793 377.7966798561979 0 0 0 0 1.2765746227096653 0.33146504423418766 0 0.33146504423418766 0.43048213296742543 0 0 0 0 496.59291862073542 0.054659475182651386 0 0.054659475182651386 1.3993110638169524 0 0 0 0 3.6913794343242201 5.7539691354511078 0 5.7539691354511078 0.81563556782776914 0 0 0 0 0.16717132682231683 0.63384285171230381 0 0.63384285171230381 -0.1873617927330895 0 0 0 0 3.829006107552877 1.5206706990879866 0 1.5206706990879866 7.2782841030965528 0 0 0 0 8.0164964133720673 9.6552673886476157 0 9.6552673886476157 7.6646481078537505 0 0 0 0 1.2001843319154493 0.94595440158586519 0 0.94595440158586519 0.047271937091640195 0 0 0 0 40.521704529213231 -14.087620689284797 0 -14.087620689284797 -6.4506056250916401 0 0 0 0 14.853199559642874 28.799432140007269 0 28.799432140007269 41.128825274156597 0 0 0 0 0.38436422235446943 -0.0031837420379526304 0 -0.0031837420379526304 0.012271777626553751 0 0 0 0 48.792535526565636 20.971502207662102 0 20.971502207662102 -5.443894025088639 0 0 0 0 -2.1660538017860986 0.88120531224598153 0 0.88120531224598153 -7.9299786635060272 0 0 0 0 14.215832535755254 12.495631003636049 0 12.495631003636049 -1.3738009391850596 0 0 0 0 6.9706977911963008 11.659017106935963 0 11.659017106935963 3.8572685524713393 0 0 0 0 10.113297024917699 8.4450145956984812 0 8.4450145956984812 0.53263120294923283 0 0 0 0 11.131048412935286 10.31225962728513 0 10.31225962728513 3.0803018042760471 0 0 0 0 14.046787223949082 8.0607131233253426 0 8.0607131233253426 -10.225555717869497 0 0 0 0 14.57482615509582 5.4795074606766434 0 5.4795074606766434 2.1427300138489045 0 0 0 0 10.371420313177623 -1.9510828669767761 0 -1.9510828669767761 -6.1730485794980723 0 0 0 0 10.371420313177055 -1.9510828669766624 0 -1.9510828669766624 -6.1730485794987544 0 0 0 0 10.371420313177055 -1.9510828669774583 0 -1.9510828669774583 -6.1730485794987544 0 0 0 0 15.13357669509824 10.345386157502865 0 10.345386157502865 -19.861222133189358 0 0 0 0 -20.702940408616382 1.7846060266009616 0 1.7846060266009616 -6.3675813400637935 0 0 0 0 1.9234045846680834 1.5938911582562536 0 1.5938911582562536 -0.49381774006414458 0 0 0 0 13.069912080737424 -3.507798959292586 0 -3.507798959292586 -16.700746289025972 0 0 0 0 -29.749074621349745 16.481607852935696 0 16.481607852935696 59.592871492873314 0 0 0 0 1.6036639334661702 -0.32601845825136566 0 -0.32601845825136566 0.68082831803549804 0 0 0 0 20.673588369858862 -81.077260127496828 0 -81.077260127496828 57.531627228248972 0 0 0 0 44.405331843679051 -51.029965157036052 0 -51.029965157036052 137.66147962473889 0 0 0 0 1.4800326554993337 3.7215471110533112 0 3.7215471110533112 0.62016720341830478 0 0 0 0 9.3300002153631567 8.0511526162144094 0 8.0511526162144094 3.7990724498126269 0 0 0 0 19.849988295619198 1.8521368409535626 0 1.8521368409535626 -3.0433007982174445 0 0 0 0 499.00407810820298 -261.87749390882897 0 -261.87749390882897 34.915181982500606 0 0 0 0 295.01197521734844 -34.629136803667045 0 -34.629136803667045 -86.817898518409905 0 0 0 0 540.14625248704488 -95.461256070067037 0 -95.461256070067037 -36.855447813911873 0 0 0 0 302.53059262667784 -83.643030320102582 0 -83.643030320102582 -21.313140718442586 0 0 0 0 161.51880167123068 59.228459416514255 0 59.228459416514255 34.583458413113107 0 0 0 0 477.94612388393261 96.979613373091837 0 96.979613373091837 11.298500978547324 0 0 0 0 2.2473521568382457 3.9974662777644667 0 3.9974662777644667 2.4055895291752103 0 0 0 0 2.9178185903573191 0.33505756308711732 0 0.33505756308711732 -0.57725870390420464 0 0 0 0 8.4715319537012874 23.597180251497132 0 23.597180251497132 19.001795458244004 0 0 0 0 115.43350855100584 -218.67057824490101 0 -218.67057824490101 104.97537325154913 0 0 0 0 2.7333662165903414 -0.095227236712948304 0 -0.095227236712948304 0.97419795713549795 0 0 0 0 9.6290506119150905 1.5585858816773772 0 1.5585858816773772 13.359359160533401 0 0 0 0 500.22157807230781 -74.565025529782332 0 -74.565025529782332 116.93052210301579 0 0 0 0 -2.613238745858542 33.306930257977257 0 33.306930257977257 -15.582925319610808 0 0 0 0 14.394367710575784 2.5717426951885978 0 2.5717426951885978 -0.12578838555442473 0 0 0 0 24.237105651408456 7.8523156621539272 0 7.8523156621539272 -26.789129929653086 0 0 0 0 14.894397463972719 58.138486792108523 0 58.138486792108523 19.104942884739899 0 0 0 0 16.559265078634667 4.9810516336003445 0 4.9810516336003445 1.4457641960543697 0 0 0 0 11.640821447170502 -2.8987784146261162 0 -2.8987784146261162 -0.93861942574279023 0 0 0 0 18.748187094756759 -15.308685000148131 0 -15.308685000148131 -22.574941855700786 0 0 0 0 13.602242132707943 -3.3334452400883521 0 -3.3334452400883521 -30.775767497748348 0 0 0 0 41.655330080047861 5.2237123915963508 0 5.2237123915963508 -33.369126419336197 0 0 0 0 58.231159278223458 -12.155184313753182 0 -12.155184313753182 -77.189166304154256 0 0 0 0 -24.716131557306767 -43.545388665122758 0 -43.545388665122758 -35.169175945478059 0 0 0 0 53.304165637013284 4.1064783701385608 0 4.1064783701385608 -5.7403304931171419 0 0 0 0 44.427713750836801 16.168669558761877 0 16.168669558761877 -11.645479902554257 0 0 0 0 32.9830144255302 13.137383120686678 0 13.137383120686678 -8.519892240570698 0 0 0 0 31.069866895628138 21.203567722562902 0 21.203567722562902 -12.041285631944788 0 0 0 0 18.729993672707678 8.0931930779502324 0 8.0931930779502324 -25.750576706424511 0 0 0 0 19.552136499893095 28.223780474904345 0 28.223780474904345 5.539380383381058 0 0 0 0 -6.3328843131048416 13.734645870356289 0 13.734645870356289 -4.0922612245736047 0 0 0 0 9.0114573064870456 18.978499748655011 0 18.978499748655011 -13.865056046503298 0 0 0 0 2.4517078204899008 21.250168615980314 0 21.250168615980314 2.2000993967360607 0 0 0 0 9.6100889415065467 16.150833576646207 0 16.150833576646207 -8.248505562393774 0 0 0 0 9.8992537613030436 21.38441536266178 0 21.38441536266178 -8.160813515556697 0 0 0 0 14.190581801829833 3.168479978403056 0 3.168479978403056 0.00066396059603418545 0 0 0 0 51.526269151632107 8.6129440508273376 0 8.6129440508273376 -49.828763370069893 0 0 0 0 84.634499467356648 -17.761135596455688 0 -17.761135596455688 -34.301763205856957 0 0 0 0 2.3470635023537016 0.1251580678319999 0 0.1251580678319999 0.039642528597555293 0 0 0 0 13.370004713842775 -10.890409192580933 0 -10.890409192580933 9.839812688066047 0 0 0 0 -6.8554600357431923 8.9128095689637803 0 8.9128095689637803 9.4724345579409714 0 0 0 0 16.863632894191369 -14.845991791633423 0 -14.845991791633423 -19.408166220411204 0 0 0 0 -13.383555707255539 -23.434467744840902 0 -23.434467744840902 -13.621013893083415 0 0 0 0 14.691230617101837 5.5749817302441045 0 5.5749817302441045 -6.2280669915467115 0 0 0 0 4.0944589040469941 0.22621336421824911 0 0.22621336421824911 -0.12302767323953301 0 0 0 0 14.007697073584723 0.81233095058927063 0 0.81233095058927063 -0.034266516470324859 0 0 0 0 3.7774319397903358 1.6150655798159983 0 1.6150655798159983 1.0754287782586682 0 0 0 0 13.122785860391403 0.65756990135276538 0 0.65756990135276538 -0.23390211874414035 0 0 0 0 9.8952237350894645 1.9017179212122335 0 1.9017179212122335 0.035581440390543839 0 0 0 0 6.2732788474153818 0.025134444682465951 0 0.025134444682465951 0.54637587172435897 0 0 0 0 8.0320667421974576 -0.56197488576310661 0 -0.56197488576310661 0.86704435330130991 0 0 0 0 6.4740238886272579 -1.0431613456633864 0 -1.0431613456633864 -0.69220104628830492 0 0 0 0 8.1812704052231311 -0.16679888157779033 0 -0.16679888157779033 -0.38347620076240219 0 0 0 0 9.362469130107911 -0.74545878175845814 0 -0.74545878175845814 -1.4802370630110318 0 0 0 0 5.2785613902163711 -3.0695032003337528 0 -3.0695032003337528 -0.61417928877865036 0 0 0 0 9.1784361678935511 0.12618125000165037 0 0.12618125000165037 0.068744369072334166 0 0 0 0 6.8829364132959396 0.56209386689605212 0 0.56209386689605212 -0.095640552771343201 0 0 0 0 8.2022112854651823 0.28734123055542682 0 0.28734123055542682 -0.61774779546138348 0 0 0 0 3.8541471689283431 -1.4960045265701596 0 -1.4960045265701596 0.52640397173821851 0 0 0 0 11.302039429457068 -2.150314661703419 0 -2.150314661703419 -1.4682342515128539 0 0 0 0 7.6925297585839871 0.1529006742906347 0 0.1529006742906347 0.1990488517533322 0 0 0 0 -1.1060606175651344 -5.3663066257248744 0 -5.3663066257248744 -2.7605424994368377 0 0 0 0 9.2219852993920313 0.32564292635220227 0 0.32564292635220227 -0.17916666370950907 0 0 0 0 0.41125438224162281 -7.3873411596594281 0 -7.3873411596594281 -0.23013758478077762 0 0 0 0 2.5624094542460227 -2.9932311164037912 0 -2.9932311164037912 -8.8374077770943131 0 0 0 0 1.0514380514379855 -0.03396703774832599 0 -0.03396703774832599 -0.23507355135055308 0 0 0 0 9.3758704764156278 0.27706322145630224 0 0.27706322145630224 -0.5877386509741882 0 0 0 0 12.808588500674887 1.2722039679064778 0 1.2722039679064778 -0.43362544168843442 0 0 0 0 14.017304975117383 -0.77615157872901364 0 -0.77615157872901364 -2.5846129691234978 0 0 0 0 -10.556191905281167 -2.0813403465948568 0 -2.0813403465948568 6.3029549799665574 0 0 0 0 37.859110415193982 4.0238954515844512 0 4.0238954515844512 -3.9380176828799449 0 0 0 0 25.252573444557626 -0.55830877312553184 0 -0.55830877312553184 -4.7759911211332167 0 0 0 0 13.68895685072544 -0.017786217155162376 0 -0.017786217155162376 -3.9936619002089628 0 0 0 0 48.937561905600013 -14.47077880313376 0 -14.47077880313376 -23.285510229769955 0 0 0 0 11.780248507918266 -33.160517552225443 0 -33.160517552225443 -27.147094753475812 0 0 0 0 -0.126506689652847 -0.060430982724006266 0 -0.060430982724006266 0.0088376085176402608 0 0 0 0 25.565447318285749 26.203329089688282 0 26.203329089688282 6.9239874147311298 0 0 0 0 0.73032517865757518 0.14931417488976251 0 0.14931417488976251 0.066067817772868132 0 0 0 0 36.857757324731153 -44.621557964864905 0 -44.621557964864905 51.478594306228274 0 0 0 0 62.164235516441522 28.280436000897822 0 28.280436000897822 -6.9872847620267748 0 0 0 0 88.081876582643375 -10.573478430769001 0 -10.573478430769001 -7.6984725497858335 0 0 0 0 -1.1877619184385111 1.845973910078385 0 1.845973910078385 9.2490244965138118 0 0 0 0 5.3281149550576856 -5.80653445160047 0 -5.80653445160047 -6.2545908047520697 0 0 0 0 34.402313622586007 -2.8491595991430358 0 -2.8491595991430358 -4.9242730822479643 0 0 0 0 34.632379350607152 -2.1702114051487342 0 -2.1702114051487342 -4.8037313107314503 0 0 0 0 11.462564806046885 -1.8126285571929088 0 -1.8126285571929088 1.0611684318645302 0 0 0 0 24.781780830450543 -4.3702659714189167 0 -4.3702659714189167 0.70279987380342845 0 0 0 0 1.6527538633531549 6.0768844054905458 0 6.0768844054905458 12.177346634384094 0 0 0 0 32.963627144895099 -17.110147327528637 0 -17.110147327528637 16.596724034614112 0 0 0 0 8.7582876143110298 15.961892805084972 0 15.961892805084972 21.306696717082446 0 0 0 0 57.599297174190042 5.3517718657807336 0 5.3517718657807336 -3.0738044686852959 0 0 0 0 1.2043667237334148 -1.56895590718851 0 -1.56895590718851 1.3087823551732072 0 0 0 0 4.1816968818295095 11.049440652188295 0 11.049440652188295 13.209751571749393 0 0 0 0 0.73593341213361829 0.843674352163859 0 0.843674352163859 0.77158762436457318 0 0 0 0 56.477844989608116 11.267902726607645 0 11.267902726607645 -3.593813242591354 0 0 0 0 28.624503814704667 0.26094522344124016 0 0.26094522344124016 -2.4951329907707418 0 0 0 0 20.215960590075895 -9.1106005955400633 0 -9.1106005955400633 -5.9036644615553087 0 0 0 0 0.66044644901358618 0.76199955798774788 0 0.76199955798774788 0.65540087847158013 0 0 0 0 32.725649825534447 -2.5176217214358303 0 -2.5176217214358303 -2.608648683306285 0 0 0 0 4.1239294279753267 15.71591547659591 0 15.71591547659591 8.9699603023708505 0 0 0 0 45.218357774527249 -15.58473416390791 0 -15.58473416390791 -2.8362660883051376 0 0 0 0 32.335805323359409 -17.159826107953677 0 -17.159826107953677 -0.52617849347342371 0 0 0 0 44.199074249411638 -5.6878024175387623 0 -5.6878024175387623 0.52722811934268066 0 0 0 0 54.861371396292043 -17.085943937877801 0 -17.085943937877801 4.6309666118565787 0 0 0 0 35.688736360093799 -7.8877544083810562 0 -7.8877544083810562 5.7767542357235016 0 0 0 0 32.247379812102878 -0.96287023192560639 0 -0.96287023192560639 -2.9027863499884461 0 0 0 0 18.209526966569683 2.6538769235296513 0 2.6538769235296513 -2.6671930301937437 0 0 0 0 42.887788884242809 6.2073991339883605 0 6.2073991339883605 -6.2294962503966644 0 0 0 0 16.392535509435675 2.2925498067346552 0 2.2925498067346552 3.7113414062221182 0 0 0 0 11.677035100669372 61.400080449395332 0 61.400080449395332 54.025656893198175 0 0 0 0 56.867918264444825 18.016543435186804 0 18.016543435186804 6.3819764878649039 0 0 0 0 -16.69230513729849 -1.4215108124103608 0 -1.4215108124103608 14.973251612162926 0 0 0 0 20.852246820997664 14.231278335342807 0 14.231278335342807 -1.1537800579776558 0 0 0 0 1.8439823990047444 14.033892272572075 0 14.033892272572075 13.036717231623243 0 0 0 0 -0.1887216885322629 0.10051001531284709 0 0.10051001531284709 -0.23927645807517628 0 0 0 0 16.302167304618479 -1.1714793882684944 0 -1.1714793882684944 -6.5303746161832805 0 0 0 0 4.2038008837462257 11.03654893095262 0 11.03654893095262 6.4719269401757629 0 0 0 0 -3.7554420069418484 0.47531304926951634 0 0.47531304926951634 5.7484076913178797 0 0 0 0 0.72813811891881519 2.1176917348861255 0 2.1176917348861255 1.7166993869066123 0 0 0 0 -8.6956081644553933 7.4254778194945175 0 7.4254778194945175 6.9660630651528663 0 0 0 0 0.8925394510844985 2.3711145379469807 0 2.3711145379469807 2.4540709013223552 0 0 0 0 4.4258543725128447 8.6696996489197318 0 8.6696996489197318 4.1271879672391378 0 0 0 0 18.389850020003898 6.5661977636201776 0 6.5661977636201776 -9.6446126453331544 0 0 0 0 9.6490463791707839 -0.032051587785929314 0 -0.032051587785929314 2.0005293360774949 0 0 0 0 9.0886688927646162 2.3595147447021816 0 2.3595147447021816 2.1394036174038895 0 0 0 0 13.532916429212662 0.9459196328549524 0 0.9459196328549524 0.81603378502813939 0 0 0 0 6.5969434704810084 1.9413286740698972 0 1.9413286740698972 0.90479973011827042 0 0 0 0 6.7363435272209351 0.40347170186780446 0 0.40347170186780446 1.562520310779405 0 0 0 0 4.3132110532590673 1.5443051636898701 0 1.5443051636898701 2.7125868191841107 0 0 0 0 4.9922269924386313 3.5214116855341544 0 3.5214116855341544 0.1844068010788078 0 0 0 0 8.443448353879532 0.41506875938875964 0 0.41506875938875964 0.88547096996467189 0 0 0 0 10.033627529261736 4.7035191487392396 0 4.7035191487392396 0.46551401950796389 0 0 0 0 3.7293447421086512 4.7451340655190961 0 4.7451340655190961 2.4113339404731278 0 0 0 0 0.94929337390728907 0.8244977967901761 0 0.8244977967901761 -0.55932377648616072 0 0 0 0 11.639471511765649 0.92782151923741196 0 0.92782151923741196 -0.063747513000464551 0 0 0 0 7.9003242364943915 -1.0872119421140525 0 -1.0872119421140525 4.5598407584154756 0 0 0 0 27.649944386617335 -12.383077991584514 0 -12.383077991584514 18.150342260065372 0 0 0 0 10.887515790936007 4.3867507158705621 0 4.3867507158705621 2.6602833793293712 0 0 0 0 6.2907595098208162 1.950412494233916 0 1.950412494233916 3.7775415261090544 0 0 0 0 2.1648363617042987 -0.16404724111715485 0 -0.16404724111715485 0.52089392749832086 0 0 0 0 20.124375111852316 0.26805197552050686 0 0.26805197552050686 -0.57230867147976028 0 0 0 0 1.3805054440308533 3.4973064193123524 0 3.4973064193123524 1.2665117601882616 0 0 0 0 6.497478360119203 3.3143063574223675 0 3.3143063574223675 -0.079838531399786916 0 0 0 0 1.2801806234461317 0.81035740588737437 0 0.81035740588737437 0.3236890346379262 0 0 0 0 1.7009226063737515 6.0837948074351971 0 6.0837948074351971 1.6948399348684688 0 0 0 0 2.8107955929213517 3.160908173311384 0 3.160908173311384 2.8985775328187628 0 0 0 0 1.9721184659968067 3.164498791885936 0 3.164498791885936 1.6573215310665064 0 0 0 0 6.7071839472733927 6.3675046014837022 0 6.3675046014837022 1.7757182149478012 0 0 0 0 20.287517677397801 14.394755918985112 0 14.394755918985112 -5.3280093283411816 0 0 0 0 14.417261420927616 3.5704903045100878 0 3.5704903045100878 -0.77593691267804843 0 0 0 0 1.6350125837596829 0.59591746282582314 0 0.59591746282582314 0.26684109982757698 0 0 0 0 2.9079389289141444 -0.55487385723091232 0 -0.55487385723091232 0.83703363217150795 0 0 0 0 6.8064140652822971 -0.53393849215126465 0 -0.53393849215126465 0.14647744071839952 0 0 0 0 23.518386049669971 8.0444900652112779 0 8.0444900652112779 6.3140932449430238 0 0 0 0 7.2544349235761105 0.23735953189735715 0 0.23735953189735715 1.7041625889607286 0 0 0 0 12.049376731756979 2.218629513498513 0 2.218629513498513 1.5450796044351591 0 0 0 0 5.9192474242637036 2.0304298603818483 0 2.0304298603818483 -0.36290020338882667 0 0 0 0 4.4552134851517877 4.1055667822098192 0 4.1055667822098192 0.23991017702679329 0 0 0 0 8.8722447615733557 -1.0332803803183248 0 -1.0332803803183248 -1.4660693043131114 0 0 0 0 7.434540016992969 0.59473188609010208 0 0.59473188609010208 -0.47339607754020108 0 0 0 0 6.7520466197036288 0.46712735022310081 0 0.46712735022310081 -0.19241491618802886 0 0 0 0 6.8519646120948892 1.2166702862582497 0 1.2166702862582497 -0.040498446037531721 0 0 0 0 8.2987022965207409 0.67641346270937719 0 0.67641346270937719 -0.56503970636109857 0 0 0 0 5.0247991018932225 -0.74546669891270767 0 -0.74546669891270767 -1.6778076604269927 0 0 0 0 7.970915313693995 -0.5069998794595536 0 -0.5069998794595536 1.0113983832551372 0 0 0 0 3.6978689391453301 0.303716564189627 0 0.303716564189627 -0.15935851492669456 0 0 0 0 19.440693915859811 3.058560188596914 0 3.058560188596914 -0.51877159802734241 0 0 0 0 19.774414163125584 4.2979477679597835 0 4.2979477679597835 -0.75659046689520437 0 0 0 0 19.771611790001771 4.6733607290573786 0 4.6733607290573786 0.87425327778126416 0 0 0 0 19.477812973022822 3.4366068683927367 0 3.4366068683927367 0.62347921685500296 0 0 0 0 5.2585399190031126 8.62045748148266 0 8.62045748148266 10.848761087981757 0 0 0 0 8.1204726199015678 4.3819008108995039 0 4.3819008108995039 0.14724504179164244 0 0 0 0 9.890174123669615 4.2900890223717045 0 4.2900890223717045 0.57123531719745357 0 0 0 0 6.3587282173250514 3.8270287539658625 0 3.8270287539658625 -1.0854268200704951 0 0 0 0 -1.6563697468001521 -6.6908963592045225 0 -6.6908963592045225 15.440739409334014 0 0 0 0 1.2969306933852636 3.4693003233146911 0 3.4693003233146911 6.8868367753904067 0 0 0 0 11.495320896242902 -1.1491014527720154 0 -1.1491014527720154 16.051148854937196 0 0 0 0 7.2991599568784409 3.1893671353864477 0 3.1893671353864477 0.86082584551812458 0 0 0 0 4.5072827550261385 2.3367869109913335 0 2.3367869109913335 1.604924962746257 0 0 0 0 2.8380464460115036 3.7403581205877572 0 3.7403581205877572 4.4015325170172446 0 0 0 0 1.4900679527843295 -1.2737399008066745 0 -1.2737399008066745 11.458137064806806 0 0 0 0 3.0461427179791372 -2.8392374282274204 0 -2.8392374282274204 3.1254119280593926 0 0 0 0 9.3463810646079715 -4.5914292804950714 0 -4.5914292804950714 2.0281632448427973 0 0 0 0 166.86789899857649 -65.749927669889985 0 -65.749927669889985 -51.089418883820372 0 0 0 0 6.9085477715480836 -0.84078963553256836 0 -0.84078963553256836 1.9336796623194266 0 0 0 0 9.9364232814491515 0.85006068271115964 0 0.85006068271115964 -1.2795787301570272 0 0 0 0 6.3431100804248661 0.10608000082312952 0 0.10608000082312952 -0.56815011344526956 0 0 0 0 2.2962922753480948 1.1918959767500175 0 1.1918959767500175 -2.051813815535509 0 0 0 0 9.2916215288646526 2.1560542768586402 0 2.1560542768586402 4.3845310333633734 0 0 0 0 257.54316640835077 -209.17628258909656 0 -209.17628258909656 60.347499151447323 0 0 0 0 16.890618504517761 -9.494301005046168 0 -9.494301005046168 1.1163073999259439 0 0 0 0 1.8888299615711939 -0.29204990380330731 0 -0.29204990380330731 -0.94758754708482185 0 0 0 0 -24.864033846323423 -13.075491991861099 0 -13.075491991861099 16.895209820815978 0 0 0 0 0.67516266697042671 -0.62927671859254986 0 -0.62927671859254986 0.77678848355099905 0 0 0 0 -76.933396929861374 -52.963538964858202 0 -52.963538964858202 -50.407976258609544 0 0 0 0 -74.883158870851332 -39.524294482893282 0 -39.524294482893282 -21.6010991034683 0 0 0 0 210.9082381981425 148.97023182496207 0 148.97023182496207 98.277256550539732 0 0 0 0 3.2887840744686301 -1.3803351729601951 0 -1.3803351729601951 -0.46066279491743467 0 0 0 0 243.79584019774884 178.83930704810209 0 178.83930704810209 -6.6420010147169251 0 0 0 0 9.0716134358781346 4.5726603163907384 0 4.5726603163907384 1.3427962175658195 0 0 0 0 9.7910688543015567 -6.1493438972413514 0 -6.1493438972413514 -2.4471358828952816 0 0 0 0 0.51390153056858789 0.53828438436701553 0 0.53828438436701553 1.005491100787653 0 0 0 0 1.8668125181180866 0.93368456830834035 0 0.93368456830834035 -1.4142028678526346 0 0 0 0 -13.752612268790472 -22.872135707751568 0 -22.872135707751568 -63.736388348245782 0 0 0 0 -1.495612955244269 -22.980773767063368 0 -22.980773767063368 -30.715400062421509 0 0 0 0 -0.0010254326900351884 0.1984617819019654 0 0.1984617819019654 -0.50065259415925745 0 0 0 0 118.14429058462702 34.133573944913678 0 34.133573944913678 -77.585805163388954 0 0 0 0 -39.22554627305999 -24.28381315058823 0 -24.28381315058823 97.384144649164 0 0 0 0 23.294363066813276 15.287829806737335 0 15.287829806737335 -24.471445953953662 0 0 0 0 -22.617606933584284 -55.109415996027963 0 -55.109415996027963 -0.59506635019261012 0 0 0 0 0.71751691895600267 -0.084400353713398601 0 -0.084400353713398601 0.27561983667468004 0 0 0 0 306.57419772612775 20.23078763344256 0 20.23078763344256 18.72322576618717 0 0 0 0 2.1451512616848296 -2.3644558179397208 0 -2.3644558179397208 1.9338805009258013 0 0 0 0 -25.894134351551543 -25.125043951733815 0 -25.125043951733815 10.432345392098341 0 0 0 0 283.55979826140992 28.194883683651824 0 28.194883683651824 4.9852274421734819 0 0 0 0 0.037684142100932405 0.14080774303692678 0 0.14080774303692678 0.35584092230596376 0 0 0 0 195.43537550492147 131.10228987661139 0 131.10228987661139 99.819302508832607 0 0 0 0 4.4962724310471964 3.9592076020195428 0 3.9592076020195428 -0.1708153767434355 0 0 0 0 17.557404517314808 7.5071905838635757 0 7.5071905838635757 -2.1592777056882824 0 0 0 0 11.946752844729644 2.8053562632005367 0 2.8053562632005367 -0.57785648205776852 0 0 0 0 9.3751588039155855 5.3951206523679289 0 5.3951206523679289 0.017544278601983931 0 0 0 0 22.36158854790483 9.533911430176488 0 9.533911430176488 -1.5560383334956214 0 0 0 0 27.42408380670895 4.4712238495904444 0 4.4712238495904444 -8.914551237958392 0 0 0 0 16.31347735070176 0.43761608266913754 0 0.43761608266913754 -5.0599282795350291 0 0 0 0 22.749775167306325 38.458773013631344 0 38.458773013631344 52.824530216824314 0 0 0 0 6.3448338096441148 8.2932894301748092 0 8.2932894301748092 -0.39053781117988251 0 0 0 0 3.5870163098937442 3.6058048598179253 0 3.6058048598179253 -2.0472192797662885 0 0 0 0 8.5410396505549215 6.2093179577940987 0 6.2093179577940987 1.3146314801692824 0 0 0 0 16.077416973156687 4.1956452456483007 0 4.1956452456483007 -1.9506271329862415 0 0 0 0 16.604697946256692 2.4952268149882784 0 2.4952268149882784 -1.6824536559532817 0 0 0 0 4.6074852461757327 1.954469002294454 0 1.954469002294454 -1.9370435145128031 0 0 0 0 14.24788108852772 5.2980213232366395 0 5.2980213232366395 -2.2708988146505362 0 0 0 0 14.030301172701911 2.2149190769258666 0 2.2149190769258666 -0.50965427783449968 0 0 0 0 16.252343795137222 18.152407814848424 0 18.152407814848424 -6.4855340042238545 0 0 0 0 10.0974627051543 4.7942577118424756 0 4.7942577118424756 0.73682056233726234 0 0 0 0 14.906650362160235 6.0370433573394564 0 6.0370433573394564 -3.5714631951898355 0 0 0 0 27.113952640910838 15.659048264389014 0 15.659048264389014 -11.67958540372986 0 0 0 0 -11.606996850553429 10.400833818627707 0 10.400833818627707 -2.8029798403709378 0 0 0 0 4.2661010210882466 0.66991329294439206 0 0.66991329294439206 -0.10313720475607813 0 0 0 0 10.943279205668659 3.6551711266459961 0 3.6551711266459961 -0.92637889631575376 0 0 0 0 11.964352344273872 4.3585599545678733 0 4.3585599545678733 -0.95375936769274183 0 0 0 0 11.777044531964748 6.5137650667019784 0 6.5137650667019784 -2.5019350413289629 0 0 0 0 17.226656585013586 0.50304433926064718 0 0.50304433926064718 -14.449766190894707 0 0 0 0 13.424176131720742 17.483079948124328 0 17.483079948124328 -21.643001273962 0 0 0 0 4.7811368641380341 21.151631037634502 0 21.151631037634502 9.4522341978382656 0 0 0 0 10.249626051377618 15.18328508749147 0 15.18328508749147 -4.1853954474352122 0 0 0 0 6.2816316916175765 11.873682345328575 0 11.873682345328575 16.037520637497835 0 0 0 0 8.4372451772926524 16.193701409843811 0 16.193701409843811 -4.2434317394053096 0 0 0 0 34.463807687621966 -21.015854721433655 0 -21.015854721433655 5.8421498393719276 0 0 0 0 -2.5122839213431689 27.859207792737834 0 27.859207792737834 1.2369515025362148 0 0 0 0 51.165833963948785 23.744111556009216 0 23.744111556009216 11.022477779008454 0 0 0 0 12.858241590771286 2.3855253383524655 0 2.3855253383524655 34.601493909054398 0 0 0 0 8.836355514703655 13.918062464150694 0 13.918062464150694 2.7306114655284546 0 0 0 0 0.42346478473495086 1.1783389659474381 0 1.1783389659474381 0.27622979664549585 0 0 0 0 0.11989910378110835 18.905659547573009 0 18.905659547573009 18.474279318904564 0 0 0 0 6.5172886063876376 5.6107977635629709 0 5.6107977635629709 -6.9839293737059052 0 0 0 0 3.0322358834441729 -8.4734757635387155 0 -8.4734757635387155 7.8708063714279888 0 0 0 0 0.40571810063827107 0.43144262502669495 0 0.43144262502669495 0.28465298394293326 0 0 0 0 -21.32604905453843 2.752864380844926 0 2.752864380844926 15.829862368410716 0 0 0 0 89.410645237470703 -20.223735926708272 0 -20.223735926708272 -6.7480754165904386 0 0 0 0 -3.4036003279907163 1.8978391859370731 0 1.8978391859370731 -7.2303407703971629 0 0 0 0 -3.2842986019679259 -2.9044193451990772 0 -2.9044193451990772 31.27494596624183 0 0 0 0 -11.239693795851338 -13.113686502775664 0 -13.113686502775664 10.623947966214132 0 0 0 0 -8.1964386257211572 -4.7723874281618919 0 -4.7723874281618919 0.052594425364191011 0 0 0 0 -31.612922099275011 21.663026297996481 0 21.663026297996481 13.618625034015139 0 0 0 0 0.49884437682323379 1.1110884903753337 0 1.1110884903753337 1.1409000285389597 0 0 0 0 55.702377906341269 -9.4269986036967488 0 -9.4269986036967488 -10.117990854323395 0 0 0 0 1.9975571501131526 -4.2339433184790494 0 -4.2339433184790494 13.278231353214622 0 0 0 0 -0.99738010942746769 23.176029613027026 0 23.176029613027026 -6.1174259980559782 0 0 0 0 14.048119153845164 12.618854509761945 0 12.618854509761945 -15.153928100736096 0 0 0 0 11.136704947988392 11.37561199452864 0 11.37561199452864 3.4830827493713059 0 0 0 0 11.095033302622653 0.075295800660363454 0 0.075295800660363454 7.9963477021132121 0 0 0 0 31.121004672248546 -1.3287036852180449 0 -1.3287036852180449 -2.1602301218323987 0 0 0 0 16.571179799017955 16.876866996168758 0 16.876866996168758 9.1351072315501369 0 0 0 0 36.441225139361677 -13.269766864230206 0 -13.269766864230206 5.147053846175595 0 0 0 0 96.466843990294365 -26.7660048230033 0 -26.7660048230033 8.9371071237576132 0 0 0 0 23.576704566336502 -0.66796679047388352 0 -0.66796679047388352 7.4712926733812992 0 0 0 0 36.71830485933566 -32.732298395711211 0 -32.732298395711211 30.461221798411771 0 0 0 0 34.93997489109961 -13.624806392985874 0 -13.624806392985874 7.012549041429736 0 0 0 0 47.259945608020303 -24.850271563181423 0 -24.850271563181423 12.634621784045294 0 0 0 0 34.058954125998298 -19.981135292542717 0 -19.981135292542717 18.392660723497102 0 0 0 0 24.254179204189313 -10.715442779722082 0 -10.715442779722082 13.69953450947547 0 0 0 0 28.035946666133555 -4.135138492391718 0 -4.135138492391718 13.855743003538961 0 0 0 0 22.437858018488782 -14.217630543841267 0 -14.217630543841267 43.008160339069036 0 0 0 0 48.711316449547326 -18.768639288618658 0 -18.768639288618658 28.120295694299557 0 0 0 0 32.413595485210976 -20.459457708593533 0 -20.459457708593533 26.034211330909102 0 0 0 0 42.536976076571932 -27.520956439794361 0 -27.520956439794361 27.77767575161613 0 0 0 0 61.540106615858861 -19.503733429907584 0 -19.503733429907584 28.780329626652247 0 0 0 0 58.227626506874458 -33.603740157061793 0 -33.603740157061793 44.261210945087896 0 0 0 0 93.88230814991465 -24.309072262659356 0 -24.309072262659356 13.456557494922208 0 0 0 0 60.170850194745043 -4.5667123280964574 0 -4.5667123280964574 8.5935498388578253 0 0 0 0 59.456448575712784 -5.7316178388487629 0 -5.7316178388487629 7.2922368053843911 0 0 0 0 34.709935816953248 -29.521253043239994 0 -29.521253043239994 25.331996594443467 0 0 0 0 50.753959401323186 -29.477092823161158 0 -29.477092823161158 24.977051187011739 0 0 0 0 41.681430849576827 -21.292235585090339 0 -21.292235585090339 20.602875229729079 0 0 0 0 33.228892978578983 -14.638113259544639 0 -14.638113259544639 15.452391143596287 0 0 0 0 35.986594835466349 -16.587126031680441 0 -16.587126031680441 16.400252716504383 0 0 0 0 28.913879799045333 -13.718057241381757 0 -13.718057241381757 18.10210394271121 0 0 0 0 31.582234041454512 -16.62733931795276 0 -16.62733931795276 20.213297316732877 0 0 0 0 37.513261699979012 5.4092501785767801 0 5.4092501785767801 4.2849468610791064 0 0 0 0 22.935509203829341 9.8805168035082716 0 9.8805168035082716 5.3757770259517201 0 0 0 0 41.428641662465679 6.0833011107653192 0 6.0833011107653192 4.0444451250948532 0 0 0 0 6.3412597412117861 -4.5720730163767485 0 -4.5720730163767485 13.236149629474198 0 0 0 0 28.1654144068373 1.1345270795198132 0 1.1345270795198132 -9.2062191286413508 0 0 0 0 20.856038848473077 -13.234921850870023 0 -13.234921850870023 -13.992556428698663 0 0 0 0 0.20552317954748567 -0.1994183093405727 0 -0.1994183093405727 0.12061248533987712 0 0 0 0 -15.217070613185911 -66.193240909796373 0 -66.193240909796373 -4.5211446954729126 0 0 0 0 -75.595434042603642 -60.819225125567186 0 -60.819225125567186 9.8626105504151838 0 0 0 0 104.76243621054954 -26.920162315662807 0 -26.920162315662807 29.558823731887287 0 0 0 0 220.8436949796382 5.7734392565284338 0 5.7734392565284338 -26.367704788850233 0 0 0 0 0.48895648117645529 0.41741640642155975 0 0.41741640642155975 0.28910022973385097 0 0 0 0 4.2599197905062738 -12.93808187483512 0 -12.93808187483512 15.700644459318198 0 0 0 0 11.161909253070689 8.4966304430748778 0 8.4966304430748778 33.761874888127068 0 0 0 0 47.459135600502691 21.555589216827002 0 21.555589216827002 22.834770749588643 0 0 0 0 32.490870259725625 -43.269227525966357 0 -43.269227525966357 44.311064354039445 0 0 0 0 104.77502045493669 -27.825330183066377 0 -27.825330183066377 7.7468707790148983 0 0 0 0 19.89584030466051 -24.024348289828936 0 -24.024348289828936 28.505406010971342 0 0 0 0 126.2418972588988 84.742762677071255 0 84.742762677071255 28.472373297827289 0 0 0 0 39.432946053781535 14.138610463622769 0 14.138610463622769 -24.172137674294731 0 0 0 0 4.9128163569503158 9.3741223929584976 0 9.3741223929584976 85.576302050771289 0 0 0 0 1.8394240469154357 0.44885177372410878 0 0.44885177372410878 0.33085102318536075 0 0 0 0 128.17592949905929 63.200432195043732 0 63.200432195043732 21.251367396760259 0 0 0 0 39.111104817844222 -75.344420674998688 0 -75.344420674998688 67.811803720285297 0 0 0 0 52.548572131843343 -29.378981756438293 0 -29.378981756438293 -61.58489295449499 0 0 0 0 58.142298939440721 -5.5281649285922327 0 -5.5281649285922327 -101.1865972053472 0 0 0 0 -85.986064650955541 17.448642082541937 0 17.448642082541937 37.116599825889352 0 0 0 0 141.85400591808394 -9.5592762378803116 0 -9.5592762378803116 6.8674518989554372 0 0 0 0 -101.27819652195791 -31.173337201424452 0 -31.173337201424452 59.641457472596585 0 0 0 0 0.16206913204937065 -0.36093742429402886 0 -0.36093742429402886 0.88108143759145419 0 0 0 0 85.066448006767843 12.508507621269771 0 12.508507621269771 8.6247847757688305 0 0 0 0 45.445681404826416 13.905330302477068 0 13.905330302477068 9.6344297440913067 0 0 0 0 42.922712019922628 9.4899478934368631 0 9.4899478934368631 2.6570568795664258 0 0 0 0 0.61635393566413998 -1.2088252952281502 0 -1.2088252952281502 0.90421012782781052 0 0 0 0 46.917315307786566 19.201993794009695 0 19.201993794009695 -0.30587928908369122 0 0 0 0 42.953509700861446 14.958465799652181 0 14.958465799652181 -3.0304114908202564 0 0 0 0 -41.770966266266782 -27.752994439232992 0 -27.752994439232992 31.969632978121638 0 0 0 0 1.2126005553220982 -0.63825340861195601 0 -0.63825340861195601 -1.5000172246462862 0 0 0 0 62.317289896309561 182.51405643825774 0 182.51405643825774 78.960373907533494 0 0 0 0 -81.39764610880485 -120.60721533919758 0 -120.60721533919758 124.88044050793724 0 0 0 0 1.65377276043065 -0.27126464928112215 0 -0.27126464928112215 -0.18323118171357855 0 0 0 0 39.798148772334343 -135.68286607711377 0 -135.68286607711377 -115.576671915715 0 0 0 0 18.943423748687948 -30.869124693035133 0 -30.869124693035133 13.994509221143517 0 0 0 0 83.740752444257566 8.9558840804577358 0 8.9558840804577358 -3.9078732842351656 0 0 0 0 4.8767300515836398 -0.85962972841026408 0 -0.85962972841026408 -0.52759821613761781 0 0 0 0 54.590435343906961 88.987585432709636 0 88.987585432709636 99.186095366388315 0 0 0 0 -40.721139779829855 10.379086162414183 0 10.379086162414183 -18.97669280263284 0 0 0 0 1.4622181441521604 28.007366879173503 0 28.007366879173503 23.710134897029093 0 0 0 0 -0.87109856137135466 19.222209326053985 0 19.222209326053985 10.452196108688298 0 0 0 0 17.509073447830019 -29.280746989120168 0 -29.280746989120168 -38.201139275872833 0 0 0 0 33.545859328706285 19.392883995020753 0 19.392883995020753 -5.1907905630253026 0 0 0 0 2.2067132487726298 0.8583553874597698 0 0.8583553874597698 -2.256301693160959 0 0 0 0 3.9382864460108635 2.2336001620336106 0 2.2336001620336106 -2.6599105847378155 0 0 0 0 -0.098867696335903199 0.93405243724258602 0 0.93405243724258602 -1.6993859006304053 0 0 0 0 27.848829572730381 11.68526417138014 0 11.68526417138014 4.242453848114792 0 0 0 0 32.406017046190826 15.881928631198775 0 15.881928631198775 -12.446312140132704 0 0 0 0 0.22503282746482922 -0.25253771951365445 0 -0.25253771951365445 -0.44054014298141819 0 0 0 0 47.430252629991969 35.223673133219677 0 35.223673133219677 21.567958614719487 0 0 0 0 24.635001255976263 -9.1643370880620978 0 -9.1643370880620978 0.43438120644145783 0 0 0 0 48.100077763911884 -6.9403252878115609 0 -6.9403252878115609 0.61723310441152535 0 0 0 0 28.831879839204476 12.883215528776077 0 12.883215528776077 23.698692944679578 0 0 0 0 20.833469838598887 4.3329464216004681 0 4.3329464216004681 0.45125076167346378 0 0 0 0 23.492699282484509 -7.1976241121131466 0 -7.1976241121131466 -9.8636110150966942 0 0 0 0 22.181720086051769 1.1017934809262897 0 1.1017934809262897 -32.109248390643415 0 0 0 0 -1.705343011365926 2.6283652287638688 0 2.6283652287638688 -13.141716758009807 0 0 0 0 0.29221293121327319 0.28867316902546758 0 0.28867316902546758 -0.16595984203923919 0 0 0 0 5.7472662495511031 -2.5506463758381415 0 -2.5506463758381415 -0.49240021750085816 0 0 0 0 -6.6121969276699133 -25.305874676659641 0 -25.305874676659641 -25.341734130699507 0 0 0 0 10.316973132048858 3.7371022325644105 0 3.7371022325644105 -3.7515404871196552 0 0 0 0 4.6820026471947127 -1.0236343145961215 0 -1.0236343145961215 -0.10215120235364528 0 0 0 0 -3.1765709400542619 2.3573023363665015 0 2.3573023363665015 -0.425171231865761 0 0 0 0 25.431708150968007 -18.045099384767127 0 -18.045099384767127 5.6894194133089968 0 0 0 0 18.848210664399289 -1.1213692234160817 0 -1.1213692234160817 -32.913177099781478 0 0 0 0 24.470025393105601 12.813311464104459 0 12.813311464104459 -9.4725332202369827 0 0 0 0 10.977109630347968 -3.8352092764385475 0 -3.8352092764385475 -11.289552599432682 0 0 0 0 24.646396762071561 12.168376026089163 0 12.168376026089163 -14.51811715320531 0 0 0 0 13.416761153943241 1.064437358694363 0 1.064437358694363 -13.045164891621653 0 0 0 0 22.578911978914078 12.03271452542424 0 12.03271452542424 2.8547091479049413 0 0 0 0 21.116580048971343 -15.120692239558139 0 -15.120692239558139 -9.0925403238206854 0 0 0 0 23.973313144930138 4.5015316486753392 0 4.5015316486753392 -7.3913820625371045 0 0 0 0 0.076811802495058146 1.2656225695645027 0 1.2656225695645027 -3.1976043171717095 0 0 0 0 35.869284966763303 1.5161405922417543 0 1.5161405922417543 -8.7800869535933543 0 0 0 0 42.96340879499428 32.161707778659775 0 32.161707778659775 15.102834651919466 0 0 0 0 0.08909043132099681 0.042727523830232261 0 0.042727523830232261 0.20170848193981161 0 0 0 0 3.5662871319619853 1.8192285342784942 0 1.8192285342784942 -3.6938486658178249 0 0 0 0 4.6494993492240155 3.1125970113609469 0 3.1125970113609469 -3.576653045038654 0 0 0 0 1.0770649779337873 0.76230218861456933 0 0.76230218861456933 -3.1483491542231263 0 0 0 0 2.6437652690436835 3.2214539423162591 0 3.2214539423162591 -1.726569732856774 0 0 0 0 1.0050582273435111 0.9395021559680572 0 0.9395021559680572 -1.4337777181050342 0 0 0 0 101.16335449002258 2.762404273365064 0 2.762404273365064 -15.084829509848959 0 0 0 0 -34.132777020913238 -32.663587302289955 0 -32.663587302289955 -10.249529681419062 0 0 0 0 0.5539422957093687 -0.77492855477505362 0 -0.77492855477505362 0.13217763849024333 0 0 0 0 69.65353966940819 -11.526333438207075 0 -11.526333438207075 11.064548174976153 0 0 0 0 -48.863150428426366 -12.895854943748986 0 -12.895854943748986 -4.5552063944088559 0 0 0 0 -8.5982013995773059 -20.166114056635365 0 -20.166114056635365 -30.715794745731387 0 0 0 0 -5.3968362488366495 -5.7945151192614333 0 -5.7945151192614333 -6.670028229151967 0 0 0 0 11.844143790507701 -13.928955803935992 0 -13.928955803935992 -10.051089870526923 0 0 0 0 27.986440877395182 0.7068918037128924 0 0.7068918037128924 -2.1882971289666102 0 0 0 0 16.123436852727082 4.3670766473763933 0 4.3670766473763933 2.0721056628758561 0 0 0 0 15.635901714522049 -17.634311542561022 0 -17.634311542561022 -4.8189376378881548 0 0 0 0 5.5023510854233564 -9.7499412714329878 0 -9.7499412714329878 -8.4704727319010544 0 0 0 0 -17.088350940476545 -10.765466288394975 0 -10.765466288394975 -10.060153905149036 0 0 0 0 1.5311266661768173 -23.769839771755187 0 -23.769839771755187 -16.108364066320462 0 0 0 0 -4.164066225308261 -13.769606563633374 0 -13.769606563633374 -9.3642851192667536 0 0 0 0 1.1926776946995743 -0.8475322050431926 0 -0.8475322050431926 0.15232338228659614 0 0 0 0 0.28914559489430758 -10.199220073357253 0 -10.199220073357253 -13.089801583940471 0 0 0 0 3.2975272013868562 -20.182710742357301 0 -20.182710742357301 -17.162883531132593 0 0 0 0 4.6614164699238927 -13.050914516255716 0 -13.050914516255716 -25.527556984459579 0 0 0 0 0.82168014576302539 -2.3399765735554183 0 -2.3399765735554183 -7.3552771878423755 0 0 0 0 3.7262749630150092 -0.42560547338688037 0 -0.42560547338688037 -0.061770705759935485 0 0 0 0 5.3252383515391557 0.3720261067037427 0 0.3720261067037427 -1.1234977318177926 0 0 0 0 7.8083225171804997 -2.9767535088633394 0 -2.9767535088633394 -19.968004289565329 0 0 0 0 0.75846393092596731 -0.13169079587822985 0 -0.13169079587822985 0.34338284140809971 0 0 0 0 7.7014507032643991 -2.0024752106319283 0 -2.0024752106319283 5.8593503455754217 0 0 0 0 3.1618849315457283 0.7392109772247295 0 0.7392109772247295 -0.100632996598506 0 0 0 0 7.653398878436974 15.694577895518137 0 15.694577895518137 21.293851710744093 0 0 0 0 0.47978221209653427 -0.30875283876488568 0 -0.30875283876488568 0.20648619321991379 0 0 0 0 51.494971259912518 39.161578142879421 0 39.161578142879421 32.318602643280087 0 0 0 0 56.193263255847341 15.835990110357443 0 15.835990110357443 -0.16853797436681361 0 0 0 0 103.79711393013508 19.337351722704511 0 19.337351722704511 -1.254373407685307 0 0 0 0 28.424210473423557 -22.986094700314368 0 -22.986094700314368 18.439314981585994 0 0 0 0 90.296516475022372 3.2327594407335027 0 3.2327594407335027 -14.942116038342647 0 0 0 0 69.948084278189867 20.355686845107527 0 20.355686845107527 28.625812837137573 0 0 0 0 88.474437965823199 -26.934397691767344 0 -26.934397691767344 13.626880859458026 0 0 0 0 47.206381579792151 -11.955664047934874 0 -11.955664047934874 10.687344762190833 0 0 0 0 81.296567629704668 -1.1856730912691091 0 -1.1856730912691091 -5.5752983752649925 0 0 0 0 49.663458071411355 -0.42444883961945834 0 -0.42444883961945834 -5.577864525376981 0 0 0 0 53.080219538914662 -5.8370859722263049 0 -5.8370859722263049 -0.73984530264215209 0 0 0 0 38.435432858411559 -2.9756706789636382 0 -2.9756706789636382 -1.2899664718725035 0 0 0 0 46.464540252419283 1.7895508363982344 0 1.7895508363982344 -0.4347730671172485 0 0 0 0 46.475372102500842 5.6922485508018212 0 5.6922485508018212 -5.7820400081270691 0 0 0 0 44.990720241182316 4.3910098580038266 0 4.3910098580038266 -4.7255125525461494 0 0 0 0 42.705253360478082 8.6591512247175615 0 8.6591512247175615 -3.8530101333071798 0 0 0 0 44.922546748222885 7.3865175373306329 0 7.3865175373306329 -3.8886639791062407 0 0 0 0 50.19060003929394 12.402033450738259 0 12.402033450738259 -2.4891468152409288 0 0 0 0 53.648716360941307 2.3508346220967269 0 2.3508346220967269 -4.353171053570577 0 0 0 0 52.592807848402572 12.920409343622168 0 12.920409343622168 0.74003737914244994 0 0 0 0 48.717444780101687 18.029286486226283 0 18.029286486226283 2.5809109057536261 0 0 0 0 45.087963935232438 11.442569663994391 0 11.442569663994391 0.47456804186276713 0 0 0 0 0.057499360275868661 -0.10181571154779756 0 -0.10181571154779756 0.10637104785054063 0 0 0 0 -0.031773077807883965 2.0880347040074412 0 2.0880347040074412 3.6956744740414251 0 0 0 0 45.372096722200325 17.697632021684171 0 17.697632021684171 2.5480384793609119 0 0 0 0 36.280524618899562 13.771505957103386 0 13.771505957103386 2.9976858716415791 0 0 0 0 10.222316528672309 -0.35790430711801946 0 -0.35790430711801946 1.7554873040835446 0 0 0 0 2.7952030020132952 -0.57545491448627217 0 -0.57545491448627217 0.36739342794817276 0 0 0 0 7.1427688558705995 -1.2685481568705654 0 -1.2685481568705654 0.46251059427822838 0 0 0 0 7.2469540117381257 1.878342381030734 0 1.878342381030734 0.096999254803904478 0 0 0 0 6.7459188678795385 -1.4772800814757119 0 -1.4772800814757119 1.5034574855149003 0 0 0 0 8.3447277849654711 -0.89511469410899736 0 -0.89511469410899736 1.5863188173867684 0 0 0 0 5.2862715630856201 -1.2706907127256954 0 -1.2706907127256954 7.8705400095307141 0 0 0 0 5.9116070672491787 -3.099465606360468 0 -3.099465606360468 10.192932971591745 0 0 0 0 9.3585490340151409 -3.1466094319706599 0 -3.1466094319706599 5.9676880772944969 0 0 0 0 26.419940981350919 6.0614669625854276 0 6.0614669625854276 -15.852850653807991 0 0 0 0 7.7354065042495677 7.9429359188573017 0 7.9429359188573017 9.9103696638787824 0 0 0 0 -1.2664374858416068 9.6534372694808326 0 9.6534372694808326 21.250877315941125 0 0 0 0 33.893286008354323 7.2327854636851612 0 7.2327854636851612 -0.21984881296020831 0 0 0 0 -0.041237011610715246 -0.054684725811541268 0 -0.054684725811541268 -0.071170874272334039 0 0 0 0 39.290029708604379 8.3983025230995736 0 8.3983025230995736 -5.7339641828170897 0 0 0 0 41.95479435838206 8.2584089203780877 0 8.2584089203780877 -5.9313088080152738 0 0 0 0 39.813032665869287 6.441783994407615 0 6.441783994407615 -4.2623650479722528 0 0 0 0 35.519488448607035 5.8132679548781425 0 5.8132679548781425 -3.8374328845857235 0 0 0 0 15.556136691962138 -4.9299776022901938 0 -4.9299776022901938 5.2920922041171252 0 0 0 0 32.892068945792289 10.99960301782005 0 10.99960301782005 -4.5574678021058048 0 0 0 0 41.979870288935217 4.6431446523382647 0 4.6431446523382647 -6.1147418804621338 0 0 0 0 6.0157515388975185 3.1115623703301196 0 3.1115623703301196 -2.4429073753901775 0 0 0 0 3.3617420158991536 -3.3449123396754317 0 -3.3449123396754317 -4.7309762194318523 0 0 0 0 0.83812249790999838 0.055928635741205657 0 0.055928635741205657 -0.44963175649989129 0 0 0 0 62.241083933525488 -11.722892978580717 0 -11.722892978580717 1.2120454528025775 0 0 0 0 36.276718981196154 -10.783045626892431 0 -10.783045626892431 1.3105858898816223 0 0 0 0 54.459701851271348 8.750281671991047 0 8.750281671991047 -4.7668058293502327 0 0 0 0 72.78127703679138 19.700719074701624 0 19.700719074701624 -0.61107793502583263 0 0 0 0 44.004535172711257 13.616778808481968 0 13.616778808481968 -1.4123852501013516 0 0 0 0 41.824832187781794 12.341156971096495 0 12.341156971096495 0.2384520838845674 0 0 0 0 39.402198608397612 16.178005370506526 0 16.178005370506526 10.188457696675812 0 0 0 0 27.340832097598195 8.2429918025575262 0 8.2429918025575262 5.0119603905259282 0 0 0 0 41.399231055074324 8.6567794987399793 0 8.6567794987399793 3.690658929041831 0 0 0 0 35.773922807151294 3.5668622824681631 0 3.5668622824681631 -0.60198627431827845 0 0 0 0 42.949722503806242 6.1721608556517822 0 6.1721608556517822 -4.4300450977652872 0 0 0 0 45.191972597661334 8.634345775117481 0 8.634345775117481 -5.6055124722615233 0 0 0 0 41.900637086466759 9.5076928349139962 0 9.5076928349139962 -0.41418546028535275 0 0 0 0 8.1537847907165997 1.3013218290133182 0 1.3013218290133182 -1.5745530384556332 0 0 0 0 25.564723985267847 -2.5214769175188394 0 -2.5214769175188394 -5.9673447406109972 0 0 0 0 14.177698249040077 -1.2133046908533061 0 -1.2133046908533061 -6.6460750808520288 0 0 0 0 4.3077048095146893 0.093500194633861611 0 0.093500194633861611 -2.990213659433266 0 0 0 0 6.4422528447133587 -1.3828654363540966 0 -1.3828654363540966 -2.7861563259995732 0 0 0 0 5.0103535973509947 0.47113107562922796 0 0.47113107562922796 -1.2808471641309414 0 0 0 0 3.0343486181961481 0.13545241121676987 0 0.13545241121676987 -2.639133402442539 0 0 0 0 1.933971516839911 0.53153573604040516 0 0.53153573604040516 -1.2253306744227541 0 0 0 0 4.6671583267245751 0.51818364132103056 0 0.51818364132103056 -3.3244053967844138 0 0 0 0 2.8187604782353901 -0.1806281848982394 0 -0.1806281848982394 -2.103870367711238 0 0 0 0 3.239730459644079 0.86600167301935471 0 0.86600167301935471 -1.0900868666922179 0 0 0 0 3.5048026302401922 -0.8670220143608276 0 -0.8670220143608276 -3.2981381820618481 0 0 0 0 6.5516855363351327 1.6673942886436519 0 1.6673942886436519 -5.1788880480808386 0 0 0 0 3.2211727814819824 -1.6551147032473637 0 -1.6551147032473637 -5.4633719432667931 0 0 0 0 4.8915021763934101 -1.3356986144934018 0 -1.3356986144934018 -3.0119289056790404 0 0 0 0 10.370823613900143 0.80565835818345022 0 0.80565835818345022 -5.679481726893755 0 0 0 0 14.055686317076947 6.152400412575048 0 6.152400412575048 -2.3847830045549472 0 0 0 0 10.501409880871577 3.0687666132587785 0 3.0687666132587785 -1.2079112040897311 0 0 0 0 2.8208149961594309 -0.83164365980849575 0 -0.83164365980849575 -1.0006061592657236 0 0 0 0 21.956840032660011 13.329107050814628 0 13.329107050814628 -4.3641696544141269 0 0 0 0 1.2297007237338766 1.8851351098810865 0 1.8851351098810865 -1.689649203263009 0 0 0 0 22.873564446066645 6.6849832391588393 0 6.6849832391588393 -13.254995406540274 0 0 0 0 13.8575019427157 5.4016760572406302 0 5.4016760572406302 -0.039319542568136967 0 0 0 0 2.2632954480681073 0.58509020467889616 0 0.58509020467889616 -0.54263135967621556 0 0 0 0 26.044402620462279 11.6923786219362 0 11.6923786219362 -2.3594091557213517 0 0 0 0 -5.3287808771865457 -29.997315965790563 0 -29.997315965790563 -0.88836011693138062 0 0 0 0 6.0683731523721871 1.3064175644479601 0 1.3064175644479601 -0.58413912636809151 0 0 0 0 4.2747179639300157 2.9516183675551702 0 2.9516183675551702 -1.1026607040478211 0 0 0 0 9.5480982940880494 25.729894178680297 0 25.729894178680297 -5.1560948038440984 0 0 0 0 5.6193010578496665 -1.3640630311659365 0 -1.3640630311659365 -0.47579100383537698 0 0 0 0 5.6632137403212255 0.41755801353633615 0 0.41755801353633615 -0.41659428911580676 0 0 0 0 13.415510234013567 -7.8762317760329097 0 -7.8762317760329097 -0.49953867820590858 0 0 0 0 -0.30826787933035793 -0.44131243167416789 0 -0.44131243167416789 -0.13609271993998839 0 0 0 0 5.508667574881656 -1.4908844021379082 0 -1.4908844021379082 -0.044721955155182513 0 0 0 0 5.5471559427637374 -0.89079758963600852 0 -0.89079758963600852 1.1638070131371023 0 0 0 0 4.8862244380034099 -2.5378694617932069 0 -2.5378694617932069 2.1619341915901487 0 0 0 0 5.064039511345527 -0.046230904722392552 0 -0.046230904722392552 2.8620524279099868 0 0 0 0 3.7289726068140681 1.8978448726678607 0 1.8978448726678607 2.9730359159602813 0 0 0 0 5.0689028652682282 -0.51191286406276504 0 -0.51191286406276504 0.90508398332235629 0 0 0 0 6.1199340534569728 2.5803390118242078 0 2.5803390118242078 -2.2161965171501379 0 0 0 0 5.0537248310857121 2.1438913423559831 0 2.1438913423559831 -0.76800496628522685 0 0 0 0 -5.4387905619555568 17.329676568967955 0 17.329676568967955 -5.5824229572717741 0 0 0 0 3.9171909809674617 4.5791090853879837 0 4.5791090853879837 -4.4788478154241034 0 0 0 0 29.667192493048788 2.7070119368497672 0 2.7070119368497672 -3.9800873605610718 0 0 0 0 26.464326515616449 -0.17904594236529192 0 -0.17904594236529192 -3.0241703405886255 0 0 0 0 29.262682646387475 5.8737502075797465 0 5.8737502075797465 2.1151279756936674 0 0 0 0 39.085538035222271 1.5958110644911585 0 1.5958110644911585 -4.3048195675959562 0 0 0 0 29.439222769863363 1.3896675370208129 0 1.3896675370208129 -4.2956279612694743 0 0 0 0 -0.25170680977657867 -4.5175611579967523 0 -4.5175611579967523 -0.19003966813556872 0 0 0 0 35.087155376636019 -7.9412817113671395 0 -7.9412817113671395 -17.584519707445224 0 0 0 0 -7.36052124411367 -12.421167417573145 0 -12.421167417573145 -9.7319862003282651 0 0 0 0 56.015538660494258 14.182577729587763 0 14.182577729587763 -7.9494330018062556 0 0 0 0 0.094843776957648451 -0.10394487654868367 0 -0.10394487654868367 0.14105194644043761 0 0 0 0 33.909015874847228 -0.69116172828927347 0 -0.69116172828927347 -6.8228479919982874 0 0 0 0 36.475835939492754 -4.7515226218647513 0 -4.7515226218647513 0.045013688593371626 0 0 0 0 32.002596172365884 -0.43806719888584666 0 -0.43806719888584666 -4.0452629856686144 0 0 0 0 0.67307107064873417 -0.50426650469632861 0 -0.50426650469632861 0.20117842213398784 0 0 0 0 28.338187313117032 -9.0466215199625424 0 -9.0466215199625424 2.6835000054966258 0 0 0 0 0.48301010334671446 -4.5241993630644401 0 -4.5241993630644401 -5.2325911398832545 0 0 0 0 3.6043305647599482 0.26521523890357912 0 0.26521523890357912 -5.0165871541723845 0 0 0 0 2.6029700598113372 0.19962660215330175 0 0.19962660215330175 -1.3097215333147774 0 0 0 0 2.2629870046885117 1.2886191617120062 0 1.2886191617120062 -3.7430783256247651 0 0 0 0 8.5195837398041476 1.8220237327871018 0 1.8220237327871018 -5.3067804430582868 0 0 0 0 2.1710239037735164 1.7414171164110712 0 1.7414171164110712 1.6711719973438903 0 0 0 0 7.7570223638085736 -3.4015383748351269 0 -3.4015383748351269 -5.8684620982668321 0 0 0 0 11.39271731179133 -5.7911921958611288 0 -5.7911921958611288 1.5969112146876796 0 0 0 0 -0.28783553724940525 4.5829505370192845 0 4.5829505370192845 -3.4643397232178677 0 0 0 0 -3.5610416389799866 3.6050258535505577 0 3.6050258535505577 -3.7312750666803822 0 0 0 0 0.19908025687891495 2.232560088253841 0 2.232560088253841 -6.2208890915473205 0 0 0 0 12.831429160309199 11.801094308842352 0 11.801094308842352 -17.251659697947929 0 0 0 0 5.5246495941212039 0.81637301354931679 0 0.81637301354931679 -0.89936568879541134 0 0 0 0 2.1875206467095563 1.6010340772509126 0 1.6010340772509126 -2.5197832280539028 0 0 0 0 10.840236993442886 19.076077426201323 0 19.076077426201323 15.70635544864308 0 0 0 0 5.0688594343355362 17.163009501082684 0 17.163009501082684 15.763912317375343 0 0 0 0 -0.60804083152333988 1.3316274839484379 0 1.3316274839484379 -1.528742960999125 0 0 0 0 -0.11044950613143811 1.1948857416334349 0 1.1948857416334349 -0.507936971347688 0 0 0 0 40.027558480229345 -5.4911740356251357 0 -5.4911740356251357 -2.9251245515736173 0 0 0 0 -0.17398565636557706 0.16956270597209055 0 0.16956270597209055 -0.051849704243832839 0 0 0 0 41.735146830190388 -13.200859765866312 0 -13.200859765866312 3.695462478300982 0 0 0 0 51.340836522111204 -3.1220347187687594 0 -3.1220347187687594 -1.3105652218860087 0 0 0 0 34.038500837625179 24.132734309290754 0 24.132734309290754 12.059317301171973 0 0 0 0 36.607581667045451 15.937065257784866 0 15.937065257784866 -7.8426314400120418 0 0 0 0 16.470457108532173 20.324166730601291 0 20.324166730601291 -17.136862893700794 0 0 0 0 12.649929886443616 3.0735912279020781 0 3.0735912279020781 -0.71627327393211804 0 0 0 0 9.0019872310112987 10.349504455454507 0 10.349504455454507 4.5131765311908794 0 0 0 0 8.8597297016494849 18.433428281155216 0 18.433428281155216 -5.7344324404605942 0 0 0 0 15.984422075211114 -3.5136541554018095 0 -3.5136541554018095 -5.8684902384027424 0 0 0 0 19.046010692367418 2.6400425619349335 0 2.6400425619349335 7.1642969236287399 0 0 0 0 35.03434345156893 -4.8763602999175646 0 -4.8763602999175646 -5.9175274873591661 0 0 0 0 18.724743526842758 4.8423138368250989 0 4.8423138368250989 1.4752036291565673 0 0 0 0 64.539607040821465 -1.3256589269050778 0 -1.3256589269050778 1.4722670691221538 0 0 0 0 25.443776159472691 -9.9546040247327028 0 -9.9546040247327028 31.422294536417894 0 0 0 0 36.716851656728068 18.876468078191806 0 18.876468078191806 30.189975055510331 0 0 0 0 64.658522111760249 10.451029346079963 0 10.451029346079963 -0.36879634818023987 0 0 0 0 45.090340036666021 7.0989535993269328 0 7.0989535993269328 5.9799288150204575 0 0 0 0 21.768426259497573 5.6507491056440813 0 5.6507491056440813 18.904761572008056 0 0 0 0 45.200346790258664 6.0243137722266056 0 6.0243137722266056 1.8432362414598629 0 0 0 0 5.3678590959257235 8.9085879750238632 0 8.9085879750238632 8.2083138525206323 0 0 0 0 21.689533802615642 4.4802163147272793 0 4.4802163147272793 4.0304377692525577 0 0 0 0 11.27028626547326 -5.0737304059377664 0 -5.0737304059377664 13.593582690034737 0 0 0 0 -8.258547225734219 1.8140441495791606 0 1.8140441495791606 5.9138426088991309 0 0 0 0 6.6312764905296717 4.3953493938835777 0 4.3953493938835777 -5.4780459902419807 0 0 0 0 6.8809017400139965 -5.4688608016902123 0 -5.4688608016902123 -2.8722275185293711 0 0 0 0 1.0316452183910698 3.25290215940056 0 3.25290215940056 -2.2936936966078632 0 0 0 0 11.661764573318806 5.3964701858934347 0 5.3964701858934347 -1.1429086630470238 0 0 0 0 2.7434886731912886 3.3352281227208511 0 3.3352281227208511 -1.8225714475721626 0 0 0 0 10.952906675279337 4.2360692675232059 0 4.2360692675232059 -0.18527019481234674 0 0 0 0 19.629787247878994 7.1139879665714432 0 7.1139879665714432 -2.9862753618490103 0 0 0 0 14.924347012871067 2.1720189171496287 0 2.1720189171496287 -16.302394110129796 0 0 0 0 16.138481330587638 10.24776630563133 0 10.24776630563133 -5.1694958821633463 0 0 0 0 13.196315370523365 3.9695087775366744 0 3.9695087775366744 -0.26854589998988354 0 0 0 0 14.574489989802714 2.940403157509536 0 2.940403157509536 -5.9466343892701445 0 0 0 0 19.852410194867844 5.3364514445276541 0 5.3364514445276541 -3.0396270264755145 0 0 0 0 13.670993812959523 2.346191892023441 0 2.346191892023441 -3.9684271767774248 0 0 0 0 8.2003552821252015 -1.5397120771577306 0 -1.5397120771577306 -3.2215517783675978 0 0 0 0 3.3389399964492021 -1.4353889397904211 0 -1.4353889397904211 -2.4542104619713858 0 0 0 0 12.782798870587612 0.020331853624909968 0 0.020331853624909968 -2.7639711641319309 0 0 0 0 -6.6358836088347743 -26.000101441108995 0 -26.000101441108995 -31.294874047028991 0 0 0 0 86.651627542381902 -0.74247020925764673 0 -0.74247020925764673 -33.482173423457084 0 0 0 0 -0.11590610782950428 -0.1680727870256532 0 -0.1680727870256532 -0.072240237910288663 0 0 0 0 -6.7871258970797044 2.405930251656855 0 2.405930251656855 9.4248407688911584 0 0 0 0 23.788308925213386 -0.19214268291818826 0 -0.19214268291818826 -2.8432858179469349 0 0 0 0 16.671819923722751 9.8451855764111542 0 9.8451855764111542 14.044349298942905 0 0 0 0 27.192212234455326 18.124581188879944 0 18.124581188879944 35.629854961668798 0 0 0 0 0.097102606387995394 0.6788179984754108 0 0.6788179984754108 0.062468369808806656 0 0 0 0 4.7687678005529506 16.53461171654294 0 16.53461171654294 25.12804562176666 0 0 0 0 4.3705191449701033 12.123451099863985 0 12.123451099863985 2.5160466195395657 0 0 0 0 -1.0296167996537515 2.9364199341946224 0 2.9364199341946224 -2.4398460878921209 0 0 0 0 19.934072499283047 14.63853122957164 0 14.63853122957164 2.9207737470535164 0 0 0 0 3.1922383563681946 1.2765221445999879 0 1.2765221445999879 -0.50303691267053363 0 0 0 0 33.964785430094025 10.771222522582207 0 10.771222522582207 -17.741321931117682 0 0 0 0 16.617157354422034 -4.2175306971742543 0 -4.2175306971742543 -20.526290914950252 0 0 0 0 17.501015080632214 8.2417711994139609 0 8.2417711994139609 -2.3344458547009594 0 0 0 0 19.873775495165205 11.709164578505408 0 11.709164578505408 -6.9362261805110847 0 0 0 0 12.51075667897021 4.8691871854992712 0 4.8691871854992712 -0.98549844293741984 0 0 0 0 11.639264074836797 3.5920057197478608 0 3.5920057197478608 0.019442526854859477 0 0 0 0 9.4029974874737245 -0.12520269770307291 0 -0.12520269770307291 -2.2530408626554648 0 0 0 0 29.917099594970068 14.825463990512446 0 14.825463990512446 -3.193498161399134 0 0 0 0 18.51685135955185 3.9826433859134216 0 3.9826433859134216 0.53008048834580834 0 0 0 0 4.6061594027246215 2.3008158589755636 0 2.3008158589755636 -1.4800167602280538 0 0 0 0 23.601900816395982 -1.5649765239438125 0 -1.5649765239438125 -20.073444168036531 0 0 0 0 40.571279944517073 41.647550594650738 0 41.647550594650738 17.599503606081043 0 0 0 0 -0.23588162571583737 -0.035717327410594191 0 -0.035717327410594191 -0.34892908456865435 0 0 0 0 24.134173712472631 -30.244929477506474 0 -30.244929477506474 -35.878454208208495 0 0 0 0 13.165581868786148 13.942869326070308 0 13.942869326070308 9.1539398559851861 0 0 0 0 48.549219641923173 6.2698612780892518 0 6.2698612780892518 4.5416112897358403 0 0 0 0 21.968265335704928 6.6856162629051141 0 6.6856162629051141 5.5094947698518126 0 0 0 0 42.653036853968047 -1.5016711433444812 0 -1.5016711433444812 6.1859436064564761 0 0 0 0 32.44424944759885 20.916119558438254 0 20.916119558438254 10.768258182669456 0 0 0 0 28.235428727253066 14.019776389475453 0 14.019776389475453 11.77599479388266 0 0 0 0 2.486145441912555 -7.5585119792096123 0 -7.5585119792096123 -6.3603994274051274 0 0 0 0 -16.756792960976554 -4.518190447144832 0 -4.518190447144832 5.9785885358883206 0 0 0 0 65.412803894776744 -1.7171915360715388 0 -1.7171915360715388 -1.0759292659431594 0 0 0 0 0.12024269879774341 -0.47018617044405309 0 -0.47018617044405309 1.4248567254197364 0 0 0 0 56.612606081714716 -8.1763194160781723 0 -8.1763194160781723 1.2931264767461244 0 0 0 0 53.101958467346776 2.0138193470606893 0 2.0138193470606893 7.2538819196337272 0 0 0 0 52.930634169408222 0.85383442868192105 0 0.85383442868192105 -0.5156407853401106 0 0 0 0 19.197582898797236 -16.021395480237913 0 -16.021395480237913 -10.397185229470097 0 0 0 0 7.4617180439036019 2.3757638141127018 0 2.3757638141127018 -9.2535120784340918 0 0 0 0 44.590664617430548 2.3429124578976825 0 2.3429124578976825 3.7037770027275201 0 0 0 0 38.771466626732149 -7.9683266614402442 0 -7.9683266614402442 8.5450646350564057 0 0 0 0 -4.7216788699558947 -4.4499897422050765 0 -4.4499897422050765 23.804399441734517 0 0 0 0 0.19465660083922232 -0.84469517319684506 0 -0.84469517319684506 2.189451528693362 0 0 0 0 56.077926174801433 1.9042057292886767 0 1.9042057292886767 1.7032181538286295 0 0 0 0 56.187135192792084 1.4593430539505334 0 1.4593430539505334 3.1107504520796283 0 0 0 0 53.933115235243349 1.1724137537623847 0 1.1724137537623847 4.2760184076764745 0 0 0 0 52.781993360000797 -3.4129309954763727 0 -3.4129309954763727 3.5284147324655351 0 0 0 0 52.735903094427272 -4.6472129573676284 0 -4.6472129573676284 28.188480329540198 0 0 0 0 80.887517821161964 -4.0414000915607176 0 -4.0414000915607176 -2.4434378917212598 0 0 0 0 81.703853302282369 8.7180799419747927 0 8.7180799419747927 5.2456547463580137 0 0 0 0 49.150558452648454 -18.505235009293159 0 -18.505235009293159 4.2197349985399342 0 0 0 0 0.1858638146384477 -0.45364097775939682 0 -0.45364097775939682 0.51474718771646444 0 0 0 0 59.841548908331561 -17.325769668758312 0 -17.325769668758312 -2.3287514850649131 0 0 0 0 24.178869037078584 22.219510643234571 0 22.219510643234571 31.2498169713067 0 0 0 0 56.456229553604317 30.861984668013747 0 30.861984668013747 8.17797543556253 0 0 0 0 39.050269602399567 12.912830127707593 0 12.912830127707593 -1.9851537135004946 0 0 0 0 0.57210720068969922 -0.55572445262104875 0 -0.55572445262104875 -0.13890598955308331 0 0 0 0 -7.3775771771724976 1.42223849003949 0 1.42223849003949 19.21630203367431 0 0 0 0 -20.387352148752143 -46.435534047601209 0 -46.435534047601209 -25.296346914674359 0 0 0 0 70.3296996348638 29.646120112250401 0 29.646120112250401 16.973039236749571 0 0 0 0 0.33833254704426619 -0.0094997123547174711 0 -0.0094997123547174711 -0.29723510207013426 0 0 0 0 60.903689203787053 3.155571668514483 0 3.155571668514483 1.2951245623662544 0 0 0 0 41.435092596987488 -9.3734774730282879 0 -9.3734774730282879 4.7050103443246485 0 0 0 0 33.433163397378962 -2.8518614535088886 0 -2.8518614535088886 4.6721092773136661 0 0 0 0 30.990055862181407 -9.1470294033063055 0 -9.1470294033063055 -9.3459232303908948 0 0 0 0 31.179728265443146 -0.33952827744144543 0 -0.33952827744144543 5.8632785279578457 0 0 0 0 12.547135480811335 -4.7994797824397608 0 -4.7994797824397608 9.6544404456551547 0 0 0 0 28.192115615001072 0.32499317764708024 0 0.32499317764708024 9.2535846329722062 0 0 0 0 32.053221202836312 -2.0110509454725616 0 -2.0110509454725616 3.8660367293500713 0 0 0 0 35.838072337550578 0.53318195900714471 0 0.53318195900714471 5.5202877879755761 0 0 0 0 41.534437960924606 0.89464089154512294 0 0.89464089154512294 3.626975377196004 0 0 0 0 33.030493232675269 2.0472730090070996 0 2.0472730090070996 8.6900402757764823 0 0 0 0 41.354901043906693 -6.2617130399892176 0 -6.2617130399892176 0.59436870956108123 0 0 0 0 41.523067389469645 -4.3844268880387034 0 -4.3844268880387034 -1.0317354600110775 0 0 0 0 32.438197714852834 -3.7415374074425358 0 -3.7415374074425358 1.3928978315766471 0 0 0 0 48.62074494987246 -9.7674189170841146 0 -9.7674189170841146 2.4273032312379428 0 0 0 0 45.91905151365404 5.3882713169282397 0 5.3882713169282397 -4.4362055023225366 0 0 0 0 56.424693279982421 -3.8782546590823586 0 -3.8782546590823586 -6.554230581878528 0 0 0 0 45.083467827560298 -2.8800640981756942 0 -2.8800640981756942 -7.766891464211767 0 0 0 0 46.960537243119688 -0.34451101414492769 0 -0.34451101414492769 -6.3567115017297979 0 0 0 0 47.850622232444493 -2.2336143541490401 0 -2.2336143541490401 -2.631419745408266 0 0 0 0 13.420739680176681 -5.188795579828053 0 -5.188795579828053 0.78317990253367498 0 0 0 0 15.771215050215233 17.488887804029218 0 17.488887804029218 4.7878678184965793 0 0 0 0 40.838588023654665 1.3697334470740543 0 1.3697334470740543 -3.8132154038767112 0 0 0 0 37.612214082766513 4.8945757351584689 0 4.8945757351584689 -5.2057428302013022 0 0 0 0 26.707477139264597 -0.3031314842820052 0 -0.3031314842820052 -5.2240949615695627 0 0 0 0 27.714773079647784 2.7747978260671289 0 2.7747978260671289 -2.7193187827328984 0 0 0 0 33.986134648846701 -3.321495600151593 0 -3.321495600151593 -6.2222276380939547 0 0 0 0 41.42398221075905 2.0784785996013397 0 2.0784785996013397 -4.5552740168446348 0 0 0 0 48.924438186324551 -4.5566487575283645 0 -4.5566487575283645 -8.8538948329867253 0 0 0 0 47.536065352164798 6.6567284760456218 0 6.6567284760456218 -1.8734448263464856 0 0 0 0 58.519992211543013 1.0725928792762716 0 1.0725928792762716 -5.977223821127609 0 0 0 0 57.842574917403454 11.16221984879364 0 11.16221984879364 -1.0282918885968684 0 0 0 0 35.766120056978139 -15.275546634163902 0 -15.275546634163902 1.0156250047500635 0 0 0 0 23.607882000523432 9.2154971839272548 0 9.2154971839272548 20.043023872157846 0 0 0 0 46.141557038013161 23.922682775119029 0 23.922682775119029 23.696584038831702 0 0 0 0 0.037000850618253533 0.079868834155059965 0 0.079868834155059965 0.25347019445972752 0 0 0 0 92.554269105095273 -11.126096921334124 0 -11.126096921334124 -4.3833824675327833 0 0 0 0 0.30277898628682109 0.29039999341130551 0 0.29039999341130551 0.25352401447550132 0 0 0 0 -9.3994125828877486 12.492337329422696 0 12.492337329422696 14.458102693172123 0 0 0 0 8.4861518016036825 -16.398361793294043 0 -16.398361793294043 8.2463841267806401 0 0 0 0 31.337273689677886 -6.4912363293402677 0 -6.4912363293402677 6.0001843735130933 0 0 0 0 35.875728828086267 -12.747376449566445 0 -12.747376449566445 3.8579874622394641 0 0 0 0 29.809649353756413 -6.7524741206980252 0 -6.7524741206980252 6.0881069095413523 0 0 0 0 37.822198021993358 -3.2363324150234121 0 -3.2363324150234121 4.1238512129534683 0 0 0 0 35.553971440662735 15.56075967845436 0 15.56075967845436 14.534280470538164 0 0 0 0 21.614177908783176 -0.19237621358314527 0 -0.19237621358314527 8.305084847559101 0 0 0 0 14.001140778724476 -1.5790603366764913 0 -1.5790603366764913 -1.4215684153265329 0 0 0 0 10.106742815131085 1.0047238772146869 0 1.0047238772146869 -0.2426242435160475 0 0 0 0 6.9509058417036726 3.0195589105566967 0 3.0195589105566967 1.6410998907716703 0 0 0 0 9.7136805103189729 0.24801412375758503 0 0.24801412375758503 2.2563776941769902 0 0 0 0 -0.30694022520742692 6.0217096960892604 0 6.0217096960892604 0.1035290552817969 0 0 0 0 -0.050315210229882723 -1.2389433513754966 0 -1.2389433513754966 -4.429275546691315 0 0 0 0 -23.185150340816563 -27.119530527593724 0 -27.119530527593724 -30.893481222624587 0 0 0 0 -2.0278790460247365 6.6029123808302757 0 6.6029123808302757 10.93350384710709 0 0 0 0 0.081253293494683021 3.4888786404374059 0 3.4888786404374059 4.4553550119256329 0 0 0 0 -3.5891785436908776 2.4330754857980139 0 2.4330754857980139 3.6295143436977924 0 0 0 0 0.70704907130174344 1.8786969181777364 0 1.8786969181777364 0.8277560510628672 0 0 0 0 -4.4958914164467387 0.55958295559457838 0 0.55958295559457838 -0.21841086633676099 0 0 0 0 -7.6453328341345923 2.6593466568102713 0 2.6593466568102713 1.9784862979699938 0 0 0 0 -3.1266015143437471 1.5722697609413672 0 1.5722697609413672 -0.83067713061427639 0 0 0 0 -3.4546178050999288 1.2359958396363027 0 1.2359958396363027 1.6204472092871356 0 0 0 0 6.4027276244657969 0.45660377534386498 0 0.45660377534386498 5.4068777912561927 0 0 0 0 0.048100303145966805 0.1628829447014537 0 0.1628829447014537 0.62920537778305086 0 0 0 0 -1.2463870055746611 0.052664512768046734 0 0.052664512768046734 -0.36069734908471673 0 0 0 0 2.6460128296149605 2.0173230380391374 0 2.0173230380391374 2.6413628654358945 0 0 0 0 -0.8908824270124569 0.55417044386194902 0 0.55417044386194902 -0.15125358412819878 0 0 0 0 0.034941954140140563 0.16723956193069256 0 0.16723956193069256 0.80087411498968386 0 0 0 0 -4.2783426295590061 1.6331942304724976 0 1.6331942304724976 1.1068741330634566 0 0 0 0 6.50322961831057 -2.8785389209431855 0 -2.8785389209431855 2.8299447458350642 0 0 0 0 0.48914158339021807 1.6571975794258238 0 1.6571975794258238 -0.11038581585796958 0 0 0 0 13.676351268738188 -2.4560789069651037 0 -2.4560789069651037 0.41127761206507785 0 0 0 0 13.824368790764298 1.6601576490773198 0 1.6601576490773198 -6.206022665813407 0 0 0 0 24.454955146073928 -4.5460047008737092 0 -4.5460047008737092 -2.5828960681950548 0 0 0 0 13.261021692850932 -9.3243904583752624 0 -9.3243904583752624 7.4413031034953292 0 0 0 0 4.9728463812125057 11.447616771661814 0 11.447616771661814 23.579195251486681 0 0 0 0 0.49721205821197412 0.21360818767688539 0 0.21360818767688539 -0.14301634971245941 0 0 0 0 -3.1509308311196662 -0.76170320744103037 0 -0.76170320744103037 5.666190265497562 0 0 0 0 -0.12290498608417588 0.16979974945892962 0 0.16979974945892962 -0.017600861429327708 0 0 0 0 1.3576744808690364 9.2332921856395842 0 9.2332921856395842 8.1070967449931004 0 0 0 0 13.586784713189161 9.2221238865393502 0 9.2221238865393502 -2.7314255101741765 0 0 0 0 8.2865380049224768 3.8093133295903954 0 3.8093133295903954 -2.5190007710714326 0 0 0 0 12.562916979295778 21.973944792329007 0 21.973944792329007 12.36755277496394 0 0 0 0 1.8276488305067744 -1.0801923205539907 0 -1.0801923205539907 0.70576892153758308 0 0 0 0 2.1918777584262559 -0.83075692293363312 0 -0.83075692293363312 -0.21309364746452741 0 0 0 0 10.998918774908134 6.3639368804032301 0 6.3639368804032301 -14.926786369217552 0 0 0 0 -1.34456995894584 1.8947511661369845 0 1.8947511661369845 0.096743087243886805 0 0 0 0 -2.7379057697016833 1.8152265365358176 0 1.8152265365358176 0.13217063233810222 0 0 0 0 -2.1022493633947819 0.84290164751231567 0 0.84290164751231567 0.01745782013597175 0 0 0 0 -0.82993114250257349 4.2798572342078387 0 4.2798572342078387 -1.6496250483601216 0 0 0 0 -2.0283834641536487 6.5307103595429226 0 6.5307103595429226 -0.31181333788987331 0 0 0 0 1.6145839304511087 2.1261125963133676 0 2.1261125963133676 -1.5665594912947505 0 0 0 0 -5.405368963914043 2.1144668062763685 0 2.1144668062763685 1.733175966340923 0 0 0 0 -0.31846146927700492 0.48311010363645934 0 0.48311010363645934 -0.11366570609683624 0 0 0 0 -3.2124403010775495 6.2010366279729965 0 6.2010366279729965 1.1598587312839754 0 0 0 0 -3.9784772861762576 1.0924891235314362 0 1.0924891235314362 0.030504853833591028 0 0 0 0 1.155545650666745 1.8492180017406072 0 1.8492180017406072 -1.9304947828609071 0 0 0 0 15.027365996089998 -22.274245628591331 0 -22.274245628591331 5.9979446286846496 0 0 0 0 7.2457061995837648 -6.1322149097900365 0 -6.1322149097900365 10.284512717282894 0 0 0 0 4.8142614802305843 5.9832646037380073 0 5.9832646037380073 -4.7331657519100645 0 0 0 0 1.2190966014207627 0.91714478942329158 0 0.91714478942329158 -0.73889114839364645 0 0 0 0 2.8539503433464795 1.5962201955923168 0 1.5962201955923168 -0.48869478460348459 0 0 0 0 1.316787458135309 1.715659066868426 0 1.715659066868426 -0.92746111580026991 0 0 0 0 2.6298997615554072 1.0701593294952545 0 1.0701593294952545 -1.2153513458358702 0 0 0 0 24.176407791063298 -8.8302260651996676 0 -8.8302260651996676 2.636777686583855 0 0 0 0 0.9271849008987485 1.0818737534851897 0 1.0818737534851897 -0.47483532814650165 0 0 0 0 26.856901098134585 -2.1130282193672656 0 -2.1130282193672656 -2.2085537944983571 0 0 0 0 34.006101956050088 -10.367409472151962 0 -10.367409472151962 -2.0111591739432697 0 0 0 0 2.8334608728705462 -4.7324358818735845 0 -4.7324358818735845 6.9498739198670592 0 0 0 0 20.137935159684957 -2.609259970575863 0 -2.609259970575863 -1.8587188883022918 0 0 0 0 9.2372861088217633 6.0771889004439572 0 6.0771889004439572 -8.4504132903996378 0 0 0 0 6.1048802632074057 6.002723436577071 0 6.002723436577071 -3.6810532493165056 0 0 0 0 5.7935218046519399 -14.144063022439786 0 -14.144063022439786 -25.401895996590156 0 0 0 0 5.6544683307695323 4.3636631798158305 0 4.3636631798158305 -4.8059219289206538 0 0 0 0 5.2610979148070101 1.370001400377646 0 1.370001400377646 -10.371430609427733 0 0 0 0 5.3269823242899292 6.9035045832694095 0 6.9035045832694095 -3.1161128177528497 0 0 0 0 2.7730872499270642 0.32102093835913403 0 0.32102093835913403 -0.96282099055836534 0 0 0 0 0.87713108783935356 1.8800165958176256 0 1.8800165958176256 -1.819499328025775 0 0 0 0 5.1137647655082219 1.9620434207480457 0 1.9620434207480457 -1.8949389863828969 0 0 0 0 4.1811426808089891 1.0776269519114976 0 1.0776269519114976 -1.7093065167423447 0 0 0 0 2.5192467035876316 0.3999018779501492 0 0.3999018779501492 -1.5737619587123026 0 0 0 0 5.4583960060820687 2.884742066214244 0 2.884742066214244 -1.3102152086112255 0 0 0 0 3.3851927114492355 2.1355442376196834 0 2.1355442376196834 -0.19272648909372947 0 0 0 0 3.6423889637668161 1.2743371153394047 0 1.2743371153394047 -0.88172625507725133 0 0 0 0 6.445762431500043 1.5385449783415197 0 1.5385449783415197 -2.3029813597574957 0 0 0 0 6.4719163172218224 -0.012597377570308765 0 -0.012597377570308765 -1.2010235104623916 0 0 0 0 7.933597069245252 0.24997056807558238 0 0.24997056807558238 -1.5361739162669892 0 0 0 0 7.0141848722573741 0.50992844290078665 0 0.50992844290078665 0.17330063909344062 0 0 0 0 7.1106087380539975 0.32734121979660813 0 0.32734121979660813 -1.3407213134300946 0 0 0 0 2.7869212132978092 -1.1417487048953219 0 -1.1417487048953219 -2.2048750071447634 0 0 0 0 11.815703621796956 3.5144639290936084 0 3.5144639290936084 -1.9563366749262059 0 0 0 0 12.923420068527776 3.0198878048173867 0 3.0198878048173867 -0.66860116322777685 0 0 0 0 6.9924577620440687 0.73669185412097704 0 0.73669185412097704 1.3537003106080192 0 0 0 0 1.8781975862732576 -0.14054095602914884 0 -0.14054095602914884 0.97807455346694994 0 0 0 0 2.6151819200771258 -2.0411669470527678 0 -2.0411669470527678 -0.1644260508207287 0 0 0 0 12.427695724844398 -0.86647247255808679 0 -0.86647247255808679 -0.07742141666722091 0 0 0 0 11.717200705393395 0.55784870379302731 0 0.55784870379302731 0.71002328691838557 0 0 0 0 11.301501945193593 0.18863528962171472 0 0.18863528962171472 1.0219066692834531 0 0 0 0 13.715517863238802 5.7158549962388179 0 5.7158549962388179 1.073761695389976 0 0 0 0 8.2152232599881927 3.753778980478601 0 3.753778980478601 -3.3144664591041968 0 0 0 0 13.806343500124706 -3.5893225172971466 0 -3.5893225172971466 2.9553791078676297 0 0 0 0 6.7453099106447647 2.1064189954152557 0 2.1064189954152557 1.9880384796066077 0 0 0 0 23.085590911799045 19.983497687315776 0 19.983497687315776 16.832807488447315 0 0 0 0 7.900372202771802 -1.098608983600017 0 -1.098608983600017 -1.1512223220100852 0 0 0 0 20.505553620391765 23.546297633693712 0 23.546297633693712 13.519346399536062 0 0 0 0 14.005200128151046 -13.281590169598758 0 -13.281590169598758 -17.74874606031949 0 0 0 0 -6.3583862862687965 3.6260336663142425 0 3.6260336663142425 -4.7573187710630265 0 0 0 0 -4.0536808205997659 -10.28654901261433 0 -10.28654901261433 -8.7500455921393723 0 0 0 0 13.656885143484033 -4.9395796171743598 0 -4.9395796171743598 -7.351547696863463 0 0 0 0 5.5457851613723506 -3.8028756636987708 0 -3.8028756636987708 -5.3677910709458274 0 0 0 0 10.283964517417189 5.1256118263181705 0 5.1256118263181705 -4.6452517534812454 0 0 0 0 15.284586089271873 1.3913342484620319 0 1.3913342484620319 -1.9350621470873026 0 0 0 0 6.873703733086586 10.329862682008923 0 10.329862682008923 -11.742250094180548 0 0 0 0 15.723081813438682 -0.27501368589707909 0 -0.27501368589707909 2.1891159121610144 0 0 0 0 18.846145156630882 3.2475857249431002 0 3.2475857249431002 -10.419712296369921 0 0 0 0 18.530227929655211 -0.12985904061520159 0 -0.12985904061520159 1.5441804098591092 0 0 0 0 22.373014041269016 -1.0646556331415695 0 -1.0646556331415695 0.79627822350016686 0 0 0 0 17.343017185754661 -3.3803615274428012 0 -3.3803615274428012 -21.735801884104148 0 0 0 0 18.829912305440075 0.83469674712125652 0 0.83469674712125652 -10.123300370535617 0 0 0 0 12.386301180256169 -6.0552853971640843 0 -6.0552853971640843 -3.9691380379827024 0 0 0 0 10.153352687041433 -2.6756135892125599 0 -2.6756135892125599 -0.11869574214688328 0 0 0 0 20.915744105206159 -6.399316028354292 0 -6.399316028354292 -3.9355271232235509 0 0 0 0 12.830424002731661 -0.62064766695078788 0 -0.62064766695078788 -0.7222207644563241 0 0 0 0 0.084323814674007735 -2.073023546675131 0 -2.073023546675131 -3.152691097706338 0 0 0 0 8.4955813942715395 -8.2770604449806342 0 -8.2770604449806342 -3.7548417477973999 0 0 0 0 -2.9950136010138522 -7.5995347583423154 0 -7.5995347583423154 -0.88120920960886906 0 0 0 0 0.15262981903804329 0.0010898699784096522 0 0.0010898699784096522 -0.67597440991965563 0 0 0 0 31.590263262009103 -8.2867725328857773 0 -8.2867725328857773 -4.5717727519630103 0 0 0 0 22.800769348395534 0.88415311990934242 0 0.88415311990934242 -2.2437243515514638 0 0 0 0 30.961819688878677 -8.4064938676528982 0 -8.4064938676528982 1.8785256112696516 0 0 0 0 18.951282400064429 -7.3449560861006375 0 -7.3449560861006375 9.5258381355890833 0 0 0 0 48.752377446777245 -5.5024761137037785 0 -5.5024761137037785 -0.44228816016766359 0 0 0 0 0.18236120604107775 0.031367294418474412 0 0.031367294418474412 -0.17116923820368957 0 0 0 0 3.8399602992502082 -6.9952957911558258 0 -6.9952957911558258 -1.4022281944771748 0 0 0 0 4.0162041239823338 -5.2095348755199211 0 -5.2095348755199211 0.62734776849697482 0 0 0 0 14.771954864008876 -11.181144838163959 0 -11.181144838163959 0.98534328308323893 0 0 0 0 16.045143643743245 -0.71983430873319776 0 -0.71983430873319776 -2.2153339973672246 0 0 0 0 0.055362454445521903 -0.081628586368160949 0 -0.081628586368160949 0.47535270574632627 0 0 0 0 -31.61866951976458 -9.4717615028756228 0 -9.4717615028756228 8.286530592469262 0 0 0 0 -14.14479639607498 5.2406784926898808 0 5.2406784926898808 -0.94948667192460334 0 0 0 0 44.76656448893641 -2.6064209194058776 0 -2.6064209194058776 7.863404690558923 0 0 0 0 86.13408511311718 10.63689889359074 0 10.63689889359074 -17.549588691998792 0 0 0 0 56.997529062176795 -12.014128746786696 0 -12.014128746786696 -25.80374944644268 0 0 0 0 6.1407868584283278 46.936496514970713 0 46.936496514970713 0.08400383266064182 0 0 0 0 21.401335648516728 3.730642152593068 0 3.730642152593068 -0.86064885701362659 0 0 0 0 48.109190655532075 -48.953531376171213 0 -48.953531376171213 6.6369575063113189 0 0 0 0 -11.951137062732414 -17.477741162698521 0 -17.477741162698521 -4.4998137728254619 0 0 0 0 -9.5200491513901397 -3.1160270709414135 0 -3.1160270709414135 1.2253884633946655 0 0 0 0 18.829745129955199 27.37032955453013 0 27.37032955453013 -29.45737916598091 0 0 0 0 27.545042860735066 4.7401755615483125 0 4.7401755615483125 -13.694834823739029 0 0 0 0 10.798968089175105 2.6267377308527102 0 2.6267377308527102 0.54273512986208061 0 0 0 0 45.888201273368963 -2.7435636509684969 0 -2.7435636509684969 -7.75152118077267 0 0 0 0 74.292188554020868 49.443713105266312 0 49.443713105266312 -107.11816465234369 0 0 0 0 22.569784874986119 4.0568592431607984 0 4.0568592431607984 -0.83360491535008308 0 0 0 0 72.647242881372222 80.920220744222661 0 80.920220744222661 21.625331876411792 0 0 0 0 158.04357246195696 -20.389890769555223 0 -20.389890769555223 -33.238916850872329 0 0 0 0 -22.569493388050432 30.368015008577544 0 30.368015008577544 -3.0774369088489379 0 0 0 0 -13.168731916285878 24.474670538518797 0 24.474670538518797 14.759070268546481 0 0 0 0 25.96780270925592 -42.281022097949062 0 -42.281022097949062 120.16694038626403 0 0 0 0 10.472542349885998 -16.323891233007771 0 -16.323891233007771 -19.827476807104176 0 0 0 0 18.873794993818471 2.7124792598922269 0 2.7124792598922269 -1.1493718059591633 0 0 0 0 60.311448453920093 50.300233531412346 0 50.300233531412346 -13.735488665619258 0 0 0 0 -42.251722894998238 -7.5028198496584082 0 -7.5028198496584082 23.51125355187358 0 0 0 0 -1.4114921314740059 55.882133652619828 0 55.882133652619828 -47.137182988187988 0 0 0 0 -16.354025741707119 17.476847361670536 0 17.476847361670536 25.656849069319399 0 0 0 0 0.71624420102741482 -0.26646016194069588 0 -0.26646016194069588 -0.05769634203620444 0 0 0 0 24.57223630140561 -7.1616475573796663 0 -7.1616475573796663 -16.341862885954981 0 0 0 0 24.036224101168017 2.5983432826832722 0 2.5983432826832722 -10.072384396873346 0 0 0 0 13.705995146839996 -5.9484424035452435 0 -5.9484424035452435 -8.5882338656181787 0 0 0 0 16.916348529383868 -2.5925913599936052 0 -2.5925913599936052 -3.3647481450178134 0 0 0 0 15.254739269843412 -4.1141366069465448 0 -4.1141366069465448 -1.2306296400353176 0 0 0 0 15.711398675266537 -5.5680958796425557 0 -5.5680958796425557 -8.5664124533316226 0 0 0 0 14.76068252783989 2.5131714811272357 0 2.5131714811272357 -9.9983621618844722 0 0 0 0 4.8280411633077165 3.4960914918002004 0 3.4960914918002004 -3.0814488387565575 0 0 0 0 12.517962306117624 2.9794722388007244 0 2.9794722388007244 -3.6607340257651799 0 0 0 0 13.96994167030175 8.3728592291043782 0 8.3728592291043782 7.1327427359956346 0 0 0 0 34.905183982107701 -20.695665081944526 0 -20.695665081944526 -34.636505001411699 0 0 0 0 14.981081961063992 -1.4464057402256234 0 -1.4464057402256234 -3.9619236940084201 0 0 0 0 12.05153649873796 3.1047720433499393 0 3.1047720433499393 1.9340794982030047 0 0 0 0 192.94871187240369 70.848459585895711 0 70.848459585895711 22.562834258363125 0 0 0 0 9.6553247190095135 35.476161985306405 0 35.476161985306405 23.011007322303385 0 0 0 0 0.62124451728243457 -18.487922654369321 0 -18.487922654369321 -10.682455293228486 0 0 0 0 -8.4622013798871194 -82.127373855893666 0 -82.127373855893666 46.262978544842326 0 0 0 0 1.2758568589899859 -0.73152495267339823 0 -0.73152495267339823 0.19272699102014007 0 0 0 0 18.9060144049472 -11.900551768397506 0 -11.900551768397506 -10.95780473103855 0 0 0 0 -8.5204173355705279 -4.583701157253472 0 -4.583701157253472 1.4036372450951831 0 0 0 0 1.0425607318979608 -0.36814962728123568 0 -0.36814962728123568 -0.16017357884666861 0 0 0 0 -6.3472256984550768 -8.39750375560061 0 -8.39750375560061 0.98646955458673347 0 0 0 0 -12.128507826264013 -8.0416293555482525 0 -8.0416293555482525 2.4445605285000056 0 0 0 0 -10.710496635992513 -13.650766046392377 0 -13.650766046392377 24.182050808531244 0 0 0 0 3.5103541772502016 1.0693147321175704 0 1.0693147321175704 0.039661530631879049 0 0 0 0 -3.5706178629916394 -3.833751959060578 0 -3.833751959060578 0.5455575336653169 0 0 0 0 -0.9744163693325163 -0.065113137104572338 0 -0.065113137104572338 -0.72559226658157638 0 0 0 0 -8.3896754119941761 3.9670130158928316 0 3.9670130158928316 -8.8750216561466004 0 0 0 0 80.212663710972265 -2.1569155223900793 0 -2.1569155223900793 -57.664553760856464 0 0 0 0 11.590202094801292 -0.52892710814775867 0 -0.52892710814775867 -2.3744271446280139 0 0 0 0 10.224157798551946 -1.2784734573241678 0 -1.2784734573241678 -1.3662091239305791 0 0 0 0 -4.0372458971487504 -28.086903457003245 0 -28.086903457003245 -13.608137421327115 0 0 0 0 -7.1822351637952124 -15.190104078143975 0 -15.190104078143975 -18.116996163209024 0 0 0 0 6.805007408520396 -1.4387299989521125 0 -1.4387299989521125 -2.9042993647785806 0 0 0 0 6.2845900077956074 -2.6860161127413575 0 -2.6860161127413575 -1.4531389444082676 0 0 0 0 103.75435518304585 30.789173919565712 0 30.789173919565712 -36.378784040796404 0 0 0 0 58.580790867366886 36.062878567712616 0 36.062878567712616 37.411578631401781 0 0 0 0 -22.325321158488805 13.640230401519915 0 13.640230401519915 43.316606014872264 0 0 0 0 5.5803356126234576 -48.298700617941591 0 -48.298700617941591 -22.470406891889354 0 0 0 0 15.323454790427199 -2.8605970222972559 0 -2.8605970222972559 -3.4600043225133708 0 0 0 0 33.705695762888354 -2.3571759789361408 0 -2.3571759789361408 2.4145983633842434 0 0 0 0 -16.178275780021295 -46.727409643401941 0 -46.727409643401941 20.470953636221623 0 0 0 0 -0.022999969965894707 -12.819492315422977 0 -12.819492315422977 4.3205725824491168 0 0 0 0 22.700466489612154 -25.48836190162865 0 -25.48836190162865 -4.0716640212243078 0 0 0 0 11.711539236956014 -16.914131994625976 0 -16.914131994625976 25.911125743714365 0 0 0 0 27.762874647494755 -2.9152607440713041 0 -2.9152607440713041 2.4490086722423925 0 0 0 0 33.448690055296538 14.7417965701746 0 14.7417965701746 31.297095720072207 0 0 0 0 31.073596645383077 36.80612517558685 0 36.80612517558685 23.882110931914333 0 0 0 0 138.32196720152933 120.81253141168759 0 120.81253141168759 -6.6581401411087455 0 0 0 0 50.330529454768111 2.0615096770173977 0 2.0615096770173977 28.914443418476928 0 0 0 0 127.03740018946701 26.357102997554314 0 26.357102997554314 8.7677852542645383 0 0 0 0 107.55528753111867 56.277375411978468 0 56.277375411978468 3.7630497551492681 0 0 0 0 -17.26257630631244 -0.85800596408932961 0 -0.85800596408932961 24.028027135432865 0 0 0 0 4.3055227437089343 5.4121393229585237 0 5.4121393229585237 6.2919622617635014 0 0 0 0 0.79467192098540806 2.2401958274354072 0 2.2401958274354072 2.4561810813566889 0 0 0 0 3.8984454766378036 1.6193243419147372 0 1.6193243419147372 -2.4048802812538677 0 0 0 0 13.695750681454228 39.308757266231623 0 39.308757266231623 61.599314209988897 0 0 0 0 42.663792156468844 5.1219723555044538 0 5.1219723555044538 -11.38758650874729 0 0 0 0 17.647343976003867 21.252243907701768 0 21.252243907701768 18.559025523510627 0 0 0 0 0.70862227686333057 2.5642699209782736 0 2.5642699209782736 1.8439410010030481 0 0 0 0 14.976533237057083 11.967369866269394 0 11.967369866269394 6.6111022857807029 0 0 0 0 9.2219019565577973 5.0240639765850181 0 5.0240639765850181 0.23689215021239918 0 0 0 0 18.234809783351011 12.052554439942469 0 12.052554439942469 4.8737759816378841 0 0 0 0 -3.303337504946791 3.7634720429444961 0 3.7634720429444961 6.8540428324520652 0 0 0 0 7.7741584765244625 6.1936768790227745 0 6.1936768790227745 3.4160556939960856 0 0 0 0 7.2960598862579253 2.4014206207452791 0 2.4014206207452791 -0.52872310617504836 0 0 0 0 11.277745702685934 -20.599316942115962 0 -20.599316942115962 -21.97873037642367 0 0 0 0 -3.265601798496391 28.382086393250777 0 28.382086393250777 30.93726691431317 0 0 0 0 24.235455913210899 21.677959083566861 0 21.677959083566861 8.2653053010427584 0 0 0 0 4.8504683010689931 0.24543890876669217 0 0.24543890876669217 1.8212923358825133 0 0 0 0 23.577172701541713 -2.4088980588208955 0 -2.4088980588208955 -5.8453371884062264 0 0 0 0 31.713894107255328 -0.33942966861451396 0 -0.33942966861451396 -7.3250455472905145 0 0 0 0 29.520084753106858 -6.4752243782494361 0 -6.4752243782494361 -4.8106772125560724 0 0 0 0 3.1351673886360967 5.3611486617171469 0 5.3611486617171469 0.1613129213776775 0 0 0 0 11.364516996542456 4.884134591504993 0 4.884134591504993 -0.88611871416671839 0 0 0 0 25.175574219974806 4.0284859110756983 0 4.0284859110756983 -3.2050147449157578 0 0 0 0 14.45251825779269 9.7337077899951225 0 9.7337077899951225 5.9760121673331241 0 0 0 0 13.301255855463602 3.6640324767008292 0 3.6640324767008292 -2.3142176621105532 0 0 0 0 15.226803277943102 4.590065441253171 0 4.590065441253171 -1.0941325615437707 0 0 0 0 7.5168815947060921 5.2232897850460693 0 5.2232897850460693 -0.44438888704507917 0 0 0 0 13.964023755385114 4.7916420923672618 0 4.7916420923672618 0.030654619740264177 0 0 0 0 24.821389935943444 5.712852763245337 0 5.712852763245337 -5.027899357070055 0 0 0 0 15.692240144398966 -1.3336651170116056 0 -1.3336651170116056 -1.7228458904569379 0 0 0 0 26.614563007824472 -0.86211384773196187 0 -0.86211384773196187 -2.1539200469419484 0 0 0 0 32.011744800942324 5.413850640229839 0 5.413850640229839 -5.086933772615339 0 0 0 0 16.931323067888833 4.1792257222405915 0 4.1792257222405915 -0.91856855940561155 0 0 0 0 21.816062946076272 6.2889589295846235 0 6.2889589295846235 -6.3386871947571422 0 0 0 0 2.4226793295713556 1.9851888339372605 0 1.9851888339372605 -0.059393980113370937 0 0 0 0 21.628916028936146 3.2597000295816088 0 3.2597000295816088 -9.9350333182242139 0 0 0 0 27.545825856177544 5.3475160126990886 0 5.3475160126990886 -6.6451105393157377 0 0 0 0 21.526278027648004 4.3735429352884694 0 4.3735429352884694 -2.4659815017494111 0 0 0 0 26.951274823513813 8.7029376167603232 0 8.7029376167603232 0.98799830530333566 0 0 0 0 16.530417056256738 8.0842375343314643 0 8.0842375343314643 2.4625436318242464 0 0 0 0 22.181810440129993 12.857704593688936 0 12.857704593688936 8.2248880710263848 0 0 0 0 25.34194996059432 13.363361047029059 0 13.363361047029059 5.5855785513223282 0 0 0 0 29.709959468618763 7.0953873106493006 0 7.0953873106493006 1.5558728317097916 0 0 0 0 33.859375052767064 12.891980555207184 0 12.891980555207184 7.3115572279112584 0 0 0 0 30.441153661935459 9.3165459432625397 0 9.3165459432625397 12.41063776304189 0 0 0 0 42.193448453683231 5.8236749317388785 0 5.8236749317388785 -2.018220853172366 0 0 0 0 3.2765399754067119 -0.099716640764226483 0 -0.099716640764226483 -0.013908773608324321 0 0 0 0 33.030558859414668 12.745168995408996 0 12.745168995408996 7.7585194285776993 0 0 0 0 9.2975183548726292 10.480958820964537 0 10.480958820964537 -1.2348965731830504 0 0 0 0 21.186250922455429 14.548449490647869 0 14.548449490647869 10.83703305528752 0 0 0 0 23.852633047855306 19.704428645817885 0 19.704428645817885 17.830162460618624 0 0 0 0 15.79602527372117 21.909879864423829 0 21.909879864423829 22.530837220886497 0 0 0 0 40.481478033136227 17.466576242568621 0 17.466576242568621 14.778940995902559 0 0 0 0 1.9758823501916982 -1.0451404180976294 0 -1.0451404180976294 0.4466768311943492 0 0 0 0 5.5933929595885274 2.605285960399641 0 2.605285960399641 -0.51780662984037917 0 0 0 0 7.7704529024388407 4.0585681657594916 0 4.0585681657594916 0.048411101939303647 0 0 0 0 5.2962760811897169 5.6915381955943118 0 5.6915381955943118 -0.016597245134477134 0 0 0 0 10.408256527707636 9.9682432663539942 0 9.9682432663539942 14.141596451676833 0 0 0 0 13.837093520626354 0.43825436548655716 0 0.43825436548655716 -4.3376665377251733 0 0 0 0 12.683413283448317 8.2740132695797968 0 8.2740132695797968 -0.059507261401517741 0 0 0 0 31.192831062895493 13.035680583558928 0 13.035680583558928 -0.11313270753680627 0 0 0 0 -2.7062890143187239 4.5356484267624886 0 4.5356484267624886 6.1046421375020063 0 0 0 0 14.301777119133476 -0.61114310922650361 0 -0.61114310922650361 -4.2043749631657477 0 0 0 0 19.835909658604578 -1.9807060599961517 0 -1.9807060599961517 -3.9336728812929209 0 0 0 0 12.816200350632243 28.668723575330375 0 28.668723575330375 12.364435224389581 0 0 0 0 21.827267854506658 15.330258952918079 0 15.330258952918079 8.2556537576219853 0 0 0 0 19.757054554335809 5.951047875154984 0 5.951047875154984 -5.6793097891489879 0 0 0 0 37.38976455795455 -14.39551049962779 0 -14.39551049962779 -9.9729429652595627 0 0 0 0 22.715964420355704 -39.143180829701805 0 -39.143180829701805 -46.467319149990487 0 0 0 0 19.301143535394658 -12.850873043779075 0 -12.850873043779075 -9.7847650248463083 0 0 0 0 4.3284294197783311 -7.7645843041982516 0 -7.7645843041982516 -49.128535696120593 0 0 0 0 0.093806698470636718 -0.078236957653180284 0 -0.078236957653180284 0.10362175172001975 0 0 0 0 55.701075547711298 42.036803741450967 0 42.036803741450967 17.277300224942223 0 0 0 0 68.295219729158816 3.3448131154038876 0 3.3448131154038876 -10.326977420848948 0 0 0 0 22.211286794954503 -4.0856048405867682 0 -4.0856048405867682 5.1599170263862675 0 0 0 0 15.203644113691553 3.1725547726626289 0 3.1725547726626289 2.0667073866163719 0 0 0 0 12.890898735453447 -3.0613559766654816 0 -3.0613559766654816 4.0223068366565826 0 0 0 0 15.431307867861506 -0.47896016202673763 0 -0.47896016202673763 -1.9313490502278228 0 0 0 0 26.115755973781233 2.6054658027906896 0 2.6054658027906896 -4.4894170155016013 0 0 0 0 17.088770571937857 -1.332527221291798 0 -1.332527221291798 -5.9252542469998843 0 0 0 0 18.69752176032307 5.068982548307531 0 5.068982548307531 -1.428183720482707 0 0 0 0 27.916372758815669 9.0821695532834497 0 9.0821695532834497 -0.68122265185297692 0 0 0 0 22.273779675884725 4.7877001612207266 0 4.7877001612207266 1.3079551027630032 0 0 0 0 44.902962740806288 10.654482439090032 0 10.654482439090032 -1.6693474425277373 0 0 0 0 25.796452157361273 18.079404350288428 0 18.079404350288428 20.936351063848129 0 0 0 0 25.070333935168037 14.975260340351731 0 14.975260340351731 7.7861283791833102 0 0 0 0 20.229863230282717 12.409422266602348 0 12.409422266602348 7.639945840979248 0 0 0 0 1.1266056477335198 0.1033601843484746 0 0.1033601843484746 0.23223972962132189 0 0 0 0 -0.77265022085640211 2.1333534345523102 0 2.1333534345523102 1.7407668355032202 0 0 0 0 19.451137297149216 10.001486796865265 0 10.001486796865265 2.4838808231897929 0 0 0 0 19.429747652690708 11.109845854074567 0 11.109845854074567 1.4726010082433731 0 0 0 0 12.290505692018996 8.0915566184841623 0 8.0915566184841623 4.8916629760971091 0 0 0 0 12.261734081769646 3.167713423851108 0 3.167713423851108 0.68658575791721432 0 0 0 0 4.9601029504922707 -0.30920369311458096 0 -0.30920369311458096 -3.0848999292277046 0 0 0 0 12.338896563840535 -21.914140048570232 0 -21.914140048570232 -21.195991497387922 0 0 0 0 -4.9183411709727807 12.7350026528174 0 12.7350026528174 -2.5002832156196462 0 0 0 0 0.62355471997034329 -26.73363486158712 0 -26.73363486158712 11.258064681314067 0 0 0 0 63.789017287632269 -14.546215945196998 0 -14.546215945196998 -5.0375586058030422 0 0 0 0 60.92747846263228 90.048806596463919 0 90.048806596463919 8.1857045063250311 0 0 0 0 4.6514982284152211 4.1939978129206565 0 4.1939978129206565 -3.1882948927122925 0 0 0 0 0.79974357134517327 0.56207981962271703 0 0.56207981962271703 -0.67117684375166675 0 0 0 0 -29.733935102259693 -23.368634163084195 0 -23.368634163084195 24.377341711181202 0 0 0 0 95.651632112811058 101.68357844141281 0 101.68357844141281 -9.4084682069201904 0 0 0 0 -51.380375251686928 0.35660416860304167 0 0.35660416860304167 8.799294237078584 0 0 0 0 103.67906227873391 -6.2339985402230127 0 -6.2339985402230127 -3.9555665533525257 0 0 0 0 0.68794240726288436 -0.17513783021949614 0 -0.17513783021949614 -0.19807156490182853 0 0 0 0 -22.008612251104296 -48.606897992128978 0 -48.606897992128978 -64.985467757784477 0 0 0 0 -12.263885051394027 -13.86093332461769 0 -13.86093332461769 -29.836615454999617 0 0 0 0 -7.3014356050298375 -15.603723625631801 0 -15.603723625631801 -36.471322337912284 0 0 0 0 -11.15989681197243 -16.270091665918585 0 -16.270091665918585 -25.066907381457554 0 0 0 0 -3.2357545283393847 -13.30968124719459 0 -13.30968124719459 -27.674194922250877 0 0 0 0 -5.554706140572307 -18.890897513623855 0 -18.890897513623855 -30.876831088770587 0 0 0 0 1.3695793459785932 0.014776341825319506 0 0.014776341825319506 -0.21193817847442542 0 0 0 0 -10.61969431986563 -19.476065550740927 0 -19.476065550740927 -21.176881075766801 0 0 0 0 -4.7466711831557404 -16.791676043721679 0 -16.791676043721679 -29.814231696381626 0 0 0 0 1.2459186063950902 -1.0597187365982847 0 -1.0597187365982847 0.086080427745579779 0 0 0 0 -12.110307338584789 -26.628172940009392 0 -26.628172940009392 -36.103870340145427 0 0 0 0 63.649777382992596 47.597341153714865 0 47.597341153714865 10.323350768988462 0 0 0 0 16.078241161476114 12.471895477084043 0 12.471895477084043 17.045522399819788 0 0 0 0 26.715987846907865 0.34060413360890607 0 0.34060413360890607 -10.263996683263656 0 0 0 0 30.643463684264816 13.780984546781241 0 13.780984546781241 -0.73674635219424545 0 0 0 0 6.0524912295992319 -0.57774478103763549 0 -0.57774478103763549 0.47136860914317169 0 0 0 0 19.56021541015798 -15.233599795072053 0 -15.233599795072053 -20.866874372915561 0 0 0 0 19.845806079625277 -13.738243726341892 0 -13.738243726341892 -47.960010740970461 0 0 0 0 21.207782481283289 22.159942659710509 0 22.159942659710509 -9.8197418537046133 0 0 0 0 22.673302099728637 3.8284519655138527 0 3.8284519655138527 -0.86984080979303391 0 0 0 0 25.006350502066198 16.765669812481775 0 16.765669812481775 -35.132748990260779 0 0 0 0 58.539853077809312 -35.672995413349611 0 -35.672995413349611 -35.704052530931335 0 0 0 0 92.942327714257772 -53.614848037984245 0 -53.614848037984245 12.457405338722538 0 0 0 0 -6.818067375429564 -37.242333096128391 0 -37.242333096128391 -20.053036569800099 0 0 0 0 71.485273648133443 -11.927750279671272 0 -11.927750279671272 19.962731121369188 0 0 0 0 0.076684958388554492 -0.14534775251563126 0 -0.14534775251563126 0.12244428528711593 0 0 0 0 -13.003586391005229 14.07445790905814 0 14.07445790905814 14.166266153739912 0 0 0 0 4.758879292174754 -0.62202219223091104 0 -0.62202219223091104 -0.22267921844757643 0 0 0 0 -2.3129891456283076 12.90230146292302 0 12.90230146292302 -13.107980473503005 0 0 0 0 1.8889735971134414 0.22815136382710755 0 0.22815136382710755 -0.033084161092492237 0 0 0 0 53.708004958454694 -45.340983120461033 0 -45.340983120461033 24.579918807427134 0 0 0 0 81.853015835429687 127.20476810126627 0 127.20476810126627 168.77625878123567 0 0 0 0 74.482276352775443 61.476866993191862 0 61.476866993191862 39.179140548780211 0 0 0 0 98.967641096387524 46.317552677294302 0 46.317552677294302 -32.733506183069593 0 0 0 0 34.761849408439048 35.641079127094486 0 35.641079127094486 54.445860643039396 0 0 0 0 31.729657461841271 36.575704027886957 0 36.575704027886957 68.65753163628257 0 0 0 0 46.302270692593993 24.583293257144383 0 24.583293257144383 30.097846978716404 0 0 0 0 47.699880086167923 25.976643415683405 0 25.976643415683405 11.826948209587641 0 0 0 0 78.88633155820753 -1.6908633854365576 0 -1.6908633854365576 -34.813887675099764 0 0 0 0 79.965401793599085 8.4048107006331634 0 8.4048107006331634 16.031474304325229 0 0 0 0 26.353477188891702 -49.422988947344038 0 -49.422988947344038 13.812332786090508 0 0 0 0 71.150293146954937 -32.589339771159985 0 -32.589339771159985 -55.106291581305641 0 0 0 0 56.245557928742528 -13.737871668219896 0 -13.737871668219896 -74.086301023588248 0 0 0 0 15.243653947723956 -0.11700200451342724 0 -0.11700200451342724 -0.53622217865744393 0 0 0 0 33.714275977690704 11.178119584537171 0 11.178119584537171 -24.15022492752955 0 0 0 0 13.286673497164884 27.033854441454594 0 27.033854441454594 22.932537728704233 0 0 0 0 30.658925569779967 23.041445482917482 0 23.041445482917482 -44.92773252872712 0 0 0 0 11.805898100228511 0.7005792408059377 0 0.7005792408059377 -0.13353096607745707 0 0 0 0 18.636412739861044 23.643047710140181 0 23.643047710140181 32.151969356147504 0 0 0 0 41.960791752529985 0.55603996189609006 0 0.55603996189609006 29.597854548355826 0 0 0 0 27.643367570239207 30.212693664667597 0 30.212693664667597 19.385641785941857 0 0 0 0 22.892908122153131 33.272340019645242 0 33.272340019645242 28.618965198286787 0 0 0 0 9.8782238741259789 16.641740932674338 0 16.641740932674338 16.162860491061792 0 0 0 0 12.338688773541207 33.618647285632463 0 33.618647285632463 25.188113976068507 0 0 0 0 28.394625645103588 39.338220369877604 0 39.338220369877604 19.485660537480044 0 0 0 0 7.5034222121622918 0.68155572155119293 0 0.68155572155119293 -0.087314103563902901 0 0 0 0 39.988773512643093 39.357031159416579 0 39.357031159416579 4.6051723398486502 0 0 0 0 33.778020789090078 38.169049454145608 0 38.169049454145608 21.364019203147905 0 0 0 0 36.719016295443907 36.438625814362425 0 36.438625814362425 11.699996405001912 0 0 0 0 35.296849548004502 24.29704335108498 0 24.29704335108498 21.584752222061525 0 0 0 0 27.912197932815616 25.410021382950372 0 25.410021382950372 36.02643185295058 0 0 0 0 28.709406336316533 31.083370387633849 0 31.083370387633849 39.44034371378288 0 0 0 0 27.962979127260041 27.332988689463413 0 27.332988689463413 30.894417530922123 0 0 0 0 25.590096237405305 24.95860912942868 0 24.95860912942868 42.552643625088436 0 0 0 0 6.2702729781381272 -2.5789937172496504 0 -2.5789937172496504 0.60735937834814246 0 0 0 0 -6.5117121840848995 -7.7279807508775207 0 -7.7279807508775207 1.974825284550775 0 0 0 0 25.840563212679626 24.720184921368798 0 24.720184921368798 36.119873741962117 0 0 0 0 0.87501442015628328 -1.0966824587068071 0 -1.0966824587068071 0.30403112824505285 0 0 0 0 3.3665035305657511 -12.25225122472898 0 -12.25225122472898 41.40696476727544 0 0 0 0 36.783685254129523 -8.4847425810063442 0 -8.4847425810063442 -52.476181526190999 0 0 0 0 0.31319920627501574 -0.21695587651852044 0 -0.21695587651852044 0.0791069287829127 0 0 0 0 -0.8944917133085255 4.1366935924265817 0 4.1366935924265817 20.916235063791191 0 0 0 0 0.27617392923093576 8.4564403088974416 0 8.4564403088974416 4.745799928557517 0 0 0 0 35.413762858673635 -15.486096626856046 0 -15.486096626856046 10.618406695910835 0 0 0 0 18.847715663830968 -16.734044085541996 0 -16.734044085541996 15.294175140656876 0 0 0 0 20.524230736265963 -1.6471157599186199 0 -1.6471157599186199 20.023157497000284 0 0 0 0 37.494251314557914 -34.974688020512417 0 -34.974688020512417 20.077384036686112 0 0 0 0 23.36628066256344 12.214400593878963 0 12.214400593878963 -20.05885016477896 0 0 0 0 20.307772410631515 -24.050254167770333 0 -24.050254167770333 2.2873266039816826 0 0 0 0 13.80133969169971 -0.83021720151842437 0 -0.83021720151842437 -4.5370418515329387 0 0 0 0 24.865599913784536 1.6639211683550457 0 1.6639211683550457 -1.9547237025702771 0 0 0 0 59.906165237565347 5.0157736333748915 0 5.0157736333748915 -3.0248255204130601 0 0 0 0 4.0049461713952041 3.4889449328377395 0 3.4889449328377395 -8.5016224805138734 0 0 0 0 33.488714255599916 1.8130546421591589 0 1.8130546421591589 -9.6251105968178763 0 0 0 0 8.2587134453624458 -28.936167167039798 0 -28.936167167039798 -6.4937449574315451 0 0 0 0 -2.1878423524103709 -15.133139868072476 0 -15.133139868072476 -0.87485720164454506 0 0 0 0 9.2971198446044347 -5.4482327508804218 0 -5.4482327508804218 1.7516172638773058 0 0 0 0 37.706870134479686 21.821027774814524 0 21.821027774814524 6.9482144152050296 0 0 0 0 18.22948822383114 -18.051987885055382 0 -18.051987885055382 6.2604136907791599 0 0 0 0 16.066314803072601 -27.958587215400485 0 -27.958587215400485 16.278910096079613 0 0 0 0 14.044709224534017 -13.480763036305461 0 -13.480763036305461 -14.332997722399455 0 0 0 0 35.859345146191572 23.471146027569006 0 23.471146027569006 6.0636008629303433 0 0 0 0 51.265954559676175 32.785784218824574 0 32.785784218824574 5.4494041380866918 0 0 0 0 48.208891129783296 23.299943834693977 0 23.299943834693977 -19.550812890105817 0 0 0 0 20.033358676999342 -9.1794368369214681 0 -9.1794368369214681 28.51674819479922 0 0 0 0 -18.619662670484104 43.541101700971808 0 43.541101700971808 -69.314685560962971 0 0 0 0 1.5655462808575535 -1.2083767791788915 0 -1.2083767791788915 -0.90811964309806137 0 0 0 0 58.796189949975087 43.242964764039471 0 43.242964764039471 -23.826351945522447 0 0 0 0 52.873711032814754 36.200779262586479 0 36.200779262586479 -12.643642928927648 0 0 0 0 36.914783186890418 -13.790343912087451 0 -13.790343912087451 -67.451292023177302 0 0 0 0 55.374736661964562 58.076237965311293 0 58.076237965311293 16.556831702195723 0 0 0 0 3.6293003074479202 127.21162081072634 0 127.21162081072634 228.23427639022418 0 0 0 0 2.6074646094375353 0.3808421448265662 0 0.3808421448265662 0.0698572021595181 0 0 0 0 30.253861319404677 32.267303834097788 0 32.267303834097788 43.263828357746661 0 0 0 0 77.612760744665138 103.7164646235176 0 103.7164646235176 45.255278545009332 0 0 0 0 27.33987392423478 41.449280034784465 0 41.449280034784465 117.62738469577232 0 0 0 0 219.11299368399341 148.19486308758871 0 148.19486308758871 -32.198038539312847 0 0 0 0 70.325111639242095 -23.890728796524172 0 -23.890728796524172 -130.85102480408659 0 0 0 0 126.56187036853044 38.91324304815879 0 38.91324304815879 -75.02855328354417 0 0 0 0 8.6484763290845876 5.773865829872193 0 5.773865829872193 -13.56752912318052 0 0 0 0 9.3751709607677185 17.981942217721098 0 17.981942217721098 -15.551818078895167 0 0 0 0 17.653844792490418 -71.962105900653341 0 -71.962105900653341 -100.33851507533041 0 0 0 0 1.762951817189478 2.0071707650306472 0 2.0071707650306472 -2.9328835127401778 0 0 0 0 -32.693628785214969 -18.651589063523033 0 -18.651589063523033 -41.055545944065216 0 0 0 0 -2.4345279790868517 -30.922178566573166 0 -30.922178566573166 -51.39587586471589 0 0 0 0 4.7915729576043304 4.9591824949550869 0 4.9591824949550869 9.083496710452664 0 0 0 0 4.0332546104436915 16.797670345288566 0 16.797670345288566 -1.9896975088287263 0 0 0 0 53.109085059377321 0.73706278505699174 0 0.73706278505699174 3.5047995106635881 0 0 0 0 -46.983385454819654 -181.06248613301352 0 -181.06248613301352 31.94315603376549 0 0 0 0 -0.5826471325325997 0.090280848627077859 0 0.090280848627077859 0.084122314902733919 0 0 0 0 37.864229434614572 -35.352466787627478 0 -35.352466787627478 14.608907083597614 0 0 0 0 39.658829458359833 -29.79169782106942 0 -29.79169782106942 1.7874184609300769 0 0 0 0 14.651856499624046 -10.903880648817221 0 -10.903880648817221 22.816018880035159 0 0 0 0 35.752573863242105 7.6705200094852941 0 7.6705200094852941 -18.801884083989307 0 0 0 0 34.472350997541071 2.7504634626222355 0 2.7504634626222355 -23.094835130560909 0 0 0 0 2.6885447514323459 -4.3049210948301493 0 -4.3049210948301493 4.2926960985207643 0 0 0 0 15.424576326062379 -12.989893569928768 0 -12.989893569928768 -5.0926701062217603 0 0 0 0 14.247518581802069 6.1618388852904218 0 6.1618388852904218 -15.421581046651625 0 0 0 0 12.572980253922811 -0.96041519267975417 0 -0.96041519267975417 -5.0294178153387277 0 0 0 0 16.984444596479079 -5.4627458678913712 0 -5.4627458678913712 5.8333392256524803 0 0 0 0 18.214979512700666 1.261563070903847 0 1.261563070903847 1.6573775072926651 0 0 0 0 93.834133602766087 12.422808474381895 0 12.422808474381895 -6.1388411600328823 0 0 0 0 0.1559335619194826 -0.3849483177614843 0 -0.3849483177614843 0.36803600291653837 0 0 0 0 7.7535195309758365 -19.293815851471912 0 -19.293815851471912 40.763024357085897 0 0 0 0 25.799223902282392 -27.94099005456269 0 -27.94099005456269 1.9035844720865676 0 0 0 0 -6.742824102272607 -9.9517028818993367 0 -9.9517028818993367 27.675428603412911 0 0 0 0 89.079316856033984 71.933505819695597 0 71.933505819695597 77.7446744782103 0 0 0 0 103.04928061796818 0.013315334803621681 0 0.013315334803621681 19.953243655189596 0 0 0 0 93.960124993547652 16.097843324247549 0 16.097843324247549 4.6529393553669252 0 0 0 0 72.614480913065563 -7.1854917890805154 0 -7.1854917890805154 -19.004110374131869 0 0 0 0 175.7429782521358 27.410142102213968 0 27.410142102213968 -31.076063827656071 0 0 0 0 -4.3424100352040114 -20.626214468854243 0 -20.626214468854243 -12.028782813416228 0 0 0 0 84.893726138252532 -34.980369414503002 0 -34.980369414503002 -57.925452781435354 0 0 0 0 42.642865939244075 -23.470933545308583 0 -23.470933545308583 -2.5836173953980506 0 0 0 0 74.286280678670664 -10.991988900354059 0 -10.991988900354059 -15.452039918147761 0 0 0 0 64.738064208735523 -30.770709414833959 0 -30.770709414833959 0.3675683204824054 0 0 0 0 64.260835773298822 -15.060414839852001 0 -15.060414839852001 -7.2211534958797756 0 0 0 0 76.063916928030721 -33.892223807199457 0 -33.892223807199457 3.7755030976445596 0 0 0 0 64.215694909740705 -18.329955952628552 0 -18.329955952628552 28.359593158974064 0 0 0 0 70.508157654076058 -30.156745755408252 0 -30.156745755408252 -7.5833251542812548 0 0 0 0 72.453552348277299 -26.927994720854088 0 -26.927994720854088 -8.7967107506183311 0 0 0 0 71.755446342549476 -24.025514024003272 0 -24.025514024003272 -10.033050019827947 0 0 0 0 52.341968712408743 -15.457190150038556 0 -15.457190150038556 -9.8275186419014062 0 0 0 0 40.821416931743443 0.57298227597382834 0 0.57298227597382834 -10.90683218016224 0 0 0 0 46.28462731554464 -16.92582826288421 0 -16.92582826288421 -2.483237163222725 0 0 0 0 39.48831975754365 4.8709672752664801 0 4.8709672752664801 -17.152087397151149 0 0 0 0 29.860993030598365 4.5143977553637171 0 4.5143977553637171 -18.547924795375479 0 0 0 0 24.318723871801922 1.383562306467411 0 1.383562306467411 -12.066081556530207 0 0 0 0 15.027287564504149 15.025014803051874 0 15.025014803051874 -60.028517820591915 0 0 0 0 4.7230591284733237 0.33123023598199097 0 0.33123023598199097 -19.146071890055509 0 0 0 0 7.0950413357286379 16.652359700478939 0 16.652359700478939 -23.528030160588742 0 0 0 0 14.448684750277607 9.6320950839190118 0 9.6320950839190118 -11.886602737950795 0 0 0 0 19.553297946847124 18.741105680278167 0 18.741105680278167 -10.225784635527589 0 0 0 0 11.69318240845314 23.727740070101618 0 23.727740070101618 -5.2551835179629052 0 0 0 0 5.4578796318455716 17.720019162042263 0 17.720019162042263 1.5643850634107821 0 0 0 0 9.8010361242686486 23.050085507922063 0 23.050085507922063 -5.0054866995392331 0 0 0 0 6.4408288713675574 9.6767196326366047 0 9.6767196326366047 -14.075537067689709 0 0 0 0 17.43989128036992 12.707205615980286 0 12.707205615980286 -16.854936430075441 0 0 0 0 0.55118501265133091 6.7402013541948804 0 6.7402013541948804 -11.181177422820156 0 0 0 0 15.43822256472049 2.8369936066566197 0 2.8369936066566197 -47.782675438971381 0 0 0 0 22.200869337542827 2.2668246738228959 0 2.2668246738228959 5.6144380417342745 0 0 0 0 25.316040990719557 0.20588679441249269 0 0.20588679441249269 -18.570547165682854 0 0 0 0 2.6249605475983273 1.85491380185133 0 1.85491380185133 -0.71141792970143358 0 0 0 0 9.2688009972889631 21.196238428294834 0 21.196238428294834 12.305346348642615 0 0 0 0 13.759852938683252 31.086621556460045 0 31.086621556460045 1.9148684158439551 0 0 0 0 -20.508963366659373 -21.913862017013486 0 -21.913862017013486 -42.665724743940814 0 0 0 0 -0.33048998936025953 0.37586184726557903 0 0.37586184726557903 -0.61103225188021915 0 0 0 0 13.801723016502365 31.136827075527208 0 31.136827075527208 -14.319141599680734 0 0 0 0 -39.955457050502446 14.136293811253012 0 14.136293811253012 66.559481685154623 0 0 0 0 -0.027848618337543485 0.081787127523668346 0 0.081787127523668346 -0.042079144731738405 0 0 0 0 39.541800409000643 18.544296494915613 0 18.544296494915613 -32.041054537072711 0 0 0 0 39.41698981686568 13.268849017143452 0 13.268849017143452 -67.301683613969573 0 0 0 0 11.676238085990917 19.008098724673204 0 19.008098724673204 -2.1195660761886188 0 0 0 0 -3.4516051210166552 21.535784258137546 0 21.535784258137546 -0.72122855858361845 0 0 0 0 36.59064590692833 25.488785962536724 0 25.488785962536724 -23.271325978840949 0 0 0 0 20.643577174193979 -10.966126080139567 0 -10.966126080139567 -64.037557150359987 0 0 0 0 49.420768014702844 12.312093418869992 0 12.312093418869992 -19.336504418119659 0 0 0 0 15.012280246967748 30.951014874127971 0 30.951014874127971 14.074339182982442 0 0 0 0 20.951186903574126 35.343440388585257 0 35.343440388585257 6.2970982889529239 0 0 0 0 21.704657612255687 40.779972638033563 0 40.779972638033563 12.176925216091888 0 0 0 0 28.849384810477204 29.525042823922462 0 29.525042823922462 12.961721349558431 0 0 0 0 79.32185509982537 6.6624889845262159 0 6.6624889845262159 14.624940253934433 0 0 0 0 39.14941402279419 36.30003512404577 0 36.30003512404577 -0.052829922011587219 0 0 0 0 37.533826374321507 23.688958610027548 0 23.688958610027548 14.552385686682946 0 0 0 0 39.495582964542336 26.539944093312918 0 26.539944093312918 18.673445056690142 0 0 0 0 112.65447763811062 13.863876314613293 0 13.863876314613293 -3.5241140509446751 0 0 0 0 111.14036107043285 24.597712034927543 0 24.597712034927543 0.29103705327115237 0 0 0 0 223.30758485391334 -98.437145085593869 0 -98.437145085593869 38.166082901399747 0 0 0 0 82.081493734771811 -40.492238016860114 0 -40.492238016860114 34.724289047174281 0 0 0 0 38.886670331838104 0.22013900527377928 0 0.22013900527377928 0.20721242321275213 0 0 0 0 70.739968915691406 -11.466910304086205 0 -11.466910304086205 -25.898579815734877 0 0 0 0 28.691430675538868 12.623151358049284 0 12.623151358049284 -5.3537959358671543 0 0 0 0 62.784573920650928 -25.477121020924752 0 -25.477121020924752 2.5732044813195216 0 0 0 0 85.287664579899683 -24.460428418333276 0 -24.460428418333276 0.7126538934903861 0 0 0 0 84.740171714952353 -56.418118486138859 0 -56.418118486138859 28.777420130832297 0 0 0 0 53.087720286138392 -28.410890165804275 0 -28.410890165804275 5.3636734934108361 0 0 0 0 -1.970002873271369 1.4805681455769397 0 1.4805681455769397 -0.0024177708256519228 0 0 0 0 0.89658049757964164 0.16173166895469748 0 0.16173166895469748 -0.027878088526220104 0 0 0 0 -1.7347887693413213 1.2472893486193164 0 1.2472893486193164 -0.21053402992482306 0 0 0 0 2.1601455559746441 0.82938285888476848 0 0.82938285888476848 0.033227173412091096 0 0 0 0 -5.0897088907222496 7.0560190613192795 0 7.0560190613192795 -1.342898273619497 0 0 0 0 -4.5147349185208441 0.74205120619363107 0 0.74205120619363107 6.4214933002769179 0 0 0 0 -1.2347245104156173 1.6180990365352284 0 1.6180990365352284 0.0013979805694352833 0 0 0 0 6.2146940094189631 -3.2110566204182871 0 -3.2110566204182871 1.5920099159004546 0 0 0 0 9.0864464108326501 0.60667604733852321 0 0.60667604733852321 0.0079522313672839677 0 0 0 0 -3.8634084991772397 12.688862484487354 0 12.688862484487354 -4.7207933761392837 0 0 0 0 -1.6757900169086497 1.0396202492493813 0 1.0396202492493813 10.900479822005572 0 0 0 0 3.0690987817133362 1.569320750520685 0 1.569320750520685 0.36672891619289127 0 0 0 0 53.124887176575811 -14.183344069523724 0 -14.183344069523724 3.9237128866450348 0 0 0 0 -36.031880276385891 14.926959351299494 0 14.926959351299494 12.896626834750755 0 0 0 0 2.1326579536342969 3.8870007216610567 0 3.8870007216610567 0.82491782709195571 0 0 0 0 -26.619356629918911 2.9058200795144273 0 2.9058200795144273 15.982713614966684 0 0 0 0 11.305832518948591 26.893922852033313 0 26.893922852033313 16.579596409555151 0 0 0 0 11.740751765448294 6.6829178107511211 0 6.6829178107511211 -3.9930513864992463 0 0 0 0 4.5328190268762043 -1.4189635255456459 0 -1.4189635255456459 -2.5183119404550069 0 0 0 0 9.6721739579461428 3.1159956004417992 0 3.1159956004417992 -0.11236872983505464 0 0 0 0 8.3768297661081306 1.3843320412054538 0 1.3843320412054538 1.0683434016841034 0 0 0 0 9.1827753275065334 2.0911935657006495 0 2.0911935657006495 -0.26197268268791163 0 0 0 0 8.7697579621526529 1.9635107136130898 0 1.9635107136130898 0.83717017498304358 0 0 0 0 5.2134912535166222 6.2112884909285171 0 6.2112884909285171 2.9965077341456094 0 0 0 0 2.9680209155013308 3.0832626654301762 0 3.0832626654301762 -0.25832452311349297 0 0 0 0 -13.526255457585648 21.142265938336976 0 21.142265938336976 -4.4238586840621963 0 0 0 0 19.258264287604106 13.774743743588417 0 13.774743743588417 -8.4230617595192001 0 0 0 0 12.402517374752279 4.9129285731999914 0 4.9129285731999914 -14.914932611059214 0 0 0 0 22.172519325649773 13.172098435240514 0 13.172098435240514 -7.9331673045247726 0 0 0 0 47.439616945088346 5.1977238167666826 0 5.1977238167666826 -7.180260034569196 0 0 0 0 22.789485161545599 -6.7145542883373821 0 -6.7145542883373821 -6.3193670917266331 0 0 0 0 11.651258133872034 -5.9178012207863162 0 -5.9178012207863162 2.7001826055401921 0 0 0 0 24.514502092592011 -10.486533116534218 0 -10.486533116534218 -0.92498472755539751 0 0 0 0 42.14200642582 -21.523875944834515 0 -21.523875944834515 8.3611207829245302 0 0 0 0 24.775743090416654 -9.1986480378847091 0 -9.1986480378847091 0.11232653964256656 0 0 0 0 14.53954524863002 -9.9869360795864139 0 -9.9869360795864139 13.547390743578916 0 0 0 0 22.458496607353482 -14.94353491789257 0 -14.94353491789257 8.9100232489738573 0 0 0 0 0.15021209306285271 -0.1403704602455349 0 -0.1403704602455349 0.0039656074129599539 0 0 0 0 21.864383572938593 -17.396726190613869 0 -17.396726190613869 23.060151614416668 0 0 0 0 50.298139232050744 -39.960939510628457 0 -39.960939510628457 34.028076769358705 0 0 0 0 20.252552540128818 -17.381870453424682 0 -17.381870453424682 23.097585117738703 0 0 0 0 0.55857758659369239 0.35921321189476885 0 0.35921321189476885 -0.36483177424570645 0 0 0 0 3.1377981632576848 9.9799961911900326 0 9.9799961911900326 24.185334102287484 0 0 0 0 1.0098476234581995 1.9846382510375662 0 1.9846382510375662 -2.2629854068120778 0 0 0 0 1.9451880744246788 0.83862581606222975 0 0.83862581606222975 -2.0564100202433329 0 0 0 0 14.819602620153091 9.4408990636349444 0 9.4408990636349444 5.7739474486027405 0 0 0 0 89.477163279865636 12.008471380050814 0 12.008471380050814 4.9797575697907028 0 0 0 0 12.317808758914907 -11.105237027529398 0 -11.105237027529398 17.518136119483255 0 0 0 0 11.523240052785695 23.441447262364761 0 23.441447262364761 52.091449964848778 0 0 0 0 12.435116899523564 -13.482245672977669 0 -13.482245672977669 58.711482105207836 0 0 0 0 17.144830753273254 -24.249350227201688 0 -24.249350227201688 -5.148800112639691 0 0 0 0 115.99944358879657 -8.6435997185928244 0 -8.6435997185928244 -12.274295059320565 0 0 0 0 48.453729282085988 -2.4081773973994984 0 -2.4081773973994984 -11.789211201599903 0 0 0 0 69.434504486962396 23.158915412048621 0 23.158915412048621 -15.819798672286879 0 0 0 0 44.418566439671849 9.3383428916433502 0 9.3383428916433502 -13.125411481214115 0 0 0 0 44.5486568651977 -3.8303202825634344 0 -3.8303202825634344 -28.522273364537426 0 0 0 0 26.91563407137437 10.192224777197595 0 10.192224777197595 -18.416474346701733 0 0 0 0 0.95551929175043548 2.4200090481019387 0 2.4200090481019387 -1.954310211739235 0 0 0 0 24.667404132500451 9.2257637151248062 0 9.2257637151248062 0.42251686074479267 0 0 0 0 -0.16829326440315384 1.0711708363725916 0 1.0711708363725916 -0.20903349840600433 0 0 0 0 19.555966555795749 5.2911213454967907 0 5.2911213454967907 0.10634879016567744 0 0 0 0 29.804448378108646 34.532796037482257 0 34.532796037482257 -0.14861488279916557 0 0 0 0 63.498936106603651 41.119565176971577 0 41.119565176971577 -1.3362808461561713 0 0 0 0 44.418508594288141 12.329975376453035 0 12.329975376453035 -18.846088427190907 0 0 0 0 34.690241814728324 -4.2618120526144452 0 -4.2618120526144452 -5.4625754496035768 0 0 0 0 54.370099962851555 -16.387723598801017 0 -16.387723598801017 -5.1213996919207148 0 0 0 0 50.147884266263191 15.021732453834554 0 15.021732453834554 -10.148235152674829 0 0 0 0 25.289845104660344 4.7325844352452577 0 4.7325844352452577 -1.2349786778852092 0 0 0 0 63.25419646692535 14.310465860808847 0 14.310465860808847 1.0834054375361291 0 0 0 0 1.9616499974690242 1.7331972116001246 0 1.7331972116001246 -1.0154333101911801 0 0 0 0 10.635318672415451 -16.884943348265864 0 -16.884943348265864 5.6514422181715531 0 0 0 0 11.647347098663886 -16.209385807490747 0 -16.209385807490747 -7.174543301763407 0 0 0 0 24.905714147622348 -0.056358695583455187 0 -0.056358695583455187 18.342625185380001 0 0 0 0 26.912547741519575 -6.3573397489166119 0 -6.3573397489166119 -1.074324425486509 0 0 0 0 2.8214904977357946 -2.9260927858870076 0 -2.9260927858870076 5.3476263582419961 0 0 0 0 0.80047719926642458 -13.811070676174184 0 -13.811070676174184 4.7067609281636464 0 0 0 0 -18.691384860165272 3.7323646148256415 0 3.7323646148256415 33.538412414420776 0 0 0 0 33.743317780073994 53.136480165283771 0 53.136480165283771 18.780973077585877 0 0 0 0 0.47094717297806454 -0.6475296919169562 0 -0.6475296919169562 0.31585876611394742 0 0 0 0 -13.239516441461092 -52.241844936331304 0 -52.241844936331304 -40.410267050767885 0 0 0 0 -76.408637718566752 -24.664716569632333 0 -24.664716569632333 39.826165214999449 0 0 0 0 -26.689185956936853 22.752329273477287 0 22.752329273477287 -55.386952758462897 0 0 0 0 73.862099438101723 0.30526202463170193 0 0.30526202463170193 -78.284691568150834 0 0 0 0 9.457374480436556 -37.778615312470151 0 -37.778615312470151 -55.117037052345495 0 0 0 0 1.2596480441139519 1.0800786277788461 0 1.0800786277788461 -0.27226711044425439 0 0 0 0 -40.010563452554379 -21.641692444611149 0 -21.641692444611149 1.5244795283781087 0 0 0 0 -23.543677097880277 -12.250989055050038 0 -12.250989055050038 -7.9169501094495871 0 0 0 0 -20.792758592222526 13.143023212567769 0 13.143023212567769 0.76439219326996977 0 0 0 0 13.2260490737699 11.149350804349325 0 11.149350804349325 2.619115745421368 0 0 0 0 15.855913575989689 10.971727752852132 0 10.971727752852132 -10.69252884246265 0 0 0 0 2.6936582507005369 2.7529322843808188 0 2.7529322843808188 -13.371792677090298 0 0 0 0 9.0618304183881264 9.2457103322406056 0 9.2457103322406056 -5.1238496491680507 0 0 0 0 5.6615951304993359 7.5120657365115449 0 7.5120657365115449 -5.9028874807768261 0 0 0 0 13.618440558304428 5.4225985846198625 0 5.4225985846198625 -19.084266941271608 0 0 0 0 48.650810448856646 36.930778049951471 0 36.930778049951471 -30.284896374661571 0 0 0 0 10.70337501009999 1.8872876043312488 0 1.8872876043312488 -23.101563995892491 0 0 0 0 -3.3302284548765329 3.1030727418526958 0 3.1030727418526958 5.0491512890064882 0 0 0 0 -1.8803664316565118 17.451078250812188 0 17.451078250812188 56.294670528359546 0 0 0 0 -0.38814121443633809 1.2913651755963116 0 1.2913651755963116 -0.67369246826117801 0 0 0 0 52.855411489319522 8.2878009713927554 0 8.2878009713927554 -22.435202937939135 0 0 0 0 0.27128824630178983 -0.17230168088802955 0 -0.17230168088802955 0.58856207598985044 0 0 0 0 0.88502193936713525 1.5294135087573064 0 1.5294135087573064 -0.80494450560611908 0 0 0 0 4.3621411280746543 3.8276921411435296 0 3.8276921411435296 -0.4040570389427387 0 0 0 0 -1.2383833833009703 2.7067410963353495 0 2.7067410963353495 3.4712818733219137 0 0 0 0 38.872173719088096 37.536154282952964 0 37.536154282952964 53.044937614707919 0 0 0 0 82.31130606593706 -27.058653250400255 0 -27.058653250400255 -23.854122969708669 0 0 0 0 156.51457457540982 32.925592501957141 0 32.925592501957141 -3.1969611356801693 0 0 0 0 65.952358158227071 -36.541277396774916 0 -36.541277396774916 60.189236517094173 0 0 0 0 1.3097131961606436 -0.014033170702408171 0 -0.014033170702408171 -0.076335368963083461 0 0 0 0 108.08527667748785 96.999530703177243 0 96.999530703177243 78.109736275445698 0 0 0 0 20.163281513874608 -19.772393104357178 0 -19.772393104357178 24.957162414531638 0 0 0 0 133.47482411776855 29.689217322233716 0 29.689217322233716 -35.777053930170268 0 0 0 0 123.62025839247417 -14.644513075916521 0 -14.644513075916521 -21.612384567276195 0 0 0 0 -0.17638015104858074 1.8089357827181267 0 1.8089357827181267 -0.5252898797736385 0 0 0 0 1.6706195614438002 2.0659897296203056 0 2.0659897296203056 2.3058084707545277 0 0 0 0 -39.006608491597945 -33.784260824267534 0 -33.784260824267534 14.37019633080115 0 0 0 0 18.743630554094125 10.812112992060804 0 10.812112992060804 -3.1321172677192699 0 0 0 0 -0.075492672679029482 1.158930412073186 0 1.158930412073186 -2.1721388467534046 0 0 0 0 -36.897400777565451 16.929063865669729 0 16.929063865669729 4.8333607165030799 0 0 0 0 58.779399068469502 -15.439119583159084 0 -15.439119583159084 6.855711197726805 0 0 0 0 26.76696834575705 38.890545879007789 0 38.890545879007789 33.886157050151411 0 0 0 0 -5.9237885341935907 0.45800657299395198 0 0.45800657299395198 -5.8000136849776709 0 0 0 0 29.994217410294368 22.595466528371389 0 22.595466528371389 79.492106503078574 0 0 0 0 -8.2179764684369729 6.3352387856415362 0 6.3352387856415362 -18.621230397430452 0 0 0 0 -17.457101818676392 7.7541529607369526 0 7.7541529607369526 -10.000593144069285 0 0 0 0 -4.4027744843551773 13.975472706843703 0 13.975472706843703 -28.061141541957738 0 0 0 0 -1.9611065484950814 21.433189053462513 0 21.433189053462513 -7.3056552659053615 0 0 0 0 55.55528747263179 -11.018359725218019 0 -11.018359725218019 -84.69853605433957 0 0 0 0 0.25881894549983997 0.16707924523534246 0 0.16707924523534246 -0.11610290386540545 0 0 0 0 18.360087638557161 40.423950585102887 0 40.423950585102887 35.85149883208733 0 0 0 0 60.598392064679501 58.450443276614351 0 58.450443276614351 43.416526493924579 0 0 0 0 0.57308447899049497 30.434743252509477 0 30.434743252509477 -10.937302047627384 0 0 0 0 9.1246336363419687 5.7406313520426835 0 5.7406313520426835 4.1527377929306226 0 0 0 0 0.27203575788755785 0.31854203686262128 0 0.31854203686262128 -0.20467441938595199 0 0 0 0 17.269838935353619 12.38602943333791 0 12.38602943333791 -28.699653403162273 0 0 0 0 5.7661326954694232 3.3334369755131092 0 3.3334369755131092 -0.72961755582571186 0 0 0 0 0.12298145591941534 1.0297470219479337 0 1.0297470219479337 -0.46426041217199154 0 0 0 0 12.72551692419438 3.4888597815937032 0 3.4888597815937032 2.7202440282347879 0 0 0 0 -0.72492031043189797 1.7131029820964834 0 1.7131029820964834 0.47761425431040472 0 0 0 0 10.205259993142135 7.2796058273829658 0 7.2796058273829658 -1.8102627418110728 0 0 0 0 79.244659034739016 -6.3732323885101891 0 -6.3732323885101891 -23.037539266119538 0 0 0 0 50.291150581860165 8.3605805139010982 0 8.3605805139010982 -6.29903097390536 0 0 0 0 94.500113282261736 35.258300820131126 0 35.258300820131126 -36.12201562601134 0 0 0 0 0.55024407192906821 1.1034762643132296 0 1.1034762643132296 0.061054971525565493 0 0 0 0 113.23193060548329 33.528431042328151 0 33.528431042328151 2.6769841716890426 0 0 0 0 74.811655957913899 32.354240621362834 0 32.354240621362834 13.235527250332837 0 0 0 0 5.6782905184008996 3.5843861318336963 0 3.5843861318336963 1.1313191014811537 0 0 0 0 10.507877209029175 6.6992065207928704 0 6.6992065207928704 3.3130201694189623 0 0 0 0 8.8520219018346324 1.9055840451960222 0 1.9055840451960222 -0.25041879110113996 0 0 0 0 4.1155350448816996 -0.95663876856965402 0 -0.95663876856965402 -2.8177677141853961 0 0 0 0 -0.0016024289382072787 2.2929737734259064 0 2.2929737734259064 1.4684732679286521 0 0 0 0 9.1862501269170025 2.8258922996973297 0 2.8258922996973297 -0.44345061984427048 0 0 0 0 9.0744591891962045 5.4110046210576286 0 5.4110046210576286 2.2101477695709946 0 0 0 0 10.435537671393831 5.2961495856177692 0 5.2961495856177692 0.023783941823797505 0 0 0 0 10.186841583159548 4.0209021023672165 0 4.0209021023672165 -2.5495447116102383 0 0 0 0 8.2200920149709873 4.6732848496431814 0 4.6732848496431814 -0.06394889822075811 0 0 0 0 7.1430401615361916 2.2078703921738452 0 2.2078703921738452 -1.1651819077408163 0 0 0 0 0.97050875483797228 0.93734083620023867 0 0.93734083620023867 0.13396664004710601 0 0 0 0 9.2976287929250248 2.901911250766247 0 2.901911250766247 -0.99651395839367751 0 0 0 0 6.0107499244859355 2.9032057016690374 0 2.9032057016690374 0.70936737412804973 0 0 0 0 -0.50237934935075046 1.0018434658318043 0 1.0018434658318043 0.2266451182310808 0 0 0 0 75.342377578796004 35.542719897735282 0 35.542719897735282 7.3038892401408475 0 0 0 0 65.612381454242495 30.278183958472084 0 30.278183958472084 16.334559842411522 0 0 0 0 1.772434883047751 0.37233666816141664 0 0.37233666816141664 -1.2178507923437378 0 0 0 0 8.6241807266583237 1.8813140802213439 0 1.8813140802213439 -0.92623617841158534 0 0 0 0 6.3711858465346722 2.8976719238456079 0 2.8976719238456079 -1.1599425827128869 0 0 0 0 7.8726809971849434 5.9121272423277631 0 5.9121272423277631 -0.64570598376836941 0 0 0 0 6.0428211389480566 2.0244252988184286 0 2.0244252988184286 5.2652083237301639 0 0 0 0 87.551016858458752 43.259399368975039 0 43.259399368975039 22.843241122742825 0 0 0 0 0.28170339889379648 -0.018085715998662266 0 -0.018085715998662266 -0.21963160903610635 0 0 0 0 8.4624549869367911 3.9203390897027575 0 3.9203390897027575 4.0978090031789449 0 0 0 0 9.1448442129212708 7.9034578131534357 0 7.9034578131534357 7.0967173064982347 0 0 0 0 11.863195847945462 5.2040949265017247 0 5.2040949265017247 -0.68603665207120912 0 0 0 0 27.839206985323017 30.732567544983112 0 30.732567544983112 12.470006265810639 0 0 0 0 14.365545159060275 37.518129274434273 0 37.518129274434273 11.474345293737535 0 0 0 0 27.579196867258361 34.98758905316862 0 34.98758905316862 20.688544787489946 0 0 0 0 64.591349523136159 34.968641118660543 0 34.968641118660543 6.9785213653803453 0 0 0 0 64.960834711084317 25.885715251869414 0 25.885715251869414 14.645479865288962 0 0 0 0 43.832659270541626 41.78760665087151 0 41.78760665087151 10.817241016567806 0 0 0 0 63.761104180237453 32.633779361939048 0 32.633779361939048 10.285446065765768 0 0 0 0 0.19062525675521869 0.43353993939240354 0 0.43353993939240354 -0.82911688952069629 0 0 0 0 40.108470335107995 34.687811632073263 0 34.687811632073263 12.243335743895742 0 0 0 0 51.519634578035038 21.08894070266291 0 21.08894070266291 7.2381239000556263 0 0 0 0 42.925142833773862 31.241176691410146 0 31.241176691410146 15.683217853660278 0 0 0 0 56.855618947476614 27.319773915944666 0 27.319773915944666 16.085373632550329 0 0 0 0 40.97594164412294 32.617577612033699 0 32.617577612033699 19.753541790045404 0 0 0 0 30.355831392691471 31.797221272380156 0 31.797221272380156 12.937862780852385 0 0 0 0 37.861611725167677 37.91400426936498 0 37.91400426936498 14.002777163269116 0 0 0 0 40.805826003992479 31.611498796808434 0 31.611498796808434 13.836007702359666 0 0 0 0 13.341660303452954 33.591475751691092 0 33.591475751691092 17.335745985209726 0 0 0 0 20.411544791693814 39.020588630122191 0 39.020588630122191 14.486494357450113 0 0 0 0 12.772118258541013 36.6470836696869 0 36.6470836696869 17.586996689497592 0 0 0 0 21.654497192234885 29.132628769317062 0 29.132628769317062 14.058949745842895 0 0 0 0 39.309237168919935 32.934504755343269 0 32.934504755343269 11.59042582977672 0 0 0 0 6.136660335450415 -11.117467983986923 0 -11.117467983986923 13.693394250972574 0 0 0 0 32.897775246114179 8.2353510406199444 0 8.2353510406199444 -0.025957087511502823 0 0 0 0 -0.063579718333443225 0.11528242999661487 0 0.11528242999661487 -0.24226750727759191 0 0 0 0 17.406163981857389 43.177098421031779 0 43.177098421031779 0.032854008518820629 0 0 0 0 -13.259213788478519 28.471549607948504 0 28.471549607948504 15.938247947766946 0 0 0 0 13.980658668935121 12.558045584992879 0 12.558045584992879 7.4880678313445372 0 0 0 0 0.58340349849812867 -0.21133829300005047 0 -0.21133829300005047 0.024932029608201414 0 0 0 0 8.8957998248188233 1.9603716454991584 0 1.9603716454991584 4.1769852346570602 0 0 0 0 16.617381519825358 4.6702018040307669 0 4.6702018040307669 2.6275773412415333 0 0 0 0 0.21227264951856029 -0.049708989444825491 0 -0.049708989444825491 -0.0071216800449324415 0 0 0 0 21.299357599398718 25.900979703283269 0 25.900979703283269 10.145800640537496 0 0 0 0 4.6988520559280005 -5.4208107295652308 0 -5.4208107295652308 -6.4320822032974387 0 0 0 0 3.1903657199436566 1.5082957791773379 0 1.5082957791773379 -2.3565805881380695 0 0 0 0 -1.6891698413410268 -1.6536754002184946 0 -1.6536754002184946 0.010608650048090813 0 0 0 0 -0.90585407765320269 -0.46242998155438814 0 -0.46242998155438814 -0.00044409305459806208 0 0 0 0 1.1213518165677669 2.4683674228553727 0 2.4683674228553727 2.5790391831698387 0 0 0 0 0.027791909238118251 0.0027754601009828406 0 0.0027754601009828406 -0.00070099875264738201 0 0 0 0 0.94856146223719406 0.50625501915054572 0 0.50625501915054572 -0.42768938786879573 0 0 0 0 0.070350879167257574 -0.0057825925850920612 0 -0.0057825925850920612 -0.010264373870618617 0 0 0 0 1.9919990524122113 -0.39313383955815995 0 -0.39313383955815995 -1.4313985943487957 0 0 0 0 0.91583766113194542 0.60534719502413137 0 0.60534719502413137 0.28132630653870283 0 0 0 0 1.0576235826883931 0.33109056139953985 0 0.33109056139953985 -0.48506713070659657 0 0 0 0 0.90548008108817157 0.1708155404205538 0 0.1708155404205538 -0.094476406931133683 0 0 0 0 0.92821805031053373 0.33823828084798713 0 0.33823828084798713 -0.32147263629469158 0 0 0 0 1.1599848364876379 -1.8270536101388792 0 -1.8270536101388792 -3.3626744306862286 0 0 0 0 7.583304469550967 3.681572549028175 0 3.681572549028175 1.9020108362328756 0 0 0 0 7.9708360351141891 4.7513327237250991 0 4.7513327237250991 2.4238513598198494 0 0 0 0 8.1117976838322647 2.9761909599355647 0 2.9761909599355647 2.4813629065578482 0 0 0 0 0.89941607961451098 -0.42459248062725408 0 -0.42459248062725408 0.13095624800412439 0 0 0 0 0.30935657685182605 -0.12550221591547839 0 -0.12550221591547839 0.079455671057453381 0 0 0 0 1.3135290647878719 -0.48703807223702889 0 -0.48703807223702889 -0.67961413592343156 0 0 0 0 1.9725278662717756 1.6672907105786017 0 1.6672907105786017 2.3632527192182806 0 0 0 0 2.4420824205609879 -0.89098061104785131 0 -0.89098061104785131 0.52752172958475696 0 0 0 0 -2.0071165446734085 0.11112401594869326 0 0.11112401594869326 0.18028598826266773 0 0 0 0 -0.38697265707777717 -0.14655816899033525 0 -0.14655816899033525 0.33452560448936741 0 0 0 0 -0.51457307456821866 0.77923537278460753 0 0.77923537278460753 0.45733278134500632 0 0 0 0 11.197110667209927 1.0053084367430074 0 1.0053084367430074 -0.22345748387047593 0 0 0 0 10.651462502893992 4.751537237473741 0 4.751537237473741 1.734139098577316 0 0 0 0 8.7973613713747909 3.8173605598970894 0 3.8173605598970894 3.9268493105986408 0 0 0 0 8.6588430677711585 3.2436337696991444 0 3.2436337696991444 1.5929453638636346 0 0 0 0 9.2644913838994398 3.0641626734399665 0 3.0641626734399665 0.27460649166810924 0 0 0 0 8.6426622613653308 4.9614639318712932 0 4.9614639318712932 1.8458877249294474 0 0 0 0 9.4329494080611767 4.2391944013393896 0 4.2391944013393896 1.6479992878979601 0 0 0 0 1.0383325206366862 -1.8609842080590226 0 -1.8609842080590226 -5.0320776237095401 0 0 0 0 8.8962623146653641 0.97470690323764586 0 0.97470690323764586 -1.9781951183610076 0 0 0 0 7.0499803025164454 0.33016389706819993 0 0.33016389706819993 -0.95127821487132636 0 0 0 0 16.143664999939574 13.951715148052529 0 13.951715148052529 -21.533749368394638 0 0 0 0 9.4034131969274313 -1.9614355567389037 0 -1.9614355567389037 -3.4297993933999988 0 0 0 0 10.498021268656885 0.42473269676975445 0 0.42473269676975445 1.6027301847108557 0 0 0 0 8.2358781373841339 -2.6582197825295211 0 -2.6582197825295211 -0.63205165980156863 0 0 0 0 9.1015469506201043 -2.2103579225629124 0 -2.2103579225629124 -1.6833453521594102 0 0 0 0 5.5441754959792888 -4.0633813127849905 0 -4.0633813127849905 -1.3465250235512025 0 0 0 0 8.40979479147245 -1.9498313910494511 0 -1.9498313910494511 2.1301036962786402 0 0 0 0 3.8161514248395179 -1.0412421389586115 0 -1.0412421389586115 0.73746844708152359 0 0 0 0 11.031407593440235 -2.3336401706924916 0 -2.3336401706924916 -0.17505853828708773 0 0 0 0 8.8300685289541434 -0.59278204729689676 0 -0.59278204729689676 0.46872145689511679 0 0 0 0 7.2391049827638199 -0.43068423470259276 0 -0.43068423470259276 0.4569183485084487 0 0 0 0 7.7541048894563573 -2.386195546011658 0 -2.386195546011658 1.3779500247636278 0 0 0 0 5.556482406833311 -2.1652154690649641 0 -2.1652154690649641 1.3665707931970985 0 0 0 0 7.3776658561837394 -1.9126009049815416 0 -1.9126009049815416 1.016140949139567 0 0 0 0 7.975702891475521 -1.9386103232707583 0 -1.9386103232707583 0.27807613904125983 0 0 0 0 7.9745597565852222 -1.9251037698517734 0 -1.9251037698517734 0.97379530863162156 0 0 0 0 9.6991572269198514 -3.6598194608786008 0 -3.6598194608786008 -0.10472979636485169 0 0 0 0 -0.015695206934307038 -0.031294496320061427 0 -0.031294496320061427 0.0086346065988997384 0 0 0 0 8.5265279320992704 -2.5143193744509666 0 -2.5143193744509666 0.82016788776537641 0 0 0 0 8.8945960302207823 -1.8723715788882114 0 -1.8723715788882114 -0.090749088680310841 0 0 0 0 5.9172839420716628 -1.8786576188319408 0 -1.8786576188319408 -0.0017985390429547153 0 0 0 0 2.9832959015475353 -1.7093985274504551 0 -1.7093985274504551 0.24754001391659619 0 0 0 0 8.0304483813015395 -0.8833270442093073 0 -0.8833270442093073 -0.70075969957650419 0 0 0 0 8.2272041908290703 -1.1923149839545637 0 -1.1923149839545637 -0.74469807996798565 0 0 0 0 8.2272041907999665 -1.1923149839667602 0 -1.1923149839667602 -0.74469807995728843 0 0 0 0 8.2272041908363462 -1.1923149839521852 0 -1.1923149839521852 -0.74469807997318327 0 0 0 0 8.2131869082287494 -1.9515443335412699 0 -1.9515443335412699 0.22184872647026133 0 0 0 0 8.7456935539472198 -2.6395811153530375 0 -2.6395811153530375 0.31251015499482726 0 0 0 0 8.0979362471402965 -2.1813624772001634 0 -2.1813624772001634 0.2248925093509424 0 0 0 0 8.0041586904408177 -2.0200605406853058 0 -2.0200605406853058 -0.0098513608936876551 0 0 0 0 8.754007886045855 -1.7101278645060676 0 -1.7101278645060676 0.11823480714146228 0 0 0 0 7.3395074152722373 -1.3249770546939286 0 -1.3249770546939286 -0.097753804054211191 0 0 0 0 7.9364078582038928 -1.3816961865136097 0 -1.3816961865136097 -0.55494717381781145 0 0 0 0 8.257741075287413 -2.1567211862097575 0 -2.1567211862097575 0.00021754732101918672 0 0 0 0 2.1535938195902418 -2.7541070861150403 0 -2.7541070861150403 2.5618347800936858 0 0 0 0 2.8402299879817292 -2.6619510432807099 0 -2.6619510432807099 3.2948827876374374 0 0 0 0 0.073879937978020394 0.064591852895036439 0 0.064591852895036439 0.064839395992293658 0 0 0 0 -1.1412772691692226 0.62479363893428896 0 0.62479363893428896 0.45817032997818252 0 0 0 0 1.5972298477063305 2.0971464047387247 0 2.0971464047387247 -4.6959935527204202 0 0 0 0 8.6807996894640382 -5.1110607093634366 0 -5.1110607093634366 2.9097385296037723 0 0 0 0 0.019632651089970921 -0.011026885494432648 0 -0.011026885494432648 -0.010754402794053534 0 0 0 0 13.617624154147052 2.0892571004602427 0 2.0892571004602427 -4.6585825806068257 0 0 0 0 3.0955320071407186 -0.21334526972491119 0 -0.21334526972491119 -4.2258507179597888 0 0 0 0 9.7383293801267428 3.6948459564453842 0 3.6948459564453842 28.941152089163175 0 0 0 0 0.13529371422858461 -0.20404160155553441 0 -0.20404160155553441 -0.16623290801919022 0 0 0 0 152.10951298436885 58.366390940393501 0 58.366390940393501 1.4059154541367249 0 0 0 0 0.0202094043386154 -0.011878195913368472 0 -0.011878195913368472 -0.0047152170205696118 0 0 0 0 1.111683203752591 -0.16442394968721252 0 -0.16442394968721252 0.0029756576581158544 0 0 0 0 -1.0268394357735815 -2.5883082825349497 0 -2.5883082825349497 -3.8446340823830099 0 0 0 0 0.21653648018367733 0.1936841883203968 0 0.1936841883203968 0.14322962906165379 0 0 0 0 -3.1599487007551943 -8.0602589247907872 0 -8.0602589247907872 6.4654244206821687 0 0 0 0 -2.7946545262839209 0.6103154135300235 0 0.6103154135300235 -1.5549561017920652 0 0 0 0 1.1311845538039051 1.175731661325365 0 1.175731661325365 -5.4581459476033167 0 0 0 0 0.47116404065334105 -0.38520209541075445 0 -0.38520209541075445 -0.045705538464313425 0 0 0 0 -1.6058465985879593 2.6624098309123134 0 2.6624098309123134 1.9873152515013475 0 0 0 0 1.201112015987178 -0.9394654031019869 0 -0.9394654031019869 1.2516406670972415 0 0 0 0 -0.078259132479537641 -0.60424959118973831 0 -0.60424959118973831 0.70855196924976194 0 0 0 0 0.35449274795428209 -2.3416357951045654 0 -2.3416357951045654 2.208788343832282 0 0 0 0 0.28031959592440892 -0.41891103181026423 0 -0.41891103181026423 0.15846087433043354 0 0 0 0 4.232652107370086 3.9721018303719546 0 3.9721018303719546 0.32569658801651258 0 0 0 0 0.6770058588408574 -2.4668451116095014 0 -2.4668451116095014 2.1919701447325792 0 0 0 0 -0.14075783673172526 -1.9992925870454137 0 -1.9992925870454137 1.3667117709073242 0 0 0 0 1.8731679117591966 -4.8518626496601325 0 -4.8518626496601325 0.38173544625021805 0 0 0 0 -2.5788010754937858 -3.7539902044396669 0 -3.7539902044396669 -1.5359340976821858 0 0 0 0 2.1227021156955743 -4.9076826999223044 0 -4.9076826999223044 0.3795306182392153 0 0 0 0 1.1690228596944507 -2.0236138126096819 0 -2.0236138126096819 -0.033316729645548548 0 0 0 0 -0.14710392442098907 -0.38423189218233667 0 -0.38423189218233667 0.51829906847415153 0 0 0 0 40.61083774510189 -36.430833968080606 0 -36.430833968080606 20.847812444859599 0 0 0 0 -2.5805336088887998 -1.433855832362724 0 -1.433855832362724 18.075750135147821 0 0 0 0 124.64383176112096 -88.206145327418199 0 -88.206145327418199 22.137187708729243 0 0 0 0 41.219752605014946 -37.137383583461997 0 -37.137383583461997 -8.7483468918926519 0 0 0 0 -16.741458603886713 19.302572543409383 0 19.302572543409383 3.4684717656109569 0 0 0 0 -23.269609198787293 -70.806479974464509 0 -70.806479974464509 130.1674810703862 0 0 0 0 5.5979131634125991 -0.5889772051513873 0 -0.5889772051513873 -0.94487145611443679 0 0 0 0 15.473418447814765 -3.1073333816958932 0 -3.1073333816958932 -13.205126640496839 0 0 0 0 5.0801180934686272 -0.44947927184560665 0 -0.44947927184560665 -2.9737543015919865 0 0 0 0 3.6463500126243034 -1.2578163990661801 0 -1.2578163990661801 -0.82028358012111657 0 0 0 0 0.15931641884890269 5.972006158009453 0 5.972006158009453 -6.6911998351953672 0 0 0 0 -4.2240690665094007 6.4761530721594696 0 6.4761530721594696 3.1808082641440034 0 0 0 0 2.911732446626047 -4.5763324788632644 0 -4.5763324788632644 -0.88155005409228693 0 0 0 0 1.59184524644661 -6.5416569919343033 0 -6.5416569919343033 0.86620584947456791 0 0 0 0 5.1875835865313888 -5.7761999370475205 0 -5.7761999370475205 -0.43684527186826472 0 0 0 0 5.1400419182367614 -4.6690873544162423 0 -4.6690873544162423 -2.018964674891663 0 0 0 0 12.32187187092677 -4.5729996539676847 0 -4.5729996539676847 -15.871195546775738 0 0 0 0 12.129716859964901 -13.553503115008837 0 -13.553503115008837 11.808720888870226 0 0 0 0 9.6098688098318235 -7.7392264652832239 0 -7.7392264652832239 -2.3115515480286373 0 0 0 0 7.352612900846907 -11.64589785502536 0 -11.64589785502536 11.480148006766626 0 0 0 0 2.4008499243431203 -0.47127671663982618 0 -0.47127671663982618 -1.5658930799340267 0 0 0 0 6.0854768311565763 -8.4640598683522246 0 -8.4640598683522246 17.459198015967729 0 0 0 0 4.817581016026935 0.27489896441735628 0 0.27489896441735628 -0.8565210443640261 0 0 0 0 2.6929999621406324 0.22450367974919483 0 0.22450367974919483 -3.1790053536584537 0 0 0 0 2.9393869257555707 0.83064843076314787 0 0.83064843076314787 -2.1051997094089643 0 0 0 0 5.0720017470721359 -8.0616278001009505 0 -8.0616278001009505 -17.178027310933885 0 0 0 0 1.2596331129069753 -3.2387677027718453 0 -3.2387677027718453 -3.5974811451508879 0 0 0 0 2.7949110266354324 -1.2369760782643873 0 -1.2369760782643873 -2.7109971874077581 0 0 0 0 6.04725957309347 -10.172159661409893 0 -10.172159661409893 3.2763865079150492 0 0 0 0 6.6390317836185204 -1.3498018963665572 0 -1.3498018963665572 -4.0213553144446905 0 0 0 0 -6.4313409346523258 -6.926351484685938 0 -6.926351484685938 6.3196978062494509 0 0 0 0 -7.5932204131568142 -1.585237913378478 0 -1.585237913378478 2.4210377174038058 0 0 0 0 -0.64230873955179368 -1.1533762165983035 0 -1.1533762165983035 2.8339809002372984 0 0 0 0 37.260499331910523 -27.421035253726252 0 -27.421035253726252 8.1893290448376774 0 0 0 0 52.801466380351485 -20.865429315884739 0 -20.865429315884739 10.358912783501182 0 0 0 0 38.464282153650856 -14.371887552686871 0 -14.371887552686871 -11.557545852960175 0 0 0 0 50.582104616454671 -28.347879606521019 0 -28.347879606521019 -13.010404911628939 0 0 0 0 28.112205672034179 -28.247901884737075 0 -28.247901884737075 -4.5733416750886136 0 0 0 0 13.297001002457364 0.55310465660780661 0 0.55310465660780661 -0.044542747567172469 0 0 0 0 57.534895599565061 32.201013513413955 0 32.201013513413955 -111.74845059270524 0 0 0 0 33.312859711040801 8.7497047178917455 0 8.7497047178917455 -27.69835075470337 0 0 0 0 64.058615568306777 -45.670650187002991 0 -45.670650187002991 3.8672376453482684 0 0 0 0 120.66292007168158 -16.948759313468031 0 -16.948759313468031 -25.22277860885265 0 0 0 0 -179.25185641519784 93.167286845159651 0 93.167286845159651 99.727032596118079 0 0 0 0 17.892695790761969 0.93771878238587991 0 0.93771878238587991 -1.1963577976634656 0 0 0 0 82.123895217038807 -83.832153296858451 0 -83.832153296858451 -54.190564226452466 0 0 0 0 -1.3033725534096448 -14.164383690213754 0 -14.164383690213754 -22.993393861631148 0 0 0 0 -23.643235467841805 -14.423955401624085 0 -14.423955401624085 -7.7881477888547579 0 0 0 0 0.03365015027066498 -0.25420020242108876 0 -0.25420020242108876 0.92037513630049705 0 0 0 0 253.32805527015807 79.536326859700353 0 79.536326859700353 -163.73020103113788 0 0 0 0 -55.246517222283728 -67.875637596689785 0 -67.875637596689785 123.34768138787933 0 0 0 0 2.1998856453407925 -0.67857353100686657 0 -0.67857353100686657 0.31630822715378992 0 0 0 0 -133.29669751692927 -22.334289678954292 0 -22.334289678954292 175.3298300571139 0 0 0 0 53.452824698786571 -36.676092289903693 0 -36.676092289903693 -83.483214682119979 0 0 0 0 57.872252095261501 59.808849036356833 0 59.808849036356833 49.610792084077787 0 0 0 0 56.145710671842608 28.45305712109473 0 28.45305712109473 -16.834174767883837 0 0 0 0 131.36661083368926 -37.773360612148338 0 -37.773360612148338 -47.044035407747515 0 0 0 0 100.02981381442987 63.637314596141891 0 63.637314596141891 6.1417906661004054 0 0 0 0 34.696934838046218 -2.9336142149941224 0 -2.9336142149941224 -12.470009091971633 0 0 0 0 2.6321293773857981 1.9910105913650504 0 1.9910105913650504 -2.5337728695587498 0 0 0 0 -63.747864923402631 -19.147534523029663 0 -19.147534523029663 4.2158899028765973 0 0 0 0 12.935964988337219 2.8281813633072943 0 2.8281813633072943 -3.1412209199279459 0 0 0 0 -0.88677268809124143 -65.481593834831727 0 -65.481593834831727 15.20777754790106 0 0 0 0 7.7681420707293896 1.5121100194000174 0 1.5121100194000174 -2.470805169070815 0 0 0 0 10.856778100947849 0.47033297744366109 0 0.47033297744366109 -3.8491597845417118 0 0 0 0 9.5828910954533058 1.4397863914166464 0 1.4397863914166464 -3.9807204736925712 0 0 0 0 5.8249730596426978 1.6090478281382228 0 1.6090478281382228 -2.4758004429035623 0 0 0 0 4.1435662627257477 2.0437353128431539 0 2.0437353128431539 -2.9283157891329834 0 0 0 0 -132.1288998796208 40.823520002103123 0 40.823520002103123 25.809752136704901 0 0 0 0 5.2656622427348339 -11.935023141330703 0 -11.935023141330703 -1.0178526090613786 0 0 0 0 14.082179832712427 -4.2998772144826489 0 -4.2998772144826489 3.8911914042092803 0 0 0 0 26.796439953694062 -3.8855252212274536 0 -3.8855252212274536 -24.086749159856026 0 0 0 0 27.569652375535952 -3.0762100831595944 0 -3.0762100831595944 -0.33519530570956135 0 0 0 0 9.4140678053900047 1.8748535672667686 0 1.8748535672667686 -1.207660526556765 0 0 0 0 10.487747704560022 -0.4012112149937328 0 -0.4012112149937328 -0.21201162998901979 0 0 0 0 18.617301696045615 10.329505926000934 0 10.329505926000934 -84.429761356138272 0 0 0 0 1.7594487954311262 9.2772512889771974 0 9.2772512889771974 -6.6165139743600321 0 0 0 0 10.828990483110736 -0.34369680295522637 0 -0.34369680295522637 -0.3798822796704131 0 0 0 0 12.090008149233427 -4.3821366337443806 0 -4.3821366337443806 -16.720124588207455 0 0 0 0 14.816754343324646 7.937894096648165 0 7.937894096648165 -45.35434916085552 0 0 0 0 67.481029117136131 4.4682110759420084 0 4.4682110759420084 3.5747212523156122 0 0 0 0 9.9494196800656027 -10.53864387521358 0 -10.53864387521358 -0.013693374508875422 0 0 0 0 1.6965471262875305 -0.64863539570951545 0 -0.64863539570951545 0.1966407310580025 0 0 0 0 5.9770528191284029 30.507424903349886 0 30.507424903349886 -14.227148882616348 0 0 0 0 7.0127255317092541 -1.7534824394847175 0 -1.7534824394847175 -0.0026737317512444125 0 0 0 0 -7.0692663890640688 -21.203637541269359 0 -21.203637541269359 32.665324251125924 0 0 0 0 248.3862658215221 139.98488499636733 0 139.98488499636733 89.990816244458983 0 0 0 0 3.548404674475961 0.18324036532687238 0 0.18324036532687238 -0.059788392612286856 0 0 0 0 12.061483512849009 -10.729366148849181 0 -10.729366148849181 -3.8592384410699196 0 0 0 0 1.4377518387486816 -30.428841984794303 0 -30.428841984794303 16.418406229687662 0 0 0 0 10.568557571073143 -14.360554550393033 0 -14.360554550393033 -6.4494583971024895 0 0 0 0 83.018408830059343 112.34194474194555 0 112.34194474194555 42.359906800572844 0 0 0 0 4.7006672272157957 0.11156668689191651 0 0.11156668689191651 -0.0070660864602711815 0 0 0 0 43.05459516015253 77.150731034640103 0 77.150731034640103 23.981074271035368 0 0 0 0 12.054405819922977 46.939273780854819 0 46.939273780854819 -3.9719717333882727 0 0 0 0 143.32869739578018 56.855730800787569 0 56.855730800787569 -83.112335198093461 0 0 0 0 67.573015764690354 12.139884649640862 0 12.139884649640862 -81.602662905078887 0 0 0 0 98.373594778764527 1.1507071885835103 0 1.1507071885835103 -150.58341271752124 0 0 0 0 13.102286693545466 -28.135025479497017 0 -28.135025479497017 -43.746698476274105 0 0 0 0 -12.689451367234142 16.080044021990147 0 16.080044021990147 -6.8366419706603665 0 0 0 0 41.477277346670235 -14.902695858888023 0 -14.902695858888023 -86.136350501057677 0 0 0 0 19.680403933096386 -8.7088042175352598 0 -8.7088042175352598 -8.3112134154903288 0 0 0 0 43.96942216748721 19.018699381281976 0 19.018699381281976 -20.829303709388796 0 0 0 0 66.1281173512034 13.67015313135812 0 13.67015313135812 -27.859325744018065 0 0 0 0 55.019409758047914 22.840109066112916 0 22.840109066112916 -26.891915399574373 0 0 0 0 50.096013422878968 0.62993465056763398 0 0.62993465056763398 -17.296828059045083 0 0 0 0 65.159477786233765 -27.362538293427065 0 -27.362538293427065 -5.3124194399533735 0 0 0 0 49.732928116445692 18.819301915236792 0 18.819301915236792 -48.58810334074542 0 0 0 0 80.849494749243604 27.30901356235313 0 27.30901356235313 -69.235989528487835 0 0 0 0 77.726414357115573 59.519835542545252 0 59.519835542545252 -26.29836989123578 0 0 0 0 46.661580182029866 39.086360026629791 0 39.086360026629791 -39.326557661123616 0 0 0 0 57.468636139099544 29.646786062725823 0 29.646786062725823 -31.651472451959989 0 0 0 0 56.70326874622333 25.214961211624484 0 25.214961211624484 -35.628277433257608 0 0 0 0 24.750228337488807 12.567917949569051 0 12.567917949569051 -27.950696772704987 0 0 0 0 57.17044102322302 18.960149845811909 0 18.960149845811909 -49.902492958210132 0 0 0 0 -113.12721534302693 21.944351685066856 0 21.944351685066856 -16.396268399979022 0 0 0 0 23.154971856671182 19.992250032625634 0 19.992250032625634 -20.584983937543825 0 0 0 0 -26.052383507287459 35.912613237091563 0 35.912613237091563 -23.172735504644038 0 0 0 0 -38.602709197974036 -2.9572495656973388 0 -2.9572495656973388 -26.96346315989399 0 0 0 0 45.969513916320693 -13.033182787119188 0 -13.033182787119188 -65.606069742942964 0 0 0 0 81.245634471664744 -7.2903601580414943 0 -7.2903601580414943 -64.671664096411405 0 0 0 0 360.68346482471679 183.25670070423394 0 183.25670070423394 -84.596620022705338 0 0 0 0 82.715998553307145 -18.599634968112241 0 -18.599634968112241 -83.300917829539685 0 0 0 0 -99.241629207866936 -225.58596487890668 0 -225.58596487890668 -110.89178660837933 0 0 0 0 13.060185370956788 -7.2176358693536713 0 -7.2176358693536713 16.257134958319057 0 0 0 0 696.77188312502767 -363.53339293271665 0 -363.53339293271665 -647.91413912506869 0 0 0 0 28.440787551844096 -6.2883570878355215 0 -6.2883570878355215 10.635078723871288 0 0 0 0 28.526742729240141 -12.666221733665509 0 -12.666221733665509 15.613544652660977 0 0 0 0 33.711707875446336 -3.7821738778396252 0 -3.7821738778396252 11.737785612934204 0 0 0 0 1.9321088780750628 2.3521127076027941 0 2.3521127076027941 2.2520050784786103 0 0 0 0 -25.453062586173502 16.151930991412275 0 16.151930991412275 -1.0396094782566934 0 0 0 0 -12.993384525198053 22.950152316479546 0 22.950152316479546 -22.384752095850324 0 0 0 0 -15.729369759899328 14.581864424538281 0 14.581864424538281 -1.2074131622114237 0 0 0 0 6.7148275089280887 1.1579403550819802 0 1.1579403550819802 0.17562898139485292 0 0 0 0 -8.102404110896714 20.393827019548112 0 20.393827019548112 -8.659538548171696 0 0 0 0 -15.693788719949225 18.181773463160141 0 18.181773463160141 -0.6311942657872649 0 0 0 0 107.36320040897044 -7.9759501865390803 0 -7.9759501865390803 -61.45114442029751 0 0 0 0 159.49014943388102 29.019863192767559 0 29.019863192767559 -56.134301995708007 0 0 0 0 105.29052265024802 -19.221355759676499 0 -19.221355759676499 -43.982185387290883 0 0 0 0 92.843501004346763 -15.154078958278546 0 -15.154078958278546 -19.419660187838417 0 0 0 0 94.97578456343399 -4.1094218354984378 0 -4.1094218354984378 -37.004443564335133 0 0 0 0 86.002533918177505 25.793629259475935 0 25.793629259475935 -21.85417033136946 0 0 0 0 99.846775254402019 49.259140143353449 0 49.259140143353449 2.0795387434576469 0 0 0 0 19.29877994133858 34.117241709445125 0 34.117241709445125 8.7549226906122044 0 0 0 0 57.48366749213892 24.898060638214702 0 24.898060638214702 -11.841817151599685 0 0 0 0 57.504366990658127 24.889891171828197 0 24.889891171828197 -17.503124058785943 0 0 0 0 55.250700948956364 17.598002084389464 0 17.598002084389464 -23.356608933447205 0 0 0 0 57.560758222898585 19.597054666556687 0 19.597054666556687 -30.686727396132483 0 0 0 0 46.438076875592742 28.572206861136237 0 28.572206861136237 -18.418478492437316 0 0 0 0 2.3264200301822058 0.56176408781451892 0 0.56176408781451892 0.20393871201565628 0 0 0 0 1.5700326601890993 5.0779766845680996 0 5.0779766845680996 15.592194244038335 0 0 0 0 36.749783084826049 53.253684832568275 0 53.253684832568275 81.370546852567571 0 0 0 0 154.26150392783529 -169.33244537894004 0 -169.33244537894004 260.55060331993286 0 0 0 0 61.957654559291768 -47.761198172457867 0 -47.761198172457867 126.21575351570209 0 0 0 0 131.35308484720736 75.340737807071775 0 75.340737807071775 -11.729062496818642 0 0 0 0 121.42014160379767 -91.43687171158669 0 -91.43687171158669 58.562326713793752 0 0 0 0 248.24049918858327 -3.8085250653027161 0 -3.8085250653027161 -199.1468223340959 0 0 0 0 0.059614298607407079 0.12008440862829062 0 0.12008440862829062 0.14118645994986359 0 0 0 0 30.445200326999839 37.707194945927434 0 37.707194945927434 15.955068519010974 0 0 0 0 17.63975067233514 -22.165416128446665 0 -22.165416128446665 12.463932002560373 0 0 0 0 87.867553196005247 -34.998743203239151 0 -34.998743203239151 3.7097336319999981 0 0 0 0 117.58409750203646 8.7382179637633666 0 8.7382179637633666 -6.0842053450006217 0 0 0 0 57.06613672336789 -3.999574223367008 0 -3.999574223367008 -0.002138008864496839 0 0 0 0 16.297068708619918 -8.4757684865814387 0 -8.4757684865814387 7.9997395489640573 0 0 0 0 25.09639799697834 3.0964313034130568 0 3.0964313034130568 -8.1376481902204976 0 0 0 0 34.47074735861861 -0.93788512053803375 0 -0.93788512053803375 0.021927533675506077 0 0 0 0 9.8738595504573823 3.8415585717419605 0 3.8415585717419605 -0.93962151906374647 0 0 0 0 10.395221819940161 3.1968925086424678 0 3.1968925086424678 -0.89696165582153542 0 0 0 0 10.111916955886045 3.1203814090338873 0 3.1203814090338873 0.0069522501391392627 0 0 0 0 10.968972163032959 3.6520000275946751 0 3.6520000275946751 -3.0758098833178229 0 0 0 0 10.517699925890852 1.499507920375682 0 1.499507920375682 0.11442327020386549 0 0 0 0 11.246354599027654 2.1543096805325517 0 2.1543096805325517 0.24128477955589211 0 0 0 0 13.383728137622874 1.4471402267342102 0 1.4471402267342102 0.088894421711063099 0 0 0 0 11.899854725274054 2.110961263236665 0 2.110961263236665 -1.1115506196978231 0 0 0 0 11.104816815246522 2.3669902682530402 0 2.3669902682530402 -0.0044805184629820981 0 0 0 0 10.836300592808584 -0.50889810673351388 0 -0.50889810673351388 -1.742612932446902 0 0 0 0 10.259775430913578 1.6236619527730196 0 1.6236619527730196 -0.62164415487950686 0 0 0 0 3.8893050390233839 1.0105573170355289 0 1.0105573170355289 0.00013961955401012977 0 0 0 0 0.14254498450222997 0.098240721084462024 0 0.098240721084462024 0.21538598633808206 0 0 0 0 8.466275164729268 36.907817288124399 0 36.907817288124399 27.001597026412114 0 0 0 0 14.220775988825153 -15.519463899523899 0 -15.519463899523899 -5.4349848245301082 0 0 0 0 4.973692750705073 -1.0605895466061952 0 -1.0605895466061952 -0.84124072756209456 0 0 0 0 34.216433770760432 -17.361539251465111 0 -17.361539251465111 -8.6735897476221453 0 0 0 0 12.704076576435909 0.2177977938600284 0 0.2177977938600284 -1.7079173486455665 0 0 0 0 13.732293931378798 1.3758846503989559 0 1.3758846503989559 -0.15697984457563233 0 0 0 0 3.7156771544954381 -0.79274568492669317 0 -0.79274568492669317 0.0018947888226992331 0 0 0 0 20.276640763462638 -13.613014402133786 0 -13.613014402133786 -84.974280462433441 0 0 0 0 12.138046556199697 2.3959651020379189 0 2.3959651020379189 -0.51667341356825081 0 0 0 0 4.1422663521916441 -1.6017946237850982 0 -1.6017946237850982 -1.273652433775708 0 0 0 0 14.318094291296802 -23.679368224784298 0 -23.679368224784298 -35.011403212908675 0 0 0 0 2.6118741891532409 -24.614835919261772 0 -24.614835919261772 24.646931884177491 0 0 0 0 2.352151187687241 -1.3083307636110106 0 -1.3083307636110106 -1.5660185514691669 0 0 0 0 -6.9677052310826184 16.070642799274594 0 16.070642799274594 -8.2530913409123059 0 0 0 0 2.476884519246596 6.6709408133870056 0 6.6709408133870056 -11.381601959718125 0 0 0 0 -0.24515263267306509 0.050800726394550466 0 0.050800726394550466 -0.56880415966545961 0 0 0 0 18.150586551690139 14.95394580212087 0 14.95394580212087 33.349730812084374 0 0 0 0 19.956872922542971 -6.737734834178255 0 -6.737734834178255 11.077677778234602 0 0 0 0 -24.967221013271228 15.608758622068137 0 15.608758622068137 -8.761636621548746 0 0 0 0 44.085155013320218 37.363113862724283 0 37.363113862724283 62.287619573420983 0 0 0 0 127.44449744586746 -30.668184492158304 0 -30.668184492158304 5.3385318230982506 0 0 0 0 0.54851333213620279 0.72250772351829973 0 0.72250772351829973 1.0733857482378006 0 0 0 0 -25.170858983577006 25.272593226850663 0 25.272593226850663 1.5541668776475319 0 0 0 0 68.842139524518643 71.076563338292402 0 71.076563338292402 -81.205114336563696 0 0 0 0 -18.351560255157892 26.877705462265638 0 26.877705462265638 1.9118064467016893 0 0 0 0 20.236729423278575 -66.311568904391422 0 -66.311568904391422 35.068124507571127 0 0 0 0 33.588762466946719 -40.721404295567581 0 -40.721404295567581 -74.109339458705875 0 0 0 0 -3.1667602889046975 13.752851955916455 0 13.752851955916455 -18.743962403158548 0 0 0 0 13.484888563151799 1.5211328623114773 0 1.5211328623114773 -0.027460652456566349 0 0 0 0 12.091943134239045 9.4727730035704258 0 9.4727730035704258 -10.871296603206313 0 0 0 0 16.33251140583797 -0.15595243881348519 0 -0.15595243881348519 -0.36190149467847338 0 0 0 0 29.767064640807803 48.75715301778834 0 48.75715301778834 -97.440483843681534 0 0 0 0 0.66077990531812247 38.412635591194032 0 38.412635591194032 -25.23709540530831 0 0 0 0 34.390718139922683 16.109211277884267 0 16.109211277884267 0.061824370452988324 0 0 0 0 4.4314247784204781 2.0991364059249147 0 2.0991364059249147 -6.4042127300326843 0 0 0 0 11.759234574456059 -10.821737761151439 0 -10.821737761151439 -27.389641492311398 0 0 0 0 15.271007087067119 -86.528070615072082 0 -86.528070615072082 8.1868156005818804 0 0 0 0 80.687375460189287 -0.25012247251981989 0 -0.25012247251981989 -25.820306658275996 0 0 0 0 39.251293549750699 -0.90346061347231021 0 -0.90346061347231021 -26.312431748150342 0 0 0 0 15.730873287844361 -0.17260509910781563 0 -0.17260509910781563 -0.73901155456832324 0 0 0 0 11.231099763044767 29.897152390730525 0 29.897152390730525 -48.801561067959895 0 0 0 0 -3.9253512095783663 13.208289797002124 0 13.208289797002124 -23.01901886276255 0 0 0 0 -9.5461395622505734 21.789907343737497 0 21.789907343737497 16.793579017755746 0 0 0 0 6.1819117641180128 -3.7526697032148491 0 -3.7526697032148491 4.0573099241443629 0 0 0 0 0.079353699491548468 5.4335160183020719 0 5.4335160183020719 -8.1503280422272155 0 0 0 0 -0.10612016722398465 -0.14568853264186643 0 -0.14568853264186643 0.19223076786194815 0 0 0 0 -42.28253687704273 31.303269494861382 0 31.303269494861382 44.439062224236636 0 0 0 0 -6.1812675170751845 27.13680295741289 0 27.13680295741289 -0.093902678326116984 0 0 0 0 -12.632562282834442 20.8841326329879 0 20.8841326329879 0.71866583824692043 0 0 0 0 9.0539518150826552 39.726759732368805 0 39.726759732368805 16.725519574073587 0 0 0 0 10.034061789310641 23.578238144849298 0 23.578238144849298 167.82771278793069 0 0 0 0 125.70854652213256 84.346547866007427 0 84.346547866007427 16.128661654939137 0 0 0 0 46.982814203363887 -35.650804543055301 0 -35.650804543055301 -2.8969930082032533 0 0 0 0 52.796342765137524 -87.290707413335028 0 -87.290707413335028 144.66098196633615 0 0 0 0 29.179711650535864 -28.227735385942538 0 -28.227735385942538 20.717091214660513 0 0 0 0 -16.729182408585984 -14.98307309697492 0 -14.98307309697492 90.89853490397013 0 0 0 0 22.86652553534077 -55.029316775957227 0 -55.029316775957227 21.845535199717062 0 0 0 0 -33.971576433231348 -13.031109869651573 0 -13.031109869651573 29.515891179625442 0 0 0 0 9.0557236618369643 -23.75397212246628 0 -23.75397212246628 2.7745661314472727 0 0 0 0 -14.334176614153421 -4.2795922895243947 0 -4.2795922895243947 -17.333384315357534 0 0 0 0 -2.7841699284617789 -2.8704029873887862 0 -2.8704029873887862 0.80709270018712687 0 0 0 0 -12.605508457839733 -16.511111968424231 0 -16.511111968424231 -7.1989193231644322 0 0 0 0 -0.18295694459936307 -0.32473018624411765 0 -0.32473018624411765 0.27225497515827612 0 0 0 0 -50.395247131906217 -8.6754422910468634 0 -8.6754422910468634 -0.29498648979097197 0 0 0 0 26.837405304761432 -22.750322821370759 0 -22.750322821370759 -11.644612350207808 0 0 0 0 -0.1370497078018591 -0.28523672946823453 0 -0.28523672946823453 0.12759444494632 0 0 0 0 16.030110200970739 -24.84789137345183 0 -24.84789137345183 -5.4537015763939962 0 0 0 0 13.766442858452137 -13.687751301938221 0 -13.687751301938221 -12.736841249670761 0 0 0 0 17.638521688994842 -13.279580731876138 0 -13.279580731876138 -19.600507431415508 0 0 0 0 15.695623805701928 -21.784425055401105 0 -21.784425055401105 -19.808214381624566 0 0 0 0 20.400623488977544 -16.676699887748214 0 -16.676699887748214 -3.1625092287629286 0 0 0 0 15.693202032527552 -21.964240087123812 0 -21.964240087123812 -9.0907401762448785 0 0 0 0 22.135675533807444 -32.39042096950277 0 -32.39042096950277 -6.4062293144896216 0 0 0 0 5.6600303703323789 -32.383339005285123 0 -32.383339005285123 -6.2946734160250344 0 0 0 0 36.408877373318319 -24.549846558851243 0 -24.549846558851243 -37.549967720757422 0 0 0 0 23.093920798981344 -3.3855602191682692 0 -3.3855602191682692 -44.132897619004552 0 0 0 0 22.367791811602729 -16.17400241333155 0 -16.17400241333155 -18.635108065029044 0 0 0 0 16.407179690728299 3.9636885034475426 0 3.9636885034475426 -29.619497401273975 0 0 0 0 -11.142333256856091 46.130790136849043 0 46.130790136849043 -81.380902871842181 0 0 0 0 61.425805755959118 -36.742696207099641 0 -36.742696207099641 -37.090514301341045 0 0 0 0 19.548864847829464 -9.3017497484414093 0 -9.3017497484414093 -44.056016068384906 0 0 0 0 0.090772819240193314 0.028145460321070459 0 0.028145460321070459 0.0060249381225792042 0 0 0 0 90.840812434045802 -16.544341093751143 0 -16.544341093751143 -7.036515619754482 0 0 0 0 -39.949966010930609 65.047165700640448 0 65.047165700640448 -20.58341137925845 0 0 0 0 64.620389366960808 16.188394097885009 0 16.188394097885009 -0.010178700619007941 0 0 0 0 61.098632689938313 -21.129543964866684 0 -21.129543964866684 15.049990998943173 0 0 0 0 64.972232827069092 -27.680386331166176 0 -27.680386331166176 -11.588740390884595 0 0 0 0 3.5336793607202708 15.115418600457133 0 15.115418600457133 -16.884261863024676 0 0 0 0 47.914199517518682 -17.442348961975085 0 -17.442348961975085 -48.143481445341195 0 0 0 0 -0.14934305506398182 -0.36851578711744892 0 -0.36851578711744892 0.14930206044890726 0 0 0 0 48.727692385045884 -14.559893639917163 0 -14.559893639917163 -37.949111500397976 0 0 0 0 -53.059949313050311 0.24071430595034826 0 0.24071430595034826 13.106875967397173 0 0 0 0 -36.712008754951626 13.139849721636772 0 13.139849721636772 -14.701706893068376 0 0 0 0 4.6250299486819131 -18.284581904954166 0 -18.284581904954166 -10.857300553275422 0 0 0 0 36.425323448354902 17.907181064920906 0 17.907181064920906 -27.619975981306993 0 0 0 0 12.999864753286602 22.646170884621824 0 22.646170884621824 -12.621553719998474 0 0 0 0 31.32932212814967 -0.75920351885798709 0 -0.75920351885798709 -44.343168598266402 0 0 0 0 60.196009294664691 32.043874278048406 0 32.043874278048406 -29.044121795409978 0 0 0 0 39.337164236216267 41.984815665470421 0 41.984815665470421 -1.7441991617124586 0 0 0 0 34.682601918548244 36.713261225809163 0 36.713261225809163 28.123960855939913 0 0 0 0 27.668368739727157 20.915041513845381 0 20.915041513845381 23.394004881967021 0 0 0 0 79.609916914829228 31.15264615467288 0 31.15264615467288 -99.162952725065225 0 0 0 0 62.328517345426917 40.991549701299675 0 40.991549701299675 2.1451449434271126 0 0 0 0 1.3233749729912914 -0.12852406439615649 0 -0.12852406439615649 -0.23270986607495114 0 0 0 0 113.695172028363 -264.52241643317166 0 -264.52241643317166 147.75190411567246 0 0 0 0 -102.85456297994733 -54.797579457043014 0 -54.797579457043014 127.41269253290966 0 0 0 0 -34.560422621216276 -29.456520515296575 0 -29.456520515296575 -12.073396830025558 0 0 0 0 63.877396970179689 64.967532690296139 0 64.967532690296139 -15.029224070688997 0 0 0 0 73.938419963629258 124.37741342109331 0 124.37741342109331 33.745849068750431 0 0 0 0 1.5643917749002867 71.826592576360099 0 71.826592576360099 146.43033093630197 0 0 0 0 -233.12134640706063 -18.746733239829609 0 -18.746733239829609 -71.26654382756476 0 0 0 0 1.7483935440932861 -0.94201256965682578 0 -0.94201256965682578 0.36881177942081833 0 0 0 0 3.5551424271430072 -0.62235635277898615 0 -0.62235635277898615 0.15043476637626707 0 0 0 0 -668.92779666228853 -82.600282654559123 0 -82.600282654559123 49.697930558254029 0 0 0 0 15.739894187299797 0.66837683336416376 0 0.66837683336416376 92.003814101171429 0 0 0 0 28.061890703400422 42.219756871384561 0 42.219756871384561 61.509791860785299 0 0 0 0 39.903330936633211 37.413866811529488 0 37.413866811529488 27.83077927887598 0 0 0 0 41.328112469065672 57.297620903089864 0 57.297620903089864 82.107306163363319 0 0 0 0 42.709615452236903 121.77761539706717 0 121.77761539706717 79.88360527191162 0 0 0 0 8.74425327213347 -0.53697534035116556 0 -0.53697534035116556 -0.13559758481006923 0 0 0 0 25.498982168577641 18.845752069944865 0 18.845752069944865 -0.46668188156991164 0 0 0 0 608.82445596023081 58.3845500845365 0 58.3845500845365 -154.15794084887352 0 0 0 0 83.430108792192186 -73.21331311416759 0 -73.21331311416759 -79.907886108594255 0 0 0 0 18.380410760255472 36.084004336261614 0 36.084004336261614 9.4569430815830628 0 0 0 0 16.143630071892403 33.659293096358851 0 33.659293096358851 31.423268994017747 0 0 0 0 21.646254038416373 11.397298665098333 0 11.397298665098333 11.014060862526549 0 0 0 0 25.156192167409245 1.3419374505647284 0 1.3419374505647284 39.616699780112867 0 0 0 0 28.123655204875831 26.37571767244026 0 26.37571767244026 -8.1084574845081079 0 0 0 0 23.313479829333801 52.734824147255068 0 52.734824147255068 -34.766826777195092 0 0 0 0 29.545910076691598 21.557324191621262 0 21.557324191621262 0.7434661445315669 0 0 0 0 10.292975835682228 4.5451519280716184 0 4.5451519280716184 -1.2473746596447057 0 0 0 0 -22.715059013199607 48.264508264479332 0 48.264508264479332 29.457547534824471 0 0 0 0 67.130934695171163 -102.10807589725778 0 -102.10807589725778 -14.403932845756117 0 0 0 0 110.4779905520852 20.041565829369603 0 20.041565829369603 12.976916055399442 0 0 0 0 94.929444189996502 -18.106381361883564 0 -18.106381361883564 12.00677320775344 0 0 0 0 0.84991568461842348 -0.5695957727316534 0 -0.5695957727316534 0.32003023014365306 0 0 0 0 -17.136899890017958 -20.518906831041818 0 -20.518906831041818 9.5760092132559294 0 0 0 0 6.9373379883945745 -62.995715544820428 0 -62.995715544820428 7.3542378660210943 0 0 0 0 114.24993812349567 -21.044882273197004 0 -21.044882273197004 3.729074690593734 0 0 0 0 94.887791836777069 14.243863746463262 0 14.243863746463262 21.662356585989983 0 0 0 0 63.301861723841284 -34.13728797071667 0 -34.13728797071667 1.4692073128001084 0 0 0 0 38.591303886405512 32.73728620844679 0 32.73728620844679 45.941476135806624 0 0 0 0 23.55435980484981 15.181000771770869 0 15.181000771770869 23.036972432360642 0 0 0 0 4.9960081704648474 16.270193527749143 0 16.270193527749143 38.152238575373303 0 0 0 0 4.0892908648529556 11.444004621114118 0 11.444004621114118 13.913636900229449 0 0 0 0 28.057796996063189 17.402005396065988 0 17.402005396065988 8.6325544599339992 0 0 0 0 5.0665317167878321 -1.4519616525165855 0 -1.4519616525165855 0.082467700869931937 0 0 0 0 550.10689921758603 -223.1749111185909 0 -223.1749111185909 -276.55807772047501 0 0 0 0 8.3843682670194539 8.2671503268604738 0 8.2671503268604738 12.459932791803794 0 0 0 0 11.473571002547033 8.5016725915290863 0 8.5016725915290863 12.379093326624456 0 0 0 0 10.810288087835943 12.404040931976624 0 12.404040931976624 14.006009145019277 0 0 0 0 23.41227113039804 9.57554714661444 0 9.57554714661444 -2.737998632143217 0 0 0 0 4.4928372465892608 13.324806594418533 0 13.324806594418533 -8.7525107904552897 0 0 0 0 2.2270316137964983 -6.8655817402047887 0 -6.8655817402047887 -8.7151938589434224 0 0 0 0 4.6845741837423702 8.2713213455242567 0 8.2713213455242567 7.3061517719254709 0 0 0 0 11.92392161387761 18.821021218149212 0 18.821021218149212 -0.63871037234616779 0 0 0 0 8.1581488098054251 -12.678937867027059 0 -12.678937867027059 -36.00461733943655 0 0 0 0 1.9096052488937225 -1.4874974010447355 0 -1.4874974010447355 0.99826929938879072 0 0 0 0 5.9036823238045599 4.6938501459078168 0 4.6938501459078168 9.2816407198163233 0 0 0 0 14.744038493387961 -2.7793601929793113 0 -2.7793601929793113 -11.278382871505187 0 0 0 0 2.9846796388234722 -1.9278686134512721 0 -1.9278686134512721 1.2646152733342637 0 0 0 0 6.8681638691195985 -5.9421730466563076 0 -5.9421730466563076 -7.8760893423036578 0 0 0 0 16.809493974285033 -3.5135500220937956 0 -3.5135500220937956 1.5482377594162244 0 0 0 0 15.916410304269448 9.0494817726250858 0 9.0494817726250858 7.3345178068202586 0 0 0 0 28.921171012731975 17.429707295335447 0 17.429707295335447 9.2799381151261002 0 0 0 0 36.171486740902765 6.3679722210652017 0 6.3679722210652017 3.6494273434190632 0 0 0 0 81.488120481575606 6.2547150072774684 0 6.2547150072774684 0.9630890388368698 0 0 0 0 31.477717320421107 7.1157656762974284 0 7.1157656762974284 6.7996579886141717 0 0 0 0 42.593335251670396 25.078664553199133 0 25.078664553199133 14.939708060249018 0 0 0 0 57.975101907797921 -0.68442202052123235 0 -0.68442202052123235 -1.2209635483222883 0 0 0 0 56.59873989368316 -90.215139491163882 0 -90.215139491163882 -48.745464846842651 0 0 0 0 8.1518430179231167 -1.8794511893757042 0 -1.8794511893757042 -0.24821893123497896 0 0 0 0 4.3768785902621161 0.75715914662746009 0 0.75715914662746009 -0.52058798155128638 0 0 0 0 13.322881313980815 -0.55713025441730224 0 -0.55713025441730224 -17.921717544292278 0 0 0 0 9.7776660726158298 6.5739509792820172 0 6.5739509792820172 -30.323451718961167 0 0 0 0 6.1694303016241747 0.63132055941468912 0 0.63132055941468912 -1.0144383736249627 0 0 0 0 5.1084253783301392 0.16220860577016083 0 0.16220860577016083 -3.6411050689256399 0 0 0 0 3.845092820300124 5.9821552787598193 0 5.9821552787598193 -0.53952076661829551 0 0 0 0 6.0605248161700729 2.5471638626291622 0 2.5471638626291622 0.37423054518740173 0 0 0 0 5.5404948980376503 -5.5363292172169167 0 -5.5363292172169167 -20.508663291698241 0 0 0 0 8.1034748552938254 -10.277188708591325 0 -10.277188708591325 -12.918869790703639 0 0 0 0 -25.486494483451679 -12.89670925316068 0 -12.89670925316068 -7.9043152518877946 0 0 0 0 6.1638115897679278 -0.56785898588647665 0 -0.56785898588647665 -0.36925481038533148 0 0 0 0 10.669675071942038 -0.16651255542660692 0 -0.16651255542660692 -1.3316489868287817 0 0 0 0 1.6667505695564797 0.113108226146311 0 0.113108226146311 0.17505420798160198 0 0 0 0 10.635388243320449 -0.66048610872076097 0 -0.66048610872076097 -0.11863206227235423 0 0 0 0 8.7619054414990387 -1.3648032632117975 0 -1.3648032632117975 5.6009435045814371 0 0 0 0 20.273445901746527 6.6814389344646656 0 6.6814389344646656 -6.098489524078559 0 0 0 0 14.515259899319403 10.436723632996305 0 10.436723632996305 -3.3432256561384293 0 0 0 0 11.146871125061807 11.027283855930932 0 11.027283855930932 9.0506657038975504 0 0 0 0 8.2624515958148699 4.4917389109433792 0 4.4917389109433792 -0.56760703332606655 0 0 0 0 -45.427881973655076 75.934949335659212 0 75.934949335659212 -15.40881482709483 0 0 0 0 10.243245734725861 6.999196695086539 0 6.999196695086539 -5.5916794392713882 0 0 0 0 13.003209578222595 2.8393377879240234 0 2.8393377879240234 -7.5670339821726884 0 0 0 0 6.0474897293024696 -0.5608969742319232 0 -0.5608969742319232 -8.6563284902707096 0 0 0 0 1.1009821860789089 -1.0526855046964556 0 -1.0526855046964556 2.2775713963364979 0 0 0 0 -102.7684241012841 24.972617490291 0 24.972617490291 98.142709419347284 0 0 0 0 -97.054120697552776 -62.909166122508836 0 -62.909166122508836 172.97493873346093 0 0 0 0 91.437327024314072 -74.131185917219113 0 -74.131185917219113 46.634255273825374 0 0 0 0 6.0780886691036358 3.4188977591959429 0 3.4188977591959429 -2.3624408708105875 0 0 0 0 9.9946982450055657 87.551537525977324 0 87.551537525977324 -36.960688670390482 0 0 0 0 8.9689146661536281 2.2492291752767191 0 2.2492291752767191 -2.7110101914358671 0 0 0 0 251.46977966284794 73.005357650372844 0 73.005357650372844 -58.058315803363712 0 0 0 0 387.64389568549632 16.082723018166575 0 16.082723018166575 -13.572849061619308 0 0 0 0 -7.942568859279163 -130.59707411760189 0 -130.59707411760189 173.92467045594458 0 0 0 0 187.52804483480941 -192.27098874741159 0 -192.27098874741159 105.80551235231394 0 0 0 0 -152.37663033313584 -113.8209214986112 0 -113.8209214986112 95.103176113543896 0 0 0 0 1.4284545145522021 -1.767499731914727 0 -1.767499731914727 2.1932688514872694 0 0 0 0 3.8070203543493335 -152.86887721485186 0 -152.86887721485186 103.51943151353004 0 0 0 0 1.1388268565251565 -65.171614414673513 0 -65.171614414673513 18.778682213876436 0 0 0 0 87.952572872407018 -155.91869093498241 0 -155.91869093498241 95.28355037601591 0 0 0 0 55.424412776271311 -7.8926570181416764 0 -7.8926570181416764 13.720621176049463 0 0 0 0 75.977791956666124 -1.9496934169235374 0 -1.9496934169235374 6.0104652308441473 0 0 0 0 57.69089929682923 -12.017845107070116 0 -12.017845107070116 3.0476123015114354 0 0 0 0 82.703959153182041 -16.814288755755342 0 -16.814288755755342 -8.0330725441750701 0 0 0 0 74.122635640127555 8.4966409461521835 0 8.4966409461521835 13.78987341738798 0 0 0 0 146.33824296324201 26.092976990451234 0 26.092976990451234 17.950713791262444 0 0 0 0 215.04109452603279 -27.918813915148462 0 -27.918813915148462 -18.442778161346268 0 0 0 0 133.37725414657962 -39.919238049560931 0 -39.919238049560931 -15.261813408136277 0 0 0 0 123.87813940444357 -32.113008564159372 0 -32.113008564159372 -17.904168889417704 0 0 0 0 138.52632252308558 -6.1074116331801633 0 -6.1074116331801633 -7.2516378138054733 0 0 0 0 108.54758696862518 -39.029873651111302 0 -39.029873651111302 -14.906830789553396 0 0 0 0 108.80622860081985 -45.808094044279869 0 -45.808094044279869 -8.4428548443705722 0 0 0 0 82.042261229544238 -44.845701480817752 0 -44.845701480817752 -4.5621932146896143 0 0 0 0 41.235423779432494 -37.52996203959151 0 -37.52996203959151 9.6023090757039427 0 0 0 0 82.088598380240455 -43.742924332225471 0 -43.742924332225471 2.7822405246365634 0 0 0 0 114.25441975022386 -63.882016565356366 0 -63.882016565356366 -0.68772787981333749 0 0 0 0 73.858671659139873 -57.148277940047592 0 -57.148277940047592 7.5254489618832849 0 0 0 0 48.661386547792972 -81.476239895386016 0 -81.476239895386016 58.35259682526987 0 0 0 0 161.63345032090729 -102.24343247156793 0 -102.24343247156793 13.680969011188154 0 0 0 0 20.708948998494634 -48.327661165611971 0 -48.327661165611971 30.478070890370645 0 0 0 0 54.082176862348547 -38.495723849601404 0 -38.495723849601404 -0.052989796005931566 0 0 0 0 73.843846637777006 -56.646870774200693 0 -56.646870774200693 12.30387450418857 0 0 0 0 39.573800478481644 -42.257904086753115 0 -42.257904086753115 11.611172987479108 0 0 0 0 -2.2596738952765918 2.6497353668205506 0 2.6497353668205506 3.5748315422531505 0 0 0 0 7.1523632569355868 -30.887895964064228 0 -30.887895964064228 21.202291061452115 0 0 0 0 22.351028469089215 -35.247464372683226 0 -35.247464372683226 -18.378595336135731 0 0 0 0 22.094109934903827 -24.835862166549305 0 -24.835862166549305 16.820671148060683 0 0 0 0 -2.2618100646093175 2.0787268421573835 0 2.0787268421573835 0.74545870388745161 0 0 0 0 1.010903787712663 3.9082901415147004 0 3.9082901415147004 2.611278139098709 0 0 0 0 -2.404985368942107 2.6504988960945752 0 2.6504988960945752 16.459204888198656 0 0 0 0 12.537363903576079 -20.556783263248576 0 -20.556783263248576 20.1431865083307 0 0 0 0 43.559708328071338 -11.023890556270089 0 -11.023890556270089 -0.56253835055031232 0 0 0 0 126.68825195427324 -21.820083836498867 0 -21.820083836498867 -8.5832582803654986 0 0 0 0 -0.22373957689510909 4.2101180722205722 0 4.2101180722205722 3.9208432330003822 0 0 0 0 101.44231133205085 -12.435431457621576 0 -12.435431457621576 -4.1278803807965687 0 0 0 0 113.24925123155299 -29.918044810090805 0 -29.918044810090805 -1.1761020696840774 0 0 0 0 112.61782551853958 -29.149621298804959 0 -29.149621298804959 -2.0996083645118233 0 0 0 0 93.374222497531264 -39.319153158197423 0 -39.319153158197423 -7.4583015877055914 0 0 0 0 99.848421192373564 -20.290614660359161 0 -20.290614660359161 -8.8120345045203976 0 0 0 0 101.87499607189329 -38.610717425873418 0 -38.610717425873418 -9.3152948348276823 0 0 0 0 110.72709845300756 -39.7056537328627 0 -39.7056537328627 -10.404283742677535 0 0 0 0 87.937115449244629 -41.055707609110414 0 -41.055707609110414 5.9813484680885267 0 0 0 0 87.659474570837119 -26.688770659083389 0 -26.688770659083389 5.1957211850388632 0 0 0 0 85.164978487534086 -25.58789529956519 0 -25.58789529956519 -6.4443166593105161 0 0 0 0 29.991250793947984 -8.880330218283234 0 -8.880330218283234 11.792840777515721 0 0 0 0 49.434212694498456 -29.905749435496091 0 -29.905749435496091 6.472923668624162 0 0 0 0 51.243492983809233 -17.672552456099794 0 -17.672552456099794 -5.9801434661721942 0 0 0 0 26.667156756519034 -21.721911273380556 0 -21.721911273380556 3.8528091379400848 0 0 0 0 65.227234846860313 -10.864563461038998 0 -10.864563461038998 -2.2579272186972048 0 0 0 0 63.703964541569803 -27.212254501910024 0 -27.212254501910024 -2.1626230700077258 0 0 0 0 42.472626899938405 -7.9459719262008548 0 -7.9459719262008548 3.4621253815749071 0 0 0 0 27.687555426193285 5.3165548800163833 0 5.3165548800163833 4.249163862938758 0 0 0 0 26.803323125608586 4.814241378753195 0 4.814241378753195 4.5533022076829184 0 0 0 0 26.079392882921866 0.45826092498151638 0 0.45826092498151638 -1.0100491474518094 0 0 0 0 18.099755140176057 -4.541980144297213 0 -4.541980144297213 -1.3192026712981715 0 0 0 0 28.5402762220412 -2.5393885709912496 0 -2.5393885709912496 -4.2299466906792986 0 0 0 0 46.488554363175808 -4.7123119183648896 0 -4.7123119183648896 0.4176177557342271 0 0 0 0 38.568567567693208 9.1485112139806688 0 9.1485112139806688 2.0717963360052636 0 0 0 0 27.843722866859935 6.928898999910416 0 6.928898999910416 1.7312468637060192 0 0 0 0 28.428416497445141 14.839583476687494 0 14.839583476687494 8.1049079802634765 0 0 0 0 29.98802475735738 1.9482511299793259 0 1.9482511299793259 1.599742443093783 0 0 0 0 -2.4049853689434713 2.6504988960961668 0 2.6504988960961668 16.45920488819911 0 0 0 0 0.26491132693399067 -0.17512788772397236 0 -0.17512788772397236 0.52646827857438971 0 0 0 0 29.276757897782772 12.456503063179753 0 12.456503063179753 0.097762596191842022 0 0 0 0 -2.404985368943926 2.6504988960951437 0 2.6504988960951437 16.459204888199565 0 0 0 0 28.392654071796187 11.885553521101862 0 11.885553521101862 13.185080541616799 0 0 0 0 31.117712968794876 0.54629543660576019 0 0.54629543660576019 3.1950593526185003 0 0 0 0 24.912156444730499 1.3939570263819405 0 1.3939570263819405 12.203934774318753 0 0 0 0 23.70550828456544 -0.44311522087912181 0 -0.44311522087912181 1.7902519051631316 0 0 0 0 27.176510807158593 5.1030642389923742 0 5.1030642389923742 -1.1964808769253068 0 0 0 0 10.874573633225864 11.321433457824146 0 11.321433457824146 3.2690775557703091 0 0 0 0 20.531149256248682 6.5814920919358428 0 6.5814920919358428 1.6637679259270044 0 0 0 0 20.016594928292761 4.3266300130505897 0 4.3266300130505897 -0.50999038184068013 0 0 0 0 20.122701787837286 3.5470701315891802 0 3.5470701315891802 0.72693575027324187 0 0 0 0 17.668500738207513 -5.0855694545709866 0 -5.0855694545709866 -2.9285804852707997 0 0 0 0 14.366824720606019 -1.0761737280749912 0 -1.0761737280749912 -0.00063637557855145133 0 0 0 0 21.221717473973058 -3.4945846901259756 0 -3.4945846901259756 -2.3547300699920015 0 0 0 0 19.34448353325206 -1.6790963117216506 0 -1.6790963117216506 -1.4354941073784175 0 0 0 0 21.067085170331666 -0.64879829373776943 0 -0.64879829373776943 -1.1379852429681705 0 0 0 0 25.210758028037162 -0.29992464765882687 0 -0.29992464765882687 -1.7413770067477685 0 0 0 0 22.214989968098052 -1.5486312877742421 0 -1.5486312877742421 0.41892305674127783 0 0 0 0 21.480707284476011 -5.9643792216961629 0 -5.9643792216961629 -3.2003682976446726 0 0 0 0 24.345311521151416 -2.6607391045249642 0 -2.6607391045249642 -3.4969584873488202 0 0 0 0 19.61020006443141 -3.7821640869781277 0 -3.7821640869781277 -5.6306566578177808 0 0 0 0 18.719344806418121 -5.5622640036719986 0 -5.5622640036719986 -2.5805068363205805 0 0 0 0 14.730363685864399 -5.1499052191004591 0 -5.1499052191004591 -0.69302989533374415 0 0 0 0 19.503881600985551 -7.7316358110527403 0 -7.7316358110527403 -5.8971394606069225 0 0 0 0 -1.8205058448460756 -1.7368795063031708 0 -1.7368795063031708 0.49966489801804315 0 0 0 0 12.393571061923012 -23.73577818868489 0 -23.73577818868489 -34.197261491330892 0 0 0 0 12.577797567157177 -28.150145427062853 0 -28.150145427062853 -12.752742120759876 0 0 0 0 -3.5541104819503744 -41.812432386260753 0 -41.812432386260753 -4.6926799867464979 0 0 0 0 16.81797175435895 -13.427002550482484 0 -13.427002550482484 -7.3859135390457595 0 0 0 0 3.8291809842930888 -17.446488679320055 0 -17.446488679320055 -3.5005958556266705 0 0 0 0 -2.1267106675413743 -3.1899399338594776 0 -3.1899399338594776 -13.893090247381679 0 0 0 0 10.844480630762064 -15.345913919982195 0 -15.345913919982195 -4.5429255563858533 0 0 0 0 8.5188667917204839 -27.092756074804356 0 -27.092756074804356 4.7527884143146366 0 0 0 0 -17.997483643845953 -13.490982249919853 0 -13.490982249919853 6.2398307821562753 0 0 0 0 18.141704307643977 -5.6276441083368809 0 -5.6276441083368809 4.947911060437491 0 0 0 0 13.351493366819795 -9.7378776661400934 0 -9.7378776661400934 0.91627254481227283 0 0 0 0 20.960329800857835 -9.4728359098583041 0 -9.4728359098583041 -5.2510767784403924 0 0 0 0 10.219252816424984 -8.7078866137760826 0 -8.7078866137760826 -3.04412947098308 0 0 0 0 10.307792159737545 -14.766105577914075 0 -14.766105577914075 -13.049082932305282 0 0 0 0 13.681391844836753 -13.131945461689156 0 -13.131945461689156 -26.07870153326121 0 0 0 0 8.6443020068045371 -24.892991909518742 0 -24.892991909518742 -21.819591910702229 0 0 0 0 19.552743138112078 -11.937106849227973 0 -11.937106849227973 -14.98716329105946 0 0 0 0 13.582761342199774 -20.017402374382073 0 -20.017402374382073 -9.4261909386545994 0 0 0 0 14.228976759832133 -6.9825943983807015 0 -6.9825943983807015 0.041717821812986777 0 0 0 0 16.993241676140315 -3.2662555967631306 0 -3.2662555967631306 -2.5761885120446095 0 0 0 0 14.685485063459964 -14.503270546820261 0 -14.503270546820261 -7.2745208662204277 0 0 0 0 15.15297315635328 -8.0168307621039858 0 -8.0168307621039858 0.14908295818707451 0 0 0 0 9.4127761978759281 -19.874605750290328 0 -19.874605750290328 -0.14533618340328758 0 0 0 0 14.063461997129707 -5.6669057760282158 0 -5.6669057760282158 -4.6975272690243628 0 0 0 0 17.620818879213402 -13.785955581116923 0 -13.785955581116923 -0.42926618852291654 0 0 0 0 14.278241376895494 -9.0859020334271463 0 -9.0859020334271463 7.7370432280704335 0 0 0 0 27.186669651328884 -13.301653252133519 0 -13.301653252133519 -0.86734288461047981 0 0 0 0 24.541247881955314 -1.8057457355146198 0 -1.8057457355146198 0.65777265926749351 0 0 0 0 -6.57327392928687 -38.637947195046706 0 -38.637947195046706 -3.7469133677899702 0 0 0 0 18.427843316331334 -7.8906121162311775 0 -7.8906121162311775 -3.171606870958839 0 0 0 0 4.9108846311191279 -1.891321937976409 0 -1.891321937976409 -0.52226074709968273 0 0 0 0 2.7141698702982739 -4.4521021298010632 0 -4.4521021298010632 -2.4415167838755085 0 0 0 0 18.813790635038004 -11.264266224191147 0 -11.264266224191147 -11.749304592392491 0 0 0 0 18.833031413899107 -9.3367389021220788 0 -9.3367389021220788 -20.645050847649372 0 0 0 0 1.377648883196116 -19.996877006830289 0 -19.996877006830289 24.292390058866431 0 0 0 0 -4.8396609530800561 -6.6295311332580695 0 -6.6295311332580695 -2.8485815472511931 0 0 0 0 29.398157252590408 -20.992562525681478 0 -20.992562525681478 -20.222168169912209 0 0 0 0 -1.4891239877487603 -0.54650845985979668 0 -0.54650845985979668 -0.087368407928843261 0 0 0 0 16.979469949484667 50.363026562783773 0 50.363026562783773 -74.597686706610602 0 0 0 0 -2.887185308439598 -3.6212020403082192 0 -3.6212020403082192 -16.534740073994726 0 0 0 0 16.040638129813033 -16.411458452524357 0 -16.411458452524357 43.486620177017812 0 0 0 0 80.111666147566893 -21.774630453806594 0 -21.774630453806594 -95.778049361540525 0 0 0 0 21.31617049790529 -5.9067795188225602 0 -5.9067795188225602 12.703365846325141 0 0 0 0 19.107138133571425 -17.98969102835008 0 -17.98969102835008 0.42780988816321042 0 0 0 0 32.957263859204886 12.267148697299035 0 12.267148697299035 28.032326866486983 0 0 0 0 25.737330498031042 0.002199236095748347 0 0.002199236095748347 12.34974818730052 0 0 0 0 27.184517708220483 1.0355770538885736 0 1.0355770538885736 2.0607762331294452 0 0 0 0 29.748007270648344 10.542870150474727 0 10.542870150474727 44.367911974345589 0 0 0 0 38.998359052676733 10.798505989909472 0 10.798505989909472 35.939844136411011 0 0 0 0 29.327411358988684 -5.7744587020970357 0 -5.7744587020970357 11.428424350488058 0 0 0 0 45.657701369994811 17.476309115699223 0 17.476309115699223 12.445290853768256 0 0 0 0 57.406823472678752 41.410377977746521 0 41.410377977746521 41.701268616636554 0 0 0 0 94.150151839804948 39.382498347947603 0 39.382498347947603 15.343862791659205 0 0 0 0 184.43155741991768 84.539731676092288 0 84.539731676092288 23.316653300301368 0 0 0 0 37.346101750204333 54.002318037258284 0 54.002318037258284 181.56703642871344 0 0 0 0 161.64734072686787 -16.533264482252235 0 -16.533264482252235 -20.557755345396799 0 0 0 0 66.861489921244356 -24.369283684379525 0 -24.369283684379525 -1.5304424750083854 0 0 0 0 139.66102147105312 -1.9971501804766376 0 -1.9971501804766376 -11.468885332523769 0 0 0 0 36.403763004290795 0.19124117222270343 0 0.19124117222270343 3.8920379863679955 0 0 0 0 24.200201640876685 -7.5905715692188096 0 -7.5905715692188096 4.01787500129808 0 0 0 0 35.387326127368851 -49.292461127698743 0 -49.292461127698743 -28.180033327108617 0 0 0 0 -3.6059721237339204 9.8663827257371963 0 9.8663827257371963 -5.0718552058947353 0 0 0 0 80.316560061958626 -8.6971680973995262 0 -8.6971680973995262 0.99294217116448635 0 0 0 0 100.15064235714954 41.59396649206019 0 41.59396649206019 9.7643753320448923 0 0 0 0 83.964626571295867 33.370819321260569 0 33.370819321260569 6.0935111665162367 0 0 0 0 1.5467270641806774 -0.66764242984486 0 -0.66764242984486 0.36380340927708588 0 0 0 0 67.071802491271228 32.906036648636018 0 32.906036648636018 19.304520663563835 0 0 0 0 224.02886366355415 203.32396350619319 0 203.32396350619319 -8.1120587857581086 0 0 0 0 71.588854459609138 -97.092601247997663 0 -97.092601247997663 70.87818997937211 0 0 0 0 4.0511023263449033 9.571627272599244 0 9.571627272599244 -2.9701211974436319 0 0 0 0 6.4286295551541164 3.1793295396378967 0 3.1793295396378967 -0.90321532491191903 0 0 0 0 9.2506829422861756 10.297384808199126 0 10.297384808199126 1.5394327541309849 0 0 0 0 8.2597081614939043 5.0916785054623688 0 5.0916785054623688 -8.1075633563527845 0 0 0 0 5.1379007670460179 -1.5568482369531664 0 -1.5568482369531664 0.29873568707895881 0 0 0 0 8.9370857204122558 4.74895273140055 0 4.74895273140055 -7.9617342862954956 0 0 0 0 12.037683430650873 0.78814532641058577 0 0.78814532641058577 -25.38833910573976 0 0 0 0 5.929151520026112 0.68525086085990417 0 0.68525086085990417 -1.5243801611538998 0 0 0 0 3.9845876941390088 21.638527384070755 0 21.638527384070755 30.921913465795114 0 0 0 0 6.6372439318095076 1.9319103809999092 0 1.9319103809999092 -2.6266653140787639 0 0 0 0 5.4559472308463715 0.61683337362397062 0 0.61683337362397062 -2.1235013040199981 0 0 0 0 3.8434513013530669 11.919684756840514 0 11.919684756840514 113.8620884038819 0 0 0 0 1.1750115366989942 0.61753782009617098 0 0.61753782009617098 1.1800096969169251 0 0 0 0 15.211686429553083 19.260159212100717 0 19.260159212100717 27.766992288948984 0 0 0 0 71.016098034937158 23.33632711915152 0 23.33632711915152 5.465272097973866 0 0 0 0 74.857770009361502 40.214748749242517 0 40.214748749242517 22.093299104820744 0 0 0 0 131.95421162987441 3.8171567034421514 0 3.8171567034421514 2.7201216955632503 0 0 0 0 117.38062479278233 64.800876091262353 0 64.800876091262353 34.032881486295992 0 0 0 0 92.530497613435728 113.20057237934282 0 113.20057237934282 6.1401359621514189 0 0 0 0 92.335650963419994 -95.890616538525364 0 -95.890616538525364 11.672108299036154 0 0 0 0 32.175876754206911 11.604163082633136 0 11.604163082633136 128.89479651049157 0 0 0 0 34.493840632691445 -15.351421641936099 0 -15.351421641936099 7.3720745617508783 0 0 0 0 -6.0356941866177749 -23.523157938712131 0 -23.523157938712131 21.975918341194017 0 0 0 0 21.176598856908583 -24.732879260445717 0 -24.732879260445717 -37.213481700954958 0 0 0 0 58.510312938889001 -21.441655134558772 0 -21.441655134558772 -37.979453867088978 0 0 0 0 17.030076155965617 -6.0263859450330131 0 -6.0263859450330131 -4.4460614782171515 0 0 0 0 50.370551436912137 -3.8491818334588572 0 -3.8491818334588572 -67.271780818452044 0 0 0 0 16.46568134890731 2.1742969417638562 0 2.1742969417638562 -3.2983697577596303 0 0 0 0 60.138375232043018 18.666226129360211 0 18.666226129360211 -38.879162704361306 0 0 0 0 0.47552947524331302 0.46708630000821971 0 0.46708630000821971 -1.2434139639548962 0 0 0 0 56.147516321320097 49.588537477471277 0 49.588537477471277 13.709882186211132 0 0 0 0 23.363759151656723 0.52006129133940249 0 0.52006129133940249 -6.9762582553107677 0 0 0 0 36.889015624424019 10.474164009985131 0 10.474164009985131 -9.9181799831546869 0 0 0 0 30.456434447030006 -56.089105335049453 0 -56.089105335049453 -16.195519688478157 0 0 0 0 16.848230500932914 4.6801729373796093 0 4.6801729373796093 -17.91677101180926 0 0 0 0 21.219038779866423 18.762444379553642 0 18.762444379553642 4.420718404266438 0 0 0 0 24.631818131856562 32.501104628233762 0 32.501104628233762 3.0411520114755817 0 0 0 0 13.59902608484208 -15.017788186374663 0 -15.017788186374663 -75.541391574020963 0 0 0 0 26.041446808911132 12.983719977508905 0 12.983719977508905 2.4836080493380166 0 0 0 0 24.606312473038997 9.5440744320245869 0 9.5440744320245869 8.6103591458376201 0 0 0 0 0.99989510851038865 1.9379219207643423 0 1.9379219207643423 -2.0027923321247973 0 0 0 0 14.083692773696384 6.682550520341465 0 6.682550520341465 1.5321730548666892 0 0 0 0 2.8987742158060428 0.88766611221899439 0 0.88766611221899439 -4.7086595740302073 0 0 0 0 0.46252152545025771 0.59326150437896708 0 0.59326150437896708 -0.24159823834169947 0 0 0 0 7.5410196078296288 0.93991759747531312 0 0.93991759747531312 -3.6034112778886453 0 0 0 0 7.597968424123053 4.317058438302972 0 4.317058438302972 -0.20577413411183443 0 0 0 0 8.1089337095891096 5.1727927298549616 0 5.1727927298549616 0.042279988444875016 0 0 0 0 10.673599984969769 5.1475188157774614 0 5.1475188157774614 -0.33653681895921772 0 0 0 0 4.1015866145085917 3.9724451044985445 0 3.9724451044985445 1.3545257882147554 0 0 0 0 7.154265187020318 4.1514380184969149 0 4.1514380184969149 -0.00031680178151223537 0 0 0 0 12.55491178370505 2.3519508852860449 0 2.3519508852860449 -2.7352220078701981 0 0 0 0 24.603650242373988 6.0889942619763815 0 6.0889942619763815 -2.3985322289295254 0 0 0 0 7.7248196758191625 1.4473252104295398 0 1.4473252104295398 -3.8869404399822205 0 0 0 0 16.371491512479679 8.683295484987525 0 8.683295484987525 1.9970748621404937 0 0 0 0 -1.7284932517359266 -24.66078873983497 0 -24.66078873983497 -26.487194377520723 0 0 0 0 10.572467126072297 2.3732657709696241 0 2.3732657709696241 -9.0442031648585726 0 0 0 0 3.6163943636231046 -0.06343002318514035 0 -0.06343002318514035 -1.2714258284475723 0 0 0 0 4.3631898422625 -2.4939355284918179 0 -2.4939355284918179 -5.1906926554484016 0 0 0 0 8.184064859716905 2.2342376289781729 0 2.2342376289781729 -2.3080088998730552 0 0 0 0 5.4798336876138443 0.64527418470006559 0 0.64527418470006559 -2.248554305898562 0 0 0 0 10.849293363860852 5.0892087244636759 0 5.0892087244636759 -0.4743286399949973 0 0 0 0 11.266558619304305 5.1177646662838114 0 5.1177646662838114 -1.1807121940395504 0 0 0 0 6.6667335043052045 2.4353397089582955 0 2.4353397089582955 -1.6648950381998495 0 0 0 0 6.894250292858608 -1.2244030070687009 0 -1.2244030070687009 -3.4646760610747114 0 0 0 0 4.0735886269694674 1.9986675877588596 0 1.9986675877588596 -1.1817357574079779 0 0 0 0 4.1875591630020494 1.7657411681591419 0 1.7657411681591419 -2.8064757871229955 0 0 0 0 9.3281813219855394 2.9605844665867007 0 2.9605844665867007 -3.0050728780119744 0 0 0 0 13.070517188711165 21.454383275460486 0 21.454383275460486 39.440125665984603 0 0 0 0 0.95036658510712613 -0.27147396284923975 0 -0.27147396284923975 -0.20070593550483595 0 0 0 0 14.422317761224349 18.729546839647895 0 18.729546839647895 -0.94939821002253666 0 0 0 0 -10.096101734592082 3.2306655355075549 0 3.2306655355075549 24.804707470123049 0 0 0 0 18.08974711313931 16.021066197831033 0 16.021066197831033 -45.877335691202525 0 0 0 0 -0.025930257259286549 -0.32501405826616825 0 -0.32501405826616825 -0.063836424289297589 0 0 0 0 15.66918225406854 -3.2180501098860796 0 -3.2180501098860796 -5.8440752854765208 0 0 0 0 -1.2064702034351313 -3.055571669284137 0 -3.055571669284137 -1.2103542339975704 0 0 0 0 3.0337823221534563 -0.3417858408879999 0 -0.3417858408879999 -0.97900640396589278 0 0 0 0 0.049734730077034328 -7.7246747922636132 0 -7.7246747922636132 -3.8769983142796391 0 0 0 0 -13.117020879528354 -24.080917384279132 0 -24.080917384279132 -5.8858185960878018 0 0 0 0 -4.1231405534545047 -22.440031658043722 0 -22.440031658043722 -13.836618578901913 0 0 0 0 8.8006538405898027 -22.787196143763822 0 -22.787196143763822 -33.419417076921263 0 0 0 0 36.760967415109917 6.0132411138073962 0 6.0132411138073962 -31.594526658887162 0 0 0 0 57.522927131281904 28.54859723589334 0 28.54859723589334 -11.389534957588921 0 0 0 0 14.279016174514254 18.162160308487501 0 18.162160308487501 3.4084935995188061 0 0 0 0 68.29383533674627 20.7401285236337 0 20.7401285236337 -12.757621813123478 0 0 0 0 99.130419943784091 -9.9017387149857541 0 -9.9017387149857541 10.917159547150959 0 0 0 0 62.436072826498275 39.394460417872551 0 39.394460417872551 5.948135277247161 0 0 0 0 14.727098830508112 16.482350420494299 0 16.482350420494299 2.8706862153068187 0 0 0 0 29.76048770988109 -9.3323402914626286 0 -9.3323402914626286 14.663500954866322 0 0 0 0 9.0505617607213935 -6.736138214584571 0 -6.736138214584571 46.452505158159511 0 0 0 0 1.8286766275132322 10.488956598705386 0 10.488956598705386 1.8871663434883885 0 0 0 0 8.0783374584043486 0.68178548064008737 0 0.68178548064008737 -1.6452090088496334 0 0 0 0 0.60300445408483938 -26.66668664937697 0 -26.66668664937697 54.599270451267103 0 0 0 0 -4.84520141731889 7.3330931021121017 0 7.3330931021121017 22.591684069386702 0 0 0 0 -1.2786193316242134 7.2950966571156641 0 7.2950966571156641 28.735013122418991 0 0 0 0 -4.0918206581609411 2.3929745875193476 0 2.3929745875193476 27.464449837242114 0 0 0 0 -4.8825103708313691 -8.1295815700435696 0 -8.1295815700435696 13.753705392018219 0 0 0 0 -6.0683841379232035 17.616295802370928 0 17.616295802370928 -0.094365467449392781 0 0 0 0 76.253852926844161 -37.680609079462585 0 -37.680609079462585 20.320506747386844 0 0 0 0 0.17571179621705468 0.064373102688525918 0 0.064373102688525918 0.058164167833139047 0 0 0 0 29.091239632289216 -12.989095915578787 0 -12.989095915578787 8.4641122022737818 0 0 0 0 30.21838369952593 -17.024274693486063 0 -17.024274693486063 11.583651153340725 0 0 0 0 1.2975346636121685 18.68062641321535 0 18.68062641321535 -7.6358551886560235 0 0 0 0 -0.29552475002214607 0.28497113924071904 0 0.28497113924071904 0.47352985807055692 0 0 0 0 23.499236157103041 5.2178821202089694 0 5.2178821202089694 -15.536123095102766 0 0 0 0 9.5242636499374385 2.7437719606836595 0 2.7437719606836595 -9.7669736133202605 0 0 0 0 26.005183769689438 -8.7535476699394366 0 -8.7535476699394366 -30.925469567936261 0 0 0 0 56.00277265238401 15.459296683240495 0 15.459296683240495 -20.266142716350032 0 0 0 0 26.368573750549331 27.097293106302345 0 27.097293106302345 25.082229111486868 0 0 0 0 495.5803949094261 -2.4665998583183963 0 -2.4665998583183963 5.2698336578072711 0 0 0 0 500.29479733886592 -16.350014158368452 0 -16.350014158368452 33.831066433540997 0 0 0 0 485.7576189884403 -106.43373233985012 0 -106.43373233985012 9.8685044136893119 0 0 0 0 419.29936934261423 -94.329703548925593 0 -94.329703548925593 8.9327433895171762 0 0 0 0 415.67894700106228 -49.80251623411931 0 -49.80251623411931 27.590842593917287 0 0 0 0 422.23148401608796 -99.45525975284329 0 -99.45525975284329 16.609432090234343 0 0 0 0 572.25332311104557 -18.916843389890801 0 -18.916843389890801 12.83054218650777 0 0 0 0 335.65863780143775 22.426470510674605 0 22.426470510674605 -7.029074786429959 0 0 0 0 330.46867091127388 -88.676914171710365 0 -88.676914171710365 57.424565842097863 0 0 0 0 74.951414912849941 -240.04140171962567 0 -240.04140171962567 26.85616637399292 0 0 0 0 487.86074430026201 -146.44983344380677 0 -146.44983344380677 37.796081456940158 0 0 0 0 504.57842232450093 22.679326971098853 0 22.679326971098853 118.12940091376471 0 0 0 0 499.63625681522171 16.747117950430756 0 16.747117950430756 18.111124203020982 0 0 0 0 565.15474427712797 -69.481710280073742 0 -69.481710280073742 123.82375013116001 0 0 0 0 542.34499633396626 31.871583739060632 0 31.871583739060632 -41.472432990348878 0 0 0 0 346.4842774953122 21.26262918874567 0 21.26262918874567 0.048431413294061892 0 0 0 0 336.25892120166645 14.924877679465919 0 14.924877679465919 60.444256256807229 0 0 0 0 225.05445889945213 23.568815462579131 0 23.568815462579131 -33.550740345381008 0 0 0 0 256.22514395047347 109.57805489057 0 109.57805489057 33.643032755496321 0 0 0 0 701.83207030710309 185.24521138148424 0 185.24521138148424 31.239711286357235 0 0 0 0 2.6826731073807935 -0.99266166265900502 0 -0.99266166265900502 0.21746545207938461 0 0 0 0 477.68391590676765 90.03631316250528 0 90.03631316250528 -87.32853513167143 0 0 0 0 220.52394533329243 29.382667386712143 0 29.382667386712143 -81.037378839160525 0 0 0 0 401.00012887628236 203.31974951426432 0 203.31974951426432 78.832329641312796 0 0 0 0 5.1201745141178705 -1.8371427492623642 0 -1.8371427492623642 0.065662948799915355 0 0 0 0 48.110287015595532 75.301035727702143 0 75.301035727702143 50.143620464457157 0 0 0 0 318.07857294826317 -22.826490569098272 0 -22.826490569098272 0.10400064582237838 0 0 0 0 117.78577731492169 -154.85386613408511 0 -154.85386613408511 16.357391088091038 0 0 0 0 782.87362289257726 245.62829376023072 0 245.62829376023072 77.210217831849008 0 0 0 0 2.5843749429601885 -0.68261063125918575 0 -0.68261063125918575 0.022684267359035198 0 0 0 0 702.73987533547552 -124.86769691099647 0 -124.86769691099647 -5.0787668014066529 0 0 0 0 59.356169117523677 -58.733815732601435 0 -58.733815732601435 -0.13251606006103619 0 0 0 0 662.9899782206403 -11.26095616507304 0 -11.26095616507304 -97.968367586315708 0 0 0 0 2.2052719637403868 -1.4621905741376651 0 -1.4621905741376651 1.1585930900948658 0 0 0 0 608.47392197572844 -154.60259248732874 0 -154.60259248732874 347.44184674493812 0 0 0 0 458.7755557603432 15.66669744263767 0 15.66669744263767 312.45324632704825 0 0 0 0 26.883351242950084 -116.92673821846813 0 -116.92673821846813 471.0272130341292 0 0 0 0 675.96183959771406 -219.94217618950657 0 -219.94217618950657 188.23931055930117 0 0 0 0 187.52142227786771 -111.52155773699326 0 -111.52155773699326 173.10574600377549 0 0 0 0 540.50860977498451 197.26014991058395 0 197.26014991058395 -26.204008447429828 0 0 0 0 334.57038931484931 -157.24324563613561 0 -157.24324563613561 84.214142326299978 0 0 0 0 79.290867720190363 177.07515696186439 0 177.07515696186439 -24.692457281574896 0 0 0 0 154.50275452354072 -45.870682711088001 0 -45.870682711088001 18.382149326573881 0 0 0 0 127.70810004205009 -170.52701371714039 0 -170.52701371714039 81.683988637647616 0 0 0 0 27.126717250803722 123.37023037713946 0 123.37023037713946 -139.87211138370756 0 0 0 0 106.20757497745944 -113.33645345391747 0 -113.33645345391747 -47.359482776533653 0 0 0 0 137.17831740706333 -30.501088702577832 0 -30.501088702577832 -257.63457880518627 0 0 0 0 5.5300172727199524 0.77979438473828644 0 0.77979438473828644 -0.45486777745644208 0 0 0 0 248.83319213753384 -164.30945397649313 0 -164.30945397649313 -85.344988351587375 0 0 0 0 3.0739523391683861 0.55793930339765652 0 0.55793930339765652 -0.19962041107493395 0 0 0 0 343.3644835514333 297.17132303731364 0 297.17132303731364 -162.43023987274822 0 0 0 0 139.50450848675109 114.57460652274199 0 114.57460652274199 74.567322014144224 0 0 0 0 452.74519618753584 101.890901969206 0 101.890901969206 46.878879827182445 0 0 0 0 508.86197096869682 12.100933502955773 0 12.100933502955773 -84.38436040072142 0 0 0 0 207.95190789903245 -51.362287570498815 0 -51.362287570498815 -23.970947473342932 0 0 0 0 417.56302610957209 -58.326648030613697 0 -58.326648030613697 -111.09855409888866 0 0 0 0 483.24710434160261 -57.682780198760405 0 -57.682780198760405 -63.967847115540835 0 0 0 0 452.94344190141419 4.6709934009075909 0 4.6709934009075909 -22.827455690503214 0 0 0 0 447.50556535704527 -100.30100254307266 0 -100.30100254307266 13.493415090768146 0 0 0 0 477.37490327810065 -9.2791207277222867 0 -9.2791207277222867 -89.913346080094286 0 0 0 0 64.03640468571848 -22.480350522949749 0 -22.480350522949749 -61.629776766342701 0 0 0 0 81.45189613004186 -12.694017764432211 0 -12.694017764432211 19.129592904569648 0 0 0 0 71.115643393784012 8.6853822004392924 0 8.6853822004392924 -18.721700662885915 0 0 0 0 192.37680995225674 40.266925127392419 0 40.266925127392419 -49.818669875013114 0 0 0 0 10.016142670206136 34.924551627085449 0 34.924551627085449 -85.82808956718344 0 0 0 0 -49.49587445744146 49.543119779865222 0 49.543119779865222 -35.35976090489428 0 0 0 0 21.278113662992837 -0.94859769725688636 0 -0.94859769725688636 -21.017977174619276 0 0 0 0 -31.849603806748746 36.112486721486448 0 36.112486721486448 -27.119303628708661 0 0 0 0 16.216991919513021 -8.8916323992790574 0 -8.8916323992790574 -12.690002452680609 0 0 0 0 60.171290015236082 35.063712516035395 0 35.063712516035395 -32.694697170627236 0 0 0 0 238.35112688484332 38.095118636845825 0 38.095118636845825 -34.960354800043625 0 0 0 0 150.24908748210146 -73.361988326229024 0 -73.361988326229024 70.879557618025018 0 0 0 0 269.88299364251725 3.5743018759271337 0 3.5743018759271337 -15.38719594142583 0 0 0 0 136.21396332384393 -44.889701238573537 0 -44.889701238573537 -30.69911381908166 0 0 0 0 -1.4348534815866287 -0.54897982178843385 0 -0.54897982178843385 1.6801090424838259 0 0 0 0 1.5179444712787706 -1.4641229914174012 0 -1.4641229914174012 0.33777389814698333 0 0 0 0 6.9336529165982732 -6.1234552490767706 0 -6.1234552490767706 4.0985554261360067 0 0 0 0 22.098459537858616 -108.67752408527102 0 -108.67752408527102 -84.603897681238664 0 0 0 0 -25.208534367468928 -2.722844086147802 0 -2.722844086147802 -177.16321472279139 0 0 0 0 121.4492558304064 -163.54712174408954 0 -163.54712174408954 -0.97296744340684427 0 0 0 0 39.944569038387272 -44.078784935022298 0 -44.078784935022298 77.333998795886345 0 0 0 0 158.38517431273613 -197.23168650376911 0 -197.23168650376911 -102.45676174640249 0 0 0 0 253.72002550710022 32.586698124428324 0 32.586698124428324 -226.92087950291562 0 0 0 0 1.0726180679288646 -0.45701227794281962 0 -0.45701227794281962 -0.26006557172793798 0 0 0 0 272.52643602963417 -79.61492070240962 0 -79.61492070240962 -16.841178971122474 0 0 0 0 117.51581286358953 0.51381559960446666 0 0.51381559960446666 27.849548270902574 0 0 0 0 114.61262542328166 -27.944367930032154 0 -27.944367930032154 -3.0631767422761413 0 0 0 0 49.143468827121978 -41.225894102293154 0 -41.225894102293154 22.03571607690759 0 0 0 0 33.633683195012054 -75.362973406253701 0 -75.362973406253701 -17.11662178183667 0 0 0 0 4.8624171421379287 -0.22472271783306041 0 -0.22472271783306041 -2.530995606788963 0 0 0 0 68.212816067618405 -17.472806472346459 0 -17.472806472346459 14.975112255011709 0 0 0 0 -4.0969325117393964 -33.600763253501569 0 -33.600763253501569 42.727458359918757 0 0 0 0 116.20654817099057 -67.389111487228547 0 -67.389111487228547 7.5444849454153271 0 0 0 0 123.17631912258366 -75.281151199118995 0 -75.281151199118995 -14.534542299432776 0 0 0 0 159.82198520096699 -123.01090950396295 0 -123.01090950396295 2.258095342292691 0 0 0 0 2.4861528939471711 0.16872777798885252 0 0.16872777798885252 -0.21815151600894839 0 0 0 0 163.5544682161908 -178.07446840613079 0 -178.07446840613079 38.100007915711785 0 0 0 0 -6.5081705743214116 93.03860895613272 0 93.03860895613272 -141.97306110146741 0 0 0 0 83.260904409567956 -154.22873379590084 0 -154.22873379590084 31.903380398059632 0 0 0 0 34.306462552169251 -72.031653748888516 0 -72.031653748888516 -5.3699650416793503 0 0 0 0 128.88385826990452 -124.68045044247165 0 -124.68045044247165 -22.754225215229972 0 0 0 0 108.86311045045113 -161.68905417221089 0 -161.68905417221089 75.722799212118645 0 0 0 0 98.910969860098703 -120.86674998137326 0 -120.86674998137326 3.4720297079995177 0 0 0 0 34.026739805116449 -92.674983049955756 0 -92.674983049955756 81.216687158481065 0 0 0 0 106.63997105772432 -183.43653498668397 0 -183.43653498668397 194.65927392340188 0 0 0 0 204.33465494192387 -113.24356924318029 0 -113.24356924318029 87.459474744247188 0 0 0 0 19.098057172481276 10.623294091204514 0 10.623294091204514 102.05499406940839 0 0 0 0 -11.145345380482468 -33.844029895172412 0 -33.844029895172412 211.62493845448466 0 0 0 0 29.730919203709163 -40.904906898493664 0 -40.904906898493664 76.824267715382348 0 0 0 0 -8.3100078828701953 7.8202601442046671 0 7.8202601442046671 77.540831708782434 0 0 0 0 25.945115082074153 -0.77210988347582088 0 -0.77210988347582088 7.2955579907544461 0 0 0 0 -48.581381756058015 -7.8182083034137637 0 -7.8182083034137637 7.4890527571366707 0 0 0 0 -4.5855897515721153 -21.880787564403274 0 -21.880787564403274 -19.020213618991164 0 0 0 0 18.141172868068679 -38.379143488515865 0 -38.379143488515865 64.991512835003618 0 0 0 0 5.4040041499620202 -3.5695760547307458 0 -3.5695760547307458 2.7420213881186237 0 0 0 0 11.925790740066766 -1.8466581163554951 0 -1.8466581163554951 -0.61278121801754093 0 0 0 0 11.259132774556377 -12.032062777538236 0 -12.032062777538236 -2.0222587991353294 0 0 0 0 9.3797952952568266 -4.4423517182456616 0 -4.4423517182456616 0.00097979347108861762 0 0 0 0 9.0509371191979042 -2.2166088514611966 0 -2.2166088514611966 -0.94012886018670472 0 0 0 0 9.8298852966217964 -33.921304419559419 0 -33.921304419559419 54.409159135833363 0 0 0 0 11.406594553809555 0.23605202995514699 0 0.23605202995514699 0.16654318305335861 0 0 0 0 4.839521934930417 -17.967430915201618 0 -17.967430915201618 79.608569605402238 0 0 0 0 -6.6116747533142188 -47.966098854950843 0 -47.966098854950843 50.173455221307336 0 0 0 0 19.272915716776879 -46.168276246975587 0 -46.168276246975587 31.046837580197234 0 0 0 0 41.63217390516229 -83.942597404799699 0 -83.942597404799699 85.272403490634417 0 0 0 0 14.877343428275708 -58.568553617661649 0 -58.568553617661649 61.88215071339522 0 0 0 0 77.646427378916997 -69.44394054814677 0 -69.44394054814677 7.6022456706070471 0 0 0 0 61.590213462839529 -88.206893884076635 0 -88.206893884076635 55.982792984938101 0 0 0 0 39.803459929984456 -69.928154411184494 0 -69.928154411184494 40.79145403130758 0 0 0 0 94.128998768559541 -84.863648219598133 0 -84.863648219598133 22.02348625513406 0 0 0 0 37.015579645612206 -42.785110916308476 0 -42.785110916308476 41.574927589145375 0 0 0 0 -44.150880493063596 -39.982159273357816 0 -39.982159273357816 58.418873056369662 0 0 0 0 -32.679577389582846 -74.089674410157741 0 -74.089674410157741 109.05620033370977 0 0 0 0 19.307617547805421 -83.228192789615633 0 -83.228192789615633 50.726026280456011 0 0 0 0 0.042357726114460093 -64.040140886542645 0 -64.040140886542645 27.229382011879011 0 0 0 0 -1.7671909336474982 -59.70302067622913 0 -59.70302067622913 31.667256847214389 0 0 0 0 -5.1822605930137797 -53.852126491517595 0 -53.852126491517595 63.141968055395665 0 0 0 0 -0.97224207396357087 -20.749274396304827 0 -20.749274396304827 -8.8273541333723529 0 0 0 0 4.0543811002153234 -36.660352263153925 0 -36.660352263153925 35.892720667800802 0 0 0 0 14.586160366648983 -1.1175868808265788 0 -1.1175868808265788 -0.40998882059114711 0 0 0 0 13.001263862090127 -1.5048028944098715 0 -1.5048028944098715 -0.0025335629542322874 0 0 0 0 14.385116205498285 -1.3630169288082574 0 -1.3630169288082574 -0.65605759969523381 0 0 0 0 37.097040479618045 -25.904979518638811 0 -25.904979518638811 -99.738859135653001 0 0 0 0 12.806106195625034 -1.9331524191496443 0 -1.9331524191496443 -0.87739936170376054 0 0 0 0 15.991639137093429 -0.70464052308247238 0 -0.70464052308247238 -0.58238610372039057 0 0 0 0 13.708042320855384 1.3648515586961181 0 1.3648515586961181 -1.891668008330591 0 0 0 0 14.79220878974229 -0.78250197688185885 0 -0.78250197688185885 0.0042755746650371546 0 0 0 0 37.862039836646545 -67.171892942866123 0 -67.171892942866123 -34.277941559105898 0 0 0 0 21.819424342272214 2.7681865956290608 0 2.7681865956290608 -52.147741510287858 0 0 0 0 82.386634390251857 5.7211938585655275 0 5.7211938585655275 -159.36381782335809 0 0 0 0 197.84546226429484 -67.486701447491384 0 -67.486701447491384 -24.412261090516452 0 0 0 0 59.894544106865851 -157.5534536750416 0 -157.5534536750416 118.96783167966748 0 0 0 0 281.25795153519221 54.741813819853377 0 54.741813819853377 -37.219241509342055 0 0 0 0 198.70750839661378 -91.332515036227107 0 -91.332515036227107 16.439845255610635 0 0 0 0 46.700042052605568 34.10846329924334 0 34.10846329924334 -33.226967772599551 0 0 0 0 144.10449159010386 106.81433228283845 0 106.81433228283845 -21.305305966280798 0 0 0 0 158.43641852758992 139.32603368280093 0 139.32603368280093 -111.04803319641906 0 0 0 0 2.5336517272938863 -1.7328879423961947 0 -1.7328879423961947 1.3444572367868464 0 0 0 0 -41.366013904098509 -63.324414268302988 0 -63.324414268302988 146.6053905660745 0 0 0 0 214.22943898227413 160.29728662526901 0 160.29728662526901 2.3795351017485018 0 0 0 0 -51.83405833348661 -6.5610526376277818 0 -6.5610526376277818 46.920643566577866 0 0 0 0 -22.592782407010418 -43.756023802436459 0 -43.756023802436459 -57.436197138618695 0 0 0 0 -3.0750472580784844 -35.33490170984637 0 -35.33490170984637 37.400193627562615 0 0 0 0 -39.848068990822867 -18.498064564161808 0 -18.498064564161808 29.715431457860518 0 0 0 0 -93.869145548147571 -48.7574724312596 0 -48.7574724312596 4.2582595292936389 0 0 0 0 -21.653126486729889 -56.181363253166523 0 -56.181363253166523 -11.554191179037389 0 0 0 0 -65.474569374748171 -101.81203452780753 0 -101.81203452780753 -44.357829123239938 0 0 0 0 51.272571736573809 -34.472042763377999 0 -34.472042763377999 85.925493293930685 0 0 0 0 6.2723720657385407 -4.7135442877232583 0 -4.7135442877232583 3.2432514826141494 0 0 0 0 138.25167896413404 -104.94113099465955 0 -104.94113099465955 -65.522389107849222 0 0 0 0 317.72457447101442 -22.35903943958067 0 -22.35903943958067 1.6585220330881612 0 0 0 0 -14.630027774308473 -16.688150854456012 0 -16.688150854456012 -87.738071867576878 0 0 0 0 -54.09878962744915 63.545595949367225 0 63.545595949367225 51.593765209327103 0 0 0 0 -12.522008709554939 -0.85911884284212192 0 -0.85911884284212192 2.2479355031588284 0 0 0 0 -11.376278905709114 -5.5745883304020936 0 -5.5745883304020936 0.56820524506809988 0 0 0 0 -12.458744570108593 -5.1709504606602366 0 -5.1709504606602366 9.846970389002081 0 0 0 0 -97.351780348119064 -34.657155033496451 0 -34.657155033496451 23.832304321744914 0 0 0 0 170.32082628264016 -51.851179100447212 0 -51.851179100447212 48.095038548997991 0 0 0 0 0.1059084699890871 -0.1014828404343735 0 -0.1014828404343735 0.79014663832318899 0 0 0 0 72.173321503471016 35.80094123903757 0 35.80094123903757 -4.257773635129638 0 0 0 0 170.2416306722771 -100.25487859494581 0 -100.25487859494581 46.103116065004855 0 0 0 0 2.3177902686243286 1.2107738185937968 0 1.2107738185937968 -0.19048768514153025 0 0 0 0 44.851106113635979 -7.7750059225874111 0 -7.7750059225874111 -85.540673626181615 0 0 0 0 -46.814662121216315 16.855534280494453 0 16.855534280494453 -60.642114840417435 0 0 0 0 107.84900292083148 19.642718464827681 0 19.642718464827681 -72.522417737780188 0 0 0 0 0.99028590461676558 0.47834187749158197 0 0.47834187749158197 0.057738264564449526 0 0 0 0 -42.971733881260178 188.25318587660271 0 188.25318587660271 -103.36395317770007 0 0 0 0 300.67096358826984 -169.87783136575422 0 -169.87783136575422 64.479283384501883 0 0 0 0 260.02644002059969 -198.39830475625388 0 -198.39830475625388 0.21989356825997675 0 0 0 0 2.4633597690071483 -1.4881274679976115 0 -1.4881274679976115 0.76411863283584447 0 0 0 0 308.9365920550099 64.48094970865418 0 64.48094970865418 -29.530727217424101 0 0 0 0 149.61660161892723 -42.466588482838802 0 -42.466588482838802 9.464566413977991 0 0 0 0 60.368205886578778 -25.235141252060586 0 -25.235141252060586 6.686029096629909 0 0 0 0 218.08007322355206 -68.148429579885715 0 -68.148429579885715 -6.0481176306643647 0 0 0 0 93.775913695280906 -85.150475156672428 0 -85.150475156672428 -3.0323938029025612 0 0 0 0 -0.39659411561842717 8.6339083748752046 0 8.6339083748752046 7.7434810620036956 0 0 0 0 -0.081019561549250163 -0.083877989508506445 0 -0.083877989508506445 2.2756027733299131 0 0 0 0 -12.591677225769672 0.90649196768310958 0 0.90649196768310958 14.121688380545947 0 0 0 0 -14.706290842334965 5.2702918318685761 0 5.2702918318685761 5.4459607457368975 0 0 0 0 -6.4631948683336304 0.41354050315874247 0 0.41354050315874247 0.63794430933262447 0 0 0 0 13.662584239896205 -0.87615373555004794 0 -0.87615373555004794 0.322356622435791 0 0 0 0 0.1219183885223174 3.1314260863198342 0 3.1314260863198342 3.8427781882568866 0 0 0 0 6.928297679048228 0.52706728816929171 0 0.52706728816929171 -1.4523359884960882 0 0 0 0 -2.1096178244301882 -1.1409703129885713 0 -1.1409703129885713 -1.7164981781475035 0 0 0 0 -2.9500300849886116 3.7681947165915517 0 3.7681947165915517 0.82613737704286905 0 0 0 0 32.046455198929834 1.9578684104411508 0 1.9578684104411508 6.9282038935581909 0 0 0 0 -1.0962404110656454 -3.7806098941467834 0 -3.7806098941467834 2.4622430958466706 0 0 0 0 11.100541913559937 -2.4761732343879856 0 -2.4761732343879856 -3.6388017058703497 0 0 0 0 0.35969185074600318 0.60062118626410665 0 0.60062118626410665 1.0425329980268998 0 0 0 0 2.8258625594030349 0.88153674619817135 0 0.88153674619817135 -0.52631537307025145 0 0 0 0 199.46264210545451 -75.149014098236648 0 -75.149014098236648 -234.21152260431325 0 0 0 0 0.057743451067999274 0.16178689500269949 0 0.16178689500269949 0.77447815866685854 0 0 0 0 199.80770989399753 60.914322067287571 0 60.914322067287571 47.987429409633137 0 0 0 0 -49.314704480884302 69.841611318286539 0 69.841611318286539 128.07604483130581 0 0 0 0 0.58125745684059638 0.36973209248547256 0 0.36973209248547256 1.6301594446172922 0 0 0 0 170.86951685200074 220.50035476846756 0 220.50035476846756 200.49837966543555 0 0 0 0 -1.4531238780546119 -108.00246967860167 0 -108.00246967860167 149.65234029305384 0 0 0 0 126.84353014109365 -237.07419437223211 0 -237.07419437223211 258.65538540762805 0 0 0 0 442.47731416749775 -96.212455598161796 0 -96.212455598161796 -22.720504863952556 0 0 0 0 196.59999288057315 -54.803963596861479 0 -54.803963596861479 -20.936843362786931 0 0 0 0 143.50108292028381 -153.10865686484158 0 -153.10865686484158 90.878635269464098 0 0 0 0 -41.762378586880004 -69.012215185611581 0 -69.012215185611581 56.728767384161074 0 0 0 0 171.45271242132731 -9.0963838206614582 0 -9.0963838206614582 -31.590997811138806 0 0 0 0 178.79729394653987 -37.396806478115082 0 -37.396806478115082 -36.568589384221013 0 0 0 0 130.59699735669437 14.411544046732729 0 14.411544046732729 7.8608857371896192 0 0 0 0 -36.105071993602905 50.329193768950745 0 50.329193768950745 1.4685481585803473 0 0 0 0 154.26949516567674 68.759778453580481 0 68.759778453580481 -61.96190665041668 0 0 0 0 -22.483290762986144 -180.62209998021916 0 -180.62209998021916 -1.6605518149135783 0 0 0 0 0.53810224451378019 1.2567273844886273 0 1.2567273844886273 1.7107556348550272 0 0 0 0 206.44707688332437 3.2385588273592134 0 3.2385588273592134 -45.643824353120948 0 0 0 0 -1.1223712684891325 -4.0981739343449171 0 -4.0981739343449171 34.219653171193244 0 0 0 0 0.25529050934346742 57.00092656741684 0 57.00092656741684 99.352737578327648 0 0 0 0 95.5111791954605 127.86183637446545 0 127.86183637446545 -22.228131289839354 0 0 0 0 177.66979685249817 -43.352424009752156 0 -43.352424009752156 -58.907223610724941 0 0 0 0 -113.29834202543498 1.0597292040583781 0 1.0597292040583781 -62.350158335714994 0 0 0 0 15.568124203206025 -13.231214719856295 0 -13.231214719856295 -181.50313829484773 0 0 0 0 14.217563465823332 34.457589515462999 0 34.457589515462999 -28.454369291651879 0 0 0 0 -10.596499025896264 62.597888900615402 0 62.597888900615402 -58.756957510328476 0 0 0 0 54.779856703852829 -5.7141874796541856 0 -5.7141874796541856 6.9765329320080127 0 0 0 0 -93.031651008714107 -154.53281611866748 0 -154.53281611866748 -2.5543313463055881 0 0 0 0 4.6985787057417703 -4.538081597233381 0 -4.538081597233381 4.0173272157728848 0 0 0 0 -104.082259239216 -8.7325156176292467 0 -8.7325156176292467 -274.25328697796226 0 0 0 0 50.120536199947537 3.5696001453805479 0 3.5696001453805479 -1.2547123061440288 0 0 0 0 43.592115211078607 7.3439215806404547 0 7.3439215806404547 -1.1898234075042637 0 0 0 0 18.962186611195648 8.683444383954452 0 8.683444383954452 8.0070458687544033 0 0 0 0 8.2284199798223199 0.77508056182819018 0 0.77508056182819018 5.960853183647032 0 0 0 0 2.0055462515697773 -0.45615629923131529 0 -0.45615629923131529 0.85760912606124862 0 0 0 0 1.0144024955659159 -0.67058838555605504 0 -0.67058838555605504 0.27331829820086317 0 0 0 0 5.5491918200054311 -5.4504211004679464 0 -5.4504211004679464 3.9656943148957593 0 0 0 0 8.4748033468795256 -11.734585432763083 0 -11.734585432763083 4.8736978504705348 0 0 0 0 -66.433108248536882 -56.256919944962746 0 -56.256919944962746 -14.965720382064298 0 0 0 0 -137.67242506571165 -95.666957257466663 0 -95.666957257466663 -22.046213072035044 0 0 0 0 -53.062868262026313 -65.312065827135328 0 -65.312065827135328 -48.427519160392983 0 0 0 0 -14.640449936578079 -5.6295704745167452 0 -5.6295704745167452 -70.030083113276845 0 0 0 0 5.4237332430793685 -1.6692400249769435 0 -1.6692400249769435 1.8157649280113048 0 0 0 0 12.629032703895973 -12.661517168563478 0 -12.661517168563478 3.6823762768526365 0 0 0 0 118.903380463129 3.6025553582506546 0 3.6025553582506546 -21.338125290568712 0 0 0 0 38.498316804550996 -12.381447298007409 0 -12.381447298007409 -11.07060992460714 0 0 0 0 -5.416488834996926 -16.188346223048981 0 -16.188346223048981 -34.093669428982366 0 0 0 0 23.559283843103913 -48.283819258493651 0 -48.283819258493651 -0.95002961489095128 0 0 0 0 -0.1568685398569869 -2.8846955871199 0 -2.8846955871199 6.8071622315482614 0 0 0 0 -7.4657845506999365 -24.608381331027761 0 -24.608381331027761 -7.2862541167820876 0 0 0 0 -57.516060074702182 -17.01888243976331 0 -17.01888243976331 7.596734981885092 0 0 0 0 -29.820864976381927 -0.49438807970890847 0 -0.49438807970890847 40.376852640034784 0 0 0 0 37.530845538751237 -39.968089120802539 0 -39.968089120802539 29.847987661161543 0 0 0 0 157.61472016143307 -37.373041751562774 0 -37.373041751562774 -15.523628938918183 0 0 0 0 -122.73750297028346 -22.102402092139329 0 -22.102402092139329 238.45532639020033 0 0 0 0 253.04951827731202 -124.48325320421776 0 -124.48325320421776 60.831081359218068 0 0 0 0 158.36213102445981 285.46569120805816 0 285.46569120805816 -29.974180039132136 0 0 0 0 -9.8642242041441932 74.901262618733398 0 74.901262618733398 26.723619623227368 0 0 0 0 -90.207586144637048 127.52794512332942 0 127.52794512332942 4.4726615328276296 0 0 0 0 22.667117243386656 15.390915066321224 0 15.390915066321224 9.259819312177342 0 0 0 0 1.4332940840740775 51.067395248798746 0 51.067395248798746 -44.518266697048972 0 0 0 0 92.935242444532832 -61.955523828412993 0 -61.955523828412993 -218.57530299973791 0 0 0 0 9.0337042315435738 -3.7324744705639286 0 -3.7324744705639286 0.40282150334965822 0 0 0 0 -165.95877107985234 198.64200699022498 0 198.64200699022498 -30.625734502990326 0 0 0 0 2.1597099056566611 -0.41655801221420496 0 -0.41655801221420496 -1.9651102888402763 0 0 0 0 403.94909744474717 4.2603133180423356 0 4.2603133180423356 -221.15408299843148 0 0 0 0 36.768378164259957 -266.06693821212764 0 -266.06693821212764 145.46932923014441 0 0 0 0 3.4473283967653892 -1.4555310925028064 0 -1.4555310925028064 0.6816886291956511 0 0 0 0 217.36030024805223 84.662199844926135 0 84.662199844926135 31.983025890323063 0 0 0 0 -131.52856575680562 -315.06647672321378 0 -315.06647672321378 270.99580806711299 0 0 0 0 223.47577869163251 440.30097068033615 0 440.30097068033615 525.14482031478406 0 0 0 0 -80.555382059528711 101.13552314346209 0 101.13552314346209 105.17331599476785 0 0 0 0 159.15661047419235 -4.9075415407476282 0 -4.9075415407476282 62.545079860927956 0 0 0 0 104.95515095216251 154.01435053046532 0 154.01435053046532 -63.335291652110847 0 0 0 0 172.66579576188997 83.289817306657653 0 83.289817306657653 -38.718748014052224 0 0 0 0 5.9722892809973054 0.28149274183282014 0 0.28149274183282014 -0.15571597471536916 0 0 0 0 229.14601580416343 59.174618865758603 0 59.174618865758603 -34.671273805579041 0 0 0 0 179.89065076679071 47.568549003902412 0 47.568549003902412 -13.552598149324623 0 0 0 0 145.42332848682236 63.100666486727683 0 63.100666486727683 -19.84950313889539 0 0 0 0 146.84773757796404 54.142893690437731 0 54.142893690437731 4.2615025245750564 0 0 0 0 95.813993390486758 69.207586181650171 0 69.207586181650171 0.21525477701280504 0 0 0 0 185.05067312336814 47.367985592579572 0 47.367985592579572 -19.768441394482267 0 0 0 0 143.38881156680145 63.889377325076723 0 63.889377325076723 -21.823779463597006 0 0 0 0 102.51717448489944 23.240104768538885 0 23.240104768538885 -21.155725953959561 0 0 0 0 69.802576790615603 -85.270142251648466 0 -85.270142251648466 -69.799159958768598 0 0 0 0 2.5621154325728668 -2.1284131363026626 0 -2.1284131363026626 1.2403935289762686 0 0 0 0 103.94231293701978 52.06868052487259 0 52.06868052487259 -8.6800421138092929 0 0 0 0 187.18261936316173 36.653361920224917 0 36.653361920224917 -27.316341088816358 0 0 0 0 1.2057426809000873 -1.0321110837014249 0 -1.0321110837014249 0.6254981405837009 0 0 0 0 195.19117516559868 25.48461270637198 0 25.48461270637198 -19.584397935310221 0 0 0 0 -105.94378122733269 -119.28626613943302 0 -119.28626613943302 -1.8112088959067307 0 0 0 0 39.104724228354371 7.8617636692809256 0 7.8617636692809256 -82.8925426043904 0 0 0 0 -0.11320100415196066 -102.63360734307257 0 -102.63360734307257 30.053842827268497 0 0 0 0 29.074604193941923 -34.134551608237757 0 -34.134551608237757 12.161162948053978 0 0 0 0 -0.83114764387028117 -82.973103947447044 0 -82.973103947447044 -30.118987559121674 0 0 0 0 41.3452907492549 -143.39888044078072 0 -143.39888044078072 -75.689575913013002 0 0 0 0 143.50611092698091 105.5483703983852 0 105.5483703983852 -11.997497003366277 0 0 0 0 10.822957755184397 1.6829297416670856 0 1.6829297416670856 -0.21336813858420586 0 0 0 0 11.842743952307501 -16.833180975866355 0 -16.833180975866355 -118.08128535281985 0 0 0 0 215.16774632444503 -103.60940015330254 0 -103.60940015330254 76.990304420821161 0 0 0 0 19.057263921935373 -79.520397593288976 0 -79.520397593288976 21.306155982930491 0 0 0 0 35.802189043906765 -56.746402552047172 0 -56.746402552047172 83.280181391151018 0 0 0 0 2.5793429417212135 -0.39873822007742987 0 -0.39873822007742987 -0.70955226206509292 0 0 0 0 -47.570387009634942 -53.837698320580671 0 -53.837698320580671 40.851954286833916 0 0 0 0 -43.864747844283102 -10.469138734472413 0 -10.469138734472413 22.277164879560019 0 0 0 0 13.195757650200903 -37.96858185182333 0 -37.96858185182333 15.553928608345927 0 0 0 0 16.889844161323708 -47.792543637860817 0 -47.792543637860817 13.467972970503638 0 0 0 0 -7.7544225077617739 -20.356833282152763 0 -20.356833282152763 6.1262359227587808 0 0 0 0 20.111313354645972 -12.26006239261477 0 -12.26006239261477 -18.56175845526019 0 0 0 0 -17.435608825811869 -29.912183992170753 0 -29.912183992170753 5.0067482897491118 0 0 0 0 57.474781572956999 1.0070501717041225 0 1.0070501717041225 -26.545053876221658 0 0 0 0 39.880457034378196 -32.226304968154295 0 -32.226304968154295 -11.77960554237459 0 0 0 0 111.23085702805474 -11.489010665731115 0 -11.489010665731115 -28.173914110479984 0 0 0 0 61.460821140970438 -28.432684818207406 0 -28.432684818207406 -9.1797049338306351 0 0 0 0 59.880931724699622 -23.750989924264616 0 -23.750989924264616 -12.983148173431204 0 0 0 0 86.933297140029026 -74.694097077246056 0 -74.694097077246056 1.0362965508302295 0 0 0 0 130.1433878696771 -48.735547940944514 0 -48.735547940944514 -10.396530778744022 0 0 0 0 122.98155588830195 -24.328297068695903 0 -24.328297068695903 8.9196502386163274 0 0 0 0 89.621283776867131 55.791814068935139 0 55.791814068935139 25.79841383666465 0 0 0 0 177.65722224568799 15.939528439330402 0 15.939528439330402 -29.424502487854284 0 0 0 0 39.117433479144893 -3.5016163615741789 0 -3.5016163615741789 -0.89757371418029663 0 0 0 0 35.894835722197968 13.226225551867913 0 13.226225551867913 6.6223263137002846 0 0 0 0 91.68168677999347 -7.1744107562373642 0 -7.1744107562373642 -1.4690499072133854 0 0 0 0 49.813457853953878 -4.8196380119643436 0 -4.8196380119643436 -1.6008787873547021 0 0 0 0 84.658372832978785 27.624695186490783 0 27.624695186490783 7.1919353902589105 0 0 0 0 98.939485126993532 7.6028186681321017 0 7.6028186681321017 -30.046919851214589 0 0 0 0 107.95646132023012 18.670372260852318 0 18.670372260852318 -21.800303432732278 0 0 0 0 93.780536743841367 2.9615750439512283 0 2.9615750439512283 -28.010030551973145 0 0 0 0 86.632189581114631 4.7798017453003938 0 4.7798017453003938 -26.469189721875352 0 0 0 0 127.23400734410825 -5.7962043236584293 0 -5.7962043236584293 -38.280404412970597 0 0 0 0 90.481784827692536 -15.66508833597446 0 -15.66508833597446 -12.223906252469476 0 0 0 0 -3.1834072706901768 -3.6315954006190516 0 -3.6315954006190516 3.3634374710895152 0 0 0 0 106.37754243383279 -28.225850441656803 0 -28.225850441656803 -2.6339118651452225 0 0 0 0 75.112605016971429 -71.81064365371401 0 -71.81064365371401 66.192211398793233 0 0 0 0 -1.8854706406108068 -4.0240985552267876 0 -4.0240985552267876 4.1191718701625364 0 0 0 0 166.05954720438422 -54.962996588749021 0 -54.962996588749021 -14.52474401098209 0 0 0 0 -20.260534317141719 -1.2122736759710051 0 -1.2122736759710051 6.3609200790417617 0 0 0 0 74.582254461753109 9.4322667942655016 0 9.4322667942655016 -9.7786550419936304 0 0 0 0 156.46072978815732 18.961102135413231 0 18.961102135413231 -22.944635652733893 0 0 0 0 -30.297079177603337 -69.689215442625226 0 -69.689215442625226 -14.533176121190508 0 0 0 0 43.390128561459278 -4.9193136146290328 0 -4.9193136146290328 -50.996608896103226 0 0 0 0 58.122709200183635 -20.699309231679251 0 -20.699309231679251 -36.068507182239557 0 0 0 0 1.6576235713607268 -0.86092909474226076 0 -0.86092909474226076 -0.16843565223630402 0 0 0 0 -53.161773058384142 -24.274516103289265 0 -24.274516103289265 -15.042868033597927 0 0 0 0 26.317698899396419 9.6183297669721242 0 9.6183297669721242 -41.473366346602688 0 0 0 0 87.153998672281944 -3.0186334515275401 0 -3.0186334515275401 -36.972263293307037 0 0 0 0 32.595958322359365 -5.3035522730172886 0 -5.3035522730172886 -22.539559846992603 0 0 0 0 61.914511799255706 -40.4416251939505 0 -40.4416251939505 -19.895307894783471 0 0 0 0 139.94783921512499 -28.136259419137048 0 -28.136259419137048 -92.952181889969211 0 0 0 0 0.75572452235368814 -0.39532324611264791 0 -0.39532324611264791 -0.049571358728248693 0 0 0 0 -41.803855279796835 -78.598854384175283 0 -78.598854384175283 -39.299740229528425 0 0 0 0 139.33027689781557 34.404555766408293 0 34.404555766408293 -19.155601008744441 0 0 0 0 20.788233369911836 -2.0282563837446785 0 -2.0282563837446785 10.061598654451274 0 0 0 0 87.096805797533307 3.9158094608111185 0 3.9158094608111185 8.7942565275838405 0 0 0 0 -8.8637928773473504 76.512063752015493 0 76.512063752015493 -3.1818741726075217 0 0 0 0 246.32718578559343 98.000011490774753 0 98.000011490774753 -2.8193353926441063 0 0 0 0 594.53210082643091 -76.359069238064819 0 -76.359069238064819 109.29623928076954 0 0 0 0 452.10358994645139 -44.112459476725576 0 -44.112459476725576 102.02732429229248 0 0 0 0 625.2907468196554 -94.481665583537279 0 -94.481665583537279 43.207665879324558 0 0 0 0 667.61289123425286 -237.82423995138441 0 -237.82423995138441 93.218497913357439 0 0 0 0 2.0297435398580959 0.99572952365829437 0 0.99572952365829437 0.32991588769212532 0 0 0 0 433.72842327429134 -107.69947913407748 0 -107.69947913407748 -18.377234428390977 0 0 0 0 505.50733674159255 -161.37731212651522 0 -161.37731212651522 5.7442478238362042 0 0 0 0 385.12891005535494 -178.22763997441194 0 -178.22763997441194 87.689720991853562 0 0 0 0 488.96683857715379 -5.3364136604344381 0 -5.3364136604344381 -15.037194738970655 0 0 0 0 390.8609539216626 -5.9370895909043098 0 -5.9370895909043098 -85.248163297696323 0 0 0 0 420.13231286939208 -52.107035930163519 0 -52.107035930163519 -44.534221374982423 0 0 0 0 341.9753478043167 -89.844435465683006 0 -89.844435465683006 -21.70727729490461 0 0 0 0 392.73371869887615 -62.870064883138639 0 -62.870064883138639 -20.30525882741081 0 0 0 0 268.27957916249579 -158.60614285221413 0 -158.60614285221413 15.879922254727754 0 0 0 0 343.53315023641699 -100.36627802437692 0 -100.36627802437692 48.622954945085439 0 0 0 0 4.1425087148235917 2.7928366656099044 0 2.7928366656099044 0.53044325745024512 0 0 0 0 307.46919753441148 -105.75860803630805 0 -105.75860803630805 23.219187844696833 0 0 0 0 63.195623068490022 40.735713827412155 0 40.735713827412155 -10.15283036736767 0 0 0 0 323.85854003458371 -148.08944551095885 0 -148.08944551095885 81.16029432938808 0 0 0 0 -0.55762799371768779 -49.644218970592476 0 -49.644218970592476 -45.509900799923408 0 0 0 0 20.789840767114583 -23.569500514634882 0 -23.569500514634882 -19.59552777462676 0 0 0 0 5.6951442379581074 2.9006523309660199 0 2.9006523309660199 0.55327600025867096 0 0 0 0 106.85460881779636 48.360602576289374 0 48.360602576289374 21.295318685127029 0 0 0 0 -14.417964672868038 -25.907394409250713 0 -25.907394409250713 7.7113256371590069 0 0 0 0 1.0940977878522702 0.6192800465694881 0 0.6192800465694881 0.32086028945256234 0 0 0 0 179.87018564253412 -131.07943315060174 0 -131.07943315060174 121.27500637006463 0 0 0 0 321.34282297089158 -50.91761031941472 0 -50.91761031941472 5.518313559593139 0 0 0 0 335.48193167916361 -34.058685270292919 0 -34.058685270292919 -15.061398832247335 0 0 0 0 289.58099242810113 -23.980090210182702 0 -23.980090210182702 41.945499816504054 0 0 0 0 325.90831588759465 -5.8272074785176455 0 -5.8272074785176455 -58.777632284937312 0 0 0 0 282.98575916031768 6.4651669865310843 0 6.4651669865310843 -40.424417764122403 0 0 0 0 211.00621018141646 -52.600084946384129 0 -52.600084946384129 5.6852508359839984 0 0 0 0 79.253010225737853 -15.292247491594779 0 -15.292247491594779 -20.064523342019044 0 0 0 0 221.55477823875754 -65.50551981851973 0 -65.50551981851973 -13.50307049472255 0 0 0 0 131.37282520008193 -70.078082920049397 0 -70.078082920049397 -37.78433460561449 0 0 0 0 202.97699312955228 38.921044671393361 0 38.921044671393361 -49.996552625796028 0 0 0 0 262.30734515660879 -16.465452664276015 0 -16.465452664276015 -47.08348111281137 0 0 0 0 75.552773918032472 -24.008087086333745 0 -24.008087086333745 -29.480835522231541 0 0 0 0 360.16783887228303 -45.557627964257989 0 -45.557627964257989 5.4048314721835133 0 0 0 0 341.56739472164554 -69.742947814907978 0 -69.742947814907978 -37.570269510834486 0 0 0 0 314.99561956996695 16.208303219551169 0 16.208303219551169 -33.031573633488918 0 0 0 0 0.54427295006338472 0.031597893943953181 0 0.031597893943953181 -0.27094047525062481 0 0 0 0 343.40164203786753 16.815816617234919 0 16.815816617234919 -59.501866317399205 0 0 0 0 342.78993567975022 -34.858438399272217 0 -34.858438399272217 9.9718158256818725 0 0 0 0 318.97462576694215 8.2999010083979616 0 8.2999010083979616 -60.834823079351928 0 0 0 0 351.88755987199966 -8.0649262042968246 0 -8.0649262042968246 -53.483972088657524 0 0 0 0 330.67835796295913 -14.167865837710551 0 -14.167865837710551 -43.695957556246796 0 0 0 0 332.7425365469694 14.352435218072003 0 14.352435218072003 -52.892091752688515 0 0 0 0 327.74269572106277 4.6074489420091709 0 4.6074489420091709 -68.766696178292406 0 0 0 0 223.81677836538483 73.456574146929597 0 73.456574146929597 -46.623271193024863 0 0 0 0 69.129984009678083 -33.564250241788955 0 -33.564250241788955 -2.2869881654511772 0 0 0 0 315.64456778550527 -62.116132434028373 0 -62.116132434028373 -13.763053759346263 0 0 0 0 328.0888651002515 25.955570888567273 0 25.955570888567273 -49.786368194551933 0 0 0 0 510.96814594842635 -138.01994874693801 0 -138.01994874693801 35.768699763701555 0 0 0 0 235.04219075697074 -73.550981864882075 0 -73.550981864882075 50.34390969220906 0 0 0 0 334.26170010136957 -19.141879383532558 0 -19.141879383532558 48.707528689970957 0 0 0 0 324.48395021457782 -39.684243721303304 0 -39.684243721303304 9.6963774006448933 0 0 0 0 227.5535084286139 14.66113576582401 0 14.66113576582401 -60.471535003809819 0 0 0 0 81.742482401454254 49.216948862845172 0 49.216948862845172 -10.991989570154404 0 0 0 0 233.27723597551903 42.292043399677638 0 42.292043399677638 -18.356812428117802 0 0 0 0 192.12752726936742 -104.7888556525546 0 -104.7888556525546 0.16894779646884217 0 0 0 0 1.1137437635754157 0.4194204387407332 0 0.4194204387407332 -0.040355579976951494 0 0 0 0 500.29183346426362 -74.165874860761022 0 -74.165874860761022 -85.973196224921423 0 0 0 0 341.62168226585709 19.456618860294689 0 19.456618860294689 -60.462397740215806 0 0 0 0 379.08642815028634 55.795066936688848 0 55.795066936688848 10.758690552096297 0 0 0 0 306.80189597276285 -121.65485214296636 0 -121.65485214296636 16.050757552291579 0 0 0 0 2.1437903216834258 1.0455269110106489 0 1.0455269110106489 0.11400472971235365 0 0 0 0 381.661713266898 2.7858101686458383 0 2.7858101686458383 3.8544373811932928 0 0 0 0 300.31212084858453 -62.443714094908358 0 -62.443714094908358 -3.544340557752895 0 0 0 0 292.41193452392781 -114.60037362116981 0 -114.60037362116981 -17.175052904296791 0 0 0 0 1.2988601978628651 -0.99776112783388804 0 -0.99776112783388804 0.4987335730371516 0 0 0 0 71.173013456003901 -212.7229546550696 0 -212.7229546550696 -57.089259593814106 0 0 0 0 -56.401016886970865 -116.62709240734638 0 -116.62709240734638 111.04242339542941 0 0 0 0 499.58376128259351 -231.68627504075531 0 -231.68627504075531 78.409594685331243 0 0 0 0 1.3808388309702693 0.41051120724053547 0 0.41051120724053547 0.2900083080603833 0 0 0 0 499.34733134874557 152.65995984455594 0 152.65995984455594 -33.437927070660571 0 0 0 0 234.06996258005347 -10.415129118849741 0 -10.415129118849741 -69.53665983286939 0 0 0 0 333.44353554271174 115.19953857103869 0 115.19953857103869 3.0911368096423644 0 0 0 0 2.7950910276161913 -1.996472803665382 0 -1.996472803665382 0.89132996010435805 0 0 0 0 215.30390059627848 -196.90875315182822 0 -196.90875315182822 42.336255375878387 0 0 0 0 1.7055929622310231 -0.94576319947247534 0 -0.94576319947247534 0.37295843576501564 0 0 0 0 671.93759450319703 130.75653862563055 0 130.75653862563055 -9.2622580619951744 0 0 0 0 366.46996242904879 17.198513621425384 0 17.198513621425384 -53.353635662483754 0 0 0 0 299.77268944265597 23.023336152443918 0 23.023336152443918 2.3980485768086579 0 0 0 0 346.65489353510316 165.90112288291866 0 165.90112288291866 -53.486462449382621 0 0 0 0 286.07037952334576 138.3127547873404 0 138.3127547873404 -58.21065918611437 0 0 0 0 499.07856051293766 71.428381075982415 0 71.428381075982415 -115.05510336933608 0 0 0 0 299.70392323393389 190.91034894508419 0 190.91034894508419 -66.213135402500313 0 0 0 0 224.92880443026661 149.13729871375514 0 149.13729871375514 -19.531898833918731 0 0 0 0 298.33210334049818 184.85326102510282 0 184.85326102510282 -12.104873723839944 0 0 0 0 238.58533579612117 94.531326688705718 0 94.531326688705718 -10.914536472112445 0 0 0 0 221.75290819583915 90.183526608059651 0 90.183526608059651 7.0680473078252177 0 0 0 0 281.24326632014527 88.58694145434869 0 88.58694145434869 -12.573148987099984 0 0 0 0 255.4570566111106 97.408836542109995 0 97.408836542109995 -11.797579186992863 0 0 0 0 298.18249339171507 139.67543010165093 0 139.67543010165093 -18.881204927731382 0 0 0 0 287.55034487250441 146.43688351681001 0 146.43688351681001 -16.402316983992762 0 0 0 0 308.55657586153347 135.14230209413813 0 135.14230209413813 -15.049831417386599 0 0 0 0 272.47983859657688 81.127439007524728 0 81.127439007524728 -18.711738812674753 0 0 0 0 395.62710817564925 51.869056609525693 0 51.869056609525693 -12.112185991899423 0 0 0 0 346.0720639703909 150.74348346420703 0 150.74348346420703 -33.66603100088966 0 0 0 0 296.96207813903163 193.96092282254423 0 193.96092282254423 39.202732358539322 0 0 0 0 213.97970461078512 -88.519276603997753 0 -88.519276603997753 -167.7992062714024 0 0 0 0 1.0006332870057193 -0.075230442613469783 0 -0.075230442613469783 -0.3409510499323149 0 0 0 0 201.5338237992928 137.2698878262766 0 137.2698878262766 5.58899564252917 0 0 0 0 499.33173013695432 192.04287667793059 0 192.04287667793059 -44.26242945592 0 0 0 0 173.87126752786753 -31.149013820915073 0 -31.149013820915073 -144.3876223625723 0 0 0 0 1.2294283542562106 0.0096730172626289246 0 0.0096730172626289246 -0.41588252364622924 0 0 0 0 216.771813620599 36.105596403705505 0 36.105596403705505 -113.82129559794126 0 0 0 0 500.0976479246583 -44.200700538481456 0 -44.200700538481456 -191.36599557232583 0 0 0 0 165.09760426249022 -53.548033668146218 0 -53.548033668146218 -94.930881792552526 0 0 0 0 208.65402412196647 6.1893769618930978 0 6.1893769618930978 -157.28812535106556 0 0 0 0 170.02205193010741 44.22279554026457 0 44.22279554026457 -94.366731154725315 0 0 0 0 3.9914753611443885 1.521495203332119 0 1.521495203332119 -0.18696066217743459 0 0 0 0 232.87171584331145 -92.169515579358816 0 -92.169515579358816 -64.739317400656148 0 0 0 0 499.28755440482155 -246.23990640684531 0 -246.23990640684531 23.774307655548913 0 0 0 0 36.591250626616329 195.89014455117473 0 195.89014455117473 -15.226466410032785 0 0 0 0 2.097629772579559 0.62405771409130395 0 0.62405771409130395 -0.0086055423022885075 0 0 0 0 110.48708041036457 -86.488502799592524 0 -86.488502799592524 -74.858358704084438 0 0 0 0 498.506357938375 150.90788564396112 0 150.90788564396112 -34.919452821779707 0 0 0 0 332.05036231357144 -72.389371810368687 0 -72.389371810368687 -19.081889650751869 0 0 0 0 303.25198693968468 -55.181833856674743 0 -55.181833856674743 30.343656622791659 0 0 0 0 341.77880305358713 -19.559508497065899 0 -19.559508497065899 -4.6502650899976636 0 0 0 0 149.48794836672823 -29.984522665749644 0 -29.984522665749644 6.7194617258442051 0 0 0 0 352.70135588222411 -94.908957933988404 0 -94.908957933988404 -74.335757213210428 0 0 0 0 401.81928954346608 -28.562231817875997 0 -28.562231817875997 -30.129832462541465 0 0 0 0 524.58110967873927 -183.58337451783211 0 -183.58337451783211 20.419638513432602 0 0 0 0 143.59838408300129 -67.44160380022123 0 -67.44160380022123 -14.313827378739845 0 0 0 0 -2.1611217564395702 229.68678804664748 0 229.68678804664748 -51.558952359567826 0 0 0 0 2.0827859828775317 0.73922079761962944 0 0.73922079761962944 -0.06325910883580077 0 0 0 0 0.52920726940235863 0.12949320073690096 0 0.12949320073690096 0.15744143195096372 0 0 0 0 473.02232930094254 97.115822499876003 0 97.115822499876003 57.9262593013095 0 0 0 0 259.81197967618027 16.978219770686934 0 16.978219770686934 71.470301444236867 0 0 0 0 354.09212181270618 36.499299357777467 0 36.499299357777467 35.451322300979854 0 0 0 0 318.7726381511111 18.81708699195768 0 18.81708699195768 27.22064152850373 0 0 0 0 300.94853321336268 -13.178883389743874 0 -13.178883389743874 3.7483117394650236 0 0 0 0 0.7153929811718216 0.061488284963353124 0 0.061488284963353124 0.069965622242078362 0 0 0 0 354.19711422402634 -8.6808356428212043 0 -8.6808356428212043 2.9788473653847101 0 0 0 0 323.00812338243429 -50.604734271329512 0 -50.604734271329512 2.7906705223808501 0 0 0 0 351.55856300809046 -97.334792944950436 0 -97.334792944950436 77.538276135802406 0 0 0 0 350.85712383542409 -44.559660578691933 0 -44.559660578691933 1.5663172998812627 0 0 0 0 0.73203743863339765 -0.032314335851072684 0 -0.032314335851072684 -0.35930006650398721 0 0 0 0 270.04699341983087 62.459248489813405 0 62.459248489813405 -43.040169607626993 0 0 0 0 433.26501488182657 23.016316367383517 0 23.016316367383517 -36.637651068298283 0 0 0 0 1.4238799178373664 -1.0140399465773182 0 -1.0140399465773182 0.70572984750799628 0 0 0 0 -58.042033894551878 -70.638421796442032 0 -70.638421796442032 80.817236137041874 0 0 0 0 149.73948131664292 -77.729540753577737 0 -77.729540753577737 80.64726240277821 0 0 0 0 324.84181120405788 -29.885407325103102 0 -29.885407325103102 45.682702825382407 0 0 0 0 260.46187283540621 -21.501339279658126 0 -21.501339279658126 32.344292745950028 0 0 0 0 172.06895548588273 -37.739332871351465 0 -37.739332871351465 51.444535398318166 0 0 0 0 195.94765141142307 -36.592393455899767 0 -36.592393455899767 38.109042143403329 0 0 0 0 172.67874057892004 -12.931626824529417 0 -12.931626824529417 22.005723010906422 0 0 0 0 246.76971997530245 -1.0759177957643047 0 -1.0759177957643047 11.41103864123869 0 0 0 0 284.03990381530639 -10.464458305779289 0 -10.464458305779289 37.642279702101519 0 0 0 0 310.60651544078337 20.837058593385407 0 20.837058593385407 18.325546527280153 0 0 0 0 243.19143319733848 -3.6665840449979612 0 -3.6665840449979612 37.796812451084804 0 0 0 0 305.07946825301133 20.93987573021694 0 20.93987573021694 54.337126873101504 0 0 0 0 290.14602914158104 65.397138848078754 0 65.397138848078754 -12.972000856671158 0 0 0 0 250.33617780116037 11.315603729115963 0 11.315603729115963 6.6606489958524691 0 0 0 0 270.22616181048215 29.261854551026147 0 29.261854551026147 18.443154309686093 0 0 0 0 247.00409775382923 17.167399167611926 0 17.167399167611926 -2.8798456914656185 0 0 0 0 248.32466950295839 61.265417654856066 0 61.265417654856066 -7.2813529684853791 0 0 0 0 188.12046558468137 60.90224603630007 0 60.90224603630007 1.9239418406839306 0 0 0 0 208.79948287827619 16.967647834673734 0 16.967647834673734 -14.397829881126832 0 0 0 0 188.3129690364417 9.0081109217131257 0 9.0081109217131257 -3.5040158157003702 0 0 0 0 198.79418759081818 0.93021158309082352 0 0.93021158309082352 -11.829090981266955 0 0 0 0 172.8522706252038 -20.024093445314048 0 -20.024093445314048 -7.9921076942483751 0 0 0 0 171.31002117606408 -18.279638721376791 0 -18.279638721376791 -0.92616101657236527 0 0 0 0 173.94377335845343 -34.432734078951746 0 -34.432734078951746 19.901855830336643 0 0 0 0 199.38149303797945 -13.413270057475643 0 -13.413270057475643 13.83451738589023 0 0 0 0 194.62317618247926 -6.1093789329105803 0 -6.1093789329105803 3.1315640635567945 0 0 0 0 119.83319067852335 -33.456580225074106 0 -33.456580225074106 10.173249912713075 0 0 0 0 119.01530158781861 -26.868552502339568 0 -26.868552502339568 15.172026465298657 0 0 0 0 160.29598388719296 -18.647079513497999 0 -18.647079513497999 5.3938697559912328 0 0 0 0 143.34634122171155 -37.639002173193518 0 -37.639002173193518 15.434980741799521 0 0 0 0 144.12750773821199 -26.642699525148128 0 -26.642699525148128 6.5711663092741617 0 0 0 0 141.34019877664923 -21.438807042533767 0 -21.438807042533767 8.138560871903131 0 0 0 0 112.62921516657025 -18.182317452997111 0 -18.182317452997111 5.0781049281712924 0 0 0 0 113.95664758174553 -25.987028182433178 0 -25.987028182433178 16.58064878850962 0 0 0 0 96.388120355361025 -30.751294498172861 0 -30.751294498172861 17.575990682387697 0 0 0 0 95.168907984561883 -35.821511830144587 0 -35.821511830144587 11.818621279584491 0 0 0 0 98.83646858862312 -42.907785772432291 0 -42.907785772432291 23.711054929165726 0 0 0 0 0.16092128057957389 -0.14453138318719638 0 -0.14453138318719638 0.46886661358050918 0 0 0 0 82.371041875792798 -26.429013928673449 0 -26.429013928673449 18.340070020884461 0 0 0 0 113.00577839034077 -25.665660229291369 0 -25.665660229291369 2.5741657607942443 0 0 0 0 92.294887772276525 -38.18308762055063 0 -38.18308762055063 18.345271552157925 0 0 0 0 62.695700535813558 -37.994149319219716 0 -37.994149319219716 15.690089681373507 0 0 0 0 134.74075685765638 -49.457415663629781 0 -49.457415663629781 -3.3907261444535663 0 0 0 0 0.28253060589270795 0.18165880372539434 0 0.18165880372539434 0.93356773318626707 0 0 0 0 151.35493203939006 -63.700293132272726 0 -63.700293132272726 2.4240033086167045 0 0 0 0 0.43602877823959574 0.54579721979637164 0 0.54579721979637164 1.5199336499598071 0 0 0 0 75.678313731758863 -16.10437876380588 0 -16.10437876380588 26.435516040203343 0 0 0 0 151.89820205460799 42.350482685264723 0 42.350482685264723 43.987788124694816 0 0 0 0 130.75013884862074 -10.812169117905448 0 -10.812169117905448 18.097323705645806 0 0 0 0 119.64807523682339 -40.138318173856462 0 -40.138318173856462 24.977033533731223 0 0 0 0 137.8807569084729 -19.331344781354982 0 -19.331344781354982 19.754597193856256 0 0 0 0 160.82243466327145 -36.240316654891657 0 -36.240316654891657 26.733402658177155 0 0 0 0 143.70709452690971 -10.510948908990763 0 -10.510948908990763 45.410857730245766 0 0 0 0 136.04031724682045 -10.996728831889619 0 -10.996728831889619 89.466317505504662 0 0 0 0 174.1252508242128 -20.564094434967469 0 -20.564094434967469 46.088779867409983 0 0 0 0 134.90225356786959 -21.118836010803619 0 -21.118836010803619 43.225422990029472 0 0 0 0 109.1631335947568 -41.710649649979914 0 -41.710649649979914 9.7129315608089986 0 0 0 0 128.5062343762047 12.306806007459475 0 12.306806007459475 28.364609322769379 0 0 0 0 158.76278686723208 40.351486288638895 0 40.351486288638895 54.234926151623995 0 0 0 0 115.25681219400803 49.935859286282252 0 49.935859286282252 70.289337253517743 0 0 0 0 70.805283180066908 8.0274422212031027 0 8.0274422212031027 85.506074678647011 0 0 0 0 131.61674462268911 -2.470365220867123 0 -2.470365220867123 62.631040367078981 0 0 0 0 226.74716736861183 85.964021393832127 0 85.964021393832127 13.632204042989628 0 0 0 0 95.039782514844774 52.415853049584882 0 52.415853049584882 -18.162443545445342 0 0 0 0 38.828843148327906 -66.863642682429969 0 -66.863642682429969 -24.456257010080719 0 0 0 0 -8.1972841173328561 60.348693397574493 0 60.348693397574493 28.419187158498431 0 0 0 0 179.80201655000383 -2.8268862648535844 0 -2.8268862648535844 25.088577825847381 0 0 0 0 227.23269234640702 85.101443012157176 0 85.101443012157176 -17.676692769101209 0 0 0 0 0.41642212960262803 0.44261789212262848 0 0.44261789212262848 0.58344477049962706 0 0 0 0 102.64006811812214 -28.084145881912946 0 -28.084145881912946 57.195222339233766 0 0 0 0 293.74185967162657 10.334010420497663 0 10.334010420497663 -5.5594259206998231 0 0 0 0 67.402308130920574 30.286431338691813 0 30.286431338691813 16.698534840308753 0 0 0 0 2.1673366722389549 0.56314648170622661 0 0.56314648170622661 1.3848787314627984 0 0 0 0 0.73301947138155654 -0.73014822730640638 0 -0.73014822730640638 1.0939135360609433 0 0 0 0 219.36084385063623 -12.770623487526279 0 -12.770623487526279 -2.2773097707579097 0 0 0 0 124.24359889385778 -5.2757468397778098 0 -5.2757468397778098 4.9848382675353946 0 0 0 0 0.33824698311622292 0.27593263757389153 0 0.27593263757389153 0.9340415891966185 0 0 0 0 147.44718211055624 -59.114848463897488 0 -59.114848463897488 38.566088363006969 0 0 0 0 113.99368533715551 -73.726966630189793 0 -73.726966630189793 38.824620720161136 0 0 0 0 179.73268106226533 5.0471119248439571 0 5.0471119248439571 8.2280802514260571 0 0 0 0 191.53092935757513 -140.64736181047061 0 -140.64736181047061 -14.729434527881722 0 0 0 0 -0.92754301236436731 -18.914057189117841 0 -18.914057189117841 35.886236055346217 0 0 0 0 39.40264685652437 -64.912055363883894 0 -64.912055363883894 50.728082485750249 0 0 0 0 -1.0381472351008298 23.746727785605547 0 23.746727785605547 0.51841297834960187 0 0 0 0 49.512701455481874 -19.787097771582921 0 -19.787097771582921 -6.5885850023046189 0 0 0 0 5.569701618007457 -6.0978060772454796 0 -6.0978060772454796 3.6384761743973399 0 0 0 0 3.3639924841074844 -6.4993807284164689 0 -6.4993807284164689 4.2766577670290644 0 0 0 0 9.8932123164941004 -6.2138079478180543 0 -6.2138079478180543 1.7831941514153868 0 0 0 0 2.3568009939781405 -4.7009978372274759 0 -4.7009978372274759 2.1731438153216232 0 0 0 0 -0.37927008543056218 -1.4417453276007173 0 -1.4417453276007173 0.40664147660337857 0 0 0 0 5.0295946912698355 -3.9185279023028974 0 -3.9185279023028974 1.4949915000467069 0 0 0 0 5.6982856765407632 -8.3486878122752728 0 -8.3486878122752728 -24.223908502777334 0 0 0 0 2.4093091355312026 -7.439619559744358 0 -7.439619559744358 2.2713140319088048 0 0 0 0 3.2805328299426719 -5.0202595189665118 0 -5.0202595189665118 2.2779339810215333 0 0 0 0 6.9586816882097082 -5.8758910603512504 0 -5.8758910603512504 -0.23394405892793202 0 0 0 0 -15.006574970643669 -67.216885121478867 0 -67.216885121478867 -21.234281866538659 0 0 0 0 1.8190945423111771 -7.5872820262869709 0 -7.5872820262869709 1.4482585542186825 0 0 0 0 5.7880200044184527 -4.9292459324719005 0 -4.9292459324719005 2.7280743597532204 0 0 0 0 49.148773699549338 -5.7652918253309551 0 -5.7652918253309551 -28.922845116504561 0 0 0 0 -5.2714205227694038 -4.1885737007462751 0 -4.1885737007462751 -0.73978335189158884 0 0 0 0 15.839292557282988 -4.711658591859873 0 -4.711658591859873 3.1925500666541211 0 0 0 0 18.57948542010854 -9.3915518635631088 0 -9.3915518635631088 1.649058055926389 0 0 0 0 0.056422777727206608 0.090887885426446324 0 0.090887885426446324 0.099089337747782835 0 0 0 0 10.868575518499256 -5.7083257056859082 0 -5.7083257056859082 4.5910097869721085 0 0 0 0 9.8208144092800467 -4.3938118075531065 0 -4.3938118075531065 0.18820752814781372 0 0 0 0 6.8507987760816746 -3.284443938074137 0 -3.284443938074137 2.3107990202427118 0 0 0 0 6.4676550767571825 -3.9454691465559506 0 -3.9454691465559506 2.0358516622591196 0 0 0 0 0.067838125276217909 0.15028245375567906 0 0.15028245375567906 0.37062447776581653 0 0 0 0 15.084742687859944 -4.0791351653156198 0 -4.0791351653156198 0.063318405115978749 0 0 0 0 9.7706587546626906 -5.2517772694939708 0 -5.2517772694939708 1.1493588312854399 0 0 0 0 5.3808563551511099 -9.6199811800547828 0 -9.6199811800547828 5.4635139124795842 0 0 0 0 16.906576273526753 -3.9350249089804095 0 -3.9350249089804095 4.1877023339466177 0 0 0 0 0.09840021494512019 0.23056791249204256 0 0.23056791249204256 0.53509123307353912 0 0 0 0 21.573943840370703 -6.0500407547259556 0 -6.0500407547259556 1.1605866922606651 0 0 0 0 30.642934687842398 -14.705797037601371 0 -14.705797037601371 2.491764589491595 0 0 0 0 31.796522153607839 4.3016604200142297 0 4.3016604200142297 7.0022432627263242 0 0 0 0 31.567965256130378 -11.880798115994963 0 -11.880798115994963 9.8175047925886929 0 0 0 0 -1.0082362478319169 4.4416516992302633 0 4.4416516992302633 2.470937207413499 0 0 0 0 -1.6884119579194703 -0.3901579289545225 0 -0.3901579289545225 8.3463754377582973 0 0 0 0 -0.90551218981446446 -0.69388273098689623 0 -0.69388273098689623 1.0696274891096089 0 0 0 0 -0.24951234108796072 0.013776428774477267 0 0.013776428774477267 0.32693817802169578 0 0 0 0 1.0873531379511405 -8.9458879156420608 0 -8.9458879156420608 16.120216296715057 0 0 0 0 22.770042947909133 -15.469954580268109 0 -15.469954580268109 7.3250249559183089 0 0 0 0 4.49774632927938 -5.1910986218393589 0 -5.1910986218393589 0.76600826812523337 0 0 0 0 -2.3618463204966247 -3.1334593260193628 0 -3.1334593260193628 6.3710429106952233 0 0 0 0 -1.4081175383562723 -0.52276527950286766 0 -0.52276527950286766 0.73604912446538595 0 0 0 0 66.753923132340788 -22.94470514461139 0 -22.94470514461139 0.86353694626924238 0 0 0 0 -10.138680328851933 0.43378109191939984 0 0.43378109191939984 15.351110274316795 0 0 0 0 0.68032142580022992 7.2808082610581693 0 7.2808082610581693 4.7680451792830922 0 0 0 0 13.560413340680498 -20.339188297932857 0 -20.339188297932857 17.26404333320987 0 0 0 0 31.823898186847146 4.4215493664844026 0 4.4215493664844026 1.051922970922746 0 0 0 0 74.448761281276347 -32.792955004006203 0 -32.792955004006203 -0.71970146072339602 0 0 0 0 82.247747270946547 -16.916574975050892 0 -16.916574975050892 24.825516206583323 0 0 0 0 129.54232717044306 -51.406735395345159 0 -51.406735395345159 -3.8616316680083811 0 0 0 0 85.322324229643982 -14.806434777120881 0 -14.806434777120881 -9.5481362785184984 0 0 0 0 60.317649743674338 -27.132760916418675 0 -27.132760916418675 6.262264328317686 0 0 0 0 0.73853507017819275 -1.112877736879553 0 -1.112877736879553 1.4297566928343355 0 0 0 0 17.137576199952036 -4.2683307450096493 0 -4.2683307450096493 -14.597734009317989 0 0 0 0 -18.087971022573129 -33.029770997368885 0 -33.029770997368885 -25.026707267454896 0 0 0 0 6.9211098408509315 12.5290570472242 0 12.5290570472242 -22.784604843878355 0 0 0 0 0.21642653801114875 0.03529538096502538 0 0.03529538096502538 -0.2395039946253541 0 0 0 0 65.965144508566937 18.025515429258292 0 18.025515429258292 -5.6661327589270059 0 0 0 0 11.762400767433064 6.5745684920574377 0 6.5745684920574377 -2.9383140751698988 0 0 0 0 19.901157751086657 -11.838707396984702 0 -11.838707396984702 27.973544256011451 0 0 0 0 1.8227951776398186 -15.585746869915127 0 -15.585746869915127 10.805461383093746 0 0 0 0 0.48459158456798246 -1.3966083290593181 0 -1.3966083290593181 1.9257104206765283 0 0 0 0 0.40117272184033226 -0.32630576510324794 0 -0.32630576510324794 -0.13784238481600308 0 0 0 0 -1.0062895275377741 -6.7621479142810017 0 -6.7621479142810017 -10.964011635318116 0 0 0 0 94.822730761784442 -28.385399133266006 0 -28.385399133266006 3.6490207177418768 0 0 0 0 19.129815427006179 -10.111221719847627 0 -10.111221719847627 -0.542884347650471 0 0 0 0 68.682304711097458 4.8487636368694353 0 4.8487636368694353 -10.612118837778837 0 0 0 0 68.467517888434941 14.731349833993747 0 14.731349833993747 0.16335201820884038 0 0 0 0 55.73119856261053 14.195558110334716 0 14.195558110334716 -15.349170858734055 0 0 0 0 60.008682744057978 3.7436538112088869 0 3.7436538112088869 -28.747697660474898 0 0 0 0 57.27579009236706 15.412957206056845 0 15.412957206056845 -16.935808327678046 0 0 0 0 36.672815213755712 -19.36603657939925 0 -19.36603657939925 -17.865361811208118 0 0 0 0 30.577945379362518 -9.5710912059026327 0 -9.5710912059026327 -33.513461887448045 0 0 0 0 14.334376371591134 -1.1983685339479777 0 -1.1983685339479777 -16.405689459831791 0 0 0 0 0.2354551588343794 -0.38421172714130059 0 -0.38421172714130059 0.6657183088403017 0 0 0 0 196.5599670235315 -24.499392776152444 0 -24.499392776152444 -8.7096117857421618 0 0 0 0 156.52830233389886 -89.766609898302434 0 -89.766609898302434 3.6784626319582117 0 0 0 0 38.237197318836479 -62.573301786809907 0 -62.573301786809907 102.99535916596608 0 0 0 0 0.17762421475352408 -0.078718108893550465 0 -0.078718108893550465 0.11570297739639807 0 0 0 0 145.8691813773903 -77.088687875827105 0 -77.088687875827105 -22.32199555997596 0 0 0 0 105.57305347348665 -111.00642638395527 0 -111.00642638395527 30.378436966650778 0 0 0 0 -55.183047282116604 -86.359531226193312 0 -86.359531226193312 39.204142330510194 0 0 0 0 77.49564937694214 -85.501555441814844 0 -85.501555441814844 7.2805841745217208 0 0 0 0 102.80220333444322 -79.61016157115904 0 -79.61016157115904 -3.3399389001314148 0 0 0 0 46.20123448760387 -40.438664198987311 0 -40.438664198987311 39.735752065041879 0 0 0 0 84.258625285716334 -62.291735100558526 0 -62.291735100558526 -11.91301318380593 0 0 0 0 104.07261963717269 -33.797702274020651 0 -33.797702274020651 -41.968535865045055 0 0 0 0 4.9334685735293302 0.97071473524650354 0 0.97071473524650354 -0.25528796601245785 0 0 0 0 24.750035231672882 -34.407579139644895 0 -34.407579139644895 -34.048922207840121 0 0 0 0 77.342220201668397 -22.308936071281977 0 -22.308936071281977 -69.382033193937787 0 0 0 0 69.549383241068426 -31.759166099900483 0 -31.759166099900483 -17.379766102734706 0 0 0 0 96.921808325222628 -64.307439136569968 0 -64.307439136569968 15.644118866820236 0 0 0 0 158.85017213672245 -50.472903840001123 0 -50.472903840001123 -13.963264651115679 0 0 0 0 72.897837819944328 -38.066149125784776 0 -38.066149125784776 2.8253750970706051 0 0 0 0 107.6439018740848 9.2814735999482139 0 9.2814735999482139 -3.2958826402431782 0 0 0 0 159.36262377200063 32.383756929406786 0 32.383756929406786 6.5501138455406931 0 0 0 0 108.4317224371498 41.477350073708919 0 41.477350073708919 35.166186439352202 0 0 0 0 112.01263340438254 14.974892956410258 0 14.974892956410258 21.690847059892803 0 0 0 0 284.6797077583899 -101.61829718768377 0 -101.61829718768377 19.980533931588411 0 0 0 0 163.51015779995259 85.50412962197862 0 85.50412962197862 118.21747294806471 0 0 0 0 243.9979129578403 51.437776824330768 0 51.437776824330768 -18.785821253577296 0 0 0 0 98.248116855229 7.5215001222107958 0 7.5215001222107958 27.421666437936892 0 0 0 0 151.82506420084383 -48.7582718686823 0 -48.7582718686823 82.645676925957403 0 0 0 0 128.51818887655782 13.212937948624813 0 13.212937948624813 6.3595920039396105 0 0 0 0 71.297334783285805 -1.7650446515514204 0 -1.7650446515514204 27.28583093518607 0 0 0 0 101.45439247767126 70.830259288150671 0 70.830259288150671 5.9739161510155441 0 0 0 0 105.6861259704242 65.06086686233283 0 65.06086686233283 -13.319454645685255 0 0 0 0 81.691221301793576 56.519811683668536 0 56.519811683668536 4.0057134436372053 0 0 0 0 76.663483079968955 57.84420688781131 0 57.84420688781131 6.4225553700425735 0 0 0 0 70.136914359592083 40.918824917514939 0 40.918824917514939 -6.5666169338705913 0 0 0 0 47.615799187181437 19.864083200211212 0 19.864083200211212 5.8245670448211229 0 0 0 0 22.105073740789067 14.932902424605913 0 14.932902424605913 -1.1711179109717449 0 0 0 0 71.807664775755939 24.664851427300846 0 24.664851427300846 -1.7305356547065003 0 0 0 0 110.81283206543398 58.837686187625238 0 58.837686187625238 18.193622456796902 0 0 0 0 84.878888670280503 65.614133354826436 0 65.614133354826436 32.116590863800525 0 0 0 0 111.40222463463282 38.855198219789642 0 38.855198219789642 39.559956547558613 0 0 0 0 142.89823334538141 36.940742675437832 0 36.940742675437832 28.219012338072048 0 0 0 0 100.38169352385739 49.18801036729144 0 49.18801036729144 25.915693676902947 0 0 0 0 98.366078335582358 64.578531039523767 0 64.578531039523767 1.8962498909272654 0 0 0 0 70.004337137479524 58.51486191009144 0 58.51486191009144 13.482624791764138 0 0 0 0 94.651579043796119 72.092912700575425 0 72.092912700575425 12.02549916052341 0 0 0 0 101.15492550364479 87.353222838617455 0 87.353222838617455 23.520205441572784 0 0 0 0 92.052469688898782 73.968649108839486 0 73.968649108839486 11.649737848171071 0 0 0 0 27.118910826965475 58.716771396775584 0 58.716771396775584 44.467490778334678 0 0 0 0 99.559847498660474 52.678607208497397 0 52.678607208497397 41.548838273387105 0 0 0 0 96.528342518441605 48.511608445900151 0 48.511608445900151 35.848112343176126 0 0 0 0 -19.025587144874407 66.339642321234464 0 66.339642321234464 24.896390599343277 0 0 0 0 74.016682012422734 95.911899022069576 0 95.911899022069576 31.652795778808354 0 0 0 0 2.0637172676890287 0.38934979223875033 0 0.38934979223875033 -0.037129429899443123 0 0 0 0 85.40520510071201 177.32136472600368 0 177.32136472600368 -6.9101553168042074 0 0 0 0 11.423022144030256 117.76632735001459 0 117.76632735001459 -161.51158288318564 0 0 0 0 33.238557095533679 15.105637871526653 0 15.105637871526653 -82.08162383572153 0 0 0 0 -47.344863960871862 -34.088625709742075 0 -34.088625709742075 -37.109171665271845 0 0 0 0 134.38846761794821 -26.023167493521044 0 -26.023167493521044 -69.787102550421764 0 0 0 0 115.69737535636091 -20.50391572000035 0 -20.50391572000035 54.094402579952657 0 0 0 0 287.8925184329978 -6.3444244632211735 0 -6.3444244632211735 -14.246825206471371 0 0 0 0 233.15478563202714 -58.085720845302575 0 -58.085720845302575 -13.933712350957762 0 0 0 0 3.0690094592755486 33.58526518586325 0 33.58526518586325 30.731793984192564 0 0 0 0 87.794911561661593 10.504728346377277 0 10.504728346377277 24.7318444775849 0 0 0 0 114.49785153972834 25.301484060648477 0 25.301484060648477 24.845283945250003 0 0 0 0 131.78694483726849 7.5200468155593398 0 7.5200468155593398 28.324717506540708 0 0 0 0 137.52988950355302 12.480460608825183 0 12.480460608825183 25.495106375812725 0 0 0 0 112.41584627237322 -17.645190432022439 0 -17.645190432022439 31.996962358587098 0 0 0 0 232.24355877967855 -42.059678511626828 0 -42.059678511626828 -0.5790550896563218 0 0 0 0 205.51933644602923 -14.826693728761143 0 -14.826693728761143 3.6274842494194672 0 0 0 0 199.44090249077726 -19.038261014049681 0 -19.038261014049681 21.486414348099856 0 0 0 0 195.52529992989275 2.3284571295685055 0 2.3284571295685055 15.777619577542737 0 0 0 0 230.667140783994 -16.441807653829073 0 -16.441807653829073 2.6302236198378068 0 0 0 0 254.9736167046749 -11.030708087923813 0 -11.030708087923813 -3.0011096412893039 0 0 0 0 246.81598905368037 -39.027616394707337 0 -39.027616394707337 6.4488656734729375 0 0 0 0 259.55639821292334 -12.388297223032851 0 -12.388297223032851 -3.2783166035806062 0 0 0 0 277.54866109356408 -4.597487048386256 0 -4.597487048386256 -6.3245788045542213 0 0 0 0 294.48498192647594 -67.961960770599319 0 -67.961960770599319 13.555829313664617 0 0 0 0 227.83386806176168 10.92922425891004 0 10.92922425891004 31.377448624792805 0 0 0 0 250.78867315289813 19.447978120407896 0 19.447978120407896 15.874991771540863 0 0 0 0 220.58533202853869 33.632335303219065 0 33.632335303219065 27.037262229229555 0 0 0 0 165.7857615925559 14.43409134689557 0 14.43409134689557 31.604490992874048 0 0 0 0 142.75967567393286 38.485148599044408 0 38.485148599044408 37.888700551453212 0 0 0 0 196.17822224724918 19.323787985229249 0 19.323787985229249 21.843791865017238 0 0 0 0 159.0866402135216 -43.737746463767394 0 -43.737746463767394 -48.706839435905806 0 0 0 0 242.32813068207543 -31.262074088130248 0 -31.262074088130248 -53.598807588570139 0 0 0 0 138.51336750734117 -23.059237152150985 0 -23.059237152150985 -58.929867052030431 0 0 0 0 0.59094620914605844 -2.1671085434284629 0 -2.1671085434284629 -0.83698584020380995 0 0 0 0 72.800653754182349 3.0809119412233485 0 3.0809119412233485 -35.969819082465392 0 0 0 0 54.560813962888915 11.961311521068922 0 11.961311521068922 -24.921414101578051 0 0 0 0 242.08370277839458 -29.476654783592096 0 -29.476654783592096 -4.1636304139201457 0 0 0 0 4.1737607733143811 2.482562133163694 0 2.482562133163694 -0.67624872339727693 0 0 0 0 157.63519153031302 4.0954911566659575 0 4.0954911566659575 -85.017538331989044 0 0 0 0 2.8545186134606411 0.042614051886033621 0 0.042614051886033621 4.0971348827641805 0 0 0 0 14.236099765876958 3.8752912788564675 0 3.8752912788564675 2.1360681073610976 0 0 0 0 87.463607910573728 -77.9737999298803 0 -77.9737999298803 -9.725351942172324 0 0 0 0 335.98004558880348 -128.29198739811991 0 -128.29198739811991 -5.9430833753685306 0 0 0 0 364.59226654938357 -39.362346491659849 0 -39.362346491659849 92.627745117079485 0 0 0 0 11.207177115290506 -4.8632621818609465 0 -4.8632621818609465 -43.815739622431579 0 0 0 0 3.3434025071731934 1.5912931896970504 0 1.5912931896970504 -1.1442166182535951 0 0 0 0 2.3480112851340209 5.8557461402988675 0 5.8557461402988675 -36.87756729028672 0 0 0 0 0.15267627577671727 -1.5282294217705479 0 -1.5282294217705479 -1.5551146046703153 0 0 0 0 21.003789085457811 -11.481910526069242 0 -11.481910526069242 -35.910043012088551 0 0 0 0 16.662298065144569 -1.6990865466176786 0 -1.6990865466176786 -48.927867368960676 0 0 0 0 48.236812177010506 -43.635650700330672 0 -43.635650700330672 -74.340693426494084 0 0 0 0 36.756385478416632 -26.480468486194681 0 -26.480468486194681 -48.717800102550704 0 0 0 0 -36.65577721977661 19.434986073443923 0 19.434986073443923 -56.02722671589396 0 0 0 0 30.779771355808407 17.42858828615071 0 17.42858828615071 -122.49552236435633 0 0 0 0 138.6828387388291 -10.325398861526722 0 -10.325398861526722 -117.37375420397112 0 0 0 0 77.596927530182256 -54.443163703846054 0 -54.443163703846054 -96.499499595949629 0 0 0 0 316.23362892105069 23.179129319174294 0 23.179129319174294 -71.510861527758578 0 0 0 0 128.92428828967149 -32.120021858075184 0 -32.120021858075184 65.415395237348577 0 0 0 0 2.2666864096677113 0.14086756532276912 0 0.14086756532276912 -0.27991913528368295 0 0 0 0 50.104454485130191 114.11508794766202 0 114.11508794766202 -153.38747124613008 0 0 0 0 175.81554175873316 37.74340471188917 0 37.74340471188917 -110.88751867268967 0 0 0 0 -3.4651986738372216 -201.71939876984706 0 -201.71939876984706 79.129118338638563 0 0 0 0 -143.35062517649811 -195.33412220430623 0 -195.33412220430623 -28.693071974351966 0 0 0 0 0.1889850816249109 -0.3942073559349506 0 -0.3942073559349506 -0.88754491073409048 0 0 0 0 245.41195642777348 -228.67954366847533 0 -228.67954366847533 -57.624468339250171 0 0 0 0 5.1228923185912976 0.74414338222279586 0 0.74414338222279586 -0.52062045334861695 0 0 0 0 43.558013331641632 -89.28136215325901 0 -89.28136215325901 77.775091587989266 0 0 0 0 199.15480793833967 51.456105374193513 0 51.456105374193513 -177.49064043353678 0 0 0 0 387.91291121597214 5.0108535751983894 0 5.0108535751983894 -105.07712225645196 0 0 0 0 36.460396985883563 46.039370682559394 0 46.039370682559394 -170.94426169274971 0 0 0 0 -4.3311340604052475 46.592323327704044 0 46.592323327704044 -77.405720568562913 0 0 0 0 33.624822184634468 -31.249073030670473 0 -31.249073030670473 -48.966982423040093 0 0 0 0 53.698732952465434 -6.4058690671069201 0 -6.4058690671069201 -22.197949520738462 0 0 0 0 -56.956219259862337 21.200776090240169 0 21.200776090240169 -45.3935728934797 0 0 0 0 -0.40230490052454115 -23.667662534153237 0 -23.667662534153237 -117.25118646209093 0 0 0 0 18.819614835828361 18.173832689911659 0 18.173832689911659 -63.089472956254838 0 0 0 0 35.265624506759195 -35.210590471605954 0 -35.210590471605954 -23.684960039288043 0 0 0 0 10.470284642982733 34.735221939079267 0 34.735221939079267 -43.778502284023119 0 0 0 0 65.799639932688478 -6.8138879292525871 0 -6.8138879292525871 -14.972508422048648 0 0 0 0 43.218129837026936 -3.3703918395148023 0 -3.3703918395148023 10.193018566557129 0 0 0 0 68.577125121284553 -87.767371346741498 0 -87.767371346741498 48.187828408130372 0 0 0 0 86.593046435584256 -59.206401946746929 0 -59.206401946746929 -4.8799628999754816 0 0 0 0 39.676343583005291 -19.404937071687776 0 -19.404937071687776 3.9688997003078867 0 0 0 0 70.955408057692694 -49.659545189660193 0 -49.659545189660193 18.667316481626067 0 0 0 0 114.33374984294232 -27.69237451758449 0 -27.69237451758449 19.082075657718775 0 0 0 0 79.345499060197653 -35.505265606665233 0 -35.505265606665233 32.488105708695819 0 0 0 0 75.116173603069001 -12.069403857956619 0 -12.069403857956619 11.594347219732043 0 0 0 0 86.471491017060089 -29.440666035413695 0 -29.440666035413695 23.059070504500227 0 0 0 0 120.90350656434521 2.1024260080190871 0 2.1024260080190871 -8.576874487268114 0 0 0 0 123.48354175686018 -4.8382151894398646 0 -4.8382151894398646 -14.479711306363058 0 0 0 0 146.1299069082861 -16.281386143222335 0 -16.281386143222335 -9.0580953937366218 0 0 0 0 207.23340990210454 -43.229689178985417 0 -43.229689178985417 -31.297708428042526 0 0 0 0 157.84926418764292 -6.2689604940986534 0 -6.2689604940986534 -51.67973365833916 0 0 0 0 47.839490357280056 29.204256451943209 0 29.204256451943209 -18.600694221784124 0 0 0 0 146.6862391057175 -3.4415628241449916 0 -3.4415628241449916 -21.536981185611548 0 0 0 0 157.64026886208694 -3.2269136026088985 0 -3.2269136026088985 -37.083842379791335 0 0 0 0 161.22253192360722 -20.690959278912715 0 -20.690959278912715 -21.326609704338495 0 0 0 0 153.56973015612039 -18.303520107153094 0 -18.303520107153094 -9.4147333415900221 0 0 0 0 163.85927941045793 -18.679804433779374 0 -18.679804433779374 -23.781373472141532 0 0 0 0 146.02235005549392 -13.629528107241029 0 -13.629528107241029 -9.4584004050332595 0 0 0 0 168.3756696678621 -7.309525316189653 0 -7.309525316189653 -22.500581992045333 0 0 0 0 165.76924596239678 -9.6801735726643727 0 -9.6801735726643727 -14.582677193798791 0 0 0 0 152.70151677162448 7.6425448415986201 0 7.6425448415986201 -21.368996570106088 0 0 0 0 178.14197882001986 21.606175078805144 0 21.606175078805144 -13.724975254178332 0 0 0 0 169.98133332621148 51.304944055697355 0 51.304944055697355 -14.653677468105844 0 0 0 0 88.436126587646413 37.576925647396152 0 37.576925647396152 -16.838013520622432 0 0 0 0 147.55572547521115 16.364131994874391 0 16.364131994874391 -27.713926588495866 0 0 0 0 129.17937064363468 21.341544658753406 0 21.341544658753406 -45.074815983445632 0 0 0 0 133.96011099959014 3.109272930047112 0 3.109272930047112 -40.384286744928488 0 0 0 0 66.664620313814453 22.614901147078513 0 22.614901147078513 -39.450404320751346 0 0 0 0 63.892414858647498 19.802780272990741 0 19.802780272990741 -15.61472535296231 0 0 0 0 139.19648030566168 28.437421959908626 0 28.437421959908626 -9.2620939616661708 0 0 0 0 135.43624941772464 -5.8873630021862855 0 -5.8873630021862855 -17.154049610291317 0 0 0 0 154.55312627299918 -1.4912550575828991 0 -1.4912550575828991 -37.657671408220821 0 0 0 0 154.04643583125471 3.0050212983075468 0 3.0050212983075468 -67.339956163724921 0 0 0 0 121.82863923701257 8.3518463710971726 0 8.3518463710971726 -22.8580113298786 0 0 0 0 86.361043894808972 103.49380585783089 0 103.49380585783089 -147.76008626190151 0 0 0 0 1.365272356554776 0.43373233416963686 0 0.43373233416963686 -0.71754241008200226 0 0 0 0 260.04365297302809 -264.84655255642059 0 -264.84655255642059 106.68263899120768 0 0 0 0 -34.199027945033777 134.12691805622168 0 134.12691805622168 -111.27270939758567 0 0 0 0 286.37402453281788 -30.41301180889123 0 -30.41301180889123 -35.328296362227164 0 0 0 0 79.710468118233621 -33.430894537649451 0 -33.430894537649451 28.093868344624603 0 0 0 0 63.179204272599577 22.397847282525202 0 22.397847282525202 -28.372083796022025 0 0 0 0 99.7483344447935 -90.015469089643815 0 -90.015469089643815 -68.98775995732808 0 0 0 0 -5.5973623783374933 -155.1178735474125 0 -155.1178735474125 67.640120591227657 0 0 0 0 124.64441590605566 -102.50818561986503 0 -102.50818561986503 85.48404564999214 0 0 0 0 23.393833655019989 -5.6542676945460357 0 -5.6542676945460357 -150.04681986521615 0 0 0 0 -123.02239624021968 -59.948428213393356 0 -59.948428213393356 23.727291793929055 0 0 0 0 100.84132823266918 -325.37816719933227 0 -325.37816719933227 -9.3385373354643662 0 0 0 0 310.17485031605156 -243.42132832981545 0 -243.42132832981545 -72.159792130893834 0 0 0 0 1.3228423599749526 -0.17377513432405811 0 -0.17377513432405811 0.65143822492519166 0 0 0 0 0.7280305267413496 -22.014275600710334 0 -22.014275600710334 -117.57917161724163 0 0 0 0 396.84435292091462 152.72735787042319 0 152.72735787042319 33.711163702958743 0 0 0 0 158.93201938264019 36.1046701710207 0 36.1046701710207 -11.869732354740904 0 0 0 0 -0.25177789238318748 0.76226792832870238 0 0.76226792832870238 1.4559436036154698 0 0 0 0 -162.68168507008704 -144.10415169834971 0 -144.10415169834971 -181.36732536863212 0 0 0 0 0.71216449821619676 0.38585404400811552 0 0.38585404400811552 -0.20570836062595732 0 0 0 0 4.8090965266720644 -0.2211732903944208 0 -0.2211732903944208 -1.1671490179638493 0 0 0 0 7.5512554557585645 2.7667621297281926 0 2.7667621297281926 1.3782920117678259 0 0 0 0 46.391618810729142 -79.098174547048131 0 -79.098174547048131 -173.75352444019302 0 0 0 0 -5.383173805395927 -83.525300089039135 0 -83.525300089039135 -96.203199141651424 0 0 0 0 7.521566781249021 3.0755783066740605 0 3.0755783066740605 1.7310353759977488 0 0 0 0 102.59287606730368 21.372767207580182 0 21.372767207580182 -10.424654135802591 0 0 0 0 150.41265267277868 21.094127047739647 0 21.094127047739647 -10.522232555635583 0 0 0 0 10.303959714166922 -30.580800188837983 0 -30.580800188837983 -102.99071769290484 0 0 0 0 40.018403055002182 57.215648998556588 0 57.215648998556588 -61.779389908283164 0 0 0 0 10.149687120815999 0.37144404339805392 0 0.37144404339805392 -0.98462116511489861 0 0 0 0 7.5829914936189198 1.0635199683833321 0 1.0635199683833321 -2.8447433776206594 0 0 0 0 6.801526279360246 1.3180744891987928 0 1.3180744891987928 0.27660235512826148 0 0 0 0 7.1970855598344796 0.23039948724467374 0 0.23039948724467374 -1.3939344155407318 0 0 0 0 -20.56553410715469 23.544421230169291 0 23.544421230169291 12.200978538717393 0 0 0 0 117.44660150568416 18.438591038835611 0 18.438591038835611 -93.94731757890446 0 0 0 0 -18.180565920963545 28.877830982618306 0 28.877830982618306 82.139353891103042 0 0 0 0 0.71796767306997999 0.42810076388667717 0 0.42810076388667717 0.3413669894092739 0 0 0 0 72.044391547336886 59.95786251821913 0 59.95786251821913 -63.660269555153164 0 0 0 0 73.028868973211502 53.531181685621036 0 53.531181685621036 -27.603906266006945 0 0 0 0 90.582495542151264 53.129881651161909 0 53.129881651161909 -32.718433512307527 0 0 0 0 131.59885608248374 5.4870150216830256 0 5.4870150216830256 -28.907581788966674 0 0 0 0 63.270212391879795 41.005641232265738 0 41.005641232265738 1.0667709197826127 0 0 0 0 55.95937578400958 20.775024908449346 0 20.775024908449346 -53.371772958006446 0 0 0 0 -21.163690251439675 41.71368548594802 0 41.71368548594802 -31.088309893275913 0 0 0 0 -21.312419274596778 41.391737001021674 0 41.391737001021674 -18.48818513201919 0 0 0 0 0.85209644926641914 2.1884106929729912 0 2.1884106929729912 0.61876320514180538 0 0 0 0 -10.314485771044019 -8.4594782409145424 0 -8.4594782409145424 -17.683925369954437 0 0 0 0 -0.73230333315200369 9.7025407364882597 0 9.7025407364882597 8.146118271834041 0 0 0 0 0.72280434232366031 4.9847846942094556 0 4.9847846942094556 -1.0490418628374145 0 0 0 0 -4.0215974978582381 31.069871964836167 0 31.069871964836167 -17.622969012687122 0 0 0 0 -33.783629663717875 9.0578472630781857 0 9.0578472630781857 -11.391456337144113 0 0 0 0 -1.3417225327498272 24.694252654442373 0 24.694252654442373 -4.1078504374091267 0 0 0 0 -12.655669581115944 53.145601959205194 0 53.145601959205194 5.3858326725837351 0 0 0 0 93.454945340443373 109.2074187193644 0 109.2074187193644 100.82264857954419 0 0 0 0 46.944877469170024 63.474416090029578 0 63.474416090029578 -2.4634316472066473 0 0 0 0 159.54552461672574 -30.271152577873124 0 -30.271152577873124 -157.05760903746295 0 0 0 0 0.51274758988164848 0.58877258983644731 0 0.58877258983644731 0.47095173223709597 0 0 0 0 1.3315826858495585 4.5937367964261764 0 4.5937367964261764 -1.4218949055599968 0 0 0 0 39.671528974700095 -31.150435489439989 0 -31.150435489439989 18.954242278423663 0 0 0 0 25.252157172981697 1.945039926145455 0 1.945039926145455 19.065713217144776 0 0 0 0 22.586449363834618 -16.954710760304835 0 -16.954710760304835 1.1468223522700214 0 0 0 0 13.358247631686027 -4.4463309240254887 0 -4.4463309240254887 -4.8982333493503774 0 0 0 0 18.557347914820639 -11.804055103365329 0 -11.804055103365329 -4.9296423720221991 0 0 0 0 3.8418288114669235 -0.18271375522269651 0 -0.18271375522269651 -0.3325182426525341 0 0 0 0 15.091132471683522 -10.128576225074454 0 -10.128576225074454 6.7573029019496857 0 0 0 0 265.03913996362752 -292.75875710175507 0 -292.75875710175507 201.33357613210151 0 0 0 0 110.16389018714358 195.6001942677693 0 195.6001942677693 159.85490260511219 0 0 0 0 2.480853255120901 0.30285658320636455 0 0.30285658320636455 0.24912727434821436 0 0 0 0 -1.9528132604508528 -0.40116214544096351 0 -0.40116214544096351 -4.1111120631458675 0 0 0 0 37.250858763979068 -31.488783098729524 0 -31.488783098729524 15.022720964445416 0 0 0 0 198.22666104590394 75.542645560095821 0 75.542645560095821 -9.2809173266108278 0 0 0 0 210.78770074123702 46.374016769957812 0 46.374016769957812 -69.533609605701741 0 0 0 0 498.8916847486978 160.0460620918779 0 160.0460620918779 -47.242950475105374 0 0 0 0 500.26002987612947 -14.77822238284679 0 -14.77822238284679 -87.859291194524985 0 0 0 0 4.8078506171831066 10.343817130908432 0 10.343817130908432 35.496158810071321 0 0 0 0 160.989670906892 12.764312377543749 0 12.764312377543749 -30.450722993910013 0 0 0 0 5.8361197330411514 4.627129263507241 0 4.627129263507241 1.3212980578315552 0 0 0 0 166.57465138627384 -72.560396645256503 0 -72.560396645256503 -16.460232998722169 0 0 0 0 499.01055489075975 -223.72006254246395 0 -223.72006254246395 46.272401390431256 0 0 0 0 52.441150960028608 259.55864874660631 0 259.55864874660631 511.84326629739667 0 0 0 0 2.7354318195293947 1.3112568233730761 0 1.3112568233730761 1.3169144934960546 0 0 0 0 499.02082419061412 410.90693997136344 0 410.90693997136344 115.58260727427297 0 0 0 0 213.91721272657878 194.04031792320166 0 194.04031792320166 162.83102554537177 0 0 0 0 73.074392214290299 34.402124398680598 0 34.402124398680598 22.974636508496758 0 0 0 0 30.466585821998251 37.531869985373078 0 37.531869985373078 37.230592599056394 0 0 0 0 -35.750649210894153 28.404456846560016 0 28.404456846560016 -38.492655604968384 0 0 0 0 1.3191930475720159 1.5445329988263703 0 1.5445329988263703 -2.5771348689353819 0 0 0 0 -71.152813423524691 48.063257704312186 0 48.063257704312186 -10.929156357789637 0 0 0 0 100.99759392554461 49.199198310768708 0 49.199198310768708 -44.236409996636105 0 0 0 0 -23.511410612677992 70.936304171375042 0 70.936304171375042 -20.398793663198717 0 0 0 0 -0.14517533194185245 0.19924477070024249 0 0.19924477070024249 -0.61220814953429359 0 0 0 0 -253.5838027253717 124.62203145165718 0 124.62203145165718 25.546508783898965 0 0 0 0 72.84804281069205 233.07108688202567 0 233.07108688202567 22.37158728554293 0 0 0 0 113.11836177997429 191.86892463732255 0 191.86892463732255 -3.3947304799853164 0 0 0 0 39.763758845205757 81.26557668740945 0 81.26557668740945 4.9088639717510354 0 0 0 0 190.64365509630716 125.82780639133287 0 125.82780639133287 17.998649782602648 0 0 0 0 132.43266008120645 68.423563785416675 0 68.423563785416675 2.0051356746539408 0 0 0 0 157.06151915520979 188.59213683971811 0 188.59213683971811 5.4475124130969732 0 0 0 0 296.81589379546631 214.63668226038723 0 214.63668226038723 0.43821808584812322 0 0 0 0 500.27055059537452 239.43989116858069 0 239.43989116858069 -61.397355400703113 0 0 0 0 277.1397187600387 281.88877896994853 0 281.88877896994853 4.0740896078136064 0 0 0 0 296.46817618967225 259.99245216015225 0 259.99245216015225 6.0829184587861409 0 0 0 0 291.27382983204552 274.77015273082628 0 274.77015273082628 25.009680236808467 0 0 0 0 56.794690421379073 -14.8158871337032 0 -14.8158871337032 34.675179891952951 0 0 0 0 74.109924409332962 -19.135381279915464 0 -19.135381279915464 31.477303810421176 0 0 0 0 91.361309301640858 -19.381353029476202 0 -19.381353029476202 20.335925365284993 0 0 0 0 125.11885682097659 -10.640174676336073 0 -10.640174676336073 19.834061178669117 0 0 0 0 85.036449038191677 -5.3550761494249173 0 -5.3550761494249173 36.193342196138929 0 0 0 0 101.23289272848626 9.7814610861794336 0 9.7814610861794336 31.477265828520558 0 0 0 0 77.38098941950625 -17.969288087520454 0 -17.969288087520454 29.941044613930273 0 0 0 0 75.161702565941823 -14.047334999750547 0 -14.047334999750547 23.219279520497935 0 0 0 0 51.683813262367948 -13.373494749890824 0 -13.373494749890824 32.822997768076903 0 0 0 0 36.559450299342643 -14.193453356033615 0 -14.193453356033615 31.908383638776286 0 0 0 0 49.584692950118324 -20.64549640419645 0 -20.64549640419645 32.840630572082318 0 0 0 0 26.154940758945031 -16.709994219199757 0 -16.709994219199757 34.464490791642675 0 0 0 0 31.629401533678674 -19.931306729111668 0 -19.931306729111668 34.960022785172896 0 0 0 0 27.486321763716887 -20.850841782863824 0 -20.850841782863824 33.772856879759388 0 0 0 0 27.598662968871167 -15.950866193665377 0 -15.950866193665377 35.5190332486643 0 0 0 0 33.186492492126945 -16.146325033640323 0 -16.146325033640323 35.342408999079346 0 0 0 0 55.064227340582875 -21.393564182459556 0 -21.393564182459556 33.421949041939911 0 0 0 0 34.568576097635514 -18.738625536549648 0 -18.738625536549648 36.35294678066623 0 0 0 0 29.363440554643546 -19.573301740610958 0 -19.573301740610958 37.739370205118576 0 0 0 0 57.553421157165985 -30.036024813565064 0 -30.036024813565064 30.80418369561049 0 0 0 0 31.802904384166823 -13.758634899190696 0 -13.758634899190696 29.772709078090827 0 0 0 0 6.7953977972426856 -0.81855209010993235 0 -0.81855209010993235 26.560560258061756 0 0 0 0 29.185759258420831 -13.458501119634832 0 -13.458501119634832 31.198081498869556 0 0 0 0 30.17854843983514 -21.074027361356201 0 -21.074027361356201 32.543466407270245 0 0 0 0 90.400183621965425 -23.659633088295948 0 -23.659633088295948 24.859462187878194 0 0 0 0 62.180476383383279 -24.521833984455327 0 -24.521833984455327 26.747847402801426 0 0 0 0 105.27708659741933 -32.270405769445745 0 -32.270405769445745 10.299461793972114 0 0 0 0 117.70537422378595 -28.923298745448051 0 -28.923298745448051 11.19722148894823 0 0 0 0 63.068240741623754 -36.498596543933871 0 -36.498596543933871 29.866046257387595 0 0 0 0 96.02374818695148 -46.429244264288684 0 -46.429244264288684 23.952195553947718 0 0 0 0 128.9290269581636 -49.621224792992734 0 -49.621224792992734 6.7564678680642203 0 0 0 0 115.026903239489 -51.113631232432624 0 -51.113631232432624 6.8299616467924693 0 0 0 0 138.92569831706919 -30.888279192091545 0 -30.888279192091545 -7.4401491465869185 0 0 0 0 134.38049029164188 -25.13445801919363 0 -25.13445801919363 -14.17019817657274 0 0 0 0 129.98533083090308 -34.982054425731434 0 -34.982054425731434 -9.9803026707604658 0 0 0 0 121.03969929922351 -31.911445011668434 0 -31.911445011668434 -9.5700777893457598 0 0 0 0 126.03818485184979 -23.605265218366071 0 -23.605265218366071 -13.779595404586189 0 0 0 0 0.71089084956556625 1.0288695236917764 0 1.0288695236917764 0.86826184907708281 0 0 0 0 0.52661924988672126 2.4528477910735091 0 2.4528477910735091 0.7299923535803714 0 0 0 0 74.25936128392064 28.168047586810218 0 28.168047586810218 15.682376858244083 0 0 0 0 2.7523008948693075 2.5187389963979285 0 2.5187389963979285 -3.5310755607304145 0 0 0 0 0.35177240584292013 0.052518993332980157 0 0.052518993332980157 -0.51978566460788933 0 0 0 0 -3.4311724543313176 0.78302681909639205 0 0.78302681909639205 1.6047610061394835 0 0 0 0 135.70960149296303 -22.832007640545839 0 -22.832007640545839 0.041593323281745143 0 0 0 0 136.45007526025375 -27.305146336434348 0 -27.305146336434348 -4.9606246166727033 0 0 0 0 0.54338879076414726 1.0278987346968613 0 1.0278987346968613 0.93584990449860506 0 0 0 0 121.21663680553192 -19.883871181494698 0 -19.883871181494698 14.839298311633684 0 0 0 0 1.7634033387262207 1.3228834412442438 0 1.3228834412442438 -0.045636072496165525 0 0 0 0 4.2130727138116981 3.3621436829280356 0 3.3621436829280356 0.67013804567329771 0 0 0 0 1.4043976367473761 2.5603337242329189 0 2.5603337242329189 1.2654460108282137 0 0 0 0 6.3319061216676005 2.2895720314412529 0 2.2895720314412529 0.044458139472737912 0 0 0 0 6.3436089318325912 2.4052761356848578 0 2.4052761356848578 -0.77803617801316705 0 0 0 0 1.860290986399491 4.7397057072752204 0 4.7397057072752204 0.2401593195395435 0 0 0 0 -11.150153764443019 0.72537913921826203 0 0.72537913921826203 1.3800787505694814 0 0 0 0 0.12510108923472973 -0.11624882817489129 0 -0.11624882817489129 -0.69401656756288377 0 0 0 0 13.727108375963894 18.841039038115866 0 18.841039038115866 -3.4308265241866138 0 0 0 0 120.07404794340357 -25.350716908355651 0 -25.350716908355651 15.824988769619722 0 0 0 0 0.33917814181788664 0.426718215380677 0 0.426718215380677 0.24858422499651756 0 0 0 0 181.55202160153931 -10.090666926004815 0 -10.090666926004815 6.294441401588756 0 0 0 0 6.4799852052115057 1.2853330388270479 0 1.2853330388270479 -3.1599628974357188 0 0 0 0 16.72984828522543 1.9057458221137686 0 1.9057458221137686 -4.3425838326008943 0 0 0 0 1.6123615980250747 -0.99565624195469127 0 -0.99565624195469127 6.6378542361662767 0 0 0 0 17.054193357821077 27.249915278620392 0 27.249915278620392 23.236024346474551 0 0 0 0 -6.4540400459724196 8.3788079702741811 0 8.3788079702741811 14.038468905306672 0 0 0 0 96.619710255714665 -3.9962729057104127 0 -3.9962729057104127 1.928006821452982 0 0 0 0 86.754743630416186 27.967294198135903 0 27.967294198135903 -7.3914201424370276 0 0 0 0 86.016738974859891 8.3110811719184312 0 8.3110811719184312 -8.9067885446461332 0 0 0 0 39.208496830402964 21.179749080286228 0 21.179749080286228 3.2445433797913665 0 0 0 0 38.527472443447309 15.583695333766073 0 15.583695333766073 3.9489885574616892 0 0 0 0 -0.15903587644135886 0.013526852979921289 0 0.013526852979921289 0.11098866895780501 0 0 0 0 25.723556952761555 15.101792204250842 0 15.101792204250842 4.4681245001645493 0 0 0 0 46.620362489322133 14.004533539090289 0 14.004533539090289 -2.0709641131315948 0 0 0 0 46.551423201081434 11.374938597175287 0 11.374938597175287 -4.0319069216407115 0 0 0 0 73.616845482396684 11.471731739661436 0 11.471731739661436 -8.6860364507564327 0 0 0 0 67.85578890122305 10.601055259537077 0 10.601055259537077 -4.5683688144708867 0 0 0 0 68.78953133332584 16.92126474581687 0 16.92126474581687 -4.6774012286314246 0 0 0 0 -18.485486174634389 -27.094509473758364 0 -27.094509473758364 22.824188204511017 0 0 0 0 0.21124491477144147 -1.4865419220980129 0 -1.4865419220980129 -4.9252396802213809 0 0 0 0 5.6311342254523993 -1.5990645857821733 0 -1.5990645857821733 0.82921859983503055 0 0 0 0 0.35588874918048008 0.15733649613064365 0 0.15733649613064365 -0.94575127996237729 0 0 0 0 1.0321706127741948 0.6089094629768681 0 0.6089094629768681 -1.2460381565881562 0 0 0 0 -0.10840017868036744 0.13587474084521345 0 0.13587474084521345 -0.15152587023729946 0 0 0 0 26.916634829881929 9.1800573198249253 0 9.1800573198249253 -16.525781918623352 0 0 0 0 -0.7697147615192772 1.0947505995402458 0 1.0947505995402458 -0.03677616923759075 0 0 0 0 1.6157805589219931 0.24610602862657327 0 0.24610602862657327 -1.6492736356091817 0 0 0 0 4.5630383102213727 3.2419383838957856 0 3.2419383838957856 0.84212554134751372 0 0 0 0 1.9405034766726317 -1.2374951289347109 0 -1.2374951289347109 2.9231877470608651 0 0 0 0 24.032029363331276 6.1813713155252117 0 6.1813713155252117 -1.2222167646194748 0 0 0 0 24.348345342360972 0.089105481900901395 0 0.089105481900901395 2.9145543483300571 0 0 0 0 12.126450900457371 9.0475043602150436 0 9.0475043602150436 3.8723656263979365 0 0 0 0 13.505259544397973 0.33033081065696024 0 0.33033081065696024 6.3307983396252894 0 0 0 0 1.4848382186303297 4.8836492317071816 0 4.8836492317071816 -0.37700647776750884 0 0 0 0 5.304962804182594 9.0182036727289869 0 9.0182036727289869 4.0505165243139345 0 0 0 0 65.848091696131632 9.9437207394847746 0 9.9437207394847746 -7.8831328385758752 0 0 0 0 74.411762379736047 12.202322327543698 0 12.202322327543698 -9.5327474822752265 0 0 0 0 66.330478319597177 10.697742367480259 0 10.697742367480259 -7.1853709446845642 0 0 0 0 66.321161569798363 10.736835659427555 0 10.736835659427555 -7.1806171746529799 0 0 0 0 23.49609103562824 8.327604388682289 0 8.327604388682289 0.96021225555705314 0 0 0 0 44.259270248487155 7.2495062517186852 0 7.2495062517186852 -2.0785579968289767 0 0 0 0 44.730076185276857 6.4206005849596295 0 6.4206005849596295 -4.3446901720146798 0 0 0 0 69.366577881953162 2.6212770164183894 0 2.6212770164183894 -5.6726821568811374 0 0 0 0 36.665342401166072 -1.493070556608302 0 -1.493070556608302 0.68534491884201998 0 0 0 0 33.786339537012736 3.4410953765498107 0 3.4410953765498107 0.095968270520984333 0 0 0 0 69.620217699673049 -8.9681362995379459 0 -8.9681362995379459 -0.44005890821608773 0 0 0 0 67.35306615741402 4.3680364794834077 0 4.3680364794834077 -6.1201523330687451 0 0 0 0 88.608596537044377 8.8558022020220051 0 8.8558022020220051 -10.552141239159255 0 0 0 0 85.428805473678722 28.117893899528667 0 28.117893899528667 2.100343694914045 0 0 0 0 43.430991590070334 17.645459474602831 0 17.645459474602831 13.173157781873897 0 0 0 0 63.978395494940742 22.49528351603999 0 22.49528351603999 5.3902153908195487 0 0 0 0 67.049945016067568 18.025607657163391 0 18.025607657163391 -4.0193363213170414 0 0 0 0 76.848061084312349 26.712458850279347 0 26.712458850279347 2.4966555670985144 0 0 0 0 34.392760184719421 2.1241037128275231 0 2.1241037128275231 3.3296638990414067 0 0 0 0 34.282402888398337 8.1310232792341139 0 8.1310232792341139 8.0191142859334832 0 0 0 0 44.219904000550741 12.884361014747356 0 12.884361014747356 8.6453007007108909 0 0 0 0 50.987683366668989 13.260595835956792 0 13.260595835956792 5.5757579851841683 0 0 0 0 50.779879921766451 14.263517127722025 0 14.263517127722025 1.623020682277911 0 0 0 0 38.202217093119543 5.0414601388561096 0 5.0414601388561096 4.0241592501984087 0 0 0 0 51.253763272530762 7.1166002185059938 0 7.1166002185059938 3.8327457727809815 0 0 0 0 63.688253527085635 6.1336922408249848 0 6.1336922408249848 1.5949675028741694 0 0 0 0 50.589313684425406 9.0186520113348365 0 9.0186520113348365 1.2391394016226513 0 0 0 0 40.8773653269227 4.053643322858079 0 4.053643322858079 6.8194023334351641 0 0 0 0 70.659766281242582 16.976894564877512 0 16.976894564877512 -3.8090689289778652 0 0 0 0 64.697201633180839 12.352503439626844 0 12.352503439626844 -4.0478877577697858 0 0 0 0 61.798681117856177 14.580558786431084 0 14.580558786431084 1.2205164948450147 0 0 0 0 64.798889741920902 10.361722651031641 0 10.361722651031641 -4.8932929723313237 0 0 0 0 74.380636234273254 5.7105405976761858 0 5.7105405976761858 -2.888595994797015 0 0 0 0 64.928200979462417 2.8997126650748442 0 2.8997126650748442 2.5663682023396177 0 0 0 0 48.007648787451217 -1.8310072983060763 0 -1.8310072983060763 11.255420454838486 0 0 0 0 60.502210942080183 5.9049219746514154 0 5.9049219746514154 2.268717511270097 0 0 0 0 57.03302122301011 -1.2396683345428983 0 -1.2396683345428983 7.5644150919229105 0 0 0 0 51.258658896308134 -9.452582758734934 0 -9.452582758734934 22.419331192067489 0 0 0 0 64.486606494432408 -11.921843296047484 0 -11.921843296047484 17.249938106873287 0 0 0 0 75.442572634871226 -0.59030854724767323 0 -0.59030854724767323 11.517602684446956 0 0 0 0 83.457220767608305 -10.797182536415676 0 -10.797182536415676 18.340631837337924 0 0 0 0 78.223920117072112 -1.250172964135686 0 -1.250172964135686 2.0953715199310778 0 0 0 0 20.750098534869721 -17.020530578519811 0 -17.020530578519811 34.447918344070558 0 0 0 0 31.812316512175585 -10.60131423041048 0 -10.60131423041048 26.914441612045266 0 0 0 0 34.132942236485633 -16.455922497331585 0 -16.455922497331585 31.574809903768113 0 0 0 0 51.763493623477217 -12.541058769467384 0 -12.541058769467384 22.649770022679832 0 0 0 0 36.71738430309415 -9.2750486492791424 0 -9.2750486492791424 22.250420748896943 0 0 0 0 46.586179374389076 -8.8099706734083156 0 -8.8099706734083156 15.444590529817106 0 0 0 0 30.789133788899562 -4.3766153385154212 0 -4.3766153385154212 20.597801423793953 0 0 0 0 40.191904761655678 -3.8252700291061501 0 -3.8252700291061501 13.652699198486971 0 0 0 0 30.085416435701518 -2.3162691573913889 0 -2.3162691573913889 13.431002585713031 0 0 0 0 28.474862218829912 -12.638208837253956 0 -12.638208837253956 25.930059026608888 0 0 0 0 20.249698135137805 -5.2207765423312367 0 -5.2207765423312367 19.737054841615645 0 0 0 0 16.244805739582262 -2.0977189260631803 0 -2.0977189260631803 11.201057932657022 0 0 0 0 28.875102885104752 -0.320520841867733 0 -0.320520841867733 10.156160104028459 0 0 0 0 23.579415832136874 -8.7699458057820721 0 -8.7699458057820721 17.267068113600203 0 0 0 0 21.625535880618372 0.073205756123343235 0 0.073205756123343235 5.1243654317863729 0 0 0 0 19.611656680935539 -7.4685596782887842 0 -7.4685596782887842 6.0170233973899485 0 0 0 0 13.217613608210002 -2.4640432158618211 0 -2.4640432158618211 2.1090200316848495 0 0 0 0 39.882558501123185 -1.8461575553783405 0 -1.8461575553783405 7.2627609921928524 0 0 0 0 25.372609845199349 -1.4416468188192084 0 -1.4416468188192084 6.1888348963273359 0 0 0 0 30.653753100952599 2.6812799005328998 0 2.6812799005328998 6.5729235986655112 0 0 0 0 26.683905324391162 -4.3663935469839998 0 -4.3663935469839998 8.976726778167631 0 0 0 0 33.050841485804625 0.87072279144383202 0 0.87072279144383202 2.3835321955311883 0 0 0 0 33.237963728052819 6.523174281836873 0 6.523174281836873 7.1044498440664938 0 0 0 0 27.103509908299543 -4.2732964516060292 0 -4.2732964516060292 0.14846551723258017 0 0 0 0 24.402141065522528 -4.7907972102974554 0 -4.7907972102974554 -2.8963521687373941 0 0 0 0 21.355739678868758 -3.4264994238455984 0 -3.4264994238455984 4.8704437521332693 0 0 0 0 29.005152707767138 3.8994590549493751 0 3.8994590549493751 5.1743843226317949 0 0 0 0 12.707634165479931 -7.4585008558834716 0 -7.4585008558834716 -14.008011574086595 0 0 0 0 13.150018146177899 -10.32108130470715 0 -10.32108130470715 -2.4681536560547102 0 0 0 0 19.009250165427829 -5.8112794080719823 0 -5.8112794080719823 -7.8652394643613661 0 0 0 0 17.127375327047503 -5.0052683333501591 0 -5.0052683333501591 3.0572987803427623 0 0 0 0 13.67728648304228 -15.274281025531081 0 -15.274281025531081 -5.9045602079631863 0 0 0 0 14.183456405326979 -12.681585133609588 0 -12.681585133609588 -19.552936566130711 0 0 0 0 7.8206405505852672 -15.173135682057818 0 -15.173135682057818 -12.56901844532149 0 0 0 0 2.4791238173675083 -6.125151811937485 0 -6.125151811937485 -27.876748560554688 0 0 0 0 -17.270446746727885 -14.325680665552682 0 -14.325680665552682 -11.571253333834647 0 0 0 0 -9.1730523397817478 -34.439650379427917 0 -34.439650379427917 -21.917350581924893 0 0 0 0 -0.38579737242389456 -10.724536901951979 0 -10.724536901951979 -0.88950234442609144 0 0 0 0 2.0150264110925491 -8.9004096709243186 0 -8.9004096709243186 -2.2183765269569449 0 0 0 0 6.1271560340810538 -13.905934998421799 0 -13.905934998421799 -14.362277958574168 0 0 0 0 7.5187833911495545 -4.7955975507829862 0 -4.7955975507829862 7.7363480865724341 0 0 0 0 12.77270701778582 -9.8325173434610065 0 -9.8325173434610065 -2.5048364603635491 0 0 0 0 8.5638168574805604 -12.792794503849109 0 -12.792794503849109 -0.49243248376797055 0 0 0 0 5.0672575634289387 -7.7147965651463437 0 -7.7147965651463437 12.923569184538792 0 0 0 0 11.880506264748874 -11.412264348348117 0 -11.412264348348117 13.785670182116519 0 0 0 0 15.384202247382319 -10.07957206056544 0 -10.07957206056544 11.131083002473588 0 0 0 0 -4.8090567694484889 -8.1879105186119432 0 -8.1879105186119432 6.1023391057342451 0 0 0 0 11.732428251114243 -10.532322321547554 0 -10.532322321547554 4.9472905672214438 0 0 0 0 8.6677218596787498 -6.7913046929343182 0 -6.7913046929343182 14.204173004306313 0 0 0 0 17.201866627299751 -6.7735531282874035 0 -6.7735531282874035 -5.8592411273220932 0 0 0 0 9.6811946333684773 -14.151500704182126 0 -14.151500704182126 -3.166952006989959 0 0 0 0 10.848923259110961 15.761048932775054 0 15.761048932775054 2.5813655089223175 0 0 0 0 13.730512724529952 -3.9624782732447095 0 -3.9624782732447095 -1.3901191219359648 0 0 0 0 52.935284872994998 2.6024738389951381 0 2.6024738389951381 -31.612699330215037 0 0 0 0 10.245259606240779 -21.703643623869652 0 -21.703643623869652 -26.088360030979857 0 0 0 0 2.0073329912093749 0.87917440591718066 0 0.87917440591718066 -0.031537233994140657 0 0 0 0 17.382883381649208 1.527309890274978 0 1.527309890274978 0.17990393727632181 0 0 0 0 17.07820727827675 1.7843038809426162 0 1.7843038809426162 0.098104499593205219 0 0 0 0 13.177019892161368 -2.0049277089534159 0 -2.0049277089534159 -1.556673489152312 0 0 0 0 16.629377725125778 4.5073084549349005 0 4.5073084549349005 2.4292131912421837 0 0 0 0 16.035643333264943 5.2438135218226307 0 5.2438135218226307 4.5756655857994701 0 0 0 0 11.1269854099501 -0.77230168607267069 0 -0.77230168607267069 -1.544153912625772 0 0 0 0 24.679123648254063 -34.618101580225357 0 -34.618101580225357 13.643602608038236 0 0 0 0 -2.1046212746559831 11.970300748623345 0 11.970300748623345 16.360780147053674 0 0 0 0 11.946474934833077 -18.736533005792808 0 -18.736533005792808 -29.153593938470522 0 0 0 0 2.3874102283152752 -0.40531507934986166 0 -0.40531507934986166 23.71083871347173 0 0 0 0 7.8039235204726083 -20.674815328563994 0 -20.674815328563994 46.513436004386222 0 0 0 0 155.45521147192267 -109.07929378165011 0 -109.07929378165011 70.94291675322404 0 0 0 0 32.034246207830506 -78.365697429617711 0 -78.365697429617711 139.84380005726484 0 0 0 0 13.582223316466298 -12.222999782648003 0 -12.222999782648003 55.092363658027807 0 0 0 0 40.843161116561078 -54.748046215634531 0 -54.748046215634531 70.877707139127835 0 0 0 0 120.84218487823864 -41.808897518624349 0 -41.808897518624349 20.408665799637447 0 0 0 0 59.031861628388015 -40.453307227815287 0 -40.453307227815287 28.203623528283288 0 0 0 0 15.755652379857793 -26.573669285116182 0 -26.573669285116182 46.524099257211219 0 0 0 0 14.580744304221525 -27.722742287998244 0 -27.722742287998244 46.20151685506903 0 0 0 0 9.920987353012606 -17.499700640460901 0 -17.499700640460901 38.732046151605346 0 0 0 0 14.680434567159409 -23.981602377547119 0 -23.981602377547119 44.613339799094888 0 0 0 0 14.406372481244034 -18.380800140589713 0 -18.380800140589713 37.446645491172376 0 0 0 0 20.512730055259453 -16.847644881333849 0 -16.847644881333849 34.644865145149765 0 0 0 0 14.322810576408983 -17.06736635938239 0 -17.06736635938239 32.151731732639291 0 0 0 0 10.542315866347053 -11.600458109256351 0 -11.600458109256351 32.549301741421573 0 0 0 0 19.128686783640887 -13.157625072084272 0 -13.157625072084272 25.199478506255673 0 0 0 0 9.8560468783721262 -5.401269063889913 0 -5.401269063889913 19.905812859903335 0 0 0 0 1.0579805569609562 -10.74502668700211 0 -10.74502668700211 44.841962564773667 0 0 0 0 9.4595275637962004 -10.880356797779314 0 -10.880356797779314 16.565113696379967 0 0 0 0 5.4397859042874188 -8.5768486731341227 0 -8.5768486731341227 29.751868385661055 0 0 0 0 12.345709033499816 -5.7355280868530372 0 -5.7355280868530372 0.21297841038722254 0 0 0 0 10.508027632390167 -2.3417217457194965 0 -2.3417217457194965 2.1813532697862001 0 0 0 0 0.48597343108959112 0.5523621484711061 0 0.5523621484711061 0.62378246837479256 0 0 0 0 0.35516934403815181 0.6531247471812005 0 0.6531247471812005 0.55914217047238779 0 0 0 0 42.568137018992616 -40.889239167666631 0 -40.889239167666631 18.171457132626074 0 0 0 0 84.139462176609868 -32.932224707801879 0 -32.932224707801879 2.4646961940943584 0 0 0 0 71.130172948048312 -48.060572013546278 0 -48.060572013546278 3.2215690486564199 0 0 0 0 31.457137904801584 -7.622957943562028 0 -7.622957943562028 21.420099023645214 0 0 0 0 130.70164062372078 -26.972503065538945 0 -26.972503065538945 18.912312349077411 0 0 0 0 78.265834069563425 -24.33356253329373 0 -24.33356253329373 67.104592950465985 0 0 0 0 123.0736267305324 -41.86111008823525 0 -41.86111008823525 62.236403135902492 0 0 0 0 86.357836593408138 -53.972617600458761 0 -53.972617600458761 123.14335232941403 0 0 0 0 191.89325133355442 -94.921285960004298 0 -94.921285960004298 71.327872941558098 0 0 0 0 165.18167725234935 -3.3561831111867377 0 -3.3561831111867377 8.1111110735551506 0 0 0 0 117.68242692703666 -56.339330687693007 0 -56.339330687693007 11.770593407495426 0 0 0 0 206.98948378233445 -28.198060885113023 0 -28.198060885113023 0.40463145040939708 0 0 0 0 0.70130431534563753 4.7204573775086542 0 4.7204573775086542 5.1818678821235222 0 0 0 0 342.84489635267073 33.845700145389173 0 33.845700145389173 -29.923899732712016 0 0 0 0 481.69188416748693 -106.15151544045216 0 -106.15151544045216 119.63857795084959 0 0 0 0 322.65062292812763 -191.45572579298778 0 -191.45572579298778 75.746048149736453 0 0 0 0 1.63108769727355 1.3081452216066081 0 1.3081452216066081 0.29850275082555111 0 0 0 0 31.193957143741045 3.2402551340292121 0 3.2402551340292121 82.171732200827137 0 0 0 0 0.24007653343981072 -0.17744229013364166 0 -0.17744229013364166 0.58225758825648821 0 0 0 0 287.18016690476179 -115.52322825378258 0 -115.52322825378258 115.78043308417864 0 0 0 0 260.0250313046572 -153.04788348255647 0 -153.04788348255647 113.81306942124138 0 0 0 0 -14.068089730550128 45.532325395119869 0 45.532325395119869 70.238852707642877 0 0 0 0 2.6061762657562397 1.2485501680540931 0 1.2485501680540931 0.466180671448857 0 0 0 0 84.010489978775695 20.253342055803614 0 20.253342055803614 -13.977515328035167 0 0 0 0 212.69999736823138 -18.313903663017356 0 -18.313903663017356 -4.1375445853518613 0 0 0 0 78.617800835725575 59.365385182031872 0 59.365385182031872 15.800910654077825 0 0 0 0 106.3524127113069 35.374450154103158 0 35.374450154103158 36.526813531059361 0 0 0 0 126.97821998368272 -50.530078626085469 0 -50.530078626085469 111.58150021591337 0 0 0 0 60.212281340033769 31.383228127903863 0 31.383228127903863 58.866680256818427 0 0 0 0 0.3238801796832238 0.30819038044260072 0 0.30819038044260072 0.21648214964559243 0 0 0 0 8.2858335263306344 8.9715509614027269 0 8.9715509614027269 28.105727784972032 0 0 0 0 110.29600704946279 23.188802376340618 0 23.188802376340618 19.118366821702708 0 0 0 0 77.48409241724039 42.080675542537392 0 42.080675542537392 15.986054348894129 0 0 0 0 109.26731734646046 7.6434532588251045 0 7.6434532588251045 -9.1124846484825923 0 0 0 0 6.6834621282309854 9.9080300878391085 0 9.9080300878391085 21.279491465371166 0 0 0 0 17.973355122535395 -4.2241535557021166 0 -4.2241535557021166 -5.3503484631075935 0 0 0 0 8.7660469849379297 -6.449568190498951 0 -6.449568190498951 0.2266612791481748 0 0 0 0 58.950746929053821 19.368603517075655 0 19.368603517075655 11.270029682423456 0 0 0 0 32.58949059776387 -17.901452051352805 0 -17.901452051352805 7.6287549945288902 0 0 0 0 0.12848380665140402 0.19232622065983929 0 0.19232622065983929 0.25431289939589741 0 0 0 0 68.239606653497503 7.4789784762538432 0 7.4789784762538432 17.337747465602206 0 0 0 0 29.659242494147747 -0.32390288951819457 0 -0.32390288951819457 -5.6736532624090614 0 0 0 0 82.658202185859864 21.378185255142341 0 21.378185255142341 -9.8811710250511169 0 0 0 0 77.983978664424512 19.96624041244101 0 19.96624041244101 8.0476035083931947 0 0 0 0 125.32291049308105 24.738198734628384 0 24.738198734628384 0.50448883923229459 0 0 0 0 101.79182871310354 29.65066133512272 0 29.65066133512272 6.3183974268274596 0 0 0 0 0.095185298463206891 -0.027828927269494486 0 -0.027828927269494486 0.38289375898437861 0 0 0 0 20.597877357142124 12.268931256889744 0 12.268931256889744 11.40538308590277 0 0 0 0 27.639342343044291 4.5309820383135957 0 4.5309820383135957 12.049710376357552 0 0 0 0 0.33497896930564597 -0.39363934184592786 0 -0.39363934184592786 0.8193221603937948 0 0 0 0 81.004421092003668 11.824988466282434 0 11.824988466282434 -5.9965199348383749 0 0 0 0 66.900538715977291 -5.5505075296613313 0 -5.5505075296613313 9.3241170544016541 0 0 0 0 38.407714095618758 21.475355491664232 0 21.475355491664232 13.012621790632465 0 0 0 0 75.925131881149582 19.352644264161569 0 19.352644264161569 -3.1902285275023132 0 0 0 0 49.672837463751648 8.7781006956624736 0 8.7781006956624736 -3.770472677706266 0 0 0 0 46.832467320439264 1.2673109264915041 0 1.2673109264915041 -5.1218628895655467 0 0 0 0 -0.03587276322576205 0.17673437816011628 0 0.17673437816011628 -0.01873961969181448 0 0 0 0 57.937862908497664 -27.511448347742402 0 -27.511448347742402 -13.423127595476384 0 0 0 0 83.980356726620357 35.993847497853629 0 35.993847497853629 2.837615576498564 0 0 0 0 43.817579643872932 16.66945014413642 0 16.66945014413642 -3.393598541736651 0 0 0 0 73.356930181589632 4.63340109044222 0 4.63340109044222 16.147444783163735 0 0 0 0 98.896062727279059 7.0364314561168158 0 7.0364314561168158 14.43506724927704 0 0 0 0 67.066936409889195 18.004211467311031 0 18.004211467311031 -9.0255901579669739 0 0 0 0 74.076920183018046 27.684058279373588 0 27.684058279373588 -16.730951337755389 0 0 0 0 80.936876694556304 5.8972166585609216 0 5.8972166585609216 -23.149180564334088 0 0 0 0 21.448472034988754 -23.790035008592099 0 -23.790035008592099 30.483960206260065 0 0 0 0 22.106395896388676 -19.008687395699781 0 -19.008687395699781 30.825752526938459 0 0 0 0 19.639706377232415 -20.766353744079311 0 -20.766353744079311 37.798826147932004 0 0 0 0 22.899289930268651 -20.530105876824848 0 -20.530105876824848 37.773997901884741 0 0 0 0 21.065814921078868 -26.702598088534479 0 -26.702598088534479 37.237337769588294 0 0 0 0 48.15121030191176 -38.159835728662529 0 -38.159835728662529 41.166080914121409 0 0 0 0 21.363467277961433 -23.469599788812104 0 -23.469599788812104 33.815852569141612 0 0 0 0 69.075396442435135 -0.6301496467324057 0 -0.6301496467324057 16.866217802395568 0 0 0 0 54.834566958171763 -13.945747032396866 0 -13.945747032396866 9.2005148730067958 0 0 0 0 31.796715890539417 -1.4703164575050778 0 -1.4703164575050778 24.218530126942767 0 0 0 0 24.331828342894369 -27.472649369269391 0 -27.472649369269391 28.433064901662306 0 0 0 0 18.430223112493195 -15.243467803785705 0 -15.243467803785705 19.948799461866173 0 0 0 0 22.164582027186043 -18.91125462941406 0 -18.91125462941406 4.5980798025748868 0 0 0 0 0.28898687618276808 0.34664973215541117 0 0.34664973215541117 0.10214508308071846 0 0 0 0 4.2437150716405085 -9.2183765650443092 0 -9.2183765650443092 23.91251803239777 0 0 0 0 0.34680254762822305 0.53991883966624865 0 0.53991883966624865 0.37129205040673496 0 0 0 0 9.6278846277740513 16.904872477788057 0 16.904872477788057 7.9398200029258135 0 0 0 0 2.0265521004491802 3.9922154940095851 0 3.9922154940095851 7.6935057778520299 0 0 0 0 16.426603485974056 -2.7073383002137774 0 -2.7073383002137774 24.849516166455977 0 0 0 0 27.695755749540695 -16.201884186194064 0 -16.201884186194064 13.287773492313022 0 0 0 0 20.038679725367672 -22.262266636450107 0 -22.262266636450107 26.078216322450999 0 0 0 0 28.697529753002527 -12.121719023063491 0 -12.121719023063491 27.662775579646642 0 0 0 0 25.535108887454044 -20.387221650867929 0 -20.387221650867929 26.046742536586521 0 0 0 0 13.647246435261991 -5.8340318547029071 0 -5.8340318547029071 5.6688166911694111 0 0 0 0 38.096858513274469 -13.473933753566719 0 -13.473933753566719 6.2726966623368696 0 0 0 0 22.174991887040051 -1.7574135500098507 0 -1.7574135500098507 -2.3761605970820483 0 0 0 0 -2.677790899003071 3.6845687095681612 0 3.6845687095681612 8.7289587770295327 0 0 0 0 16.590722826964338 -7.0788865816119575 0 -7.0788865816119575 0.78126674478835412 0 0 0 0 -1.316357173902702 3.1182204664607127 0 3.1182204664607127 2.2915223935050903 0 0 0 0 10.858297449186466 6.3836500832313448 0 6.3836500832313448 2.6384182651504489 0 0 0 0 0.30622832574734948 0.4596771105312385 0 0.4596771105312385 0.20370012570950291 0 0 0 0 -11.202727493294788 8.9317152991878856 0 8.9317152991878856 -0.0057731895427366453 0 0 0 0 7.7947296711815852 -4.9911987004135483 0 -4.9911987004135483 -34.334564376118806 0 0 0 0 -4.0650327372322863 4.0003928126699151 0 4.0003928126699151 -24.85589418299503 0 0 0 0 0.22716483089640915 0.28664304264138396 0 0.28664304264138396 -0.077209595117519569 0 0 0 0 22.052996106797536 -7.6704953219963841 0 -7.6704953219963841 -10.851365762258922 0 0 0 0 7.1050203791719468 -10.714107991662786 0 -10.714107991662786 -14.461895212726404 0 0 0 0 9.6467544351583001 -5.2630299025499312 0 -5.2630299025499312 -9.2994343194622786 0 0 0 0 14.717204779056033 1.2435946199402963 0 1.2435946199402963 -21.683098900753293 0 0 0 0 16.900203729995781 -7.8371005951547374 0 -7.8371005951547374 -8.3860494763300153 0 0 0 0 13.081463469978644 -2.2041835351821533 0 -2.2041835351821533 -1.6865789254870975 0 0 0 0 78.48393191709556 26.657729033285577 0 26.657729033285577 3.7511531149911832 0 0 0 0 81.626627907081456 28.435108010898762 0 28.435108010898762 -10.400967101094722 0 0 0 0 74.743481847473959 24.20359015887896 0 24.20359015887896 -4.1444972783493483 0 0 0 0 0.063434461833495881 0.20468266614457242 0 0.20468266614457242 -0.21040624204803479 0 0 0 0 83.298104319360846 32.228129464293104 0 32.228129464293104 -6.3695951655088052 0 0 0 0 67.180593830869611 25.967687942571942 0 25.967687942571942 1.8735847199964439 0 0 0 0 31.374144969627196 14.960143393458978 0 14.960143393458978 15.532155507270048 0 0 0 0 36.547000990254901 4.0168263596302154 0 4.0168263596302154 -3.3972999260481274 0 0 0 0 33.455153086167797 13.505415860869288 0 13.505415860869288 9.2026980944404499 0 0 0 0 37.783667087578351 9.7359991698037334 0 9.7359991698037334 -9.63443776719933 0 0 0 0 -3.1182515522114045 8.5873647373159088 0 8.5873647373159088 -1.6793970285197872 0 0 0 0 54.979922002199373 16.690028649082564 0 16.690028649082564 16.055439976511138 0 0 0 0 54.890592918270386 15.408354599121992 0 15.408354599121992 -2.1054704562146753 0 0 0 0 0.0072971493828095646 0.18732553702619104 0 0.18732553702619104 -0.020833502927405823 0 0 0 0 105.34928806095058 35.273260920775755 0 35.273260920775755 22.716690947660368 0 0 0 0 89.066740831118182 44.469988706273604 0 44.469988706273604 18.224115375748312 0 0 0 0 89.286185458014643 -19.63079770072369 0 -19.63079770072369 27.590017777596813 0 0 0 0 53.21900566038471 -10.628418475014143 0 -10.628418475014143 63.789306093107371 0 0 0 0 85.93692020951994 35.48866896693994 0 35.48866896693994 25.242022149779586 0 0 0 0 46.870707110913372 -7.93305799988633 0 -7.93305799988633 9.127729634363277 0 0 0 0 43.169546167109729 -21.385736723539821 0 -21.385736723539821 37.014555616193547 0 0 0 0 52.171080403178848 -0.036247217125179532 0 -0.036247217125179532 19.16044319770981 0 0 0 0 43.199603276311109 -15.889133824704189 0 -15.889133824704189 14.246510531632111 0 0 0 0 43.902083386596814 -13.494854085016527 0 -13.494854085016527 8.8526822320231986 0 0 0 0 39.112130321645509 -16.925653220110064 0 -16.925653220110064 7.4235958893326597 0 0 0 0 34.951726752829927 -1.5783310243681399 0 -1.5783310243681399 10.367189250303142 0 0 0 0 28.688257336599236 -5.6709433512099849 0 -5.6709433512099849 -1.3356418722406289 0 0 0 0 28.843976935421438 -4.4954374520313962 0 -4.4954374520313962 -4.8989525760921424 0 0 0 0 34.566734401635586 5.1132146722607104 0 5.1132146722607104 17.07595892963684 0 0 0 0 34.144493588135902 8.4216304229784953 0 8.4216304229784953 0.73857728256484734 0 0 0 0 26.039226938457887 -11.334679906202041 0 -11.334679906202041 3.1587804068308287 0 0 0 0 28.292406187601046 -2.2795958541435652 0 -2.2795958541435652 -17.340986560992576 0 0 0 0 2.9519706493374542 -10.329235477203582 0 -10.329235477203582 6.9524943292021817 0 0 0 0 6.6412596051327455 -14.55918168741664 0 -14.55918168741664 -0.6148935080993283 0 0 0 0 19.405117868673187 -3.9770948521719163 0 -3.9770948521719163 3.2228696732252047 0 0 0 0 8.5627904597986344 -5.137238159509252 0 -5.137238159509252 -3.9964985012702527 0 0 0 0 12.93687105963545 -11.169339227720002 0 -11.169339227720002 4.0795037487208816 0 0 0 0 7.5612526903132675 -9.9812061089308628 0 -9.9812061089308628 -4.7198011476634747 0 0 0 0 6.1837117526019938 -7.6440208648247108 0 -7.6440208648247108 -6.4451292379526421 0 0 0 0 2.2717406860975204 -2.7425751485971794 0 -2.7425751485971794 1.0749301205284001 0 0 0 0 -5.480503749479567 -12.377735118801098 0 -12.377735118801098 -10.611821895832719 0 0 0 0 10.17911494301643 -11.150298085838131 0 -11.150298085838131 -26.622391756764159 0 0 0 0 8.2232616491091903 -12.38394078950023 0 -12.38394078950023 -20.105614049918586 0 0 0 0 5.7092527557896346 -17.190503234321525 0 -17.190503234321525 -15.146594447498501 0 0 0 0 3.4554784484716947 -15.520360996657246 0 -15.520360996657246 -18.783180395507998 0 0 0 0 4.6700175900696195 -13.319851399812251 0 -13.319851399812251 -2.0461774403401023 0 0 0 0 7.2178975358751813 -1.9968672970537114 0 -1.9968672970537114 -5.9878080479356868 0 0 0 0 -10.318244184547439 -11.836602773964842 0 -11.836602773964842 -11.055704703144329 0 0 0 0 -6.9109513327712193 -9.0962678910016166 0 -9.0962678910016166 -19.381936332760461 0 0 0 0 -16.923131100513274 13.041927283210498 0 13.041927283210498 -65.843865165908028 0 0 0 0 0.0033650266189328981 -0.65071242709693333 0 -0.65071242709693333 0.2304604265893806 0 0 0 0 -7.7048549871017258 -2.5930227938412997 0 -2.5930227938412997 4.9196832005726776 0 0 0 0 81.013656444987305 -29.918631298110341 0 -29.918631298110341 0.40820391142415247 0 0 0 0 -0.1128853677077053 -0.11782058925522332 0 -0.11782058925522332 3.3814288653546565 0 0 0 0 -10.236680899359044 1.5804543428870801 0 1.5804543428870801 8.3793886159339763 0 0 0 0 86.679409077417802 -26.377669644528417 0 -26.377669644528417 -17.769660335297885 0 0 0 0 -10.451800278166047 1.3124297003523466 0 1.3124297003523466 11.067321935056555 0 0 0 0 89.250832324496514 -21.388315770084319 0 -21.388315770084319 18.88349771746698 0 0 0 0 72.34061269182348 -35.663725597631128 0 -35.663725597631128 6.8453701000061642 0 0 0 0 79.220108321092994 -31.0221004293021 0 -31.0221004293021 5.220231623504219 0 0 0 0 105.66438502854999 -43.015489323760676 0 -43.015489323760676 -18.332859593406482 0 0 0 0 70.610031588350466 -42.095885707675507 0 -42.095885707675507 -7.9271674969297692 0 0 0 0 83.101265436521771 -37.934137508085257 0 -37.934137508085257 -18.845733919389204 0 0 0 0 86.382411454002636 -32.07503666631905 0 -32.07503666631905 -8.5100783800353383 0 0 0 0 57.730034100740795 -34.874696006656336 0 -34.874696006656336 9.5420913770678908 0 0 0 0 70.513687257594938 -25.154359780062578 0 -25.154359780062578 16.366636713389425 0 0 0 0 56.404999425471715 -37.068520434473442 0 -37.068520434473442 9.9997385785413826 0 0 0 0 51.260100135090397 -39.73016908598936 0 -39.73016908598936 19.760674620441478 0 0 0 0 47.494475754892392 -35.287959007805568 0 -35.287959007805568 14.721596593757113 0 0 0 0 66.59307525595068 -28.033586093423764 0 -28.033586093423764 49.721763571219526 0 0 0 0 65.275634989942773 -37.739973163050081 0 -37.739973163050081 10.913038179931391 0 0 0 0 80.819061462206264 -31.79572774002952 0 -31.79572774002952 39.162314505661016 0 0 0 0 98.462090796139819 -38.210149493488643 0 -38.210149493488643 23.296459880001635 0 0 0 0 -0.15297061894954744 -0.54883093641082925 0 -0.54883093641082925 0.83556081380286273 0 0 0 0 84.491120050017344 -44.047155543365307 0 -44.047155543365307 65.456893665508687 0 0 0 0 93.582964892313612 -12.709976776944359 0 -12.709976776944359 -58.611689912778729 0 0 0 0 -2.3165506964683118 -6.0560405922059886 0 -6.0560405922059886 -0.96937554252554037 0 0 0 0 58.216146064116401 -40.489891791280115 0 -40.489891791280115 11.917634661756892 0 0 0 0 84.119563213569563 -56.082637774423745 0 -56.082637774423745 11.104373699334246 0 0 0 0 64.891816168867081 -22.90386749203617 0 -22.90386749203617 -32.101629637392307 0 0 0 0 52.207004303651047 -16.958593074027021 0 -16.958593074027021 -11.202892882597553 0 0 0 0 18.429355302876502 22.683870366599649 0 22.683870366599649 -33.869782114226155 0 0 0 0 20.82566760978807 -11.700648090387858 0 -11.700648090387858 -4.6405582372789524 0 0 0 0 33.84841739624153 -2.6526053261208062 0 -2.6526053261208062 -15.592366912592752 0 0 0 0 45.24393658974077 -19.77663643858682 0 -19.77663643858682 0.28092253298208902 0 0 0 0 45.877332337158805 -20.717978307685144 0 -20.717978307685144 -3.6481593646558395 0 0 0 0 47.042825876499364 -27.728362093595891 0 -27.728362093595891 7.1224038859395478 0 0 0 0 51.549279183334647 -38.314411692574026 0 -38.314411692574026 8.7404031058017608 0 0 0 0 54.419400091501302 -33.050572138414964 0 -33.050572138414964 -2.5135967007377076 0 0 0 0 43.917182722077996 -25.856212806276375 0 -25.856212806276375 24.892572984842218 0 0 0 0 45.03887864085209 -24.751602920179721 0 -24.751602920179721 3.309751626962111 0 0 0 0 42.572538181183518 -35.303375079143279 0 -35.303375079143279 16.541025937748714 0 0 0 0 45.128325601442612 -25.377610623941351 0 -25.377610623941351 22.992272565267058 0 0 0 0 45.846409200730704 -37.019143331353575 0 -37.019143331353575 17.198173343610733 0 0 0 0 32.350801033651805 -40.206295526102849 0 -40.206295526102849 16.615528165540468 0 0 0 0 40.051224146823188 -46.35347341346926 0 -46.35347341346926 5.2681178315522175 0 0 0 0 41.806354895124969 -30.561888644479438 0 -30.561888644479438 15.736469304873253 0 0 0 0 26.092732031923333 -27.363031840848322 0 -27.363031840848322 15.859374748758455 0 0 0 0 24.774062949313247 0.83248407799669621 0 0.83248407799669621 -0.77932481720728219 0 0 0 0 57.50418482319543 -15.141474376603853 0 -15.141474376603853 6.7053411468086779 0 0 0 0 17.559423961704852 -36.388183617718141 0 -36.388183617718141 6.9798842652401163 0 0 0 0 43.719235629920149 -8.8967722090757206 0 -8.8967722090757206 17.048804933035854 0 0 0 0 37.57970741157078 -31.261990861832942 0 -31.261990861832942 19.245101429548413 0 0 0 0 56.77587575382131 -26.021790786320707 0 -26.021790786320707 19.955056033255914 0 0 0 0 55.434072746492348 -14.117744824228339 0 -14.117744824228339 28.491375032500173 0 0 0 0 73.742774139901655 -15.263340219904357 0 -15.263340219904357 17.672790176806302 0 0 0 0 -3.0995257473282436 -13.278187476957896 0 -13.278187476957896 20.21446262009232 0 0 0 0 -4.1870923455021511 0.94270109571209559 0 0.94270109571209559 12.379720033101364 0 0 0 0 4.1887414818343132 -0.40049565368531148 0 -0.40049565368531148 -7.5291793792445105 0 0 0 0 -0.46187957823890535 -1.247243360389144 0 -1.247243360389144 -0.032578651921627233 0 0 0 0 5.2220688551783496 0.066064680338513426 0 0.066064680338513426 -29.587894647391636 0 0 0 0 4.2200459732764557 -9.0991687504547372 0 -9.0991687504547372 -0.2722417152900789 0 0 0 0 3.5431361960866878 -2.9161538354029428 0 -2.9161538354029428 0.33653585315547552 0 0 0 0 6.2125447125040409 -4.8869179529222038 0 -4.8869179529222038 -18.039098369145989 0 0 0 0 5.489193036530196 -7.3225210262432938 0 -7.3225210262432938 -26.971934597803596 0 0 0 0 3.5170553225025287 -5.9326702889413809 0 -5.9326702889413809 -19.76285489196357 0 0 0 0 -9.983126590205984 2.8838480172937864 0 2.8838480172937864 -20.74325763431716 0 0 0 0 -0.26427286942441697 -0.59648586629137279 0 -0.59648586629137279 -0.48736231209920988 0 0 0 0 16.686272601066321 16.153890436329561 0 16.153890436329561 -49.990348060014412 0 0 0 0 -9.2860927749256916 -0.1716801723528647 0 -0.1716801723528647 -27.898440292394412 0 0 0 0 -4.2658054219641599 19.35732061115732 0 19.35732061115732 -51.218782062414562 0 0 0 0 -0.0071605868994701893 -0.29355480481863105 0 -0.29355480481863105 -0.21266764426592111 0 0 0 0 -2.5597716451770793 -13.282783724385524 0 -13.282783724385524 26.698879628959332 0 0 0 0 1.0709860727824889 -1.4427704861341226 0 -1.4427704861341226 10.85803614973986 0 0 0 0 1.731534117213414 -6.3735314574164477 0 -6.3735314574164477 6.6594427295992205 0 0 0 0 0.93617677674956212 -9.3916914049967772 0 -9.3916914049967772 -0.55582954286592212 0 0 0 0 -9.3892615373342778 -0.82993386357395593 0 -0.82993386357395593 -4.8598327235214356 0 0 0 0 1.6149283154360319 -1.3372781660115294 0 -1.3372781660115294 -5.0814629487922502 0 0 0 0 7.1578278666329425 -9.1205957644833688 0 -9.1205957644833688 -10.612596539580863 0 0 0 0 7.2010138082528101 -14.688412790830625 0 -14.688412790830625 7.0713546871306789 0 0 0 0 7.8472843037138773 -10.498994871334901 0 -10.498994871334901 -15.64829160679983 0 0 0 0 9.9675506382582171 -8.7092916454851093 0 -8.7092916454851093 -2.0410727527955714 0 0 0 0 -4.9736812048740831 -12.314035972739021 0 -12.314035972739021 -1.49045106860261 0 0 0 0 3.3111426405283453 -2.9680381218376457 0 -2.9680381218376457 1.0845929153175176 0 0 0 0 41.375745024637581 0.45789444662194967 0 0.45789444662194967 -41.538148668972042 0 0 0 0 -16.626321384771018 -24.229540442505595 0 -24.229540442505595 11.822920181012876 0 0 0 0 4.0996609241997248 0.62438938883599349 0 0.62438938883599349 -22.574466101073881 0 0 0 0 -29.447638300756125 -13.411457715613736 0 -13.411457715613736 52.474225444529054 0 0 0 0 -9.0812634660805998 0.55993523642847265 0 0.55993523642847265 9.3607826474613898 0 0 0 0 -9.4235524604937382 -1.1020897721002534 0 -1.1020897721002534 12.803397047687426 0 0 0 0 5.7708821813548639 19.588900899618611 0 19.588900899618611 36.828140137692202 0 0 0 0 -9.7165554471484938 3.7639314171479157 0 3.7639314171479157 14.775210121722573 0 0 0 0 -9.6203679290679247 3.0545722136364759 0 3.0545722136364759 8.3986777567916135 0 0 0 0 19.923536218976551 -24.20412299220385 0 -24.20412299220385 27.046627727747932 0 0 0 0 47.097150453277663 -0.44316518221484458 0 -0.44316518221484458 7.7612949543355754 0 0 0 0 9.1847173296246183 1.0561672386783698 0 1.0561672386783698 7.715766566511487 0 0 0 0 22.814495498206725 -15.756916595650637 0 -15.756916595650637 -9.1930664102166304 0 0 0 0 7.5190397664055126 -8.4462115098525459 0 -8.4462115098525459 13.467634407530596 0 0 0 0 6.7801579427709839 -17.386876793016313 0 -17.386876793016313 5.7695999285081214 0 0 0 0 3.6484362601504472 4.6619026074658336 0 4.6619026074658336 18.061879148891762 0 0 0 0 -5.3648344429166173 -10.18326179509927 0 -10.18326179509927 -0.3100898338508955 0 0 0 0 0.17124926635005977 -4.075246411265482 0 -4.075246411265482 44.707448396401901 0 0 0 0 0.41277750961064541 -0.46601876839371803 0 -0.46601876839371803 0.21343170636255826 0 0 0 0 -5.2833335073083276 -1.4890964196494565 0 -1.4890964196494565 14.634754993346007 0 0 0 0 1.5933801797864615 -0.9950907605112228 0 -0.9950907605112228 0.50392202709214184 0 0 0 0 -1.9173982314423483 10.015665724746285 0 10.015665724746285 -10.950018124750613 0 0 0 0 2.5640711469890789 -2.4018019323607405 0 -2.4018019323607405 3.6234706770124774 0 0 0 0 -7.921694286130375 -11.71670540418004 0 -11.71670540418004 1.2218827044481486 0 0 0 0 -4.0337145504474847 -3.7505351147723864 0 -3.7505351147723864 3.6074264906786269 0 0 0 0 -1.5059621483711112 -7.6425485018187729 0 -7.6425485018187729 7.8587827468600153 0 0 0 0 -6.8596471046605529 -17.899200646137416 0 -17.899200646137416 -5.857981190808971 0 0 0 0 2.1673224329570218 -9.302889393852638 0 -9.302889393852638 -16.178155641678359 0 0 0 0 6.1408643235826617 -8.6239715561317212 0 -8.6239715561317212 -3.8133565465623747 0 0 0 0 1.3067735373418259 -8.1252914281441662 0 -8.1252914281441662 -3.4067735252281039 0 0 0 0 13.487037668291066 0.10589492326354843 0 0.10589492326354843 3.9430518828950056 0 0 0 0 14.204240078992257 -8.6433923520060318 0 -8.6433923520060318 -2.7082144459805821 0 0 0 0 10.405661283088492 -9.0120563596011749 0 -9.0120563596011749 -17.549448800323148 0 0 0 0 7.7104422748320474 -5.908260871946581 0 -5.908260871946581 -3.0911813781667661 0 0 0 0 5.5270138084601967 -6.7318364582340564 0 -6.7318364582340564 -3.2474604658434032 0 0 0 0 4.8170450655734385 -6.7418151150110361 0 -6.7418151150110361 -1.7670603116699795 0 0 0 0 3.342066243263683 -1.0112345901445565 0 -1.0112345901445565 -1.1321910364894356 0 0 0 0 0.15380424045986274 -8.096084762964324 0 -8.096084762964324 -2.0262547234121371 0 0 0 0 36.8888432471241 -35.603665840314818 0 -35.603665840314818 -31.11541296622579 0 0 0 0 0.87514805466759382 0.635712464170338 0 0.635712464170338 -2.8426433733149636 0 0 0 0 -33.256448323622408 -9.5064170723067605 0 -9.5064170723067605 -20.589630421673917 0 0 0 0 -12.774685482527843 -25.665188472309723 0 -25.665188472309723 -9.678590427799179 0 0 0 0 11.771278678106228 0.023962949654332988 0 0.023962949654332988 -7.2962382611392513 0 0 0 0 6.6743957321799927 -3.0610596846674305 0 -3.0610596846674305 -2.7010153825149574 0 0 0 0 20.805080928701727 -1.8138928475561897 0 -1.8138928475561897 -7.5455399473959233 0 0 0 0 18.329958426068742 -1.1164151172342827 0 -1.1164151172342827 -12.694006107970836 0 0 0 0 -0.25958967150245371 -11.873784524335079 0 -11.873784524335079 -45.889568873840744 0 0 0 0 28.097257154476665 2.5247710598075059 0 2.5247710598075059 -5.6433002293912011 0 0 0 0 1.5696095212649299 -0.60621572441831761 0 -0.60621572441831761 -0.30753181323357315 0 0 0 0 24.865446061146656 -17.796338402019671 0 -17.796338402019671 16.215423003135186 0 0 0 0 61.417557596528411 9.3083657881628312 0 9.3083657881628312 -5.5703842502224461 0 0 0 0 2.2681049715801795 -2.9217538117945607 0 -2.9217538117945607 2.3146278084911378 0 0 0 0 -4.9434493575802776 -7.6139750842836804 0 -7.6139750842836804 7.1006395028339284 0 0 0 0 9.0328483197504994 -6.2793191217593431 0 -6.2793191217593431 -7.4521410483048385 0 0 0 0 11.317510661613682 -16.568683363236204 0 -16.568683363236204 -6.5333674186313146 0 0 0 0 5.1422885682991364 -17.90563323207914 0 -17.90563323207914 -18.552213639654383 0 0 0 0 -5.7280880471155342 -8.9260900426305625 0 -8.9260900426305625 -7.3434200795334874 0 0 0 0 122.49401123215782 -1.4627445438560756 0 -1.4627445438560756 -1.4742514216535483 0 0 0 0 1.4622602989803681 -2.0437592835213394 0 -2.0437592835213394 -10.808387341955495 0 0 0 0 5.776445379242432 -4.7478833216759995 0 -4.7478833216759995 -2.7678630881790696 0 0 0 0 2.7586512329363924 -3.5741840377226728 0 -3.5741840377226728 -1.3199106480215059 0 0 0 0 7.1263578835287262 -7.5329323584759322 0 -7.5329323584759322 -17.626723757769014 0 0 0 0 -0.41959977793845837 -8.73535737831088 0 -8.73535737831088 -6.7510095980737788 0 0 0 0 -1.6663750979932956 -0.21216947001039443 0 -0.21216947001039443 -18.049296999370313 0 0 0 0 0.099678898895438017 0.12611861691579529 0 0.12611861691579529 -1.0078095179471545 0 0 0 0 4.4000193907247649 -8.0575123957075903 0 -8.0575123957075903 -6.3708536330700554 0 0 0 0 4.5242653276700366 -10.08639311223169 0 -10.08639311223169 11.790471959502383 0 0 0 0 0.57741106493485184 0.72910089630768216 0 0.72910089630768216 -2.3276114860557375 0 0 0 0 7.0322613775338141 -8.6800322149435942 0 -8.6800322149435942 -6.2890269824295046 0 0 0 0 10.245640338467638 -14.542519593929171 0 -14.542519593929171 -15.259242276443842 0 0 0 0 9.3290971299663852 -11.911576627597469 0 -11.911576627597469 -11.323183873415132 0 0 0 0 10.73392637635493 -12.770206492734019 0 -12.770206492734019 -17.690662032572959 0 0 0 0 8.61213704389246 -11.501644352497976 0 -11.501644352497976 -17.616496912844013 0 0 0 0 10.767823845749035 -12.122043428176255 0 -12.122043428176255 -18.568043331265869 0 0 0 0 5.1534405591087307 -8.982231883627378 0 -8.982231883627378 -15.093518107344607 0 0 0 0 7.2009239059120773 -6.3493438606643622 0 -6.3493438606643622 -22.741592109095222 0 0 0 0 10.472485709520242 -7.6239552607896712 0 -7.6239552607896712 -21.149989702230016 0 0 0 0 14.559058923039856 -9.3835379757933026 0 -9.3835379757933026 -17.10388489547649 0 0 0 0 9.5336957268708602 -1.7685465621798713 0 -1.7685465621798713 -8.8247438085294974 0 0 0 0 12.771695236636106 -12.706704830346169 0 -12.706704830346169 -18.791806601358644 0 0 0 0 10.436901427329303 -12.773711407244207 0 -12.773711407244207 -17.619781585512044 0 0 0 0 10.365934319710419 -12.084836878601081 0 -12.084836878601081 -24.165590822560034 0 0 0 0 -0.95133826441667679 -15.368732307608752 0 -15.368732307608752 -22.893642340644931 0 0 0 0 -25.706569893951041 -28.780186561513773 0 -28.780186561513773 -20.130012366286905 0 0 0 0 1.308920897853278 -1.9909750910655706 0 -1.9909750910655706 1.7436274933224112 0 0 0 0 8.7614505742235451 -19.559953265525792 0 -19.559953265525792 -44.851973809296737 0 0 0 0 7.7959860219943948 -38.295632877350016 0 -38.295632877350016 -12.986028551233375 0 0 0 0 -42.289978347023634 8.7483414992831854 0 8.7483414992831854 -22.284939198513626 0 0 0 0 16.297719070725407 -10.037811566750499 0 -10.037811566750499 4.9014620529022181 0 0 0 0 0.47835835864786125 0.011978257562556438 0 0.011978257562556438 -0.33534020727034186 0 0 0 0 10.000788632399917 -4.7492056060072088 0 -4.7492056060072088 -28.270196248991393 0 0 0 0 37.911391074135963 -20.437463877294533 0 -20.437463877294533 5.1116508247167971 0 0 0 0 32.631434103872721 -46.952722016972245 0 -46.952722016972245 56.513132085950502 0 0 0 0 19.199872727178558 -14.148503122316654 0 -14.148503122316654 11.663872102202475 0 0 0 0 91.570565107545121 -72.763047336466727 0 -72.763047336466727 53.006960242850766 0 0 0 0 85.792978316570512 -38.721098596460578 0 -38.721098596460578 31.325588570264529 0 0 0 0 61.019412836535423 -40.809174573066585 0 -40.809174573066585 24.212931135713063 0 0 0 0 14.766627949298595 -20.03328148952221 0 -20.03328148952221 38.989896598572898 0 0 0 0 18.233702581127616 2.902632796875773 0 2.902632796875773 3.5970956648117181 0 0 0 0 23.181348298646185 -29.350211964127553 0 -29.350211964127553 23.781888849605053 0 0 0 0 0.41293410516690177 0.020822671609820098 0 0.020822671609820098 -0.21920863467530072 0 0 0 0 13.497669443876703 -2.6212717586730392 0 -2.6212717586730392 -0.88567723190931247 0 0 0 0 14.600563055031103 -11.544294035865775 0 -11.544294035865775 1.4789570197806796 0 0 0 0 0.59089344046194103 0.078074261784457644 0 0.078074261784457644 -0.27541817096765081 0 0 0 0 3.7947511078680236 2.7733066404611861 0 2.7733066404611861 1.1150997869062564 0 0 0 0 3.8619141633707841 3.1183469630049672 0 3.1183469630049672 2.1803772565610728 0 0 0 0 5.7342221608946602 1.6525134925317957 0 1.6525134925317957 1.233083876311639 0 0 0 0 2.160666394513612 1.5833505572483659 0 1.5833505572483659 0.99492266943525465 0 0 0 0 2.9894352539356532 2.9012018417078025 0 2.9012018417078025 1.3985668975422669 0 0 0 0 5.7647799931169175 10.308551603188221 0 10.308551603188221 26.528453481775841 0 0 0 0 1.3355245471636032 1.1042032447361541 0 1.1042032447361541 1.0330515616332918 0 0 0 0 175.04368971708817 47.842360948344094 0 47.842360948344094 -26.376935969345936 0 0 0 0 174.00015504727793 -109.06865168407759 0 -109.06865168407759 48.302005320360763 0 0 0 0 238.06782785810975 -37.080661051201957 0 -37.080661051201957 -28.054137368196194 0 0 0 0 90.991565853275532 -71.349728502435624 0 -71.349728502435624 88.556349473070043 0 0 0 0 257.97846822579919 -71.487537481489568 0 -71.487537481489568 67.90310265779496 0 0 0 0 258.47591957314 -78.55709216507536 0 -78.55709216507536 14.146326040867329 0 0 0 0 28.045572964585965 -121.86052995679889 0 -121.86052995679889 9.2944170804044006 0 0 0 0 232.01007108623128 -148.19064601448233 0 -148.19064601448233 73.083610626084592 0 0 0 0 1.2174329640780388 0.44010890834974437 0 0.44010890834974437 0.24733448541550873 0 0 0 0 1.3701311219186418 0.48238401188436686 0 0.48238401188436686 -0.43682122008955571 0 0 0 0 112.55911519105769 -97.234598471437181 0 -97.234598471437181 56.340979295880764 0 0 0 0 43.052534938073393 -40.164698837225416 0 -40.164698837225416 56.876437668505616 0 0 0 0 74.374293996578842 -40.616178586312444 0 -40.616178586312444 46.673519202160151 0 0 0 0 208.70575692694297 -81.22198808737744 0 -81.22198808737744 5.8629832090473997 0 0 0 0 216.74787530567096 -20.570157601458618 0 -20.570157601458618 27.180072525928267 0 0 0 0 386.89680002367845 -77.495809841134658 0 -77.495809841134658 -39.075616423169947 0 0 0 0 0.62885439176451619 -0.67725917638581534 0 -0.67725917638581534 0.68943890811501651 0 0 0 0 408.3716235715188 57.177455605891446 0 57.177455605891446 -26.869617948584107 0 0 0 0 -98.874414049515039 -88.026402943647753 0 -88.026402943647753 25.897375157018935 0 0 0 0 224.72287653655451 61.618194651695603 0 61.618194651695603 34.013855426699081 0 0 0 0 249.85672262425834 -18.783008218203818 0 -18.783008218203818 -5.127880511914384 0 0 0 0 159.20543046151829 -34.114916002376646 0 -34.114916002376646 2.0301748381444753 0 0 0 0 155.7612359034307 31.762472610236244 0 31.762472610236244 22.492089542407683 0 0 0 0 156.58610196484494 -26.140986802963909 0 -26.140986802963909 -14.932379729913634 0 0 0 0 128.73576269234604 -36.838792981185208 0 -36.838792981185208 10.936978390359116 0 0 0 0 118.46740344314287 -59.057199864829613 0 -59.057199864829613 12.299307510528212 0 0 0 0 6.1889770737278695 -21.529266131687905 0 -21.529266131687905 26.266177827504976 0 0 0 0 83.198045230350317 -23.905560307933527 0 -23.905560307933527 0.16796457426482903 0 0 0 0 77.28866938993292 -29.755381180547772 0 -29.755381180547772 10.441594006714297 0 0 0 0 58.577832741776888 -21.796835391989038 0 -21.796835391989038 2.6662051800502837 0 0 0 0 6.7398079894780096 -0.94575399047339914 0 -0.94575399047339914 18.676340036593061 0 0 0 0 3.9598607088130593 2.3167233786100265 0 2.3167233786100265 1.263534841014168 0 0 0 0 18.747678055904998 11.352190307214869 0 11.352190307214869 3.1156102209390895 0 0 0 0 4.2652027851551626 2.5680796095383807 0 2.5680796095383807 1.3771680134255264 0 0 0 0 18.117014509982027 -8.2342452855655779 0 -8.2342452855655779 3.2517457990625376 0 0 0 0 33.548909497535874 1.2183981966190913 0 1.2183981966190913 6.4837967871581554 0 0 0 0 11.652145373282195 -2.3526249098359351 0 -2.3526249098359351 13.277354580534279 0 0 0 0 57.386541223147105 6.7199189574261027 0 6.7199189574261027 6.4827835028916638 0 0 0 0 55.233153935768996 -8.0187141915883444 0 -8.0187141915883444 1.5194674231428849 0 0 0 0 38.656988343931175 -17.995329823294881 0 -17.995329823294881 9.2109503811900595 0 0 0 0 91.831559268516912 -31.693461332115909 0 -31.693461332115909 2.5488019485266022 0 0 0 0 88.095739993538928 -13.273081043183538 0 -13.273081043183538 -2.4362335913793345 0 0 0 0 105.87996965140667 -25.01558045144489 0 -25.01558045144489 -3.3533539113051347 0 0 0 0 108.94688289715589 -9.3762012408366218 0 -9.3762012408366218 -4.8761285932835676 0 0 0 0 6.2107148380102899 11.296496796459166 0 11.296496796459166 14.382786915241468 0 0 0 0 57.608036719816482 14.091644010876962 0 14.091644010876962 7.964696623010326 0 0 0 0 0.10426160543536866 -0.71173706354247745 0 -0.71173706354247745 0.94386271265615385 0 0 0 0 122.13429504885255 6.2199933863652745 0 6.2199933863652745 -10.227443925576324 0 0 0 0 140.38482647454043 -26.960099110291168 0 -26.960099110291168 -20.876042038179889 0 0 0 0 133.67109877723004 -31.94212862793232 0 -31.94212862793232 -16.170098992122291 0 0 0 0 127.01819499891997 -29.202728463076312 0 -29.202728463076312 -15.945950568568264 0 0 0 0 126.83971132676163 -24.023014957581665 0 -24.023014957581665 -9.4655308360424897 0 0 0 0 127.9810263755034 -7.3812686931250582 0 -7.3812686931250582 10.6137817917147 0 0 0 0 132.86569572102144 -22.739377302237187 0 -22.739377302237187 -14.888301501783559 0 0 0 0 130.97988335427522 -25.912075371218179 0 -25.912075371218179 -13.223734889295201 0 0 0 0 129.53785996000684 -21.542317366080283 0 -21.542317366080283 -23.010873746521497 0 0 0 0 133.3521729742472 -34.270579855525625 0 -34.270579855525625 -9.8310856232666879 0 0 0 0 103.6907713768336 -29.755180829850815 0 -29.755180829850815 -10.073216090848433 0 0 0 0 133.6831290989345 -87.676480318062545 0 -87.676480318062545 43.760725315146203 0 0 0 0 0.55311028572878573 -0.01051580107580552 0 -0.01051580107580552 -0.063016204185467384 0 0 0 0 38.521427163047008 -47.418300170406233 0 -47.418300170406233 29.173288497479007 0 0 0 0 126.31570982362246 -23.460733558248648 0 -23.460733558248648 -8.4126653060906165 0 0 0 0 190.65665761017613 -21.613633809316582 0 -21.613633809316582 -8.5041313550057787 0 0 0 0 141.82334713860109 7.9575637998049444 0 7.9575637998049444 -0.94358283203996507 0 0 0 0 161.6800363805296 -6.5916507202573484 0 -6.5916507202573484 -5.3726683154955452 0 0 0 0 48.287150388408691 42.944589579606003 0 42.944589579606003 -61.468544929396785 0 0 0 0 156.81091568574976 -19.726037879735514 0 -19.726037879735514 -39.796017289834708 0 0 0 0 3.8850043258844424 -4.1385456575191988 0 -4.1385456575191988 4.2184492127210316 0 0 0 0 22.796132493770301 -25.433375935491057 0 -25.433375935491057 24.97813522028612 0 0 0 0 130.19358824951894 -1.1862189669162149 0 -1.1862189669162149 7.371458951161685 0 0 0 0 109.11988321483472 25.929231494811731 0 25.929231494811731 -9.7963014009881135 0 0 0 0 135.06501583560339 3.4341365783300262 0 3.4341365783300262 -7.810235059292598 0 0 0 0 -64.622274050033411 -46.2286921676247 0 -46.2286921676247 -20.122498374540932 0 0 0 0 -63.496293668910653 -42.702917882915472 0 -42.702917882915472 -19.322080573289554 0 0 0 0 279.37289856545976 49.039198317753005 0 49.039198317753005 -3.939880647674272 0 0 0 0 88.703822425338331 97.148475374969735 0 97.148475374969735 -9.9043404747942532 0 0 0 0 2.1226408104218191 -2.6459745662615397 0 -2.6459745662615397 2.7634839869196188 0 0 0 0 -57.390820549823729 -33.890748333969952 0 -33.890748333969952 -21.472997588404411 0 0 0 0 -62.22579225809659 -42.500483825376534 0 -42.500483825376534 -10.268622416308403 0 0 0 0 2.7369992256041513 -3.5731788874127464 0 -3.5731788874127464 3.1778848455283479 0 0 0 0 77.439014420421699 -45.94680341741163 0 -45.94680341741163 -60.857456453204335 0 0 0 0 -31.074004288586139 -32.941359276568875 0 -32.941359276568875 -10.797155157465895 0 0 0 0 181.71201214556277 8.2404736339149878 0 8.2404736339149878 -37.812376281541219 0 0 0 0 136.45273273662406 6.1456764658230441 0 6.1456764658230441 -5.995332138324784 0 0 0 0 158.62927920628601 24.223763565096192 0 24.223763565096192 7.4632932695570275 0 0 0 0 332.84488715397652 58.572088421843773 0 58.572088421843773 -15.706537822593646 0 0 0 0 0.8006333262300771 -0.79110005994231725 0 -0.79110005994231725 1.013413941233954 0 0 0 0 110.80540623854102 18.658321294326328 0 18.658321294326328 -75.618760115197233 0 0 0 0 174.77417664755171 -55.480768490903046 0 -55.480768490903046 4.6350415582094229 0 0 0 0 100.74709580272258 9.6285889951811239 0 9.6285889951811239 52.37507511956187 0 0 0 0 176.99654201676412 39.474635793320886 0 39.474635793320886 15.507431991014187 0 0 0 0 195.47021936361489 28.643671040940717 0 28.643671040940717 -6.4065990365022571 0 0 0 0 183.5888066402797 20.187924463662284 0 20.187924463662284 -12.252848315236861 0 0 0 0 155.42374908070155 27.117719217258809 0 27.117719217258809 9.2186990465837653 0 0 0 0 111.05566182766711 -41.522826786115161 0 -41.522826786115161 28.038190047618627 0 0 0 0 193.46269588666246 48.629616535233005 0 48.629616535233005 -81.127969858885436 0 0 0 0 119.8691714816722 -87.615052398837889 0 -87.615052398837889 -2.3622380646877446 0 0 0 0 2.4064106977179831 -3.4023669285738829 0 -3.4023669285738829 3.6051763270910602 0 0 0 0 -82.733428717005609 -139.43586253963861 0 -139.43586253963861 -27.73230143898212 0 0 0 0 149.53189959918325 -83.700472414141302 0 -83.700472414141302 -30.15114851548924 0 0 0 0 489.27618393913144 -109.73538544787516 0 -109.73538544787516 -29.121433731360639 0 0 0 0 230.03688332617139 -182.54669274949981 0 -182.54669274949981 109.81977271015694 0 0 0 0 130.90747928099836 -5.0034346351567365 0 -5.0034346351567365 255.93251132549813 0 0 0 0 -136.51381510056513 -215.10479173389183 0 -215.10479173389183 214.27578391676002 0 0 0 0 4.1237286086407448 -1.1917478214112527 0 -1.1917478214112527 0.30036400957894072 0 0 0 0 98.325886041524427 65.696868432530209 0 65.696868432530209 48.903288895290871 0 0 0 0 201.43593236848301 61.79226890687778 0 61.79226890687778 10.350555004518128 0 0 0 0 54.161634856563978 11.680116765622074 0 11.680116765622074 -121.46939369147469 0 0 0 0 489.78492741626815 -7.7637147954023931 0 -7.7637147954023931 -73.17302651526802 0 0 0 0 -349.57312559183492 9.0271786490970953 0 9.0271786490970953 24.729407535905011 0 0 0 0 -263.84407586403245 -175.50516037915122 0 -175.50516037915122 229.43590740301966 0 0 0 0 0.71118194051611994 -1.1684920793588072 0 -1.1684920793588072 2.1191811998526511 0 0 0 0 242.43872292558763 26.923548094851412 0 26.923548094851412 -13.246547278209164 0 0 0 0 -77.06555908152086 -71.526374770657867 0 -71.526374770657867 73.525978825893162 0 0 0 0 199.57282259761814 -113.59783144512502 0 -113.59783144512502 37.328533491010148 0 0 0 0 10.488564579680494 -1.6254432526008502 0 -1.6254432526008502 0.19383265501599317 0 0 0 0 139.4754704631498 -175.97989684927393 0 -175.97989684927393 42.793783448298427 0 0 0 0 40.343895858827182 -5.9831725626465868 0 -5.9831725626465868 -29.496734456546847 0 0 0 0 648.6859469849478 -44.842860101282895 0 -44.842860101282895 7.0778539109587655 0 0 0 0 -24.591516872831562 36.110602548089219 0 36.110602548089219 67.492209833012566 0 0 0 0 -0.33405739066256501 54.952044345801824 0 54.952044345801824 61.147242337924581 0 0 0 0 -20.098514184194869 1.1033616854229962 0 1.1033616854229962 50.578895815056057 0 0 0 0 22.369666160690031 32.201719863771359 0 32.201719863771359 44.449313847000212 0 0 0 0 19.143592504089611 9.0461305678195458 0 9.0461305678195458 41.653454470537554 0 0 0 0 16.048748103587968 30.741911437097968 0 30.741911437097968 44.41697356606528 0 0 0 0 1.5111736642702454 -18.146139331404356 0 -18.146139331404356 1.638536211575655 0 0 0 0 88.257349063328093 60.248679393117186 0 60.248679393117186 21.953757855039612 0 0 0 0 0.24897106838625405 -0.20644514401436176 0 -0.20644514401436176 0.2986597485288458 0 0 0 0 44.491142964724077 22.936533599377185 0 22.936533599377185 -2.605570149039977 0 0 0 0 56.005119928851855 4.5325232149488102 0 4.5325232149488102 25.439894323278168 0 0 0 0 31.953984054707689 36.644857991580238 0 36.644857991580238 28.326475018721339 0 0 0 0 89.835291851018155 -11.05734055634025 0 -11.05734055634025 -49.767124093585835 0 0 0 0 181.96811848818061 -210.31282662433136 0 -210.31282662433136 1.1923193111324508 0 0 0 0 -10.303217586936967 -169.96592330031405 0 -169.96592330031405 0.9874431329244544 0 0 0 0 1.4496022719549 -0.99195363568695782 0 -0.99195363568695782 0.58746171723619867 0 0 0 0 40.856101801962723 -52.13502121852116 0 -52.13502121852116 13.412379289374257 0 0 0 0 298.47489868117373 -139.37224342856871 0 -139.37224342856871 40.671953217427472 0 0 0 0 24.561789424565177 10.137533591562828 0 10.137533591562828 29.171918487477797 0 0 0 0 44.668763086503532 66.737510365679327 0 66.737510365679327 51.833614984095675 0 0 0 0 112.39284447624959 6.0921246293713693 0 6.0921246293713693 29.086040340872387 0 0 0 0 3.9830051974444523 -6.6425286306250904 0 -6.6425286306250904 1.9988531791439037 0 0 0 0 13.948536462608388 -4.6888212297243967 0 -4.6888212297243967 6.0354748336012563 0 0 0 0 13.745097293068056 -3.1873689812623525 0 -3.1873689812623525 8.2807114720790196 0 0 0 0 22.989278871584247 0.010846148563359748 0 0.010846148563359748 6.7764805918573074 0 0 0 0 17.562043123537308 -4.57934291977881 0 -4.57934291977881 6.7865838143807196 0 0 0 0 26.311222348153212 -16.49564954745631 0 -16.49564954745631 14.138894252755563 0 0 0 0 -0.20100513312627938 2.5396445508862153 0 2.5396445508862153 -1.1645421487739249 0 0 0 0 14.166839011424315 -0.8485440828847004 0 -0.8485440828847004 9.0170888528391515 0 0 0 0 16.568169304734965 -3.2301843248269506 0 -3.2301843248269506 4.1201967479487394 0 0 0 0 16.611187508632099 -4.6796654376375955 0 -4.6796654376375955 4.654653217883606 0 0 0 0 19.091558006987157 -4.5796409582203523 0 -4.5796409582203523 4.4674044472640162 0 0 0 0 17.664677691123188 -4.7187972209658255 0 -4.7187972209658255 4.7786803377912292 0 0 0 0 15.185729444757271 -8.8375850916013405 0 -8.8375850916013405 9.202197396065003 0 0 0 0 17.611168964498347 -3.4169880902245495 0 -3.4169880902245495 6.2488333175015214 0 0 0 0 12.717420833707507 -7.9054088914303975 0 -7.9054088914303975 8.5955029647689116 0 0 0 0 5.347827980168276 -0.83685482790966725 0 -0.83685482790966725 -1.7938186471147022 0 0 0 0 13.897823823851894 -6.1429207658709402 0 -6.1429207658709402 7.0999803719023475 0 0 0 0 7.6173148869509077 -2.4385130534841437 0 -2.4385130534841437 0.15704216234951218 0 0 0 0 11.496284842593923 -1.3423002007667719 0 -1.3423002007667719 -5.7389225982090011 0 0 0 0 10.333035167132039 -3.8537758248596674 0 -3.8537758248596674 -6.7922990068139484 0 0 0 0 13.860149460860157 0.074477597033364873 0 0.074477597033364873 -6.7178746541619603 0 0 0 0 11.699155197657774 -2.3718636971816096 0 -2.3718636971816096 -4.1439535514803083 0 0 0 0 26.323209483442724 -0.020455617538118531 0 -0.020455617538118531 -7.431492346385312 0 0 0 0 10.331882091210741 -0.77228593177469484 0 -0.77228593177469484 -3.3715192211168024 0 0 0 0 15.630909881509069 0.61904865133419662 0 0.61904865133419662 7.3699540460952448 0 0 0 0 42.835647876378061 -10.044868229472286 0 -10.044868229472286 5.0441052635615051 0 0 0 0 2.9320945361196564 -1.7436571589321197 0 -1.7436571589321197 -1.7529098843331123 0 0 0 0 27.545682705014769 6.5303876303778452 0 6.5303876303778452 8.3354102527082432 0 0 0 0 21.81602501659836 -12.975100393096909 0 -12.975100393096909 4.917901457352059 0 0 0 0 -0.85021664693431376 -9.3702699844143353 0 -9.3702699844143353 5.9016025562759751 0 0 0 0 7.8849286334302633 -2.2262871026075572 0 -2.2262871026075572 -1.3907927292957538 0 0 0 0 -2.2104290425959334 0.096433811052065721 0 0.096433811052065721 4.4051540489467698 0 0 0 0 19.825502109065383 -2.6229960526593459 0 -2.6229960526593459 2.702822669489251 0 0 0 0 8.273734340734336 -3.9915660228184606 0 -3.9915660228184606 6.5945236287452644 0 0 0 0 19.491352492370424 3.2406434357073977 0 3.2406434357073977 -0.28819502029841715 0 0 0 0 16.425465673924919 3.8430105770694354 0 3.8430105770694354 12.473967675324502 0 0 0 0 -17.935703778376592 -2.4783012924885952 0 -2.4783012924885952 4.4263051684565653 0 0 0 0 -20.730691922102778 -20.859998702610028 0 -20.859998702610028 2.6299046091143055 0 0 0 0 -2.5885472206346094 -3.1761108032972061 0 -3.1761108032972061 -15.26928339404185 0 0 0 0 -2.5821942687630326 -9.2989804900620356 0 -9.2989804900620356 1.7040913868963798 0 0 0 0 -4.274750886844231 -9.8877581815677331 0 -9.8877581815677331 1.5083112770048501 0 0 0 0 0.205259158959052 -6.7444293205464874 0 -6.7444293205464874 2.0621657296842386 0 0 0 0 13.625046759176257 -7.3791313150536553 0 -7.3791313150536553 -2.3296560628691623 0 0 0 0 21.319376336075948 -1.829617078817364 0 -1.829617078817364 -3.8933014876056404 0 0 0 0 10.436589222883413 -3.6442201303082129 0 -3.6442201303082129 -1.5787880675356973 0 0 0 0 11.495694908899168 -3.301923068733231 0 -3.301923068733231 -1.522266583600981 0 0 0 0 2.6818674421392643 -9.0006901003764597 0 -9.0006901003764597 -0.8480763138650218 0 0 0 0 20.768228074264698 -4.7456170645778002 0 -4.7456170645778002 -4.7236287216667279 0 0 0 0 6.1770577769904094 31.843907627227736 0 31.843907627227736 -72.460851099526508 0 0 0 0 13.051193670491061 -1.9609247482234484 0 -1.9609247482234484 -0.060131108921589849 0 0 0 0 26.358817310708218 -2.0037090893492859 0 -2.0037090893492859 -7.8790386487009982 0 0 0 0 23.192363251341703 3.823380340827498 0 3.823380340827498 8.4132502196561063 0 0 0 0 -0.23383943751979475 -1.808764246858126 0 -1.808764246858126 0.37273428711034562 0 0 0 0 -1.1916448736169514 0.053497722766678635 0 0.053497722766678635 -15.269422715231485 0 0 0 0 23.689446670520852 3.781678692110745 0 3.781678692110745 -8.3650438756940275 0 0 0 0 2.972587199900746 -0.3348921776084175 0 -0.3348921776084175 -0.30109398071112992 0 0 0 0 23.264940936046969 1.4772983071275121 0 1.4772983071275121 -3.2475055300874374 0 0 0 0 5.2204038269155717 -10.038628982071259 0 -10.038628982071259 -3.1161021480163527 0 0 0 0 -81.592704699586761 46.284307684475799 0 46.284307684475799 24.398463194137548 0 0 0 0 -42.678523846854659 64.611546221381559 0 64.611546221381559 -23.211103778602137 0 0 0 0 -10.536092024570053 27.893263878600237 0 27.893263878600237 -5.3351957681140902 0 0 0 0 -54.004320755561821 8.504794114597189 0 8.504794114597189 68.141493995886776 0 0 0 0 -10.299662291243408 6.5053921502729963 0 6.5053921502729963 44.209396520136124 0 0 0 0 31.173414290651408 -28.03267507749888 0 -28.03267507749888 51.630969900340745 0 0 0 0 34.717646310134569 -26.133135034459883 0 -26.133135034459883 33.480329614913444 0 0 0 0 6.5793973791619464 13.714260747277535 0 13.714260747277535 6.5395268266902349 0 0 0 0 -16.693679640293453 27.965804590833955 0 27.965804590833955 21.949767887801499 0 0 0 0 3.3528797538795061 24.089635084571 0 24.089635084571 -25.468975244114972 0 0 0 0 -3.9945901399137256 6.5830858170493229 0 6.5830858170493229 27.709400709525653 0 0 0 0 0.52360381218875318 11.703778942127883 0 11.703778942127883 8.166791080086 0 0 0 0 -8.4594954795694548 12.740481948941579 0 12.740481948941579 24.843401807181181 0 0 0 0 2.7596637430328883 5.627752715574843 0 5.627752715574843 11.018749625847022 0 0 0 0 7.5761098782908789 -0.64086951709288087 0 -0.64086951709288087 5.8749566782985312 0 0 0 0 9.8019807900837463 3.7515641516117739 0 3.7515641516117739 5.3988479866611669 0 0 0 0 11.295687215564953 12.15349855332488 0 12.15349855332488 -7.2498917399543643 0 0 0 0 15.975037682399943 0.39371450922635631 0 0.39371450922635631 -0.10550738422352879 0 0 0 0 16.547960051900077 0.3380083727379315 0 0.3380083727379315 -1.7619276460295623 0 0 0 0 12.190139820615286 4.9678225944219889 0 4.9678225944219889 1.8752343225396544 0 0 0 0 13.399454332026167 -2.1041007618017602 0 -2.1041007618017602 4.3392072062019906 0 0 0 0 13.512170407925908 -1.9029238059515592 0 -1.9029238059515592 3.351006735349074 0 0 0 0 16.469091009855447 -3.1873793294735151 0 -3.1873793294735151 3.3072031563033306 0 0 0 0 14.272686511341846 -3.6758908554496657 0 -3.6758908554496657 4.5209606352418632 0 0 0 0 16.846364816085952 -2.494082319919471 0 -2.494082319919471 3.1523934002989336 0 0 0 0 17.187889015844576 -3.4406387210192406 0 -3.4406387210192406 3.3415639265040227 0 0 0 0 18.333120111873086 -5.1778316160125542 0 -5.1778316160125542 -0.34737992453665356 0 0 0 0 17.954593696015991 -1.3890462741683223 0 -1.3890462741683223 4.2507978003122844 0 0 0 0 23.749105881426836 -3.0905400327791313 0 -3.0905400327791313 1.0911909347378241 0 0 0 0 16.50601640692139 -2.331311652426848 0 -2.331311652426848 4.4870633845607699 0 0 0 0 16.212974110909727 -2.7830064489098731 0 -2.7830064489098731 4.0122797341973637 0 0 0 0 11.25739121824995 -6.6029405107728394 0 -6.6029405107728394 6.9353938497451963 0 0 0 0 15.073988471246565 -6.3027077937514377 0 -6.3027077937514377 6.8772763463530282 0 0 0 0 10.238818135128881 -4.1333669097389247 0 -4.1333669097389247 5.9040116291264439 0 0 0 0 6.3842610771837087 -6.695644323304009 0 -6.695644323304009 6.1654814509693097 0 0 0 0 8.6039327854173564 -2.7549109901972315 0 -2.7549109901972315 9.1216795090281266 0 0 0 0 7.4433399014676525 -7.4446238822076793 0 -7.4446238822076793 6.5950266433892466 0 0 0 0 4.6037832596204851 -8.6449270736911217 0 -8.6449270736911217 6.5532659698346833 0 0 0 0 6.1265056128545439 -10.936203908246398 0 -10.936203908246398 7.4424663970214624 0 0 0 0 2.0293489202100261 -5.0608154259723506 0 -5.0608154259723506 8.3321625793753356 0 0 0 0 0.77957353808523067 -4.8267921730672469 0 -4.8267921730672469 12.710684653994804 0 0 0 0 -5.5387160463256464 -0.76320913192000717 0 -0.76320913192000717 19.18179272581915 0 0 0 0 -2.8777299691131759 0.49676494540193517 0 0.49676494540193517 17.096342844751689 0 0 0 0 -10.063465984431048 -8.7424286249679994 0 -8.7424286249679994 23.616351797648349 0 0 0 0 -4.8737717154217819 -9.2164478924470359 0 -9.2164478924470359 14.096169579751972 0 0 0 0 -6.2140640463262002 -11.446401032719507 0 -11.446401032719507 10.463915529473297 0 0 0 0 -7.7609859675338839 -17.903332075011576 0 -17.903332075011576 4.7485047392331126 0 0 0 0 -7.2515147636676147 -12.108741284455164 0 -12.108741284455164 10.941619472802699 0 0 0 0 -2.0896767557520377 -13.864363713551825 0 -13.864363713551825 0.86355943114972433 0 0 0 0 -3.9053180705599289 -13.943466015824015 0 -13.943466015824015 0.92824806839479379 0 0 0 0 -2.8321367460702902 -12.609924732908553 0 -12.609924732908553 7.6279017581828157 0 0 0 0 1.348908755094925 -13.453501189689973 0 -13.453501189689973 7.540800344162335 0 0 0 0 45.714732275109213 6.3913847339262588 0 6.3913847339262588 30.885185096142095 0 0 0 0 9.5550052408319743 -16.007359667829064 0 -16.007359667829064 44.034674682874993 0 0 0 0 -1.7894137448514016 0.50517661295288008 0 0.50517661295288008 29.963185486674774 0 0 0 0 -5.9396547103406192 -2.3192519802225888 0 -2.3192519802225888 30.94041795512652 0 0 0 0 -4.342964752611465 -7.7568414455391803 0 -7.7568414455391803 13.369412815283113 0 0 0 0 -12.06080853500805 -20.372456499067425 0 -20.372456499067425 11.578853989475661 0 0 0 0 -5.2345479785267344 -17.088635646989133 0 -17.088635646989133 -14.834927032422002 0 0 0 0 -3.7305153502627491 -5.4054013499746816 0 -5.4054013499746816 11.087811891598335 0 0 0 0 -3.3197045444458126 -12.859529926408186 0 -12.859529926408186 31.554467716661463 0 0 0 0 16.325901970192376 -10.895474134587175 0 -10.895474134587175 11.571075178369256 0 0 0 0 14.80363454490498 -8.8722176075450534 0 -8.8722176075450534 35.094337866516781 0 0 0 0 100.79223344716091 4.9032128466245393 0 4.9032128466245393 -0.94281574158731019 0 0 0 0 0.10083738449523061 -0.36922591725125442 0 -0.36922591725125442 -0.039206668468453255 0 0 0 0 -10.193640116891515 14.945581531365747 0 14.945581531365747 0.49798913338091211 0 0 0 0 10.2873731478943 -16.879155413043463 0 -16.879155413043463 -58.654297202262114 0 0 0 0 -16.328600789351206 -36.629268884876616 0 -36.629268884876616 -17.497063476288531 0 0 0 0 -66.939367096217211 58.015044743342969 0 58.015044743342969 -21.056054567297792 0 0 0 0 -0.25251069816602945 -0.67332300392450561 0 -0.67332300392450561 -0.077752459582084918 0 0 0 0 -59.216148305306405 -50.086499250780122 0 -50.086499250780122 -12.779743138375125 0 0 0 0 -29.329933862602445 -37.01676918617062 0 -37.01676918617062 -39.388340465156602 0 0 0 0 59.923122538250709 -54.621545822208958 0 -54.621545822208958 34.616207805549614 0 0 0 0 21.491042145608617 -5.721313111483596 0 -5.721313111483596 -24.136498248586804 0 0 0 0 -15.425428358417435 -35.755341273234407 0 -35.755341273234407 4.5857323460119233 0 0 0 0 31.214373080875475 -24.533449592414968 0 -24.533449592414968 -45.718529906950856 0 0 0 0 -0.41319005876184417 -0.86273458035540029 0 -0.86273458035540029 -0.065307384058737608 0 0 0 0 3.2644400736814418 -8.8065801313055943 0 -8.8065801313055943 -1.576386948181721 0 0 0 0 2.8464451451658164 -11.659557806062423 0 -11.659557806062423 -8.5903556078776546 0 0 0 0 -1.6123126529564047 -12.203066319027414 0 -12.203066319027414 -8.12399889066063 0 0 0 0 -2.48612806839418 -13.809252106210067 0 -13.809252106210067 -9.1832683612465189 0 0 0 0 -5.4905794954242992 -5.3643819364383489 0 -5.3643819364383489 -20.522341186239487 0 0 0 0 -9.7500694775975489 0.064814493637072701 0 0.064814493637072701 -17.744391688948269 0 0 0 0 -11.209466223159893 -6.0776543035350414 0 -6.0776543035350414 -9.3362378558815635 0 0 0 0 -6.1084149254318163 -12.631432470115215 0 -12.631432470115215 -7.257890179573451 0 0 0 0 102.3195802355921 -48.25673688759602 0 -48.25673688759602 -149.09968626071588 0 0 0 0 32.093572147611496 4.1019561565852882 0 4.1019561565852882 -65.031865065904498 0 0 0 0 38.292441676661127 20.629909451772832 0 20.629909451772832 -21.128242020737332 0 0 0 0 -0.46389285479950848 0.57335424127982015 0 0.57335424127982015 -0.57259680575423744 0 0 0 0 25.606854839645145 1.9246278961083974 0 1.9246278961083974 -15.05581671401967 0 0 0 0 4.6837703001969544 -22.182657157434122 0 -22.182657157434122 -42.06803466332552 0 0 0 0 -11.921133290398544 -9.8851944619574823 0 -9.8851944619574823 -15.316754017172997 0 0 0 0 -4.2514898731859034 0.06418825520008653 0 0.06418825520008653 -40.898903201828489 0 0 0 0 13.979424404996848 -19.701017654940927 0 -19.701017654940927 -85.787266630993315 0 0 0 0 -0.059501560287745558 -0.60675999384243906 0 -0.60675999384243906 -0.049775348082296826 0 0 0 0 5.7313039364943279 -20.818211124473123 0 -20.818211124473123 24.518170366423398 0 0 0 0 3.6557445480268598 -11.85309523573418 0 -11.85309523573418 9.5322285585586997 0 0 0 0 18.543010438346073 -27.634599067296335 0 -27.634599067296335 -30.579182525711644 0 0 0 0 12.757714543029124 -20.656297426313699 0 -20.656297426313699 4.3185066868386457 0 0 0 0 3.7697781924703122 -30.089058027031484 0 -30.089058027031484 -25.564673604555338 0 0 0 0 9.8885356747279047 -20.237612182085286 0 -20.237612182085286 -17.171318078207037 0 0 0 0 0.056735382741408102 -4.5323637763462479 0 -4.5323637763462479 -11.458201007520699 0 0 0 0 1.9589894445648497 -19.864180840083179 0 -19.864180840083179 -8.2108564988547386 0 0 0 0 2.3784324301182096 -6.9260347346831281 0 -6.9260347346831281 -1.2280219439899156 0 0 0 0 5.5025267089143313 -5.0615883228040559 0 -5.0615883228040559 -4.8233593373205395 0 0 0 0 0.79473780345097111 7.154258924766026 0 7.154258924766026 5.8033974646351112 0 0 0 0 -16.006866856384931 2.062071152205931 0 2.062071152205931 -0.57393069043615697 0 0 0 0 -10.205354496097698 -14.308199345933417 0 -14.308199345933417 -9.9723995913513477 0 0 0 0 -8.5275082061384637 -0.23879874223240449 0 -0.23879874223240449 0.054478403093810357 0 0 0 0 -29.476397265202195 -37.266945260782904 0 -37.266945260782904 -39.098447975396198 0 0 0 0 -44.14288919449325 -5.4527994690116799 0 -5.4527994690116799 4.6469262663572408 0 0 0 0 -7.627340933080859 2.8399637612840252 0 2.8399637612840252 -9.8452703434155637 0 0 0 0 -11.54772661758966 -12.275537228035887 0 -12.275537228035887 -12.002356594632829 0 0 0 0 -5.0988179267769738 -29.293909696263881 0 -29.293909696263881 -20.85953182834217 0 0 0 0 -0.12395025112159641 0.41141645071451149 0 0.41141645071451149 -0.1044472955349014 0 0 0 0 39.244391963645256 -4.7468958692496841 0 -4.7468958692496841 -8.42969779669329 0 0 0 0 -77.733629691679653 -29.054707491976558 0 -29.054707491976558 -10.209976452303522 0 0 0 0 -64.486187455275967 -42.645889743178941 0 -42.645889743178941 -16.517033570534522 0 0 0 0 -50.488100800161988 -28.936553259590085 0 -28.936553259590085 -3.1675976335404812 0 0 0 0 -3.3495399237785932 -12.346020894451158 0 -12.346020894451158 -26.659246912506703 0 0 0 0 3.0806894728277712 -5.4471942150778432 0 -5.4471942150778432 -22.772200056216889 0 0 0 0 -0.49260474996732029 -1.7666636355665948 0 -1.7666636355665948 -1.4612413282989394 0 0 0 0 -58.79870753575824 -50.169063016593668 0 -50.169063016593668 -16.715265611228915 0 0 0 0 -25.216426569726536 -33.859460752195218 0 -33.859460752195218 -38.425802076316586 0 0 0 0 -27.920117095565388 -7.4703175662898929 0 -7.4703175662898929 -3.8702797824748814 0 0 0 0 32.056623328813657 -7.0691492508030933 0 -7.0691492508030933 -26.307263851447033 0 0 0 0 18.476281416118582 -4.5066145779882163 0 -4.5066145779882163 -2.0506185129656842 0 0 0 0 0.11688809170170367 -0.24027306384445835 0 -0.24027306384445835 -0.52088146724015516 0 0 0 0 14.499375069307689 -7.4209061747720284 0 -7.4209061747720284 1.2311687581826618 0 0 0 0 15.886845436054045 -7.5915556177674262 0 -7.5915556177674262 0.4105446035582645 0 0 0 0 15.134232324562845 -8.9146510841766258 0 -8.9146510841766258 0.85948831148499494 0 0 0 0 11.829416919805453 -8.7032108153134686 0 -8.7032108153134686 1.0102945943967825 0 0 0 0 9.6688404684080069 -9.6398431945508491 0 -9.6398431945508491 4.0544022148293379 0 0 0 0 6.3906541774192362 -12.486454410831044 0 -12.486454410831044 3.0194067224856553 0 0 0 0 13.490565839772898 -14.610782168180322 0 -14.610782168180322 2.0547001367000348 0 0 0 0 13.154058492900901 -12.473697490995363 0 -12.473697490995363 -4.5513559259129579 0 0 0 0 3.5965944817680224 -2.0981950287549154 0 -2.0981950287549154 -2.2883934608483969 0 0 0 0 19.940965004720965 -10.441253436428894 0 -10.441253436428894 -73.390890515603246 0 0 0 0 1.802795096911078 -0.19421714558171566 0 -0.19421714558171566 -0.26050129231290531 0 0 0 0 15.502998164005703 -13.048561020800577 0 -13.048561020800577 -11.127506356197955 0 0 0 0 8.6185900964460416 17.382565570853956 0 17.382565570853956 -45.972482644925094 0 0 0 0 -34.666191593358235 -24.796379975624973 0 -24.796379975624973 3.73347707079364 0 0 0 0 32.582133402189356 -31.530979257369722 0 -31.530979257369722 -5.9143980903151032 0 0 0 0 16.334426566744696 -41.152039050344229 0 -41.152039050344229 6.0462380165021727 0 0 0 0 2.996131398163925 9.888404989357241 0 9.888404989357241 11.213153183504573 0 0 0 0 -0.81258751294808462 4.8706652653014544 0 4.8706652653014544 4.8061914841370026 0 0 0 0 69.979004083418204 23.653593916036186 0 23.653593916036186 12.00335067204503 0 0 0 0 57.987033204337422 1.8488413753550503 0 1.8488413753550503 -9.5821314998734124 0 0 0 0 125.78252801744384 -42.223747451282861 0 -42.223747451282861 18.77502818534731 0 0 0 0 96.334971634722933 -60.950451459664919 0 -60.950451459664919 -15.700719946884703 0 0 0 0 0.79569752115445702 -0.19313435755854336 0 -0.19313435755854336 0.056343322124390971 0 0 0 0 33.202661276165372 -60.980418796803065 0 -60.980418796803065 -12.978715661311412 0 0 0 0 64.643577653844204 -61.933570327350594 0 -61.933570327350594 -13.310225285452361 0 0 0 0 121.26741589712401 -46.104806229592668 0 -46.104806229592668 90.376047616178539 0 0 0 0 90.836549095471128 -28.009733639662102 0 -28.009733639662102 -28.702786507989231 0 0 0 0 157.30149931931874 -25.435900587593437 0 -25.435900587593437 -28.908038433466572 0 0 0 0 -8.4393931487508063 5.6368688041773556 0 5.6368688041773556 4.224531996193889 0 0 0 0 -9.2481922565743844 2.0202411740474702 0 2.0202411740474702 5.7651017505847335 0 0 0 0 122.2431866584858 -43.760757767650404 0 -43.760757767650404 22.780422488893237 0 0 0 0 -0.0043115061048726311 -0.12632234850291857 0 -0.12632234850291857 1.6629542187572066 0 0 0 0 -7.5073479700220105 1.2238921918661276 0 1.2238921918661276 -2.857342499386732 0 0 0 0 98.757061221338972 -52.060052982540981 0 -52.060052982540981 28.60898516179634 0 0 0 0 153.04848436960333 -29.509227400966324 0 -29.509227400966324 -74.645924679352902 0 0 0 0 0.088874439401906979 0.05044243733407594 0 0.05044243733407594 0.28929932241712297 0 0 0 0 99.305292134602723 24.754970326944033 0 24.754970326944033 -46.298987591406785 0 0 0 0 48.267158349806778 -78.59673820823167 0 -78.59673820823167 65.143214165153609 0 0 0 0 -59.323050573621003 -59.859788803073798 0 -59.859788803073798 29.847273914044763 0 0 0 0 76.267026986269229 62.614195628695427 0 62.614195628695427 -111.30888983809928 0 0 0 0 -0.10523908642468527 -0.36567911701725897 0 -0.36567911701725897 -0.47075283716305849 0 0 0 0 53.157915389791924 -66.007717124365627 0 -66.007717124365627 63.996478143669485 0 0 0 0 104.91394233898518 -12.665002081570719 0 -12.665002081570719 -118.1359808042955 0 0 0 0 67.183741689738326 21.937673457359551 0 21.937673457359551 -6.9809954387262678 0 0 0 0 -7.530638072891179 -13.565363444147863 0 -13.565363444147863 -21.43032865872226 0 0 0 0 14.751039186795197 7.5600335716317772 0 7.5600335716317772 -5.1668222777034316 0 0 0 0 47.540553686659564 -22.839253813944104 0 -22.839253813944104 -9.3951908829318427 0 0 0 0 6.201531523822041 10.920601219613729 0 10.920601219613729 -36.090087352088119 0 0 0 0 0.63212101351955763 -0.21857394132440833 0 -0.21857394132440833 -0.68262200557035002 0 0 0 0 4.0431540332590146 -7.1916745287749109 0 -7.1916745287749109 -6.6323769615901256 0 0 0 0 0.77863435984769325 -0.70250486580298033 0 -0.70250486580298033 -0.87212465813907247 0 0 0 0 36.125115385739264 -12.512790185318011 0 -12.512790185318011 -21.95281893703077 0 0 0 0 -0.1214297431991409 0.0012503744233596237 0 0.0012503744233596237 0.058006190379936484 0 0 0 0 -46.612414948427158 -47.997137916661075 0 -47.997137916661075 -12.933980034246247 0 0 0 0 36.429666481053573 -17.866229353477991 0 -17.866229353477991 -23.710237247405473 0 0 0 0 20.124984333615544 -6.111375687047456 0 -6.111375687047456 -16.012114696556864 0 0 0 0 26.423964885949545 -17.951033193830995 0 -17.951033193830995 -21.218358526093652 0 0 0 0 22.344461905159733 -8.0158080265462104 0 -8.0158080265462104 -33.364791789834271 0 0 0 0 0.039607561325283314 -3.308328852749014 0 -3.308328852749014 -25.237339982690969 0 0 0 0 8.9744466249517245 -5.1160379484265945 0 -5.1160379484265945 -14.036544661376638 0 0 0 0 26.22986165673592 -23.459497520949867 0 -23.459497520949867 -5.0282989518018439 0 0 0 0 30.149041134151048 -8.0611612961812966 0 -8.0611612961812966 -17.813008669551095 0 0 0 0 14.729900902803138 -2.7680601061708217 0 -2.7680601061708217 1.4078309369579074 0 0 0 0 2.1533086935398842 5.7280179263640321 0 5.7280179263640321 -18.990822604021673 0 0 0 0 27.544534298429426 1.7668319795274101 0 1.7668319795274101 -19.83930561802687 0 0 0 0 2.7824174437199645 46.652494608841778 0 46.652494608841778 -74.573264542151946 0 0 0 0 0.35717568551043311 -0.087080320247354237 0 -0.087080320247354237 -0.24944540848601204 0 0 0 0 19.058839290809374 3.7415249160988253 0 3.7415249160988253 -41.465221058326279 0 0 0 0 -21.83673100651913 20.666526748892693 0 20.666526748892693 -29.787585530955766 0 0 0 0 32.526326922358294 0.48447479240303437 0 0.48447479240303437 -67.881900940215942 0 0 0 0 32.66838642570201 -11.963729072274361 0 -11.963729072274361 -14.143022082395419 0 0 0 0 24.324992205954459 -1.7350420469082337 0 -1.7350420469082337 -19.109600329735201 0 0 0 0 17.488313596923945 -3.8210553867626516 0 -3.8210553867626516 1.9736538243805626 0 0 0 0 23.651968585243026 6.049503934219274 0 6.049503934219274 -9.4524574824756655 0 0 0 0 10.0520491541252 -25.92339574535665 0 -25.92339574535665 -6.1207299193096105 0 0 0 0 1.3884095277090296 3.3679039829040036 0 3.3679039829040036 19.657948610162748 0 0 0 0 -0.094689653913077265 -0.24721483598897009 0 -0.24721483598897009 0.074926061196387561 0 0 0 0 47.429979842965395 -14.833423996534634 0 -14.833423996534634 -19.958194014904421 0 0 0 0 24.126510213359779 8.6376926821884581 0 8.6376926821884581 12.215706100659304 0 0 0 0 29.91067369557652 -8.8914547031168496 0 -8.8914547031168496 2.5196689209208216 0 0 0 0 20.134458847330421 -4.4843468999083989 0 -4.4843468999083989 7.4705000064313936 0 0 0 0 65.62987005465402 -7.4756584614779058 0 -7.4756584614779058 -8.24164662587566 0 0 0 0 19.477384404346139 -14.783510589382956 0 -14.783510589382956 0.11952814373296405 0 0 0 0 -7.0799907569630705 -17.583312858735894 0 -17.583312858735894 5.7644185415863376 0 0 0 0 2.1632360156122559 6.0207097856946916 0 6.0207097856946916 -0.66737261746970944 0 0 0 0 13.383963844438313 -3.6991023992931105 0 -3.6991023992931105 -0.48086808099264999 0 0 0 0 35.51835798802631 -2.7600928717960755 0 -2.7600928717960755 -1.8635931546764652 0 0 0 0 36.05952192075938 7.7136038187661597 0 7.7136038187661597 -0.82139504835686239 0 0 0 0 51.985914520339747 14.133874135529993 0 14.133874135529993 -3.7282271740101578 0 0 0 0 30.44345066942833 4.1257210835485125 0 4.1257210835485125 -1.8150668445398424 0 0 0 0 30.765360739153948 0.77149035323975568 0 0.77149035323975568 -10.241499022788389 0 0 0 0 40.313979373738221 3.9478474351573141 0 3.9478474351573141 -6.2027962052875409 0 0 0 0 39.73781695514279 9.9495210208786702 0 9.9495210208786702 2.7568374026575384 0 0 0 0 46.193547721066807 4.0200923670502107 0 4.0200923670502107 -4.5938004564360426 0 0 0 0 77.662855693112078 25.86422359720747 0 25.86422359720747 6.2612994551200245 0 0 0 0 -8.8617021570291286 1.1193702774005772 0 1.1193702774005772 -0.84314838240675272 0 0 0 0 33.337909118080461 7.4229267805166614 0 7.4229267805166614 -4.8845424893549989 0 0 0 0 6.4639702135546511 0.75897119379704181 0 0.75897119379704181 -1.8879898776685464 0 0 0 0 42.557632725365693 12.072765100126617 0 12.072765100126617 -2.6417393310351827 0 0 0 0 17.255118251132672 -40.789734501706562 0 -40.789734501706562 -13.876624789104881 0 0 0 0 9.6473069752677247 -6.9788040004846152 0 -6.9788040004846152 7.3572681677829337 0 0 0 0 5.4727050986153412 0.39032452473573054 0 0.39032452473573054 -1.7222409329246924 0 0 0 0 9.9515004000888894 -6.1775393403804628 0 -6.1775393403804628 7.6284292553082196 0 0 0 0 9.3244652086972337 -7.1448946005459675 0 -7.1448946005459675 7.3925042927474465 0 0 0 0 10.899993193415753 -8.583927457375637 0 -8.583927457375637 3.6868223788264913 0 0 0 0 9.346941482641455 -5.6863087339918366 0 -5.6863087339918366 6.504081615883706 0 0 0 0 11.144593930505096 -5.5300566865120686 0 -5.5300566865120686 1.5196122118904896 0 0 0 0 10.880272006248561 -5.8752520184119703 0 -5.8752520184119703 3.4747865315678155 0 0 0 0 13.47443833710895 -7.2672659787097018 0 -7.2672659787097018 0.14476193695645634 0 0 0 0 8.3152670079788322 -2.0585635422511359 0 -2.0585635422511359 -1.8558480957766506 0 0 0 0 13.164955038741255 -6.7254538734439393 0 -6.7254538734439393 0.23404837422367564 0 0 0 0 9.3226824414350631 -4.5027056783283115 0 -4.5027056783283115 -0.28128101221750512 0 0 0 0 13.650657161812887 -6.65016496141061 0 -6.65016496141061 0.079182342981766851 0 0 0 0 11.143877073983276 -0.0020091294595658837 0 -0.0020091294595658837 -3.5195466554446284 0 0 0 0 13.420081056339768 -1.7894739796029171 0 -1.7894739796029171 -3.0015445049039045 0 0 0 0 5.0961459804675542 -1.7133255394963436 0 -1.7133255394963436 -1.8324789245119577 0 0 0 0 6.8437102012412652 -2.2972899300602876 0 -2.2972899300602876 -4.6844634717290319 0 0 0 0 12.037070129426411 -5.8932425051716564 0 -5.8932425051716564 1.6263870388331725 0 0 0 0 12.331746832245699 -2.6588370905265037 0 -2.6588370905265037 -6.4707413105534215 0 0 0 0 0.67614704846646445 -0.52721272406510966 0 -0.52721272406510966 -0.17531099358385127 0 0 0 0 16.68388521145971 -12.660575777148097 0 -12.660575777148097 2.9682090648659312 0 0 0 0 51.085653508223736 -14.784573384814488 0 -14.784573384814488 2.6804517285931979 0 0 0 0 1.0270418000982233 -3.3589922254536431 0 -3.3589922254536431 -1.891955949147329 0 0 0 0 9.2342695740458112 -6.1463680483068401 0 -6.1463680483068401 -2.6061539114258494 0 0 0 0 24.407080070507163 -3.9456826828405838 0 -3.9456826828405838 -4.452138673250488 0 0 0 0 -0.17107074214015938 -2.7445132315594947 0 -2.7445132315594947 -0.061679875007030205 0 0 0 0 -0.08705687946516627 -0.37622163026799127 0 -0.37622163026799127 -0.023049149468691965 0 0 0 0 2.1526527131235147 -2.033641294582365 0 -2.033641294582365 -1.1216589215490211 0 0 0 0 7.2041868304993386 -1.7175060831310702 0 -1.7175060831310702 -0.95022853856471556 0 0 0 0 4.7583654049047368 -2.3232688722036698 0 -2.3232688722036698 -0.99573592587466919 0 0 0 0 9.5818539477077138 2.4334665367136949 0 2.4334665367136949 -0.25144810457277345 0 0 0 0 6.3627142374177454 0.53020138839644182 0 0.53020138839644182 -1.8772456010570497 0 0 0 0 1.871446888353006 -4.6789778651073277 0 -4.6789778651073277 -3.4410427031334621 0 0 0 0 17.18681919914161 3.8182979166599011 0 3.8182979166599011 3.9962207639314329 0 0 0 0 14.058877072583073 -1.121862637855827 0 -1.121862637855827 -3.6277532811169522 0 0 0 0 0.41332937137595671 -3.0211300119589382 0 -3.0211300119589382 -1.0895849652496441 0 0 0 0 8.2005680137315267 -1.0381211331261966 0 -1.0381211331261966 -1.7654743405878435 0 0 0 0 3.5539216586851312 -2.6759532169487223 0 -2.6759532169487223 -1.7554981689533231 0 0 0 0 2.2673669524531563 -2.5889851301936933 0 -2.5889851301936933 -1.031252865215516 0 0 0 0 19.70128758878127 0.55604376180235704 0 0.55604376180235704 2.9720192781405785 0 0 0 0 7.7332750265348045 -3.2552541016880077 0 -3.2552541016880077 -1.4473863356744525 0 0 0 0 3.6281842349753481 0.9220109178356326 0 0.9220109178356326 0.17563395325884557 0 0 0 0 14.359955727109568 -4.003762446637305 0 -4.003762446637305 -2.4436629728832857 0 0 0 0 24.21151040735549 2.4168819370893289 0 2.4168819370893289 0.39270943346150489 0 0 0 0 28.137473311963277 -0.30749002278639637 0 -0.30749002278639637 0.36878626753286881 0 0 0 0 21.159263300298335 -0.98944804244547413 0 -0.98944804244547413 1.0608313225711754 0 0 0 0 26.499180831358899 -2.1067489024462702 0 -2.1067489024462702 0.35986131977756486 0 0 0 0 12.360450114761306 3.6130123342229012 0 3.6130123342229012 -4.0350075155770355 0 0 0 0 7.0632062949138117 -3.1326372271212222 0 -3.1326372271212222 4.1975611293938755 0 0 0 0 1.5198192554239043 -0.18614844287701438 0 -0.18614844287701438 0.90484879076437785 0 0 0 0 7.7502429609555747 -2.0867422585584166 0 -2.0867422585584166 -5.6190631403867428 0 0 0 0 2.7912707302516537 0.7333687612057247 0 0.7333687612057247 1.1292111542904877 0 0 0 0 7.1489326116437786 -0.80169232242719568 0 -0.80169232242719568 -0.11266035040303479 0 0 0 0 11.111153979117489 1.2540340919899791 0 1.2540340919899791 -4.2891661248080482 0 0 0 0 11.510837753392821 2.4180221857335482 0 2.4180221857335482 -3.2911114095736593 0 0 0 0 6.4182486586092873 -0.035946877185543791 0 -0.035946877185543791 -0.75576188522401799 0 0 0 0 5.1836654865689979 -1.7668950077559202 0 -1.7668950077559202 -2.0887882182037174 0 0 0 0 4.2447849062443765 0.63861052313677646 0 0.63861052313677646 -5.59471784862194 0 0 0 0 6.6022291337344541 -5.1555253466812019 0 -5.1555253466812019 -3.7645192583056541 0 0 0 0 10.434571069230969 -3.6059840074926797 0 -3.6059840074926797 -7.5705179500487247 0 0 0 0 6.0957314145689452 -3.4890189657916437 0 -3.4890189657916437 -12.086020100835867 0 0 0 0 5.1029661565744391 -4.4061494964043959 0 -4.4061494964043959 -9.993081148391866 0 0 0 0 5.1956838758395634 -5.6191830459740402 0 -5.6191830459740402 -8.3130991471434754 0 0 0 0 2.0822621652159796 -0.13054182285509341 0 -0.13054182285509341 -11.452247764277161 0 0 0 0 2.8082838154484762 -2.813496215926591 0 -2.813496215926591 -9.1633797644763035 0 0 0 0 1.3158696910119154 0.016408895529445244 0 0.016408895529445244 -0.11516585196273565 0 0 0 0 2.8870805515384745 -0.6966634440298094 0 -0.6966634440298094 -14.641934132406732 0 0 0 0 0.47990361062253406 -0.70170655401068327 0 -0.70170655401068327 -0.077742762033384816 0 0 0 0 2.8890788062606134 -0.9915600190514624 0 -0.9915600190514624 -16.771373869027002 0 0 0 0 -3.596335188318335 1.6929742761602711 0 1.6929742761602711 -12.946575821850502 0 0 0 0 3.7094188903138274 -3.0868324211841696 0 -3.0868324211841696 -14.951273475753169 0 0 0 0 1.2998300861177086 -3.4050149930053522 0 -3.4050149930053522 -5.6422994117654071 0 0 0 0 5.6824934997357559 -2.4953749901744686 0 -2.4953749901744686 -4.2892424379147087 0 0 0 0 -3.5057920818317143 -4.7751480641727539 0 -4.7751480641727539 -3.2921294744627403 0 0 0 0 8.469706080289825 6.2610305472264258 0 6.2610305472264258 -3.5905185567698936 0 0 0 0 1.0509108305925565 4.6952691489213976 0 4.6952691489213976 -1.556655523165773 0 0 0 0 -3.7229597821115021 -16.967115204514357 0 -16.967115204514357 -13.605858095878489 0 0 0 0 24.331308288625223 1.1171413977371003 0 1.1171413977371003 0.50702734359618518 0 0 0 0 25.095972198273785 -1.2152593637779319 0 -1.2152593637779319 7.4845502152988956 0 0 0 0 38.744917752545462 8.5870590413835544 0 8.5870590413835544 3.7468712034503255 0 0 0 0 54.063067621761547 0.28284559929613806 0 0.28284559929613806 -12.028304302554716 0 0 0 0 -2.3529418463267575 -11.262147982620263 0 -11.262147982620263 -3.9134371117365845 0 0 0 0 -0.14495088473324813 -0.16346204779886442 0 -0.16346204779886442 0.21335022644550161 0 0 0 0 28.86795730148333 -5.0703456457766833 0 -5.0703456457766833 -4.4235120402036046 0 0 0 0 34.403747401833243 0.1626744795905779 0 0.1626744795905779 -5.7046451279647954 0 0 0 0 46.879604667330341 -14.120618447945958 0 -14.120618447945958 -10.502741205785242 0 0 0 0 6.8642153220657747 5.4045079766921162 0 5.4045079766921162 -39.252438210352921 0 0 0 0 -0.019676809226037761 -0.011050639884283342 0 -0.011050639884283342 -0.027319965831061666 0 0 0 0 3.8293842646178291 -22.75406293610456 0 -22.75406293610456 2.1688804479740611 0 0 0 0 -0.64354725242810673 -23.721436132542522 0 -23.721436132542522 21.337851355959401 0 0 0 0 5.5469447946861692 -8.6056351740421633 0 -8.6056351740421633 8.4575994909475867 0 0 0 0 8.6194824097569835 -8.3705658496199931 0 -8.3705658496199931 -19.397073601337979 0 0 0 0 8.9858468551702977 -3.0366293054488325 0 -3.0366293054488325 0.2432155922927518 0 0 0 0 6.4995366612747603 -1.5835816245032674 0 -1.5835816245032674 -13.941843636081899 0 0 0 0 9.1001545138438686 0.45603776122033546 0 0.45603776122033546 -1.6282989817850311 0 0 0 0 30.717676407396084 -1.9259390044803695 0 -1.9259390044803695 -10.780305708141441 0 0 0 0 23.687854409578222 -18.623029495815047 0 -18.623029495815047 0.48204967496258178 0 0 0 0 13.168630618724819 -23.824663203547743 0 -23.824663203547743 -30.604708642273636 0 0 0 0 6.2886521215377797 9.7696941804833841 0 9.7696941804833841 7.6954826753807879 0 0 0 0 15.3221024538243 -6.6202683545813557 0 -6.6202683545813557 -15.352458959927617 0 0 0 0 10.16888316799302 -0.90980466533026139 0 -0.90980466533026139 -0.70472572918705567 0 0 0 0 23.575710988941864 -1.1708064306203596 0 -1.1708064306203596 -38.115710025888916 0 0 0 0 23.799593633226323 10.111299094068045 0 10.111299094068045 -28.588862410601905 0 0 0 0 10.44756930189191 -3.3429877751489032 0 -3.3429877751489032 -2.0950604617334605 0 0 0 0 15.281672844732384 -7.3478990951763308 0 -7.3478990951763308 1.4340382999603207 0 0 0 0 11.69625840736262 -1.4472670381468902 0 -1.4472670381468902 -8.7535252875934475 0 0 0 0 11.733781062007921 -2.4973335883623449 0 -2.4973335883623449 -5.0251754456617164 0 0 0 0 12.37013866186534 -1.1861206416031287 0 -1.1861206416031287 -2.5393280549269961 0 0 0 0 10.644317873014188 -2.8653706491277831 0 -2.8653706491277831 -4.1747581468854378 0 0 0 0 13.557298531816741 -0.054105400744958843 0 -0.054105400744958843 -4.082638283444453 0 0 0 0 12.03100100262418 0.36662747416551156 0 0.36662747416551156 -1.4135236909760351 0 0 0 0 14.528974177603232 0.1731655633354876 0 0.1731655633354876 -5.2055769333138642 0 0 0 0 8.7654635889512065 -2.1993674406104446 0 -2.1993674406104446 -7.5201480615046421 0 0 0 0 8.3768669647597349 0.060057517236037361 0 0.060057517236037361 -0.39321419462053986 0 0 0 0 8.0663139199814395 8.665278784505972 0 8.665278784505972 -1.1317370923691215 0 0 0 0 7.527094754979327 -1.3720538881832773 0 -1.3720538881832773 -0.0066738088376179228 0 0 0 0 8.0243452258648418 -2.3433054858100362 0 -2.3433054858100362 0.38540125221938337 0 0 0 0 7.0618302749098802 -1.5352488032790461 0 -1.5352488032790461 -6.6397424754416079 0 0 0 0 5.9127821454840159 -0.97052969609285356 0 -0.97052969609285356 -3.4279660762881576 0 0 0 0 11.846120778371187 -3.6016912117479478 0 -3.6016912117479478 -6.5300383847101102 0 0 0 0 8.2575256677786442 -0.86570430502705642 0 -0.86570430502705642 -0.0054087211374702626 0 0 0 0 9.9446422769560741 -9.8084700932205351 0 -9.8084700932205351 -4.4573633873326344 0 0 0 0 35.748009401232594 0.74465402619296128 0 0.74465402619296128 -3.4040765626308485 0 0 0 0 7.5290412385194889 10.915501968444488 0 10.915501968444488 -1.5721349402348639 0 0 0 0 13.842052460246883 -2.0515227429745586 0 -2.0515227429745586 -2.6438033238491094 0 0 0 0 22.604147045020454 0.98524292076027109 0 0.98524292076027109 3.2096868469121205 0 0 0 0 39.270615181434323 5.6832872324299331 0 5.6832872324299331 -6.7714534864180678 0 0 0 0 20.372400447082782 -5.8466675297724464 0 -5.8466675297724464 -6.4141678879551876 0 0 0 0 41.272167155369971 7.2893345742549513 0 7.2893345742549513 -14.263862872822642 0 0 0 0 3.5403061447101454 0.72816053331581498 0 0.72816053331581498 0.66250398939124699 0 0 0 0 18.416094392601735 6.3735048648529187 0 6.3735048648529187 -8.5913322415076436 0 0 0 0 13.723749415778951 -4.2593981516983774 0 -4.2593981516983774 -2.6094043060089849 0 0 0 0 13.901175427618 14.286998542321612 0 14.286998542321612 -3.5626379769254584 0 0 0 0 20.358883025414798 -10.802668340959144 0 -10.802668340959144 -9.9448759693905515 0 0 0 0 8.2678098794291941 -12.35406320137902 0 -12.35406320137902 1.5996020209668131 0 0 0 0 15.090026183447662 7.5073141754683093 0 7.5073141754683093 -21.408403418310911 0 0 0 0 18.43369445812823 -4.8968127827170065 0 -4.8968127827170065 -20.049866546726662 0 0 0 0 33.591214990648496 32.608079671068111 0 32.608079671068111 19.663389100064819 0 0 0 0 14.528560499400147 -4.0319123780756252 0 -4.0319123780756252 -2.5627753559397037 0 0 0 0 13.952311488355917 -1.4115355978764228 0 -1.4115355978764228 8.8075369003411197 0 0 0 0 15.271638834137093 -4.5180077108584555 0 -4.5180077108584555 5.3451838273788326 0 0 0 0 25.13572508074958 -0.90347389645421572 0 -0.90347389645421572 1.5642066709783649 0 0 0 0 18.310831329965367 -7.0867263114682828 0 -7.0867263114682828 -3.9955508872972132 0 0 0 0 22.137664472248616 2.7583432007879765 0 2.7583432007879765 -12.400879456272378 0 0 0 0 24.503038222694158 -6.2413033468076264 0 -6.2413033468076264 -5.3508696762000909 0 0 0 0 14.803790936361111 1.3084119058135002 0 1.3084119058135002 -7.5220587007672748 0 0 0 0 16.483569921065282 7.6261326835747241 0 7.6261326835747241 -16.253202753047844 0 0 0 0 19.867104717886832 1.428801074955004 0 1.428801074955004 -19.537455996503923 0 0 0 0 15.755187974913497 6.6395113106414101 0 6.6395113106414101 -13.758745970739938 0 0 0 0 19.076611670210696 0.98078385173312199 0 0.98078385173312199 -12.9399366153757 0 0 0 0 20.028378661006172 3.4517406092804777 0 3.4517406092804777 -17.878398429644221 0 0 0 0 13.705636769406283 -0.21058869501950994 0 -0.21058869501950994 -6.5051147544377272 0 0 0 0 18.38952591270845 -4.7215018962360773 0 -4.7215018962360773 -4.6014385835542271 0 0 0 0 9.2083990218707186 3.8036994828482875 0 3.8036994828482875 -10.051347543080055 0 0 0 0 1.6351282275612604 -2.1094656803305143 0 -2.1094656803305143 -0.53698919276439816 0 0 0 0 7.1567959233252623 16.080008884796825 0 16.080008884796825 -20.659186399810551 0 0 0 0 6.9902991951533195 -1.6062114485051531 0 -1.6062114485051531 -18.09181337931841 0 0 0 0 10.918125119760589 -4.9434242838266869 0 -4.9434242838266869 -3.8611464143626506 0 0 0 0 7.3732388595400256 -5.5854248478461548 0 -5.5854248478461548 0.78650874798995107 0 0 0 0 15.092667975928634 -7.6734486589034532 0 -7.6734486589034532 4.0334733534920701 0 0 0 0 10.978295176428947 -5.5532800468665036 0 -5.5532800468665036 1.027447127911608 0 0 0 0 12.311954004332307 -3.0821468215671954 0 -3.0821468215671954 0.3032107119665764 0 0 0 0 9.6679642436683935 -5.1903069422553472 0 -5.1903069422553472 -1.1937700675117071 0 0 0 0 14.056365494267329 -4.7616293832627186 0 -4.7616293832627186 0.15630660388976686 0 0 0 0 20.702970146060579 -6.2862213520685941 0 -6.2862213520685941 -5.6895103697705736 0 0 0 0 10.657861648104721 -1.6510515295674608 0 -1.6510515295674608 -1.4496823573648658 0 0 0 0 26.500168268084963 -13.493704918996919 0 -13.493704918996919 3.1197508781686452 0 0 0 0 17.99347287598539 5.3776451611372735 0 5.3776451611372735 2.2345884455756106 0 0 0 0 -0.68002897350128677 -0.67522730215318738 0 -0.67522730215318738 1.3430134886017633 0 0 0 0 14.131649280096099 -1.7687410574161504 0 -1.7687410574161504 14.841002246256778 0 0 0 0 10.62505883535232 -10.718792307721401 0 -10.718792307721401 -1.2863235522236209 0 0 0 0 6.1318065318541812 9.8789402516805467 0 9.8789402516805467 -13.255589602822283 0 0 0 0 3.4685015558591683 -1.3668067902816103 0 -1.3668067902816103 0.23902601737197848 0 0 0 0 10.495921953585366 -8.7033895870636115 0 -8.7033895870636115 1.4924686424922129 0 0 0 0 17.064134800732063 -4.6923173994059084 0 -4.6923173994059084 -7.2603392797175275 0 0 0 0 11.585704402683859 -11.726242542343698 0 -11.726242542343698 -4.2863300497751879 0 0 0 0 12.19807965201926 -8.6655164648518621 0 -8.6655164648518621 -3.1753364528788097 0 0 0 0 10.082929439450668 -3.9931429132221652 0 -3.9931429132221652 0.66935709372295982 0 0 0 0 6.3298515056740143 -4.3814331756824458 0 -4.3814331756824458 2.0428410987599364 0 0 0 0 8.5502560532549978 -5.9493733874002857 0 -5.9493733874002857 2.714098381303728 0 0 0 0 8.5581357896735426 -6.2595858517000806 0 -6.2595858517000806 8.7642567218427132 0 0 0 0 21.942180966598244 -22.405735741653416 0 -22.405735741653416 29.045299299443286 0 0 0 0 2.4907869910775844 -3.7192270021746481 0 -3.7192270021746481 4.7822657681172132 0 0 0 0 2.5358051832808997 42.175182930177471 0 42.175182930177471 32.901908995659994 0 0 0 0 1.8502760311350386 0.50365160974136991 0 0.50365160974136991 1.7045254315532032 0 0 0 0 1.5246905309324141 -0.1781120118330109 0 -0.1781120118330109 0.2424110300599697 0 0 0 0 42.25982339414486 -53.512117825081702 0 -53.512117825081702 75.058798530710874 0 0 0 0 10.585320787071396 -2.9933138999944617 0 -2.9933138999944617 29.155134534789021 0 0 0 0 38.633893594779693 6.9435761857416907 0 6.9435761857416907 -4.0364440579731422 0 0 0 0 2.7300522664964539 0.23635538296607361 0 0.23635538296607361 -0.88604905960605562 0 0 0 0 8.7051401337774479 -0.36573588576205873 0 -0.36573588576205873 -2.9609512855059084 0 0 0 0 14.438736945032815 6.0398473918245941 0 6.0398473918245941 0.56838913450064865 0 0 0 0 27.385028680298319 -0.92855829755905006 0 -0.92855829755905006 -6.7516095054907055 0 0 0 0 5.2215417383753779 0.98990649596716729 0 0.98990649596716729 -3.2093518845916136 0 0 0 0 13.602932255590531 -3.1108370278944903 0 -3.1108370278944903 -5.8126666836271852 0 0 0 0 4.9075631784494398 2.5287726988156836 0 2.5287726988156836 -1.3217278121056482 0 0 0 0 19.203917505321215 0.80202082901229943 0 0.80202082901229943 -3.7153355503851913 0 0 0 0 9.0410589490083684 4.363386551899529 0 4.363386551899529 -0.62903725452593418 0 0 0 0 23.39460132704734 0.23487962671479368 0 0.23487962671479368 -2.8995870312444003 0 0 0 0 42.022263255501457 17.003201473685635 0 17.003201473685635 -37.176331129950768 0 0 0 0 81.339667752428795 -49.192270487410156 0 -49.192270487410156 7.5542541558315861 0 0 0 0 33.89903460595724 -17.397426164500416 0 -17.397426164500416 -5.3031740224284931 0 0 0 0 51.752982371436701 -12.396003590836983 0 -12.396003590836983 -7.6471858281229288 0 0 0 0 54.87501842412712 -38.53764249873575 0 -38.53764249873575 6.9152528910314004 0 0 0 0 1.6107868074414 4.8505015396469844 0 4.8505015396469844 5.5896491236139809 0 0 0 0 3.7537427516572279 -5.7893319299029642 0 -5.7893319299029642 6.010495785003684 0 0 0 0 8.414821173355449 -2.1508904948902909 0 -2.1508904948902909 -1.3791279852043772 0 0 0 0 8.3323690227480256 -2.8501258355056223 0 -2.8501258355056223 7.4442210077068012 0 0 0 0 4.7457697472927975 2.214845205649965 0 2.214845205649965 6.7340548203583239 0 0 0 0 13.600298427390953 -1.2424719751198836 0 -1.2424719751198836 3.7588625014757895 0 0 0 0 6.0896630120014379 0.0090303409422176628 0 0.0090303409422176628 9.4156377038157189 0 0 0 0 29.496935300816403 -13.737489055224046 0 -13.737489055224046 -21.300610453184618 0 0 0 0 0.4429600034397847 0.82366659518498686 0 0.82366659518498686 0.22440839658991951 0 0 0 0 3.1311689558851867 0.53269849522610002 0 0.53269849522610002 11.313149249715934 0 0 0 0 71.3415595005863 -82.389588497163913 0 -82.389588497163913 46.042201742535553 0 0 0 0 -47.45248101981997 16.015100007661204 0 16.015100007661204 97.69228774491512 0 0 0 0 3.3821834196642158 -0.62306579559594866 0 -0.62306579559594866 13.693356301141648 0 0 0 0 14.200879970048845 -8.0381690436777262 0 -8.0381690436777262 11.762342307810968 0 0 0 0 14.176894488726248 -6.966267436143653 0 -6.966267436143653 8.3380920376031327 0 0 0 0 17.39118072613519 -7.8699680993817935 0 -7.8699680993817935 8.5504140017203554 0 0 0 0 9.1310623383888014 -4.6137135687590671 0 -4.6137135687590671 9.7798361261833406 0 0 0 0 14.437219221887517 -4.4522338937183576 0 -4.4522338937183576 5.9582952576604384 0 0 0 0 15.841557493315122 -4.1905543955450071 0 -4.1905543955450071 5.1736728882157195 0 0 0 0 14.118076947816007 -4.518867339271992 0 -4.518867339271992 4.1740596093472959 0 0 0 0 25.458519650190283 -3.6145430229094018 0 -3.6145430229094018 4.5495793647328355 0 0 0 0 21.266338310806532 -15.6279834344802 0 -15.6279834344802 12.10943217258199 0 0 0 0 -0.3366396260769644 -2.0736250991958851 0 -2.0736250991958851 4.3767869561695179 0 0 0 0 17.052115268932084 -8.5225883917110252 0 -8.5225883917110252 7.7333110459728687 0 0 0 0 15.333822947645785 -7.1655870083940272 0 -7.1655870083940272 4.414844557552442 0 0 0 0 11.880717494053897 -6.200035900795136 0 -6.200035900795136 10.528806573235045 0 0 0 0 0.46764012281059486 -1.7296600926404313 0 -1.7296600926404313 6.8774729245960646 0 0 0 0 15.964157303864702 -3.2473814372380554 0 -3.2473814372380554 -1.1754453845828898 0 0 0 0 17.718414800934625 3.7489574342719738 0 3.7489574342719738 -28.953364392297477 0 0 0 0 14.869346320390832 5.0714770190839564 0 5.0714770190839564 -25.580951260174722 0 0 0 0 17.783171406398196 -9.1158955432272819 0 -9.1158955432272819 8.099460902862802 0 0 0 0 7.3317999837672687 14.322985251120031 0 14.322985251120031 -35.664826326417057 0 0 0 0 11.525405273456272 -9.0295379583487474 0 -9.0295379583487474 -38.554746573569446 0 0 0 0 12.049002700605342 -2.9760765869451618 0 -2.9760765869451618 -6.3780066550504202 0 0 0 0 12.441161463197204 -9.3876290517360417 0 -9.3876290517360417 -22.367826202319304 0 0 0 0 11.827234423932168 -0.040612002487932841 0 -0.040612002487932841 -19.162437131089085 0 0 0 0 18.123691314114694 -5.0605391818952512 0 -5.0605391818952512 -17.722926287662101 0 0 0 0 18.546964921818926 1.1298615694589287 0 1.1298615694589287 -4.8386765696722591 0 0 0 0 14.851049650869754 3.2259351027480072 0 3.2259351027480072 -15.857791984209364 0 0 0 0 25.274143562091922 2.0062099294000797 0 2.0062099294000797 -30.576749557219262 0 0 0 0 24.68300062353228 6.3658521704388757 0 6.3658521704388757 -13.840901596716812 0 0 0 0 20.542978776535836 -2.5748174705463596 0 -2.5748174705463596 -1.80214703152067 0 0 0 0 19.330678589134322 -4.4403699815799769 0 -4.4403699815799769 -0.69516226320383012 0 0 0 0 25.489684209725965 3.2108491377666395 0 3.2108491377666395 -15.147962046813314 0 0 0 0 55.544087344995205 -19.415483296480502 0 -19.415483296480502 -1.8092075936374616 0 0 0 0 20.305588965545439 -14.242343948148903 0 -14.242343948148903 5.6424002088765084 0 0 0 0 39.785549175649066 -20.231297777564397 0 -20.231297777564397 -10.992233644736089 0 0 0 0 2.7962871535312317 -1.1892991068092975 0 -1.1892991068092975 -0.21195995562727576 0 0 0 0 26.381601401606531 22.807147135721664 0 22.807147135721664 -24.987282230286919 0 0 0 0 37.912299088013242 -14.658259469564314 0 -14.658259469564314 1.4614377285301998 0 0 0 0 20.03219765769245 -10.074002670167445 0 -10.074002670167445 8.1560286499263839 0 0 0 0 54.18916647099104 -13.49879692186293 0 -13.49879692186293 -4.2246937738792916 0 0 0 0 22.594901063162979 4.8267830902149171 0 4.8267830902149171 -10.433523285758099 0 0 0 0 23.099090082054317 6.8624400132123355 0 6.8624400132123355 -6.8035497095372648 0 0 0 0 15.449713540965604 4.1083094659741164 0 4.1083094659741164 -7.6724518917345677 0 0 0 0 2.8497561316135211 -0.37111961482752065 0 -0.37111961482752065 -1.8636606109983711 0 0 0 0 24.017012959068779 4.8785245715288568 0 4.8785245715288568 -13.286365163045957 0 0 0 0 15.382957728817019 0.5322207605282756 0 0.5322207605282756 -2.3183662684176056 0 0 0 0 14.503315424355137 0.67879071963209725 0 0.67879071963209725 -3.5055529036335193 0 0 0 0 15.171301166432386 -2.4905257209305773 0 -2.4905257209305773 -6.6869253564227051 0 0 0 0 14.047099318744586 -2.4354568251898172 0 -2.4354568251898172 -3.3808690078532777 0 0 0 0 21.429914961814575 -10.636973612834311 0 -10.636973612834311 -0.96273391218130655 0 0 0 0 13.520338676968095 -9.200248930337267 0 -9.200248930337267 4.5484006025246515 0 0 0 0 14.500885178465808 -9.4815394752092885 0 -9.4815394752092885 4.2994452778993946 0 0 0 0 13.606723587650777 -8.4569122607012162 0 -8.4569122607012162 7.6100488176563204 0 0 0 0 12.758468362273561 -7.0008250175046669 0 -7.0008250175046669 8.2893312050788523 0 0 0 0 10.995383277611836 -8.8527619474077142 0 -8.8527619474077142 11.888594361264287 0 0 0 0 13.100930870410593 -11.846790045277487 0 -11.846790045277487 11.893547295768428 0 0 0 0 14.344417029607939 -16.219560427977672 0 -16.219560427977672 26.134420963846679 0 0 0 0 4.5955824749338632 0.12952482964939804 0 0.12952482964939804 -0.26413799233668711 0 0 0 0 11.193414753690831 -8.3272806103899981 0 -8.3272806103899981 12.236742934602603 0 0 0 0 10.524372863619647 -7.242864403432776 0 -7.242864403432776 15.041498663393654 0 0 0 0 14.293453408332425 -7.3345333256639265 0 -7.3345333256639265 -39.633350989898318 0 0 0 0 7.2294006295170732 -0.5164220004930673 0 -0.5164220004930673 1.1624621859670905 0 0 0 0 11.582963049172577 -9.326639564525177 0 -9.326639564525177 -41.096873462012582 0 0 0 0 3.1257933512454841 -1.4477571166569767 0 -1.4477571166569767 0.56248412164678552 0 0 0 0 7.3379006135555755 0.36697949499603766 0 0.36697949499603766 -37.178165161886923 0 0 0 0 8.2752165036508814 -4.4997144293229541 0 -4.4997144293229541 -24.562992551748827 0 0 0 0 6.9766679234726325 -2.961990451563139 0 -2.961990451563139 -16.022704217983755 0 0 0 0 10.065991839350318 -10.041498550091148 0 -10.041498550091148 -26.848627755466538 0 0 0 0 14.0124615374516 2.124036643348532 0 2.124036643348532 -75.464610524975456 0 0 0 0 5.2941911566158524 -10.917676130661089 0 -10.917676130661089 -33.876275324245412 0 0 0 0 1.2273947703561134 38.761365872013187 0 38.761365872013187 -47.970684089279146 0 0 0 0 -6.4746350096702372 -23.676913252959299 0 -23.676913252959299 -27.995442643852691 0 0 0 0 16.907228935047897 -12.976961425495304 0 -12.976961425495304 23.102777303601162 0 0 0 0 17.1441711624243 -10.999999138524478 0 -10.999999138524478 39.262628921264628 0 0 0 0 35.269258413867647 -30.317435839950154 0 -30.317435839950154 32.241221445536155 0 0 0 0 39.474077607836989 2.9267515389907288 0 2.9267515389907288 -5.934967060148665 0 0 0 0 38.157722809166444 -6.0453394399548301 0 -6.0453394399548301 11.904235510780381 0 0 0 0 38.373201474572852 -49.211733269562529 0 -49.211733269562529 87.026329597294563 0 0 0 0 84.518385067225609 8.251986444708848 0 8.251986444708848 -18.692101737131793 0 0 0 0 72.192072491379804 42.144862818533724 0 42.144862818533724 -115.60008380995771 0 0 0 0 393.83607841599769 -136.76277348294448 0 -136.76277348294448 -242.01430710568133 0 0 0 0 0.77217204140382378 -0.3895071680233535 0 -0.3895071680233535 -3.5081396239907234 0 0 0 0 1.7396417361625467 -0.11483250448513971 0 -0.11483250448513971 -0.10572539191987076 0 0 0 0 72.570028559261118 -110.90813787713137 0 -110.90813787713137 100.79886834197094 0 0 0 0 63.007947227953991 35.987887157326739 0 35.987887157326739 -60.549415819162832 0 0 0 0 102.76938151383365 -0.59366709698031883 0 -0.59366709698031883 -66.365955690026396 0 0 0 0 104.73175690727658 8.0687282839747638 0 8.0687282839747638 -92.470401379004983 0 0 0 0 0.79534859848742201 -0.91039179950059435 0 -0.91039179950059435 -0.29962185655175744 0 0 0 0 121.96352087072592 -79.756680170334164 0 -79.756680170334164 143.73729569634952 0 0 0 0 2.4489931116713706 -27.49944194318536 0 -27.49944194318536 -12.005548637925131 0 0 0 0 14.55976723972708 -9.5940144146333068 0 -9.5940144146333068 -10.405214835424431 0 0 0 0 51.258712896864381 5.9198749606968022 0 5.9198749606968022 -13.42535819628938 0 0 0 0 47.834282888579764 15.208606471081112 0 15.208606471081112 -8.2279932063247543 0 0 0 0 49.417404771161273 16.985978316100372 0 16.985978316100372 -6.2479119119802817 0 0 0 0 0.70317241365260941 0.09473725748703643 0 0.09473725748703643 -0.69354861037024973 0 0 0 0 17.612366873212522 22.899486856966632 0 22.899486856966632 11.672910584166857 0 0 0 0 46.417624711401913 36.747546316424376 0 36.747546316424376 9.8067701092099924 0 0 0 0 31.775531574361594 10.359734944500701 0 10.359734944500701 -0.43148794861235729 0 0 0 0 37.584957982948254 15.26275044840213 0 15.26275044840213 -2.5272755941850846 0 0 0 0 1.5930112750536285 -2.7260656536375194 0 -2.7260656536375194 -5.1988731624448867 0 0 0 0 1.0051779960466565 2.2852746161476567 0 2.2852746161476567 -3.5914367763402133 0 0 0 0 33.248240052647816 5.8671545464821975 0 5.8671545464821975 -1.9394332273705004 0 0 0 0 33.029133786700186 0.77128276035432464 0 0.77128276035432464 -7.2785388365248309 0 0 0 0 37.683812580235099 5.0826784341221583 0 5.0826784341221583 -5.1230414866204228 0 0 0 0 5.7748539306449196 -0.54620029178945728 0 -0.54620029178945728 -5.9679590379735572 0 0 0 0 34.805085343724386 8.5664547386414256 0 8.5664547386414256 -6.165520149934764 0 0 0 0 28.52716490327839 8.9208604973937327 0 8.9208604973937327 -9.9931467219230399 0 0 0 0 7.9573109888997777 -0.84377932886790497 0 -0.84377932886790497 -5.0271977439576823 0 0 0 0 27.479509306285763 5.6217897952337808 0 5.6217897952337808 -4.7411251831715617 0 0 0 0 17.657181558726279 18.613785145399788 0 18.613785145399788 -3.328339203347241 0 0 0 0 30.056348893109316 8.9747827220867293 0 8.9747827220867293 -15.117192048947118 0 0 0 0 28.606470316953164 5.2422819864115127 0 5.2422819864115127 -12.446657137249076 0 0 0 0 16.769472780817523 11.589165685654507 0 11.589165685654507 -3.1713664260901169 0 0 0 0 18.808326858030341 11.571215250260593 0 11.571215250260593 -4.5539326930602329 0 0 0 0 21.211013135949315 18.919437636143698 0 18.919437636143698 -8.7085639021174757 0 0 0 0 19.860605745609316 6.3474462802187848 0 6.3474462802187848 -0.69072417072960679 0 0 0 0 29.489045294187235 6.3673399279737168 0 6.3673399279737168 -1.1625860801609633 0 0 0 0 19.072285353577172 10.08413246582495 0 10.08413246582495 -16.640574790781102 0 0 0 0 2.8222206011111357 2.4379879944956784 0 2.4379879944956784 -2.6834658354927576 0 0 0 0 21.956982333578708 7.6199912837503234 0 7.6199912837503234 -0.066639316955843242 0 0 0 0 2.5879507577823784 1.5784511826516994 0 1.5784511826516994 -1.4213011594856129 0 0 0 0 3.7978387186584692 0.46611523720659598 0 0.46611523720659598 -2.0609137979064744 0 0 0 0 21.542925830583954 3.3004184112534176 0 3.3004184112534176 -3.2595213826268576 0 0 0 0 10.067490375967736 0.53759536756030002 0 0.53759536756030002 -4.5204955731182963 0 0 0 0 6.0870999240464556 3.3260956658127121 0 3.3260956658127121 -5.467210975858567 0 0 0 0 9.6423523995869544 2.8478793790549393 0 2.8478793790549393 -4.6752928621532686 0 0 0 0 18.054677861633536 3.9590000533662533 0 3.9590000533662533 -3.1757273311982317 0 0 0 0 21.087366927795934 3.069870012084909 0 3.069870012084909 -5.297320917022569 0 0 0 0 47.605795895338815 1.0681815438940703 0 1.0681815438940703 -2.2093308079774943 0 0 0 0 -26.040905480787842 -34.142247054156769 0 -34.142247054156769 -17.031451151408191 0 0 0 0 23.562149972923635 -19.817959087970081 0 -19.817959087970081 -25.438353332554925 0 0 0 0 46.5948151522025 -0.2592327085717443 0 -0.2592327085717443 -3.7836115388772669 0 0 0 0 31.504218398414196 13.236882553972691 0 13.236882553972691 -4.5689037423602485 0 0 0 0 17.139489427537001 2.8839316672434734 0 2.8839316672434734 -11.98582437974801 0 0 0 0 25.2245478615514 -4.9147093914730249 0 -4.9147093914730249 -2.4849671020010646 0 0 0 0 25.793659686869944 3.5892460156014465 0 3.5892460156014465 -11.794025837320987 0 0 0 0 15.17157623737512 16.024763229926066 0 16.024763229926066 -5.6665646242486218 0 0 0 0 22.614662562181366 8.8660925460765156 0 8.8660925460765156 -17.934494933209635 0 0 0 0 17.097731202000801 4.4245165481340525 0 4.4245165481340525 1.2438879374882772 0 0 0 0 5.240781662891095 -2.6679222049874625 0 -2.6679222049874625 -12.572384207325229 0 0 0 0 10.809570042161795 13.295953618594467 0 13.295953618594467 -4.3069111255708776 0 0 0 0 12.368556946809804 -20.78261505401241 0 -20.78261505401241 -19.659667991862534 0 0 0 0 3.8199231177073401 -0.72388417724211873 0 -0.72388417724211873 0.96616096739960078 0 0 0 0 6.1323183185438612 -1.8179168594294568 0 -1.8179168594294568 0.63488519292933354 0 0 0 0 12.260688362584006 7.1874844286736561 0 7.1874844286736561 4.8161067604095251 0 0 0 0 9.9067004569651687 0.6343982685536691 0 0.6343982685536691 1.6554674479021623 0 0 0 0 8.4000153005365235 28.706122547140737 0 28.706122547140737 214.34752511234728 0 0 0 0 7.5537129849635676 15.537931607709126 0 15.537931607709126 75.239962908628513 0 0 0 0 36.875686445895553 71.764308746618781 0 71.764308746618781 77.626955232881855 0 0 0 0 7.3657583199055807 14.389221937363345 0 14.389221937363345 4.8408617713980675 0 0 0 0 13.767264793452341 18.075557327681963 0 18.075557327681963 2.1513882748840842 0 0 0 0 8.5017729100400175 11.272174572698987 0 11.272174572698987 -0.91397437207660914 0 0 0 0 2.5167885805074235 0.88083387122813495 0 0.88083387122813495 -0.36296627701299133 0 0 0 0 15.816157682585981 15.734498650470414 0 15.734498650470414 9.520731302952413 0 0 0 0 4.1591016656170616 1.4582181681137918 0 1.4582181681137918 -0.97122611379119395 0 0 0 0 75.002678985198145 -32.404074225765726 0 -32.404074225765726 12.349593823104442 0 0 0 0 -40.396173046690819 73.3673894003432 0 73.3673894003432 31.488027384331872 0 0 0 0 47.151468642263353 75.923039934642247 0 75.923039934642247 11.184513138842135 0 0 0 0 36.871432321881002 55.059952509066989 0 55.059952509066989 20.032738290353336 0 0 0 0 36.040719802404283 58.771064464172326 0 58.771064464172326 48.749385932054338 0 0 0 0 51.585969973726606 86.459466039070549 0 86.459466039070549 35.120388820919231 0 0 0 0 47.574713638277444 90.115697596293757 0 90.115697596293757 59.427028276883448 0 0 0 0 31.245932902216737 84.594764009901269 0 84.594764009901269 57.694990073561712 0 0 0 0 139.35556611071843 151.2792859492277 0 151.2792859492277 58.033393512709722 0 0 0 0 161.91534771790793 -3.2694803242275725 0 -3.2694803242275725 -45.521018349272595 0 0 0 0 35.998379343328907 120.02702282008124 0 120.02702282008124 182.03066031666731 0 0 0 0 2.3518117585372913 1.1163482966007852 0 1.1163482966007852 1.1349560828216649 0 0 0 0 24.879010958160507 8.5391214497876717 0 8.5391214497876717 -4.2085372384576658 0 0 0 0 -6.8088881981971099 -36.835237039801996 0 -36.835237039801996 -35.754489454781606 0 0 0 0 34.65736415936135 -48.620395954384321 0 -48.620395954384321 70.076283693489245 0 0 0 0 49.825441465712174 64.809196633905799 0 64.809196633905799 149.31071842733263 0 0 0 0 28.845126949201585 -10.202389775658801 0 -10.202389775658801 18.574769168749526 0 0 0 0 118.8189583459025 45.822869092314704 0 45.822869092314704 26.57224718717589 0 0 0 0 67.075825576711395 45.468491497605783 0 45.468491497605783 58.816947641839306 0 0 0 0 102.35412925082142 93.85084121310328 0 93.85084121310328 53.236875098537212 0 0 0 0 126.39345442645026 84.677789952663716 0 84.677789952663716 51.775427380893007 0 0 0 0 80.815268851510154 22.972717203427237 0 22.972717203427237 41.107960984219744 0 0 0 0 20.165824909820003 1.7029206791703473 0 1.7029206791703473 -6.337020151599063 0 0 0 0 33.68980212228962 -51.425771097648976 0 -51.425771097648976 15.597010852641517 0 0 0 0 101.55985368170514 -22.384955810829979 0 -22.384955810829979 3.8074015267641244 0 0 0 0 17.246437935993526 19.843703087377207 0 19.843703087377207 22.741107349157005 0 0 0 0 204.97136343393868 43.202500033168462 0 43.202500033168462 10.794955988642414 0 0 0 0 126.5703332410576 96.160851040491707 0 96.160851040491707 28.758889795943219 0 0 0 0 210.20075194168578 117.32478973170382 0 117.32478973170382 3.8442295695531357 0 0 0 0 140.40075120270012 137.81135250555462 0 137.81135250555462 93.034394507169509 0 0 0 0 2.1530378065496372 -1.0991461772219582 0 -1.0991461772219582 0.2659487761772974 0 0 0 0 120.90627856336505 65.509168384046689 0 65.509168384046689 10.343284350482122 0 0 0 0 -3.2623304236471995 -5.5946858105414776 0 -5.5946858105414776 9.8225507396855392 0 0 0 0 13.968703676306177 7.7953821676914004 0 7.7953821676914004 -0.81485153606763561 0 0 0 0 -28.544329114751122 -20.778894856628 0 -20.778894856628 -22.948176057934688 0 0 0 0 3.7614203579868288 -2.9352502325299747 0 -2.9352502325299747 0.72149077451563759 0 0 0 0 -2.7164381152997521 -4.7536556592660304 0 -4.7536556592660304 10.436130995427902 0 0 0 0 -20.903152323869335 -39.574298418075784 0 -39.574298418075784 -11.952384913906826 0 0 0 0 4.0590147348265546 -2.943458957251111 0 -2.943458957251111 1.0244192803865513 0 0 0 0 0.35046912182187562 -0.15920231759236181 0 -0.15920231759236181 -0.25749411652421106 0 0 0 0 10.803622483689651 -10.601973940058429 0 -10.601973940058429 -7.8979444784777115 0 0 0 0 -23.542021730871966 -23.105905461897919 0 -23.105905461897919 -22.060450042765751 0 0 0 0 145.22421310612481 34.730511617000161 0 34.730511617000161 68.895898752183257 0 0 0 0 136.27366767256626 52.05282606083324 0 52.05282606083324 36.911327859167613 0 0 0 0 0.99540764285923444 -0.26302733020262803 0 -0.26302733020262803 0.030047901046504677 0 0 0 0 201.37289371122824 133.82215968785829 0 133.82215968785829 71.146591291968605 0 0 0 0 144.70264770454833 88.43302108622936 0 88.43302108622936 14.434317381201026 0 0 0 0 54.704626871017354 -20.493508970704511 0 -20.493508970704511 12.874927595557324 0 0 0 0 134.95905665319219 59.201009912770417 0 59.201009912770417 24.044577603134712 0 0 0 0 141.20750393731942 76.508373491582006 0 76.508373491582006 60.451406355222929 0 0 0 0 134.92009276700901 73.854552018448061 0 73.854552018448061 50.969324401433823 0 0 0 0 127.69458265215235 41.402016791969345 0 41.402016791969345 12.340270407960823 0 0 0 0 3.4682129555760213 -2.5424267386778041 0 -2.5424267386778041 1.0819927056642191 0 0 0 0 -34.294044502923498 71.360451768579651 0 71.360451768579651 -90.286199889176714 0 0 0 0 -24.114853226375999 -68.627743926104358 0 -68.627743926104358 -28.50425848066385 0 0 0 0 -12.075590820718787 -79.896598614103368 0 -79.896598614103368 18.393980351595928 0 0 0 0 -0.12196984786001863 0.022115928449629507 0 0.022115928449629507 -0.025291973010545199 0 0 0 0 222.331806579361 105.2871018005867 0 105.2871018005867 56.731406486674587 0 0 0 0 50.457226786555566 7.1086402166201879 0 7.1086402166201879 -10.585563386451895 0 0 0 0 27.876207606600474 21.872746236652006 0 21.872746236652006 -6.0702702557059638 0 0 0 0 -24.0858414441891 11.680356633712108 0 11.680356633712108 -44.38452247787518 0 0 0 0 -8.2972497332182229 -7.4798339273671672 0 -7.4798339273671672 -2.1760812436377819 0 0 0 0 0.20017301046787495 -0.060789625117625867 0 -0.060789625117625867 -0.31634087324868343 0 0 0 0 -0.88998590573191905 -32.424869482719259 0 -32.424869482719259 -29.53827658522323 0 0 0 0 41.815518194495326 17.983888618393962 0 17.983888618393962 -22.48127017726847 0 0 0 0 8.8947676683692407 -6.9652605949472672 0 -6.9652605949472672 7.7624583530136988 0 0 0 0 -10.691170104983598 18.1759806173622 0 18.1759806173622 -24.432887161909548 0 0 0 0 32.60203030072762 21.73988010905083 0 21.73988010905083 33.35288245021502 0 0 0 0 0.91658876427880287 -0.85284293096237729 0 -0.85284293096237729 0.64350274065965962 0 0 0 0 -5.5536544885035255 -21.274259350929242 0 -21.274259350929242 -11.762026066396629 0 0 0 0 59.151929152641969 41.521380036350365 0 41.521380036350365 17.342879721747749 0 0 0 0 8.6513193031169067 4.4383545630704475 0 4.4383545630704475 -1.5193645495437522 0 0 0 0 -6.8501917466240911 -12.946411907898096 0 -12.946411907898096 -3.9807535524150808 0 0 0 0 12.531094507969101 -2.5256932063907698 0 -2.5256932063907698 -5.6349611204568646 0 0 0 0 2.2226138181005708 -1.7428482843910169 0 -1.7428482843910169 -3.6005233002188577 0 0 0 0 9.2409598901999743 5.6188459357020974 0 5.6188459357020974 -13.014210210717465 0 0 0 0 24.257222332629453 -1.2118481070586995 0 -1.2118481070586995 -9.8694314771137215 0 0 0 0 75.75056709857472 9.3972903062535806 0 9.3972903062535806 -97.855996055655851 0 0 0 0 13.612295408715454 -1.5387323797513091 0 -1.5387323797513091 -15.970185541843421 0 0 0 0 38.450024747291081 -29.500008153581689 0 -29.500008153581689 -5.182372858781946 0 0 0 0 17.216665032683522 -11.842382266307823 0 -11.842382266307823 -18.545043659644648 0 0 0 0 9.7121276909192602 -13.53482115993495 0 -13.53482115993495 -0.95306080052296238 0 0 0 0 -2.8997363200360269 -4.4557499885795551 0 -4.4557499885795551 -4.1012794424694903 0 0 0 0 7.350243171605598 -18.685346317399421 0 -18.685346317399421 7.0032349760440411 0 0 0 0 0.31873136026964666 -0.1517136310828846 0 -0.1517136310828846 0.086036519971035119 0 0 0 0 7.8871947445895785 15.790999450914796 0 15.790999450914796 24.44139287125904 0 0 0 0 38.037231130361761 -16.576712603315514 0 -16.576712603315514 51.203359981854646 0 0 0 0 14.531877982173455 -0.81054222823865985 0 -0.81054222823865985 -8.7604133412237388 0 0 0 0 10.8860256073458 -6.5068996669756416 0 -6.5068996669756416 -9.7686838538224947 0 0 0 0 2.3435200306705135 -1.0523416711239433 0 -1.0523416711239433 -4.2949513108147013 0 0 0 0 10.358399236652986 2.5608164966329241 0 2.5608164966329241 -1.6728360553461243 0 0 0 0 4.5386036403692103 0.34571287727697264 0 0.34571287727697264 -1.1304508581573667 0 0 0 0 3.2674706092129782 0.99530256889329394 0 0.99530256889329394 -0.17686366660018393 0 0 0 0 3.1103581429539036 0.8212841271895055 0 0.8212841271895055 -2.8703074599575955 0 0 0 0 28.931477612674939 18.828091147149962 0 18.828091147149962 -6.4281450360563213 0 0 0 0 16.459759519313593 0.39742636964945177 0 0.39742636964945177 -4.9103274916676583 0 0 0 0 7.5950254489771396 11.356328738987258 0 11.356328738987258 -14.216788140762219 0 0 0 0 13.863804507188444 1.3022347502732687 0 1.3022347502732687 -2.1334701184998401 0 0 0 0 22.562270196252939 -1.4951463317847811 0 -1.4951463317847811 -3.2443507741281792 0 0 0 0 1.5646206456618077 -0.077271934859283853 0 -0.077271934859283853 -0.022971570002611408 0 0 0 0 10.327384478958265 10.155807071193522 0 10.155807071193522 -10.261321151579068 0 0 0 0 16.171137788802298 2.6332426496919652 0 2.6332426496919652 -3.7390249111197136 0 0 0 0 10.563686256707403 4.2222557413359132 0 4.2222557413359132 -1.733112995510798 0 0 0 0 8.573592200758867 1.2103435851058748 0 1.2103435851058748 -1.0312800237788906 0 0 0 0 21.423063355808154 3.0665648397542782 0 3.0665648397542782 -2.312262625700896 0 0 0 0 16.603742262796004 3.2341270388474186 0 3.2341270388474186 -3.0899667968415088 0 0 0 0 15.353316689536769 3.16691154656246 0 3.16691154656246 -1.8291507869212182 0 0 0 0 11.442640313445736 4.5551041786179667 0 4.5551041786179667 -1.6646735484118835 0 0 0 0 15.091669120549341 2.6396212661850313 0 2.6396212661850313 -2.4246846620349061 0 0 0 0 2.8862224227518825 1.0055006226612484 0 1.0055006226612484 -3.0480278779818795 0 0 0 0 16.880149662218173 10.881495233285932 0 10.881495233285932 11.259629118480916 0 0 0 0 22.742185915805749 29.010884543655607 0 29.010884543655607 29.299600371768975 0 0 0 0 0.38211733880526211 -0.41265116456462536 0 -0.41265116456462536 0.13219981026808014 0 0 0 0 7.790027081644439 2.2068308169291413 0 2.2068308169291413 -0.68804613142901871 0 0 0 0 0.57015658006662839 0.49167795539435755 0 0.49167795539435755 -0.83303215289158672 0 0 0 0 7.5521221629041975 5.806415760487198 0 5.806415760487198 0.70232345919066574 0 0 0 0 24.400403368438674 19.586644641962494 0 19.586644641962494 5.7519014198805962 0 0 0 0 36.814540693963863 12.08643291838689 0 12.08643291838689 3.17532987800314 0 0 0 0 40.987610907348426 4.328466013745583 0 4.328466013745583 16.046679962977578 0 0 0 0 57.332418794920159 7.6810435647444137 0 7.6810435647444137 3.7659533239352072 0 0 0 0 45.036231768271136 5.7848931270023058 0 5.7848931270023058 3.3391842362671014 0 0 0 0 43.496818043531675 1.1151148150370318 0 1.1151148150370318 3.719654667301711 0 0 0 0 40.637183350409487 -2.2130283214743258 0 -2.2130283214743258 -0.12480127868275304 0 0 0 0 0.20441771363065619 -0.096185613234341716 0 -0.096185613234341716 -0.11795669021888067 0 0 0 0 47.714397481034212 7.9575955658349358 0 7.9575955658349358 -2.2085612994419535 0 0 0 0 36.994739015015512 14.499972005465679 0 14.499972005465679 -4.4201629541724969 0 0 0 0 42.190708525314221 5.5643833140607057 0 5.5643833140607057 5.9937632850346745 0 0 0 0 31.981449556512416 10.983409254688468 0 10.983409254688468 3.103630486009024 0 0 0 0 52.353748861113672 13.315210582206419 0 13.315210582206419 -4.036387054034094 0 0 0 0 23.293536309188084 18.164611571431578 0 18.164611571431578 3.7069475020934988 0 0 0 0 60.878570129467334 15.288154063430511 0 15.288154063430511 9.4426538249219902 0 0 0 0 2.8831963772827294 -8.6571047808217827 0 -8.6571047808217827 -6.1025561455653587 0 0 0 0 53.873910404003254 22.602515333148403 0 22.602515333148403 5.0495447020921347 0 0 0 0 1.8610343856008882 -1.4677025794236762 0 -1.4677025794236762 1.0657663182572961 0 0 0 0 46.124701584425566 11.446924225031125 0 11.446924225031125 0.46392248666825253 0 0 0 0 46.523087487525117 17.011615084801633 0 17.011615084801633 16.337671744254187 0 0 0 0 -9.9446020079653863 -68.251053224229224 0 -68.251053224229224 -75.80324924234128 0 0 0 0 1.4656615035028153 -41.623595656926923 0 -41.623595656926923 -79.437554878070813 0 0 0 0 60.009604509058136 -47.989017225257868 0 -47.989017225257868 -94.482482029800579 0 0 0 0 2.6086571765758215 -2.8526956980074845 0 -2.8526956980074845 -0.44057044247762234 0 0 0 0 423.79812676948791 139.27803679893242 0 139.27803679893242 39.985184216487902 0 0 0 0 1.2320062993977592 -1.1020737934587777 0 -1.1020737934587777 -0.1353817790368721 0 0 0 0 -253.31241529557087 -138.10251708008343 0 -138.10251708008343 -7.3225449789978212 0 0 0 0 499.98089526455192 185.66162747812868 0 185.66162747812868 66.804831165169659 0 0 0 0 83.836569765237073 -54.875798009493792 0 -54.875798009493792 -118.13514148235937 0 0 0 0 0.51857660506721004 -67.358423929158278 0 -67.358423929158278 -77.197833163296423 0 0 0 0 17.93735549738085 -75.814721940714833 0 -75.814721940714833 -100.50997934458695 0 0 0 0 60.706348936440463 -48.580058049504053 0 -48.580058049504053 -70.185578851273092 0 0 0 0 67.661999083416049 -36.737214437912883 0 -36.737214437912883 -68.371158843004409 0 0 0 0 78.171939929632572 -39.466536065570537 0 -39.466536065570537 -108.94810564946749 0 0 0 0 82.755217477867518 -41.824895563973797 0 -41.824895563973797 -106.77646896137384 0 0 0 0 101.99413984079001 18.553448365909858 0 18.553448365909858 -66.219860581298065 0 0 0 0 59.36490101774325 -39.47334545718337 0 -39.47334545718337 -52.5572777912611 0 0 0 0 55.271925339169229 -11.02653021222379 0 -11.02653021222379 -85.308068447770097 0 0 0 0 37.81863179011998 -39.003702572301393 0 -39.003702572301393 -116.08264957637647 0 0 0 0 62.493890544206423 54.772768278643156 0 54.772768278643156 -99.24773678792468 0 0 0 0 -27.614377077255085 77.798161850658346 0 77.798161850658346 -102.56823437906297 0 0 0 0 18.320384314710509 23.666594186006218 0 23.666594186006218 -147.81916707105034 0 0 0 0 -33.184011131274019 -17.568349322485375 0 -17.568349322485375 -137.39894769185781 0 0 0 0 45.03398052430839 0.47894564778832205 0 0.47894564778832205 -155.28458166389959 0 0 0 0 17.426787212777072 20.932915997019322 0 20.932915997019322 -101.80685613759086 0 0 0 0 56.079755027362808 -40.376175988067914 0 -40.376175988067914 -106.51953316569643 0 0 0 0 46.663911575542443 -24.224944495893908 0 -24.224944495893908 -110.38656581369382 0 0 0 0 64.489033223620936 -30.017508102275784 0 -30.017508102275784 -119.56454038230984 0 0 0 0 8.3525551762568284 -0.033932900576346015 0 -0.033932900576346015 -13.605843767465558 0 0 0 0 58.017197258065835 -44.141914960448588 0 -44.141914960448588 27.662737222095387 0 0 0 0 8.5127096848942614 5.1284175158827594 0 5.1284175158827594 1.0628421879571341 0 0 0 0 10.631140314687116 -9.8921816063097694 0 -9.8921816063097694 13.058552000239104 0 0 0 0 64.248386258542837 -17.260485888640375 0 -17.260485888640375 -45.195924547759091 0 0 0 0 65.109396826263946 -29.698328517497032 0 -29.698328517497032 0.42864573866307865 0 0 0 0 8.9439686059426933 4.4490640051672798 0 4.4490640051672798 -0.18250202631364099 0 0 0 0 17.144824425686238 0.077781891493856392 0 0.077781891493856392 -13.987700004692506 0 0 0 0 304.50995428883357 -30.736916961805619 0 -30.736916961805619 6.8927013028040989 0 0 0 0 4.6383846062470502 -3.4149860090152075 0 -3.4149860090152075 -0.65300142814560236 0 0 0 0 499.8953723524271 129.0641906775964 0 129.0641906775964 -17.465974059179548 0 0 0 0 384.46918742256707 97.582914805410113 0 97.582914805410113 -21.456286740441264 0 0 0 0 499.89780611843753 43.129083545284018 0 43.129083545284018 -30.333909104705899 0 0 0 0 459.2840924997297 40.909045128557715 0 40.909045128557715 27.155871698208522 0 0 0 0 476.02119028439893 -16.755337369931169 0 -16.755337369931169 0.43853445636375099 0 0 0 0 10.279945801849976 12.314908188564569 0 12.314908188564569 42.952622683635163 0 0 0 0 2.3407864608189217 0.40379233143378501 0 0.40379233143378501 0.29592230053380603 0 0 0 0 235.19159577782608 102.33267092799133 0 102.33267092799133 0.56483662511976362 0 0 0 0 435.60306565381507 -36.272383006775115 0 -36.272383006775115 -101.24184801734279 0 0 0 0 29.310726451080768 33.056204838155836 0 33.056204838155836 -15.150689932897844 0 0 0 0 500.01048616701803 -40.119657385963862 0 -40.119657385963862 -128.09370244917289 0 0 0 0 409.80494598193309 -44.45434092981241 0 -44.45434092981241 41.96577058154795 0 0 0 0 425.62827021030762 -105.85332711428984 0 -105.85332711428984 -164.07405550680971 0 0 0 0 81.3443327142366 -25.378943617734905 0 -25.378943617734905 -156.00798687113377 0 0 0 0 256.82676532843288 15.1381760822986 0 15.1381760822986 -93.805938033322917 0 0 0 0 280.56520003468722 41.578668896031232 0 41.578668896031232 -142.87631360372001 0 0 0 0 240.37921682959063 -104.11712118505697 0 -104.11712118505697 12.749337678651749 0 0 0 0 195.62425031186672 -16.070410252943773 0 -16.070410252943773 -26.268159900689962 0 0 0 0 144.26081485767213 26.443044675338935 0 26.443044675338935 -44.15053365974444 0 0 0 0 0.75419956279257683 1.35641458448918 0 1.35641458448918 -0.56034208307068523 0 0 0 0 4.3796776475665622 2.6071895270933023 0 2.6071895270933023 0.44964263388666909 0 0 0 0 53.046699711012593 -49.551907191530226 0 -49.551907191530226 14.751091999493788 0 0 0 0 313.9168897784042 -57.312513059290943 0 -57.312513059290943 -146.47274823260742 0 0 0 0 499.38041665239416 -199.86299899597807 0 -199.86299899597807 -52.970227267978181 0 0 0 0 13.290932160708048 -1.9791633363111294 0 -1.9791633363111294 -0.22096380956547845 0 0 0 0 14.409678716742874 -8.6024198067981814 0 -8.6024198067981814 -5.3914187318922586 0 0 0 0 2.0107020250781997 -0.81162951368061576 0 -0.81162951368061576 -0.4919388280280993 0 0 0 0 -22.373509175652202 -10.62950952121713 0 -10.62950952121713 -39.031762974724955 0 0 0 0 34.103925427570175 6.5327060265222201 0 6.5327060265222201 -24.299016730392054 0 0 0 0 34.98006478583352 45.435589621521842 0 45.435589621521842 36.648319837589739 0 0 0 0 15.518719903334034 1.8327758625178914 0 1.8327758625178914 -1.7378545898331161 0 0 0 0 -26.555992411613261 -39.358657726602715 0 -39.358657726602715 -60.015165373309578 0 0 0 0 -15.663124354331558 41.604060602786348 0 41.604060602786348 -128.10641344929115 0 0 0 0 15.71788008445742 26.890955427286457 0 26.890955427286457 -100.20694374288274 0 0 0 0 9.4775985558582647 56.327996499239006 0 56.327996499239006 -12.118331721422578 0 0 0 0 -0.068250185270203656 0.064980755202186269 0 0.064980755202186269 -0.70881797685373837 0 0 0 0 30.883356308912425 79.774134773413451 0 79.774134773413451 -46.571134694416884 0 0 0 0 2.3879859834417507 0.78722440749078881 0 0.78722440749078881 -2.1141349994733662 0 0 0 0 65.995358765364642 15.641202499066509 0 15.641202499066509 -13.442683311312408 0 0 0 0 29.485265200613554 15.741563685808096 0 15.741563685808096 -21.823487975753949 0 0 0 0 55.76545991802368 3.6414976088585718 0 3.6414976088585718 -26.251426192789872 0 0 0 0 32.094671990204226 26.599535360206875 0 26.599535360206875 -142.33756316805733 0 0 0 0 55.219035119029598 43.335744901653328 0 43.335744901653328 -147.10598407388727 0 0 0 0 -68.239328432682157 33.602389496727497 0 33.602389496727497 -16.225513387123669 0 0 0 0 -0.37008718912453414 0.34017660061648258 0 0.34017660061648258 -1.6925389408501998 0 0 0 0 -23.59523334869796 -46.60797053187278 0 -46.60797053187278 -82.627157220937988 0 0 0 0 -24.05692299664463 85.645105821530649 0 85.645105821530649 -63.274627149692265 0 0 0 0 11.178666867399841 58.831291794034762 0 58.831291794034762 -42.904915129287247 0 0 0 0 15.234802474511639 54.18022909086028 0 54.18022909086028 -47.755494721723835 0 0 0 0 18.296444823578668 -2.8661092923192086 0 -2.8661092923192086 -5.8658658741425569 0 0 0 0 14.750662696371364 42.414223834018344 0 42.414223834018344 -32.673466081379047 0 0 0 0 0.19514376959369106 0.20772145555787525 0 0.20772145555787525 0.14964750484875644 0 0 0 0 47.759581118263441 16.836522165395309 0 16.836522165395309 -0.68346085703916515 0 0 0 0 1.9517314767392029 2.3020063799012389 0 2.3020063799012389 -4.3861759866332317 0 0 0 0 2.1974478882421238 1.0801596576648222 0 1.0801596576648222 1.3497847525168254 0 0 0 0 2.5528622465993749 3.5017234686810639 0 3.5017234686810639 15.308787816336235 0 0 0 0 3.3815954611478389 1.3366761904718629 0 1.3366761904718629 -4.1319321731259606 0 0 0 0 6.6722366765308507 20.249805403742027 0 20.249805403742027 -12.243724899341373 0 0 0 0 8.4303065322136863 3.1549483755781571 0 3.1549483755781571 -0.86188762337051472 0 0 0 0 9.7451099369231997 2.5635448019111777 0 2.5635448019111777 -1.7063748481162406 0 0 0 0 28.572400855504611 13.072826320996285 0 13.072826320996285 -24.221189031356005 0 0 0 0 14.633533936328433 -10.892105175695406 0 -10.892105175695406 2.0691020341907915 0 0 0 0 43.461610512725429 -34.279508555596692 0 -34.279508555596692 14.598958253782143 0 0 0 0 149.65149428576387 -35.413709217461445 0 -35.413709217461445 -29.313448135183307 0 0 0 0 65.643376880508185 -28.709047603958197 0 -28.709047603958197 16.244660485369423 0 0 0 0 77.490978980554246 -11.557774842342951 0 -11.557774842342951 5.304669881573318 0 0 0 0 128.35733942490106 -52.929403002181516 0 -52.929403002181516 -12.676508124007 0 0 0 0 51.515305122907421 -19.051739217620991 0 -19.051739217620991 11.224868512951275 0 0 0 0 1.6150863071451784 1.8777439927857884 0 1.8777439927857884 -0.41465255187783034 0 0 0 0 10.465150438811634 4.321048619386886 0 4.321048619386886 -0.25194182724686698 0 0 0 0 7.4359356740859317 4.0908899304400865 0 4.0908899304400865 0.88733103241196742 0 0 0 0 17.398292101181369 4.6662517752723716 0 4.6662517752723716 -29.496353463369701 0 0 0 0 7.1425758047086845 -7.2513192616583524 0 -7.2513192616583524 -11.952604282348148 0 0 0 0 5.0010728270577829 -4.4069167377335532 0 -4.4069167377335532 1.6898260888278855 0 0 0 0 61.330488446385402 76.439182036703926 0 76.439182036703926 54.692488300533512 0 0 0 0 8.9692914889716064 5.918534413058012 0 5.918534413058012 -6.8244936614279368 0 0 0 0 38.42690457388602 12.165780255965586 0 12.165780255965586 -68.934905744271305 0 0 0 0 54.607932739044983 74.713950360704686 0 74.713950360704686 -20.979065011850793 0 0 0 0 135.56919434135762 79.730466649527273 0 79.730466649527273 -29.775716236646076 0 0 0 0 148.32224293646794 121.78941895414872 0 121.78941895414872 -28.25515095817218 0 0 0 0 117.68683256238455 104.33753357420494 0 104.33753357420494 -11.093844127671559 0 0 0 0 126.73749068232308 96.505061075475965 0 96.505061075475965 -33.456332350717503 0 0 0 0 142.58412687623417 111.86054038579988 0 111.86054038579988 -27.820849198167892 0 0 0 0 117.73488321683556 61.615166376808389 0 61.615166376808389 -11.590083440126094 0 0 0 0 51.54656111927109 79.055557370018903 0 79.055557370018903 -10.595758047135554 0 0 0 0 112.08573613900211 107.09102917872835 0 107.09102917872835 -40.139229107008191 0 0 0 0 96.917340976674822 72.933573897247541 0 72.933573897247541 -47.104048292957486 0 0 0 0 -71.850252325435747 72.637454889344866 0 72.637454889344866 -29.169160220917206 0 0 0 0 78.338392299195647 29.981893178264819 0 29.981893178264819 -17.605846812375752 0 0 0 0 -13.225246390952293 -58.463207254023288 0 -58.463207254023288 -57.167016836395888 0 0 0 0 33.527550927793072 -48.864014924628478 0 -48.864014924628478 27.414240144065054 0 0 0 0 92.805020501714125 -2.1111316523462733 0 -2.1111316523462733 21.834308095619633 0 0 0 0 4.0487506470519179 15.666322516082577 0 15.666322516082577 22.4338610340548 0 0 0 0 97.508088223186462 -18.969837720352064 0 -18.969837720352064 34.269796483428877 0 0 0 0 116.37160561300419 -21.047211174880545 0 -21.047211174880545 30.060698456997784 0 0 0 0 31.051959880755362 -31.094902022825579 0 -31.094902022825579 49.990465146218725 0 0 0 0 94.883481094910962 -34.896403741331198 0 -34.896403741331198 48.044873801309365 0 0 0 0 7.4013337838869679 5.4102115610445711 0 5.4102115610445711 2.4017490531076797 0 0 0 0 -279.06337269391042 87.100748669667809 0 87.100748669667809 -90.77600050508363 0 0 0 0 85.526902407896159 129.54909543248317 0 129.54909543248317 -590.48231820149124 0 0 0 0 0.80264816664042371 -0.55861860679535624 0 -0.55861860679535624 0.15775876936808553 0 0 0 0 142.45022250363149 327.62363490662187 0 327.62363490662187 38.13913335906895 0 0 0 0 3.4857144448537838 393.43560413228624 0 393.43560413228624 -204.48953123997796 0 0 0 0 251.52585001658235 57.075669955958311 0 57.075669955958311 245.90091968492868 0 0 0 0 210.15960526108131 -75.882099699531011 0 -75.882099699531011 42.295062425044691 0 0 0 0 175.07342107425944 156.51683303167397 0 156.51683303167397 23.600213600384905 0 0 0 0 374.35547791341605 93.52323785468235 0 93.52323785468235 -28.252373514545582 0 0 0 0 95.925580761739013 98.473221191713407 0 98.473221191713407 24.079039726209942 0 0 0 0 130.29871197495743 106.48149533210544 0 106.48149533210544 -10.87995921869549 0 0 0 0 169.41503037440293 123.68865844791004 0 123.68865844791004 -3.3849422176446637 0 0 0 0 170.32854597975822 64.744238759284826 0 64.744238759284826 -20.363192153248065 0 0 0 0 168.97848592831082 62.571189818785228 0 62.571189818785228 -16.175112724486581 0 0 0 0 115.80077103346366 73.192026641561995 0 73.192026641561995 1.4207569750100886 0 0 0 0 79.421907748856256 98.809054252671018 0 98.809054252671018 68.288540744464512 0 0 0 0 16.062065275156556 27.973654397983296 0 27.973654397983296 3.9923837591615019 0 0 0 0 57.11627617982208 -3.0604658721995577 0 -3.0604658721995577 -26.783348178627989 0 0 0 0 21.002441164786887 -26.684127071274133 0 -26.684127071274133 -32.491054203112341 0 0 0 0 13.114551037705041 -12.278339763323345 0 -12.278339763323345 -19.422472427894263 0 0 0 0 105.05034779911011 4.0621383528208383 0 4.0621383528208383 -42.595587324520245 0 0 0 0 30.10972223959061 -42.136115349309065 0 -42.136115349309065 -40.048095049080217 0 0 0 0 128.65832041234466 22.404698938166518 0 22.404698938166518 -54.778777546250126 0 0 0 0 194.88440791933385 71.73938733827822 0 71.73938733827822 -32.016371075518151 0 0 0 0 150.73126727986482 46.973609376195725 0 46.973609376195725 -45.707782173447129 0 0 0 0 84.269224184253233 47.836596941418144 0 47.836596941418144 -15.447893647724184 0 0 0 0 176.84869660191987 95.430381973550766 0 95.430381973550766 -32.739552699464724 0 0 0 0 120.10275569199308 84.747549889705695 0 84.747549889705695 -34.040072606054551 0 0 0 0 226.64653620335378 176.86865166869615 0 176.86865166869615 25.070525949032344 0 0 0 0 326.33646028483781 -30.105668917404557 0 -30.105668917404557 46.883470702258137 0 0 0 0 164.68207077205807 45.61777512029812 0 45.61777512029812 275.78393932581014 0 0 0 0 38.313698509410415 98.818962692216843 0 98.818962692216843 119.16717261597091 0 0 0 0 281.89925886367428 -182.54568216072533 0 -182.54568216072533 100.12512810443138 0 0 0 0 2.8711583621829453 1.2240179804182292 0 1.2240179804182292 0.90779794594620933 0 0 0 0 95.507960721712607 -64.528077018653164 0 -64.528077018653164 25.415817336631562 0 0 0 0 263.91641078675548 151.5074268786085 0 151.5074268786085 136.81809441648988 0 0 0 0 381.36466199356926 3.3320171908945042 0 3.3320171908945042 -12.53329943992776 0 0 0 0 209.3781958303266 70.196647509065826 0 70.196647509065826 37.462468695745656 0 0 0 0 197.16714351972018 16.990526008413781 0 16.990526008413781 -50.595203382498767 0 0 0 0 173.65012307355414 -38.415171650671255 0 -38.415171650671255 -20.666249917558162 0 0 0 0 100.5405030413167 53.958433521632514 0 53.958433521632514 -10.657440236060211 0 0 0 0 112.74262037373273 83.643612983458922 0 83.643612983458922 35.625551248429474 0 0 0 0 -102.46231191631705 29.326204352995546 0 29.326204352995546 -76.24506934882038 0 0 0 0 30.072932696970383 101.4474992345813 0 101.4474992345813 -40.53306452787092 0 0 0 0 76.194986904612961 -13.767137980943744 0 -13.767137980943744 -58.217760880929973 0 0 0 0 97.286801958155593 32.867369361825922 0 32.867369361825922 -109.55716601154813 0 0 0 0 -114.59756506652775 91.401443533795828 0 91.401443533795828 -71.121759481688514 0 0 0 0 29.640643847829779 -22.804746934511513 0 -22.804746934511513 -135.03659104728195 0 0 0 0 -12.273947513615894 69.702475368499563 0 69.702475368499563 -216.66713084788535 0 0 0 0 -250.07375421901997 210.05442768410785 0 210.05442768410785 -162.86530023207797 0 0 0 0 0.8081153955909065 0.014204984423497713 0 0.014204984423497713 -0.18671102323992006 0 0 0 0 148.38012521225846 -31.762381352519583 0 -31.762381352519583 -76.844002130710123 0 0 0 0 218.02054925730135 -54.523477730766103 0 -54.523477730766103 -61.91089795921836 0 0 0 0 168.2200571980793 -97.130268102616867 0 -97.130268102616867 8.8188056372969186 0 0 0 0 185.75910162852597 -6.086928696561472 0 -6.086928696561472 -62.558486103074529 0 0 0 0 170.11998030336736 49.555211441180916 0 49.555211441180916 43.241309323815472 0 0 0 0 148.34112583232854 27.279530952903087 0 27.279530952903087 47.875464079424603 0 0 0 0 148.3062015563753 27.56671676346383 0 27.56671676346383 46.08743164633961 0 0 0 0 150.06233676733746 22.829536171900429 0 22.829536171900429 42.131840769386599 0 0 0 0 180.00389592837291 28.153351181583048 0 28.153351181583048 38.319255702585906 0 0 0 0 174.24955153213887 35.947759988845519 0 35.947759988845519 40.961946507950074 0 0 0 0 321.90383211482776 65.224805756108367 0 65.224805756108367 9.652670120192397 0 0 0 0 388.5139265705584 -31.533131596281919 0 -31.533131596281919 -1.6550612856955524 0 0 0 0 368.8149721943073 -93.04453627466205 0 -93.04453627466205 20.657307527130513 0 0 0 0 -115.57918423838197 147.63990496779439 0 147.63990496779439 -176.08455736306041 0 0 0 0 1.7330328928521492 -0.0053799530198226364 0 -0.0053799530198226364 -0.36482593225558624 0 0 0 0 -81.796869356842706 226.54328126007653 0 226.54328126007653 -68.080818506852665 0 0 0 0 169.57834248502058 199.12682447352495 0 199.12682447352495 -65.202187701571006 0 0 0 0 236.05577517398251 90.581619340686984 0 90.581619340686984 35.424291516441144 0 0 0 0 216.16233425636256 70.54763251032216 0 70.54763251032216 15.402586768268804 0 0 0 0 219.54639574271459 39.433472312690128 0 39.433472312690128 29.875763130650512 0 0 0 0 168.99469897808865 63.78518820071632 0 63.78518820071632 58.758669405582168 0 0 0 0 171.03501048694204 126.6707232245308 0 126.6707232245308 138.35359448175291 0 0 0 0 163.76442957970266 90.663475108814907 0 90.663475108814907 35.808455053901184 0 0 0 0 115.45620186780525 49.349942859958105 0 49.349942859958105 104.87635044932006 0 0 0 0 121.45139066486195 34.983119272960053 0 34.983119272960053 76.404321472570246 0 0 0 0 106.39936687297313 10.945808745100777 0 10.945808745100777 72.966240693006057 0 0 0 0 101.99537008261314 25.10681034929155 0 25.10681034929155 92.112962003095646 0 0 0 0 161.78858808213448 22.851018154529157 0 22.851018154529157 109.58383646533912 0 0 0 0 135.85012458780625 54.280644318262375 0 54.280644318262375 73.421075035763806 0 0 0 0 154.63736159990873 -30.59300417581666 0 -30.59300417581666 51.11530899420984 0 0 0 0 51.376197549934659 -26.819910476846587 0 -26.819910476846587 32.606679721868915 0 0 0 0 27.51735131507121 -45.701246266251417 0 -45.701246266251417 14.713794909682463 0 0 0 0 154.05586113698632 -35.324998492412163 0 -35.324998492412163 7.2995637374120861 0 0 0 0 102.67818539021164 29.360735066826805 0 29.360735066826805 37.818111125721479 0 0 0 0 58.532072649014935 11.830414867895882 0 11.830414867895882 97.018594618197199 0 0 0 0 94.535373208565034 12.77844310126136 0 12.77844310126136 70.668000138733987 0 0 0 0 107.45975396874428 -9.7171396072611742 0 -9.7171396072611742 100.97866386906691 0 0 0 0 130.99868475948915 18.181347075202439 0 18.181347075202439 71.454734336763238 0 0 0 0 126.04312412258196 2.0315537107175032 0 2.0315537107175032 28.48022017532071 0 0 0 0 172.8199422155501 -1.4996635331325763 0 -1.4996635331325763 -13.215707893217996 0 0 0 0 139.19372158881015 -28.883056271922896 0 -28.883056271922896 66.338780950193836 0 0 0 0 0.84945460425205965 -0.16201492585082145 0 -0.16201492585082145 0.070936918743348731 0 0 0 0 110.0994257697057 60.946197712433445 0 60.946197712433445 24.995929201649119 0 0 0 0 103.76604715106168 21.549694711043458 0 21.549694711043458 19.88488992649593 0 0 0 0 116.12535476474022 47.825006822724731 0 47.825006822724731 -6.8055527353806156 0 0 0 0 97.135627691887294 40.10449997344449 0 40.10449997344449 2.5097152616433505 0 0 0 0 121.25889068533525 47.000584895760539 0 47.000584895760539 13.987239806216849 0 0 0 0 140.64313906463758 35.29263674692379 0 35.29263674692379 34.744565122545509 0 0 0 0 123.75465276100567 29.879925600526803 0 29.879925600526803 36.415027217475654 0 0 0 0 138.13347136322864 18.197557226299523 0 18.197557226299523 38.546935162411842 0 0 0 0 126.6575498482448 23.886150221860788 0 23.886150221860788 24.037993208040007 0 0 0 0 125.80546120530971 27.940303559381448 0 27.940303559381448 35.129097129204411 0 0 0 0 -8.9592219853288952 0.42206620288152408 0 0.42206620288152408 -35.369636717802642 0 0 0 0 35.349268797637251 9.1598502334848035 0 9.1598502334848035 -35.998386090604072 0 0 0 0 50.857415717222466 49.13182347533143 0 49.13182347533143 -8.126879499240431 0 0 0 0 22.655421777440097 13.848915342624423 0 13.848915342624423 -34.045696079053641 0 0 0 0 62.407502871449196 69.023803516416308 0 69.023803516416308 -14.856407706664641 0 0 0 0 0.22498031352960801 -0.45187044082473249 0 -0.45187044082473249 -0.21500582055303807 0 0 0 0 14.080411622415582 -4.5005445462322387 0 -4.5005445462322387 -1.0698247068453384 0 0 0 0 108.77162353868528 31.25951818884144 0 31.25951818884144 -43.045154265035762 0 0 0 0 14.322484088195779 16.651292469360214 0 16.651292469360214 17.450641605451096 0 0 0 0 2.1642965280466466 -0.60744753472852908 0 -0.60744753472852908 -0.29823163268036579 0 0 0 0 9.3533832878251815 43.559041719062975 0 43.559041719062975 -54.827505799386415 0 0 0 0 27.676743921656907 -12.851819977298305 0 -12.851819977298305 -10.186053854798466 0 0 0 0 5.2644146772399836 2.5179610130261381 0 2.5179610130261381 -8.0311041962826266 0 0 0 0 10.058327025619292 -19.064672310907724 0 -19.064672310907724 15.763735963300206 0 0 0 0 29.696383562762549 -70.91864168749396 0 -70.91864168749396 105.78048302896406 0 0 0 0 14.830683947369835 -22.589340848765232 0 -22.589340848765232 7.5288831634411508 0 0 0 0 75.778507403078038 -48.344053471156656 0 -48.344053471156656 -7.5763584459641322 0 0 0 0 75.553913006297421 -60.533528324927545 0 -60.533528324927545 -59.602353196313516 0 0 0 0 15.909082129562194 -28.671498980692832 0 -28.671498980692832 12.895381034298737 0 0 0 0 40.388298063655498 -17.861487385794049 0 -17.861487385794049 -24.16692049156029 0 0 0 0 37.757904232803753 -15.555984736064573 0 -15.555984736064573 -23.616470726799548 0 0 0 0 21.930540628191466 -8.2415818306093342 0 -8.2415818306093342 11.768659094485315 0 0 0 0 96.150009690757997 25.773408788207632 0 25.773408788207632 -19.976846187604849 0 0 0 0 137.14451467455956 -35.844395944144708 0 -35.844395944144708 -55.685341276024928 0 0 0 0 94.259444674039287 -31.691292329607009 0 -31.691292329607009 -124.03148952499282 0 0 0 0 10.914256571723854 -11.172105187624023 0 -11.172105187624023 -41.146004461390653 0 0 0 0 -143.22934501671148 -133.83585977474519 0 -133.83585977474519 -50.641733316338666 0 0 0 0 0.37588541032685896 -0.5964761820848512 0 -0.5964761820848512 -1.416738149642206 0 0 0 0 263.98911995340256 64.041770920992064 0 64.041770920992064 -29.136344836161697 0 0 0 0 143.00777593883049 -12.685419141218915 0 -12.685419141218915 14.650726711907765 0 0 0 0 -34.994666057973745 -50.256863683113352 0 -50.256863683113352 -28.533191607558024 0 0 0 0 0.92856877785003533 -1.4335287994091335 0 -1.4335287994091335 -3.7065723859612207 0 0 0 0 255.63994234382608 18.242828453813004 0 18.242828453813004 -34.272936515160353 0 0 0 0 166.20791862300666 41.060290150475666 0 41.060290150475666 2.2162441792046366 0 0 0 0 101.51411347349108 -23.702695265854942 0 -23.702695265854942 0.10962333855047746 0 0 0 0 66.965622252620051 7.8055869082975278 0 7.8055869082975278 -6.4738684881863833 0 0 0 0 4.760188311775714 0.38980161701293703 0 0.38980161701293703 -0.66740723831267856 0 0 0 0 5.4251408713880664 -1.8249720872959188 0 -1.8249720872959188 -12.571619909109529 0 0 0 0 -36.437846081107637 -31.849040313085652 0 -31.849040313085652 -15.97229952321868 0 0 0 0 2.392552131306644 0.27003765845329974 0 0.27003765845329974 -0.35046773355622407 0 0 0 0 -61.793366284760396 -43.544605230321679 0 -43.544605230321679 -36.015999322808966 0 0 0 0 -4.762742425587021 6.5194981583551908 0 6.5194981583551908 -5.8864411097370066 0 0 0 0 6.4823714160288546 -16.203074194504552 0 -16.203074194504552 2.1335062321222722 0 0 0 0 48.758894141885776 -22.670088260150294 0 -22.670088260150294 -21.943528619436165 0 0 0 0 29.683950416177822 8.5302688316058237 0 8.5302688316058237 -5.808175513769811 0 0 0 0 14.76209612820503 -29.360351060779749 0 -29.360351060779749 -31.291672466910995 0 0 0 0 -33.596700062244054 -37.557711057886877 0 -37.557711057886877 -4.602891614480086 0 0 0 0 14.487527868651796 6.8690228035984546 0 6.8690228035984546 -13.810906666418077 0 0 0 0 77.064038465548037 -21.161265729014076 0 -21.161265729014076 -13.606687532890817 0 0 0 0 104.05198603244799 26.03367629991476 0 26.03367629991476 -3.1135581497836711 0 0 0 0 58.894352671053639 -16.864821679710118 0 -16.864821679710118 2.1120946529517752 0 0 0 0 8.6029430389039661 -10.484059471745748 0 -10.484059471745748 -0.35024802624102752 0 0 0 0 10.12100312875782 -29.757608492677441 0 -29.757608492677441 -13.39037715155942 0 0 0 0 56.276296000053435 3.0864966721892699 0 3.0864966721892699 -15.351398927011729 0 0 0 0 49.076954372274031 6.3923934195152308 0 6.3923934195152308 -3.1262915376418867 0 0 0 0 11.032687182759409 -11.244664706337955 0 -11.244664706337955 0.8820297591706221 0 0 0 0 47.007477504993176 -10.858609698009099 0 -10.858609698009099 -0.4427623460535699 0 0 0 0 7.9539625360125861 10.553168230747115 0 10.553168230747115 -2.2864285642814917 0 0 0 0 40.119412001635737 3.8833339711636086 0 3.8833339711636086 -3.5326075660427705 0 0 0 0 17.93830419976166 -32.071566128968598 0 -32.071566128968598 -4.2003344146219703 0 0 0 0 95.143570695968037 19.973380823553235 0 19.973380823553235 -3.2093950541406002 0 0 0 0 18.854735463315592 -20.077798374663686 0 -20.077798374663686 16.167536538129788 0 0 0 0 112.80752056008896 -1.827138159606946 0 -1.827138159606946 14.567598026847264 0 0 0 0 8.4622494882317483 -17.831919248713348 0 -17.831919248713348 -19.434235224674694 0 0 0 0 200.38627267499066 15.821551334489669 0 15.821551334489669 -18.728939529744864 0 0 0 0 1.1310084714692097 -2.0909161152207565 0 -2.0909161152207565 -5.0692669836058908 0 0 0 0 118.09565838202261 24.313209208257963 0 24.313209208257963 9.6263292906799336 0 0 0 0 118.41492818312486 25.869576092166646 0 25.869576092166646 -10.580489493775929 0 0 0 0 96.190783175068361 0.14686326017126916 0 0.14686326017126916 -4.0778144447917839 0 0 0 0 118.00190423049548 49.403367081117835 0 49.403367081117835 -5.8246573564663322 0 0 0 0 160.80326441822126 7.0390316303982559 0 7.0390316303982559 -7.2960836853166313 0 0 0 0 1.9562961578590778 -2.1427540808425607 0 -2.1427540808425607 -5.4328351075533359 0 0 0 0 161.12481149988065 5.5635962812889943 0 5.5635962812889943 -15.15185471719974 0 0 0 0 277.43207267367444 -36.459241403457497 0 -36.459241403457497 -3.3546322251283982 0 0 0 0 155.34457117060219 91.998551526842959 0 91.998551526842959 79.319081602328197 0 0 0 0 59.563292331727098 10.617834899964095 0 10.617834899964095 13.108034464235885 0 0 0 0 67.434696458662074 50.2775880487726 0 50.2775880487726 -41.164955933884585 0 0 0 0 13.095090888385142 -2.8098542346695505 0 -2.8098542346695505 -4.9962241621087156 0 0 0 0 76.298575542666185 29.614993008325655 0 29.614993008325655 5.6531639746914379 0 0 0 0 94.30572976839494 4.8503287946930413 0 4.8503287946930413 -18.235392230310822 0 0 0 0 90.492406021569423 15.213410034983326 0 15.213410034983326 -46.178202515342406 0 0 0 0 -34.731289703005586 -60.160919083705195 0 -60.160919083705195 17.043561688393389 0 0 0 0 -2.4430829642024037 75.443597659503837 0 75.443597659503837 -15.722620035271305 0 0 0 0 13.23768246905227 -8.4877857636549585 0 -8.4877857636549585 -3.033254553969964 0 0 0 0 -9.226042647815575 0.49422596809422714 0 0.49422596809422714 32.576498512428088 0 0 0 0 77.246337840691922 -1.3099120857064577 0 -1.3099120857064577 -42.009677244020239 0 0 0 0 73.278713352081468 -16.451096129066826 0 -16.451096129066826 -45.448794768767328 0 0 0 0 61.570272711589496 -9.6991801267541575 0 -9.6991801267541575 -25.436686946089594 0 0 0 0 78.386985552267106 31.172549918235745 0 31.172549918235745 7.3818745685016438 0 0 0 0 70.630332387630006 8.5202481222982911 0 8.5202481222982911 -9.9469314861127032 0 0 0 0 164.74835392710429 0.72546700824267418 0 0.72546700824267418 -15.880025164789657 0 0 0 0 104.51279381844142 78.39952719841601 0 78.39952719841601 3.8786642532869564 0 0 0 0 64.007953764460126 -86.015701136422308 0 -86.015701136422308 85.404524623103043 0 0 0 0 114.30089712592962 86.556767048367419 0 86.556767048367419 75.004005972960641 0 0 0 0 122.14583526504066 -58.650164522390014 0 -58.650164522390014 3.0985464158491141 0 0 0 0 46.445545138281886 -20.171472618012217 0 -20.171472618012217 -1.2889564096941086 0 0 0 0 90.191619306815028 -7.8371541598951922 0 -7.8371541598951922 -52.75979454459798 0 0 0 0 -12.408298179173471 2.2091589763216462 0 2.2091589763216462 30.781113530289758 0 0 0 0 23.200500613304769 7.0751347657750969 0 7.0751347657750969 -4.1538191678791634 0 0 0 0 60.23690875292732 -2.7110610373339696 0 -2.7110610373339696 -11.327655335197733 0 0 0 0 58.197988969770449 -9.6320199090014853 0 -9.6320199090014853 -14.432357903486093 0 0 0 0 51.96049871337118 -24.039852120409428 0 -24.039852120409428 6.1935726904343937 0 0 0 0 48.565442744045868 -9.7133707578381916 0 -9.7133707578381916 15.319742786366191 0 0 0 0 -0.67068801656859023 2.4174933959932279 0 2.4174933959932279 -0.27089667963659197 0 0 0 0 20.093030292841831 34.245882918323332 0 34.245882918323332 -39.473068233043819 0 0 0 0 19.230875491806639 6.6633562198847809 0 6.6633562198847809 -3.8927723898348581 0 0 0 0 23.069652766559102 35.39438711872468 0 35.39438711872468 7.383744384822478 0 0 0 0 66.017457177318647 -18.488067122848634 0 -18.488067122848634 -21.119369565138456 0 0 0 0 25.080632584428713 -16.374309157044628 0 -16.374309157044628 24.429195965156836 0 0 0 0 54.097682920641091 -21.429806920425733 0 -21.429806920425733 3.8352347748975149 0 0 0 0 67.03780991397548 -12.136768401114665 0 -12.136768401114665 9.1880759180444329 0 0 0 0 0.12260478388624207 -0.1636518596782075 0 -0.1636518596782075 0.27263546545266187 0 0 0 0 -36.525255717300752 -16.803015474788523 0 -16.803015474788523 10.117617942807712 0 0 0 0 135.54799526524494 -17.902085108278229 0 -17.902085108278229 -17.228583914934745 0 0 0 0 28.377488831247319 17.582667735788405 0 17.582667735788405 8.7677603912669149 0 0 0 0 18.884200649892591 0.40962414165684891 0 0.40962414165684891 1.1040469000122641 0 0 0 0 -0.98982509422812726 0.15690103980380243 0 0.15690103980380243 1.9086776916118731 0 0 0 0 33.612011430319399 -27.167612220601363 0 -27.167612220601363 2.5738780902445129 0 0 0 0 50.320314455922926 -4.5030027368147501 0 -4.5030027368147501 12.314900494439158 0 0 0 0 15.524939661388999 -4.1719606005625174 0 -4.1719606005625174 12.841454878358093 0 0 0 0 41.447504748448409 -9.3549861603095934 0 -9.3549861603095934 16.303242905400907 0 0 0 0 39.726295753978775 5.4256762344694636 0 5.4256762344694636 15.446561407845309 0 0 0 0 63.444545024890488 16.783914287728294 0 16.783914287728294 0.50015543280932206 0 0 0 0 5.2584040288797116 0.54297689226774182 0 0.54297689226774182 4.6694141053385509 0 0 0 0 58.973267584451605 9.1530487293351257 0 9.1530487293351257 1.3768773204828904 0 0 0 0 44.498059530265891 12.716811735851294 0 12.716811735851294 7.7963142492120312 0 0 0 0 33.387545348382119 -8.5866542220342978 0 -8.5866542220342978 -10.111384300462849 0 0 0 0 73.157306376480335 26.568843475558879 0 26.568843475558879 -7.2020153261319138 0 0 0 0 76.805255298651787 21.06186640076271 0 21.06186640076271 0.2058686230038802 0 0 0 0 87.368237468700727 18.169736967227436 0 18.169736967227436 -10.143547605562162 0 0 0 0 154.29281077660568 40.423864125716818 0 40.423864125716818 -19.993603048307705 0 0 0 0 83.178411447037831 24.681344160641402 0 24.681344160641402 -19.904480182627594 0 0 0 0 52.037547750296653 -26.154964331207452 0 -26.154964331207452 2.4790121007455923 0 0 0 0 23.626987586385489 -17.695095059127951 0 -17.695095059127951 -4.8647484397148641 0 0 0 0 57.647785606259163 -42.368400781105379 0 -42.368400781105379 -10.620671233019493 0 0 0 0 59.468934837750567 -14.940377183231249 0 -14.940377183231249 17.859583886639086 0 0 0 0 47.256665430533758 -14.27636491410459 0 -14.27636491410459 20.644359657095379 0 0 0 0 72.28384984618242 15.339028590745187 0 15.339028590745187 15.486279520216101 0 0 0 0 -6.9424844831670427 -3.6088462510993669 0 -3.6088462510993669 3.8202881866444303 0 0 0 0 45.949025368736329 -7.7838715664094877 0 -7.7838715664094877 12.515605612952015 0 0 0 0 5.7602693013318458 -54.402120610819907 0 -54.402120610819907 76.650704854859214 0 0 0 0 60.76988108616888 -0.72458987698963284 0 -0.72458987698963284 -8.5943871129394438 0 0 0 0 20.484419651922451 -21.657938994268228 0 -21.657938994268228 -2.9243394105112896 0 0 0 0 56.956936894544924 -8.1916242652860234 0 -8.1916242652860234 -1.0747211750647239 0 0 0 0 56.933525199006851 42.731268724055838 0 42.731268724055838 1.2949445828803618 0 0 0 0 80.591046400261519 63.278687996742747 0 63.278687996742747 -8.2323536192495794 0 0 0 0 130.50245958388882 -43.967062112158601 0 -43.967062112158601 -31.935184071095364 0 0 0 0 212.20851213320634 -92.575576100685566 0 -92.575576100685566 116.50665578982671 0 0 0 0 48.43282009944113 122.00130521151681 0 122.00130521151681 137.70103531667212 0 0 0 0 1.3609195702738113 -0.19579088112467158 0 -0.19579088112467158 -0.85546571941798599 0 0 0 0 240.04096869652562 117.76636793142336 0 117.76636793142336 7.1365831750007374 0 0 0 0 29.521603443877069 23.345216940127756 0 23.345216940127756 -19.440153001553995 0 0 0 0 -5.7871775444546643 16.044400323993955 0 16.044400323993955 35.267860211000198 0 0 0 0 80.12387255318157 61.748135140989689 0 61.748135140989689 23.051180888358374 0 0 0 0 1.1890047787442199 8.518921204254525 0 8.518921204254525 3.7073319520301169 0 0 0 0 28.61517705496999 20.962592269144807 0 20.962592269144807 8.4302689326736981 0 0 0 0 47.130211412381186 5.6310319749470636 0 5.6310319749470636 0.4065269345123852 0 0 0 0 40.70342248308549 18.065299422563839 0 18.065299422563839 2.7576400618822845 0 0 0 0 58.957070259535385 33.225733603034314 0 33.225733603034314 12.036268359717724 0 0 0 0 43.171926589206407 43.44647749361684 0 43.44647749361684 15.376949777762775 0 0 0 0 73.4044214866544 38.947500565886912 0 38.947500565886912 5.9490575649565471 0 0 0 0 57.263188372598052 34.373556621603257 0 34.373556621603257 4.8215611663354139 0 0 0 0 -25.681581933671168 14.32038146344803 0 14.32038146344803 30.680772789164621 0 0 0 0 54.444809652379377 25.513316060399802 0 25.513316060399802 15.230202485512564 0 0 0 0 51.902470221395959 24.079941873709345 0 24.079941873709345 30.189468288920125 0 0 0 0 54.4826279397289 33.904756635721355 0 33.904756635721355 21.583943751181778 0 0 0 0 144.68947836152154 1.6295925556669886 0 1.6295925556669886 1.1345142513346218 0 0 0 0 -81.53793317517102 339.49366458557188 0 339.49366458557188 161.55479498603017 0 0 0 0 49.731017048448848 32.997777850167836 0 32.997777850167836 83.88645206033334 0 0 0 0 681.22765472099854 64.35462272156019 0 64.35462272156019 -23.716101654347767 0 0 0 0 19.55018761264364 -35.773411401529529 0 -35.773411401529529 -55.497939395628237 0 0 0 0 18.236756677593803 34.861113355909879 0 34.861113355909879 -49.41798543487289 0 0 0 0 15.328637038806981 9.9474278152351907 0 9.9474278152351907 1.2058344802703029 0 0 0 0 84.868140909888098 40.54859908392902 0 40.54859908392902 -11.792443763681945 0 0 0 0 37.393697464076169 -3.2896718524708053 0 -3.2896718524708053 -8.8253486708417697 0 0 0 0 48.482267196679459 -1.4440019273305325 0 -1.4440019273305325 -29.901904354624094 0 0 0 0 52.445224411083473 29.741195021110912 0 29.741195021110912 -16.220826720864828 0 0 0 0 37.316228586541911 18.240371767649776 0 18.240371767649776 25.971673473902797 0 0 0 0 46.782827279777848 -4.4245490473773543 0 -4.4245490473773543 -17.757992854681561 0 0 0 0 -0.35140556056012429 -5.2330660370937494 0 -5.2330660370937494 16.973759185399103 0 0 0 0 11.136048961767301 11.697482890651827 0 11.697482890651827 33.903810062996854 0 0 0 0 15.164360676539218 -0.87856044245745579 0 -0.87856044245745579 20.499253592553941 0 0 0 0 8.9087853611372338 6.2308227669241205 0 6.2308227669241205 26.292744031590701 0 0 0 0 23.662206412169326 13.589026797169254 0 13.589026797169254 27.450983430975612 0 0 0 0 17.15360047138256 11.40685817730764 0 11.40685817730764 29.367718546331162 0 0 0 0 36.709951305747381 9.7941401076186594 0 9.7941401076186594 14.785476151446346 0 0 0 0 23.887057080362865 0.49663013885037799 0 0.49663013885037799 16.158634269273534 0 0 0 0 26.110034495257423 10.200448261062775 0 10.200448261062775 28.678720110048744 0 0 0 0 54.395364039948618 20.074657407774794 0 20.074657407774794 19.068759884155952 0 0 0 0 21.039839606808528 6.4401876326992351 0 6.4401876326992351 25.893462299110979 0 0 0 0 15.21234417982123 17.25032666201605 0 17.25032666201605 30.846312876638422 0 0 0 0 13.500101762449049 16.054872837131825 0 16.054872837131825 32.804373206214223 0 0 0 0 1.8825401724088806 31.355732036691734 0 31.355732036691734 58.056265076157388 0 0 0 0 -0.073762897959113616 23.558080171677375 0 23.558080171677375 38.005921916399529 0 0 0 0 1.0105309587742495 1.9341192753420851 0 1.9341192753420851 1.8762395349544372 0 0 0 0 33.821484573752272 -0.07572135768081445 0 -0.07572135768081445 -9.7045588214528955 0 0 0 0 5.2903967614206522 18.924164385097583 0 18.924164385097583 66.293909207682532 0 0 0 0 112.18109353999716 7.3766870529243533 0 7.3766870529243533 10.409853862045111 0 0 0 0 -4.2483914085696597 6.439810331550234 0 6.439810331550234 49.954402809077919 0 0 0 0 28.551456966561091 1.2739646961349536 0 1.2739646961349536 2.5942225602101416 0 0 0 0 13.289618568464903 5.1095533312611678 0 5.1095533312611678 10.576697778500147 0 0 0 0 15.527536380640413 5.0536856933058516 0 5.0536856933058516 7.5087100904584076 0 0 0 0 12.530317020322627 2.6233321189440062 0 2.6233321189440062 4.5180881048227093 0 0 0 0 18.726301623363725 4.5573970498379026 0 4.5573970498379026 -4.6881902231700678 0 0 0 0 5.1057053540680783 4.1163142845525895 0 4.1163142845525895 3.4668825169743935 0 0 0 0 9.196544158793813 -1.0800565783243883 0 -1.0800565783243883 6.1787829748350305 0 0 0 0 11.815905968495372 1.3151268389292454 0 1.3151268389292454 7.2397435866755586 0 0 0 0 23.187187563486759 11.966978399798222 0 11.966978399798222 12.404599498413972 0 0 0 0 12.653564772140726 0.35902684625739312 0 0.35902684625739312 8.2516384422281135 0 0 0 0 13.656177005211475 3.0766895071362228 0 3.0766895071362228 -2.8406326852029906 0 0 0 0 9.5042548288884063 2.8234941339943589 0 2.8234941339943589 8.3682683803764917 0 0 0 0 8.1404556844786384 -0.0045796312840025166 0 -0.0045796312840025166 9.4570355855057642 0 0 0 0 7.3544166369515551 1.38300892597033 0 1.38300892597033 7.2708351880579158 0 0 0 0 21.309341809444959 12.110875063491221 0 12.110875063491221 -19.82110109412244 0 0 0 0 11.068382412669962 15.613098537163637 0 15.613098537163637 10.432877691451608 0 0 0 0 7.6376802828962127 3.2057159656537237 0 3.2057159656537237 -6.0684251141125287 0 0 0 0 12.51305321417407 7.0101326662201169 0 7.0101326662201169 1.6986027525861953 0 0 0 0 8.5995701530864963 11.154061779884866 0 11.154061779884866 -4.4672109865039147 0 0 0 0 8.0463634656525755 20.062573797647133 0 20.062573797647133 -20.711527728649116 0 0 0 0 8.8749442324383381 10.368065841668113 0 10.368065841668113 -10.668465229540061 0 0 0 0 10.664113450849054 5.6829777703946185 0 5.6829777703946185 2.6008139914245851 0 0 0 0 15.865768218874678 8.2124087612548351 0 8.2124087612548351 -26.15201366428181 0 0 0 0 5.2741138544083697 9.3093254333374382 0 9.3093254333374382 -1.1463300803135961 0 0 0 0 8.3200465223719515 5.0522077333517368 0 5.0522077333517368 1.8604489912779587 0 0 0 0 14.201105957170057 4.033286237415723 0 4.033286237415723 -7.9330138867458118 0 0 0 0 16.070979044718115 1.923584947196332 0 1.923584947196332 -12.049887500717773 0 0 0 0 14.722920841070504 3.0071328410942328 0 3.0071328410942328 -12.90399050021324 0 0 0 0 9.7596161393242937 10.234287455313108 0 10.234287455313108 -15.519099085851394 0 0 0 0 19.899977739221185 2.9119901773646006 0 2.9119901773646006 -19.37715093552697 0 0 0 0 19.131593269854648 -8.8452238220960453 0 -8.8452238220960453 -17.971993539886739 0 0 0 0 21.972267680936852 -10.347988274933428 0 -10.347988274933428 -26.795828436639454 0 0 0 0 -124.9538718891223 -21.036942003306308 0 -21.036942003306308 46.05772598916451 0 0 0 0 33.546326813700375 2.422181404349999 0 2.422181404349999 -99.13549983943301 0 0 0 0 -5.3942162042674795 34.452740460507812 0 34.452740460507812 -24.904243792745092 0 0 0 0 18.103941259650014 10.120650566700817 0 10.120650566700817 -39.771208143117974 0 0 0 0 34.550019180443996 -7.6183209753703522 0 -7.6183209753703522 -34.545218668759844 0 0 0 0 304.84401703909043 -41.107983103425568 0 -41.107983103425568 -174.76945661477384 0 0 0 0 -114.85901530163017 -79.40079996296754 0 -79.40079996296754 -9.8537763228951007 0 0 0 0 72.687692652741021 -176.68854836222977 0 -176.68854836222977 38.406282196908705 0 0 0 0 4.4516814479694018 1.5676010853133246 0 1.5676010853133246 -2.0673776241852622 0 0 0 0 114.74693547613839 242.31647794600619 0 242.31647794600619 138.70533853286679 0 0 0 0 512.64817362168674 -127.82482221302888 0 -127.82482221302888 33.205926591314267 0 0 0 0 487.96205226699283 179.41379371931703 0 179.41379371931703 13.780919715381685 0 0 0 0 -337.21828439697038 416.26828634552663 0 416.26828634552663 118.82897369495106 0 0 0 0 2.4786962230114886 2.5160994728981838 0 2.5160994728981838 2.2592903267059139 0 0 0 0 -238.74734436040808 -1.9088996909787461 0 -1.9088996909787461 108.36580474050723 0 0 0 0 9.9558243644887625 370.18531462385909 0 370.18531462385909 92.115067186788963 0 0 0 0 118.60214286496739 -108.9152061425907 0 -108.9152061425907 7.1423514440564304 0 0 0 0 0.60410563810503604 -0.79822543727065742 0 -0.79822543727065742 2.0312890433843234 0 0 0 0 -114.92625744761699 72.865194550854994 0 72.865194550854994 8.441630697017672 0 0 0 0 161.85077401298349 -86.892258884786429 0 -86.892258884786429 -157.97691763683676 0 0 0 0 347.34522927312537 122.90579281504597 0 122.90579281504597 4.9988491147287561 0 0 0 0 175.29684820332409 -168.0955807960915 0 -168.0955807960915 63.81110898785164 0 0 0 0 977.76370101959674 -290.63405292183916 0 -290.63405292183916 15.371264458208316 0 0 0 0 224.9326432047169 390.44084620058572 0 390.44084620058572 258.36857668853509 0 0 0 0 271.78154374824635 530.72992558370436 0 530.72992558370436 222.71892889567607 0 0 0 0 51.985305099964762 263.39816171683492 0 263.39816171683492 191.12500394609651 0 0 0 0 -18.125459205124116 283.68847109807666 0 283.68847109807666 336.24749349574881 0 0 0 0 6.6382205881668899 2.6532015923382195 0 2.6532015923382195 1.271796573555203 0 0 0 0 -53.681227231148569 260.9792373010622 0 260.9792373010622 208.27236753148281 0 0 0 0 337.74843407636581 -24.489677807269345 0 -24.489677807269345 -63.629971430323849 0 0 0 0 78.635364236468376 -58.053799962483822 0 -58.053799962483822 -18.124214135774082 0 0 0 0 -58.100522510741939 43.66340639025168 0 43.66340639025168 29.179707979036948 0 0 0 0 587.56258828310183 179.29172811708878 0 179.29172811708878 -83.463675390768685 0 0 0 0 267.48277690448413 120.68189918104486 0 120.68189918104486 -87.358498960933105 0 0 0 0 308.6040127581241 65.62275443203248 0 65.62275443203248 -23.502460203338842 0 0 0 0 269.93765944548977 149.61560684122333 0 149.61560684122333 -28.36693483097406 0 0 0 0 274.8833776580941 108.02514084434551 0 108.02514084434551 -17.218328568377984 0 0 0 0 229.49820127738531 123.91504303743494 0 123.91504303743494 28.029524715600701 0 0 0 0 201.41584433750722 75.582883673813114 0 75.582883673813114 10.121391533453277 0 0 0 0 245.0381896534077 161.57210750822171 0 161.57210750822171 74.026200870314597 0 0 0 0 23.061094913348825 1.1646503071569896 0 1.1646503071569896 28.82458701560472 0 0 0 0 160.41336374103275 33.796949325084199 0 33.796949325084199 -28.224326760187523 0 0 0 0 77.610874148340372 64.397314623910972 0 64.397314623910972 43.360990221190377 0 0 0 0 42.866227505941424 22.059051447593106 0 22.059051447593106 36.138538720485172 0 0 0 0 -31.102476867858059 -9.7137608141139253 0 -9.7137608141139253 41.585756847155828 0 0 0 0 -31.968488172896969 16.925752402107136 0 16.925752402107136 19.504257934428551 0 0 0 0 -33.67883333224745 19.585165769111995 0 19.585165769111995 43.399016840272253 0 0 0 0 124.99528631216754 29.501682497133061 0 29.501682497133061 -202.48779165566748 0 0 0 0 17.400253532116537 7.1283531536431166 0 7.1283531536431166 0.7559539789696359 0 0 0 0 -16.553202405581487 56.318705093804738 0 56.318705093804738 -36.272058932695245 0 0 0 0 4.8748318518173619 -3.1225481366430614 0 -3.1225481366430614 -8.5356772677719164 0 0 0 0 -19.118267112303329 22.537806791021296 0 22.537806791021296 -4.8286807185857015 0 0 0 0 1.9191580057503277 5.6638850092207891 0 5.6638850092207891 -2.1741535517114738 0 0 0 0 64.91368862350464 -11.338809128266121 0 -11.338809128266121 -12.400537029746147 0 0 0 0 33.95638109485958 15.545260458195571 0 15.545260458195571 -3.5760027323487975 0 0 0 0 -10.435786124543483 38.891584147830713 0 38.891584147830713 26.59017679667727 0 0 0 0 -1.9312530931076326 2.487458309448404 0 2.487458309448404 2.3491879483709788 0 0 0 0 -38.648405238009673 -35.513705783181763 0 -35.513705783181763 -37.302717639538287 0 0 0 0 -33.3517230426678 -19.112505268756991 0 -19.112505268756991 12.058325142199948 0 0 0 0 -16.130524898061481 6.7469334662311553 0 6.7469334662311553 18.904057272749014 0 0 0 0 -29.243281437993573 -9.9649546502500925 0 -9.9649546502500925 2.276868165286885 0 0 0 0 -71.805323626500467 -14.611550893952995 0 -14.611550893952995 47.419238409730042 0 0 0 0 0.54038092036885388 0.61341766737464276 0 0.61341766737464276 0.45550786176152602 0 0 0 0 -10.134610309691197 -17.337513448051538 0 -17.337513448051538 11.22217189289313 0 0 0 0 -74.774095558549561 5.9200925170240453 0 5.9200925170240453 3.9345241074536261 0 0 0 0 -1.1038693645389586 0.19323789438068495 0 0.19323789438068495 1.2075322960165871 0 0 0 0 17.405439545724676 -0.48420899252607796 0 -0.48420899252607796 -3.2026133292883969 0 0 0 0 6.7381771223708711 7.5741709862364814 0 7.5741709862364814 4.5972964199528406 0 0 0 0 4.9062918058930531 4.0793708101705981 0 4.0793708101705981 3.6884361929624183 0 0 0 0 1.5971117177071836 -0.1885322177599873 0 -0.1885322177599873 0.61620242626115385 0 0 0 0 8.0049757724764277 -0.76633948217738634 0 -0.76633948217738634 7.9963060657348706 0 0 0 0 4.7815876959525667 -2.0456764342265075 0 -2.0456764342265075 14.697489615679046 0 0 0 0 2.6970141524241997 -0.065852690531045255 0 -0.065852690531045255 7.5448819515667811 0 0 0 0 4.8591884470442892 -1.7588742447157983 0 -1.7588742447157983 12.416470932869061 0 0 0 0 3.7328437675105306 -0.47568954508642491 0 -0.47568954508642491 16.21509533865293 0 0 0 0 5.995812131322964 7.5938769849630177 0 7.5938769849630177 15.919623108922792 0 0 0 0 5.8251012686832837 -4.001402848466455 0 -4.001402848466455 21.596394105545926 0 0 0 0 -1.0273094073222921 -5.542871950020813 0 -5.542871950020813 15.73807214247315 0 0 0 0 -1.0352540617099919 -5.1174639839051999 0 -5.1174639839051999 16.673293472736802 0 0 0 0 2.5707976907533556 -1.1131371038578166 0 -1.1131371038578166 0.46444369780826211 0 0 0 0 10.864266449663774 -8.59631430813943 0 -8.59631430813943 14.386416335056685 0 0 0 0 3.8433357756512123 -2.1632370228912805 0 -2.1632370228912805 16.377872009494926 0 0 0 0 3.0709709708228772 0.32039948311389388 0 0.32039948311389388 2.322935132456692 0 0 0 0 7.7162480298320588 -5.2800355978201479 0 -5.2800355978201479 12.102504505431428 0 0 0 0 5.6965139613703286 -3.0047526434349194 0 -3.0047526434349194 12.012279925558197 0 0 0 0 -2.4379957571362443 -2.0583878170208854 0 -2.0583878170208854 2.5929811698452827 0 0 0 0 -11.091791200804437 8.9082359856895366 0 8.9082359856895366 56.058778628048223 0 0 0 0 28.032703946428228 -31.008827211790091 0 -31.008827211790091 32.18629358315787 0 0 0 0 -8.211967156821629 16.002311996207247 0 16.002311996207247 16.472280862004176 0 0 0 0 -22.281714025733891 -2.4269314650303748 0 -2.4269314650303748 41.784769901898287 0 0 0 0 -20.20423896995635 -7.3779346065387674 0 -7.3779346065387674 16.65024403045377 0 0 0 0 4.5101279340292422 -8.8096009474999306 0 -8.8096009474999306 4.2137866883990682 0 0 0 0 2.7172115546407873 1.2376930380568916 0 1.2376930380568916 0.21685385474894378 0 0 0 0 -5.8613841732039873 11.245734844320641 0 11.245734844320641 0.47046639322425676 0 0 0 0 -16.937984299293021 -27.600390832692256 0 -27.600390832692256 -1.8908726935823523 0 0 0 0 66.625840831642563 -61.875817264932998 0 -61.875817264932998 39.390600582865929 0 0 0 0 21.450348672666166 22.966312452856403 0 22.966312452856403 97.931432322228829 0 0 0 0 15.400804769751858 -43.721411722520131 0 -43.721411722520131 17.372480565654428 0 0 0 0 15.360536843827504 -39.791174882441226 0 -39.791174882441226 2.0564733904536183 0 0 0 0 -43.698710133829991 -48.96208477909218 0 -48.96208477909218 19.444746038816788 0 0 0 0 24.171846148986333 8.536017096265482 0 8.536017096265482 -35.912508444532762 0 0 0 0 -53.887857630932558 22.250929654498918 0 22.250929654498918 48.55054689206213 0 0 0 0 12.736001457661587 31.277143552518567 0 31.277143552518567 94.863707886252143 0 0 0 0 -3.228425609822807 0.97546307449692904 0 0.97546307449692904 31.263838300571933 0 0 0 0 9.2115942179279955 49.046026783969637 0 49.046026783969637 47.960515619782882 0 0 0 0 155.25615435675854 148.65335322131813 0 148.65335322131813 124.36342683650594 0 0 0 0 87.93490798700077 30.67364236937135 0 30.67364236937135 42.108498244445741 0 0 0 0 114.41941451805587 99.999625881683414 0 99.999625881683414 68.672186716923306 0 0 0 0 273.04761254736695 106.66460707478279 0 106.66460707478279 50.177358972717172 0 0 0 0 465.25877802235755 207.88521451481006 0 207.88521451481006 17.349505908454489 0 0 0 0 294.11138454648869 197.36726174441134 0 197.36726174441134 148.44639318236625 0 0 0 0 0.80288374576851496 -0.51739987948529631 0 -0.51739987948529631 0.69064540599324231 0 0 0 0 108.41629123525126 51.11862647411975 0 51.11862647411975 144.22747080264145 0 0 0 0 357.63548858040849 22.647644832813896 0 22.647644832813896 147.26668542516435 0 0 0 0 334.71988168014104 23.86889539529318 0 23.86889539529318 182.32498518469168 0 0 0 0 327.92210520191111 89.610654691546031 0 89.610654691546031 169.40445247622756 0 0 0 0 1.4670391451385534 0.48026864890128973 0 0.48026864890128973 0.24924963061280669 0 0 0 0 163.87525435364932 139.44302101622569 0 139.44302101622569 118.5624654742187 0 0 0 0 363.76991623028516 68.551115460655183 0 68.551115460655183 97.652643746464747 0 0 0 0 279.3451027771498 -31.239067302619187 0 -31.239067302619187 -8.9620834711151698 0 0 0 0 341.28351163214802 111.22612733685875 0 111.22612733685875 65.13041797498218 0 0 0 0 381.46980769147558 97.951327431563016 0 97.951327431563016 62.365984308494276 0 0 0 0 335.4294743899718 101.01433460764851 0 101.01433460764851 62.203216272590552 0 0 0 0 350.3933394790065 54.379148221429531 0 54.379148221429531 -15.12503673471149 0 0 0 0 324.39138244516562 98.367890418301727 0 98.367890418301727 -2.0661496191620179 0 0 0 0 330.52158736029014 90.629291258880485 0 90.629291258880485 -12.936664051241877 0 0 0 0 221.43032019846578 43.141064105651978 0 43.141064105651978 13.842783795272034 0 0 0 0 231.83075969685706 18.657878052483106 0 18.657878052483106 -3.5651122690794068 0 0 0 0 104.00508569343219 -1.3991173125846359 0 -1.3991173125846359 19.326538439816574 0 0 0 0 422.14779160635771 118.17791349624954 0 118.17791349624954 -13.781673668565301 0 0 0 0 418.37360879930202 130.13763065092326 0 130.13763065092326 -23.179195534454621 0 0 0 0 428.8641999597512 73.048794674890672 0 73.048794674890672 41.609002913202957 0 0 0 0 402.73086993117795 108.38257313368919 0 108.38257313368919 -5.698476751282846 0 0 0 0 499.95687204013933 71.812911357432355 0 71.812911357432355 30.882889702686374 0 0 0 0 440.41467083974203 125.68944916329529 0 125.68944916329529 -15.049776404701477 0 0 0 0 426.47544692992778 75.220406501100896 0 75.220406501100896 36.845433210051056 0 0 0 0 411.94249590487061 60.143033867016193 0 60.143033867016193 135.79866006206348 0 0 0 0 374.53346738093705 99.034234334650733 0 99.034234334650733 82.746885287938014 0 0 0 0 419.81391491102659 66.462353137955262 0 66.462353137955262 98.076114493740533 0 0 0 0 466.21323304376529 23.360829273770182 0 23.360829273770182 28.102564661456821 0 0 0 0 405.95227359691307 -7.5036659021975485 0 -7.5036659021975485 125.04396683550858 0 0 0 0 499.81962103727665 28.787816298507515 0 28.787816298507515 59.838497449419734 0 0 0 0 435.09957911949095 -20.291598253581526 0 -20.291598253581526 23.569357759834759 0 0 0 0 500.32850976735307 -43.827416979128145 0 -43.827416979128145 -43.384990102160799 0 0 0 0 419.00291392012105 -30.129641522085421 0 -30.129641522085421 26.684934384356207 0 0 0 0 409.18762983319539 -78.304034317105845 0 -78.304034317105845 -46.368363301544235 0 0 0 0 275.26785149516309 -14.193493853186745 0 -14.193493853186745 -7.4623810505402517 0 0 0 0 287.47029444152781 19.10107936134559 0 19.10107936134559 3.2759437216438556 0 0 0 0 313.76248261385217 68.614846635909188 0 68.614846635909188 14.704021827419833 0 0 0 0 423.19631624166141 -35.271063254721618 0 -35.271063254721618 -8.2249731882458281 0 0 0 0 132.86297774421382 69.568374743718266 0 69.568374743718266 11.812780788478108 0 0 0 0 0.20145049110875846 0.53762025799630209 0 0.53762025799630209 1.0745156438307917 0 0 0 0 378.67240630008064 94.078318610460656 0 94.078318610460656 2.2776375138737421 0 0 0 0 270.03671474288353 103.35772636756019 0 103.35772636756019 29.945285045418359 0 0 0 0 0.13262998899834955 0.23204935622066181 0 0.23204935622066181 3.4041912147066715 0 0 0 0 196.81668570187458 128.28140716135718 0 128.28140716135718 -34.237448680155694 0 0 0 0 39.344203979585473 206.53181278341833 0 206.53181278341833 121.57000799109505 0 0 0 0 152.26140956054769 12.165166031997842 0 12.165166031997842 43.702912116043564 0 0 0 0 271.3394778635286 137.50450197711106 0 137.50450197711106 13.863125684123588 0 0 0 0 1.2469538746218891 -1.2579454691594893 0 -1.2579454691594893 1.4732094074168238 0 0 0 0 185.03420959422306 29.683314945199097 0 29.683314945199097 27.386156352815092 0 0 0 0 196.27967502418596 51.409505932438137 0 51.409505932438137 31.442918796928673 0 0 0 0 183.37704923634374 -6.0488734910814159 0 -6.0488734910814159 0.4882940479313973 0 0 0 0 107.17525915082933 36.129312806969779 0 36.129312806969779 27.253165113192054 0 0 0 0 185.9329245936745 40.753712577952946 0 40.753712577952946 15.161604710049076 0 0 0 0 124.76001378530054 40.66647728220947 0 40.66647728220947 11.781237947875383 0 0 0 0 1.2134234596777942 -1.1243138101112562 0 -1.1243138101112562 1.0961693851222247 0 0 0 0 115.82979961508431 55.386279412224866 0 55.386279412224866 26.108505237548215 0 0 0 0 272.59889837565333 -7.6780894893911835 0 -7.6780894893911835 107.94300041655897 0 0 0 0 276.39408033583913 177.07020475907052 0 177.07020475907052 -112.31287756260235 0 0 0 0 81.88314625326484 49.16969285570454 0 49.16969285570454 48.69107986396078 0 0 0 0 47.287005667486483 -9.8497475625858897 0 -9.8497475625858897 31.080382486397909 0 0 0 0 83.543766639662863 2.3824989414575981 0 2.3824989414575981 -35.616500096902421 0 0 0 0 98.713572517903685 9.0599675128932997 0 9.0599675128932997 -20.77235568429839 0 0 0 0 68.613432070023919 -14.563776007699133 0 -14.563776007699133 -9.9240201644294075 0 0 0 0 101.44852097160492 -13.412313759233328 0 -13.412313759233328 -66.930276937578739 0 0 0 0 92.733747444791561 -53.495374657382754 0 -53.495374657382754 -71.4502814448349 0 0 0 0 42.493939584537657 -15.657954247834567 0 -15.657954247834567 -17.070486076813083 0 0 0 0 -99.469843390017104 -197.02792507232303 0 -197.02792507232303 -43.554248138367321 0 0 0 0 157.79362551847044 -221.54641504950408 0 -221.54641504950408 -61.73395270628636 0 0 0 0 255.82529122652886 -88.51076264344556 0 -88.51076264344556 -42.561562175143138 0 0 0 0 498.37989899268194 -195.56836938247361 0 -195.56836938247361 -85.759426937900145 0 0 0 0 284.10433877908736 -45.096738296449985 0 -45.096738296449985 -10.850960665163711 0 0 0 0 132.77705588764925 -60.842258072847265 0 -60.842258072847265 5.3994131654288395 0 0 0 0 499.62034004607176 -297.60160252408099 0 -297.60160252408099 124.37508048160197 0 0 0 0 118.55999728224378 -97.190700982787234 0 -97.190700982787234 55.203165289362609 0 0 0 0 1.5549992874783491 -0.1604910872427574 0 -0.1604910872427574 -0.55025173410238426 0 0 0 0 89.744198550974943 -24.673822032846246 0 -24.673822032846246 36.243217310017116 0 0 0 0 103.12418102916854 -83.36417628713582 0 -83.36417628713582 47.546182066377185 0 0 0 0 2.302367594617138 0.10588653546788507 0 0.10588653546788507 -1.2095497153829886 0 0 0 0 70.301679625935321 -34.833335487010231 0 -34.833335487010231 22.641330338141188 0 0 0 0 1.2089332160012347 -1.8514851424639467 0 -1.8514851424639467 -3.1911645142979688 0 0 0 0 7.2241047819343294 -9.040429424685783 0 -9.040429424685783 -6.7517269153570396 0 0 0 0 8.1424353811266883 4.1864486521334712 0 4.1864486521334712 -48.262602305668906 0 0 0 0 1.8982413329551093 -1.226884396195139 0 -1.226884396195139 -2.3221342259578854 0 0 0 0 6.3190125730707223 -5.1608326377806861 0 -5.1608326377806861 -12.611717945045655 0 0 0 0 8.0285749668337303 -27.336464216439396 0 -27.336464216439396 -36.533740622386802 0 0 0 0 2.6572463352913473 -20.398733865786525 0 -20.398733865786525 8.7269244550884508 0 0 0 0 8.53825203616816 -14.522337116935297 0 -14.522337116935297 -3.596761015462647 0 0 0 0 9.974532109536085 -14.8033054050461 0 -14.8033054050461 -20.820390822920501 0 0 0 0 3.5281155489101366 -11.763018947848849 0 -11.763018947848849 11.842304495165081 0 0 0 0 7.58993092480614 -9.6527609305384203 0 -9.6527609305384203 -1.5941413445669923 0 0 0 0 1.1684340810315916 -9.1549030357986112 0 -9.1549030357986112 21.910135381289251 0 0 0 0 7.6233611025181744 -7.4352255020241955 0 -7.4352255020241955 9.5766119669119085 0 0 0 0 15.219544317724285 11.089021348232961 0 11.089021348232961 30.917711697263879 0 0 0 0 -14.686119108830098 -32.624337943997432 0 -32.624337943997432 26.15701379367869 0 0 0 0 497.41884922134068 -234.17437920343826 0 -234.17437920343826 128.35040755558884 0 0 0 0 1.3354763850088389 -0.61347383329578165 0 -0.61347383329578165 -1.0477063980199606 0 0 0 0 55.870170118051647 83.787238759198999 0 83.787238759198999 -155.7866712859533 0 0 0 0 7.3353434015807579 -17.103364371229816 0 -17.103364371229816 149.31381006686041 0 0 0 0 494.17204803511413 -223.39048442113975 0 -223.39048442113975 -28.541615138913887 0 0 0 0 499.29870515978018 313.55759771016665 0 313.55759771016665 123.96817269666059 0 0 0 0 381.38599318285833 373.53010741821743 0 373.53010741821743 225.3878792795428 0 0 0 0 3.9762054343755828 -0.86007507400858074 0 -0.86007507400858074 0.68253613589011997 0 0 0 0 265.87534902859443 332.00728716705873 0 332.00728716705873 211.20300887315528 0 0 0 0 60.637788616078069 175.05299283033111 0 175.05299283033111 174.85123692792644 0 0 0 0 353.58042691456285 181.82316557112426 0 181.82316557112426 167.31651423573874 0 0 0 0 344.90637813877584 226.57411335944067 0 226.57411335944067 80.418048881304856 0 0 0 0 393.04437057176438 239.96337035625814 0 239.96337035625814 78.910420202233027 0 0 0 0 500.02997677121402 193.68744740428221 0 193.68744740428221 7.1361605818193965 0 0 0 0 404.22031196803846 146.21285693521583 0 146.21285693521583 -15.951655750879302 0 0 0 0 404.21589331788522 146.03637858475031 0 146.03637858475031 -0.037159226943009216 0 0 0 0 284.05964838853288 93.938008661782433 0 93.938008661782433 60.715539139286406 0 0 0 0 311.38150138647779 109.93630057721622 0 109.93630057721622 -2.6864262714591836 0 0 0 0 499.94735832819242 142.17074702308238 0 142.17074702308238 -36.833533165177606 0 0 0 0 190.04187251801932 33.382373230525815 0 33.382373230525815 -6.8052884745109026 0 0 0 0 102.26173967586874 45.819290496829879 0 45.819290496829879 26.002958603622751 0 0 0 0 181.08360921680139 77.578369667039979 0 77.578369667039979 12.228356918196233 0 0 0 0 309.6410548134736 123.07932031408293 0 123.07932031408293 -6.7254253402598012 0 0 0 0 269.66313349655957 133.53449029719386 0 133.53449029719386 38.707544508942433 0 0 0 0 94.442354785318457 98.659385103949333 0 98.659385103949333 44.518000513994728 0 0 0 0 15.066923611213497 -17.146739980487027 0 -17.146739980487027 20.187478580729174 0 0 0 0 -3.5113307159517717 -61.123898270486933 0 -61.123898270486933 -7.4704448159939716 0 0 0 0 -27.037087338883794 67.183016458928321 0 67.183016458928321 48.337980598481778 0 0 0 0 203.80897846270091 -87.729695663995898 0 -87.729695663995898 -36.060357011171249 0 0 0 0 1.6935500650880684 -0.46276039846926142 0 -0.46276039846926142 0.2818569820256881 0 0 0 0 9.010582351326164 -3.2851954491053581 0 -3.2851954491053581 1.1568884176608429 0 0 0 0 4.8616674767927179 3.4750964257108308 0 3.4750964257108308 28.67478641981279 0 0 0 0 7.5303173027768935 -8.740934351616005 0 -8.740934351616005 9.14493365333783 0 0 0 0 13.837952070925894 -1.4099256459897447 0 -1.4099256459897447 11.233565569827647 0 0 0 0 7.6759244210115867 -7.0689761165793357 0 -7.0689761165793357 5.3763961313315463 0 0 0 0 3.1080233919346938 -10.053505436452127 0 -10.053505436452127 6.5850606966238701 0 0 0 0 8.2348423789644585 -14.893960498342892 0 -14.893960498342892 2.586641973058704 0 0 0 0 11.025197409137036 -13.34617648400382 0 -13.34617648400382 0.87340174445509433 0 0 0 0 10.923302433419849 -7.4781774695752574 0 -7.4781774695752574 2.065301792227956 0 0 0 0 11.063433971879022 -6.4424456712849292 0 -6.4424456712849292 5.316525049519214 0 0 0 0 11.130244207612126 -4.6582640979000622 0 -4.6582640979000622 1.9114182237872184 0 0 0 0 7.1564686759811593 -4.0081820831765071 0 -4.0081820831765071 11.824476898817466 0 0 0 0 4.1496821965385635 -1.8727453650489574 0 -1.8727453650489574 0.84549948092234184 0 0 0 0 2.5005042643133493 14.000043723279759 0 14.000043723279759 17.487157541163469 0 0 0 0 60.110666198479976 -38.255393756815209 0 -38.255393756815209 -49.563365370364465 0 0 0 0 12.246852332588212 -5.4353278929073587 0 -5.4353278929073587 2.1689910467977938 0 0 0 0 -3.022643677024746 -17.88654666996781 0 -17.88654666996781 2.6531178586346869 0 0 0 0 5.7506631271540698 -3.1256995741537708 0 -3.1256995741537708 1.6524673156113778 0 0 0 0 -12.537125451764496 -31.74990072213464 0 -31.74990072213464 -10.584817519858021 0 0 0 0 -34.472424125896396 -18.037287517927119 0 -18.037287517927119 26.116440825917941 0 0 0 0 22.628853883381453 16.123617610081368 0 16.123617610081368 -24.73607566309331 0 0 0 0 3.7379149287116888 -9.1253934649310189 0 -9.1253934649310189 20.09501810118693 0 0 0 0 89.988478048512206 18.308302362054341 0 18.308302362054341 11.170965888514978 0 0 0 0 53.106582298019475 -18.38717026054794 0 -18.38717026054794 13.790892461197537 0 0 0 0 7.9679526027229706 -2.6195643670463484 0 -2.6195643670463484 3.1026334745947928 0 0 0 0 14.672627204408968 -1.7768094952484166 0 -1.7768094952484166 0.46154891703397216 0 0 0 0 13.283970159598539 -0.48435950416705964 0 -0.48435950416705964 4.2811005225103145 0 0 0 0 13.083533771754446 -0.26472658188959031 0 -0.26472658188959031 4.8272682689218982 0 0 0 0 13.24035657472632 -0.0061844168272955358 0 -0.0061844168272955358 4.7821379228137175 0 0 0 0 13.408494322236947 -0.1435048455418837 0 -0.1435048455418837 4.3236600120662843 0 0 0 0 8.5786618595989506 5.1367158182315773 0 5.1367158182315773 13.092803583811435 0 0 0 0 40.982358388217108 8.6082446547661675 0 8.6082446547661675 25.708796562732459 0 0 0 0 13.391399534350967 -0.085302146608682961 0 -0.085302146608682961 4.4789383931251905 0 0 0 0 5.9325692787806474 -4.0792250453369547 0 -4.0792250453369547 5.7164943196880813 0 0 0 0 -12.325658456548808 -1.0910817577532015 0 -1.0910817577532015 6.0850719158232458 0 0 0 0 13.056506817642003 -0.48083815646896255 0 -0.48083815646896255 4.6634709006114008 0 0 0 0 6.9575200736312475 -1.9931459096944835 0 -1.9931459096944835 2.3829872492860886 0 0 0 0 15.25038686132757 -6.8148734967608107 0 -6.8148734967608107 2.1666357880326359 0 0 0 0 3.7970048120981374 -0.85818371207193422 0 -0.85818371207193422 -2.8191707092582501 0 0 0 0 27.312903010526497 0.37303844939526698 0 0.37303844939526698 0.54828710508843415 0 0 0 0 25.485793378435119 2.689091063002536 0 2.689091063002536 -1.3797679750947509 0 0 0 0 33.546908503671148 -1.6193111115842385 0 -1.6193111115842385 -3.68723336978519 0 0 0 0 34.78211674421982 -14.40006200698258 0 -14.40006200698258 -0.9823859686406422 0 0 0 0 31.027000749325452 1.8893645803959203 0 1.8893645803959203 -7.4349745610286391 0 0 0 0 19.11151682470063 -8.7793217993471444 0 -8.7793217993471444 -0.29918781443757325 0 0 0 0 15.654515360303776 -9.6686220133294682 0 -9.6686220133294682 -0.50209592652004176 0 0 0 0 21.937169573830033 -8.8210029535513286 0 -8.8210029535513286 -1.9818080829011251 0 0 0 0 15.553818450975086 -9.875843408001856 0 -9.875843408001856 -0.50591394198636408 0 0 0 0 32.453014079945206 -13.883267782198971 0 -13.883267782198971 -12.408979552329583 0 0 0 0 15.358414836497104 -17.462996312526855 0 -17.462996312526855 -12.974818406130339 0 0 0 0 17.230704136538407 -36.333694464971643 0 -36.333694464971643 -38.044596685444276 0 0 0 0 61.716938753745126 -91.909531372457224 0 -91.909531372457224 30.815877997784526 0 0 0 0 16.182522231956682 -28.422351417720847 0 -28.422351417720847 -2.5862186591186003 0 0 0 0 0.131612197293002 0.25985477830520765 0 0.25985477830520765 -1.3785971772551489 0 0 0 0 25.184535747635891 27.44154719505503 0 27.44154719505503 -67.943591884515627 0 0 0 0 62.33392098344666 -6.2691740374361586 0 -6.2691740374361586 -9.0318155503138087 0 0 0 0 165.24283838184056 -46.140883749275531 0 -46.140883749275531 -119.75049998247709 0 0 0 0 37.925554879030642 17.974184863319948 0 17.974184863319948 -0.24991741918091748 0 0 0 0 -20.392354166639052 -37.773346508154134 0 -37.773346508154134 168.56136233751513 0 0 0 0 151.17330322628459 41.53033980342336 0 41.53033980342336 -27.298134119297544 0 0 0 0 0.21522559530790453 0.19178010917708477 0 0.19178010917708477 -0.2604427266185525 0 0 0 0 69.381653220706539 -33.572041159165437 0 -33.572041159165437 -17.036753373385977 0 0 0 0 68.650256028165813 20.927741625091009 0 20.927741625091009 20.97446523201333 0 0 0 0 -14.342417361223852 -5.0580157232198104 0 -5.0580157232198104 -6.9069969914394278 0 0 0 0 -29.876689256174359 -44.433774289909806 0 -44.433774289909806 19.913272739016634 0 0 0 0 -29.178053790627189 -16.176000989564908 0 -16.176000989564908 6.7622012038328307 0 0 0 0 0.25621937049479016 -0.5281691428365427 0 -0.5281691428365427 1.5606481887125487 0 0 0 0 -1.0357393621288793 -29.587577843779361 0 -29.587577843779361 12.524874209501874 0 0 0 0 -2.8095542500541342 -13.86775541238444 0 -13.86775541238444 3.6028130951870665 0 0 0 0 -2.2351800195101532 -15.827116511750404 0 -15.827116511750404 0.82133184284774075 0 0 0 0 3.817582556297566 -12.97467336350428 0 -12.97467336350428 4.0880223121050996 0 0 0 0 1.2473838377572974 -8.2769034132918762 0 -8.2769034132918762 -3.5507560704064645 0 0 0 0 6.4049854777040309 -10.601722058411781 0 -10.601722058411781 -10.389893413014647 0 0 0 0 4.036668815972007 -14.273360353914313 0 -14.273360353914313 -7.1410802775825175 0 0 0 0 -3.9596463070556638 -13.102964043325642 0 -13.102964043325642 -15.11335765362827 0 0 0 0 -2.8023334210447501 -9.1618190356547302 0 -9.1618190356547302 -8.1019672293591611 0 0 0 0 -1.2518590031086205 -13.075810132402921 0 -13.075810132402921 -8.7519870865573353 0 0 0 0 7.4165585866785477 -9.0726399991826838 0 -9.0726399991826838 -9.7259612204840664 0 0 0 0 2.3522529591373313 -6.2710270112256126 0 -6.2710270112256126 1.6830788477332135 0 0 0 0 -1.2929517939828656 -12.014169502972663 0 -12.014169502972663 5.4031539687697432 0 0 0 0 0.55596040063937835 -8.7943603145533871 0 -8.7943603145533871 2.129109727644817 0 0 0 0 -9.3988768669369165 -7.0345561466839968 0 -7.0345561466839968 2.4551764886364253 0 0 0 0 57.349009705620119 9.2525529104812989 0 9.2525529104812989 6.9929233222445148 0 0 0 0 70.700620909463396 19.113859585313108 0 19.113859585313108 13.765265002768871 0 0 0 0 67.356475391192362 5.848018052707225 0 5.848018052707225 1.6646625471537391 0 0 0 0 72.163248632470641 4.3324759591042579 0 4.3324759591042579 1.7365910074703379 0 0 0 0 66.441212101901328 1.6674271849279449 0 1.6674271849279449 -0.80637485391424946 0 0 0 0 68.835431566163606 5.5477224898226041 0 5.5477224898226041 20.151493437324191 0 0 0 0 68.332551618124739 7.8580618463984564 0 7.8580618463984564 11.2243633813153 0 0 0 0 85.084325969623023 4.6990945694163031 0 4.6990945694163031 10.1518077679507 0 0 0 0 68.59730572732019 5.1957984572138169 0 5.1957984572138169 4.1338765963317599 0 0 0 0 66.756954887557185 10.327781316091517 0 10.327781316091517 10.143158642955967 0 0 0 0 1.1332286108144558 -2.1071011319714756 0 -2.1071011319714756 4.2913112564947262 0 0 0 0 91.326541632886801 18.546558545554483 0 18.546558545554483 5.7908464058996003 0 0 0 0 -14.634910453154589 -17.325230636376546 0 -17.325230636376546 -6.6054534373969318 0 0 0 0 69.172519662633931 10.127275121346642 0 10.127275121346642 -2.064684047919684 0 0 0 0 65.374084801613208 -0.87343795132164814 0 -0.87343795132164814 -6.8657239061068367 0 0 0 0 54.48176032329502 3.1305402306719685 0 3.1305402306719685 -3.4156186611980957 0 0 0 0 75.122519109965651 3.3866418863189196 0 3.3866418863189196 -5.5337857303245528 0 0 0 0 63.507341243515839 -12.982477949794486 0 -12.982477949794486 -4.9234673510925404 0 0 0 0 68.523588932632265 11.28097557616573 0 11.28097557616573 -3.4989361599298974 0 0 0 0 80.083044794471789 3.9975593787013963 0 3.9975593787013963 -11.385794533699425 0 0 0 0 83.643584930272482 21.428949296819553 0 21.428949296819553 3.1954266666462559 0 0 0 0 69.011032919785066 23.496281933337201 0 23.496281933337201 9.5923805626328971 0 0 0 0 65.645940839011018 18.984822537059713 0 18.984822537059713 8.9279130944028111 0 0 0 0 59.123284363932726 12.482691290354147 0 12.482691290354147 3.1240742967780193 0 0 0 0 60.809305420745659 7.9376862588380988 0 7.9376862588380988 13.114343818780043 0 0 0 0 64.690089269144664 8.3195131714478237 0 8.3195131714478237 -3.6954007894163681 0 0 0 0 64.294076725978812 8.1594964630766285 0 8.1594964630766285 2.1531335309354205 0 0 0 0 63.26164011822766 6.6906219000370868 0 6.6906219000370868 4.8710994609822862 0 0 0 0 62.597072756267153 1.9295931878201387 0 1.9295931878201387 -2.5730844030058666 0 0 0 0 61.22103431965661 4.1240320276562557 0 4.1240320276562557 -4.2434929993376471 0 0 0 0 62.555768135442122 3.1696978227302353 0 3.1696978227302353 -6.6510405660881133 0 0 0 0 51.950589298532577 0.43002873573320244 0 0.43002873573320244 -3.832384727121287 0 0 0 0 50.148284335498829 3.7150984531164966 0 3.7150984531164966 -6.4052785478797745 0 0 0 0 40.642400398352038 -3.7923424755984385 0 -3.7923424755984385 -1.0613669018191807 0 0 0 0 34.73776022920174 4.0493459308158961 0 4.0493459308158961 -3.747219198385082 0 0 0 0 36.547396720830875 1.2587891354868646 0 1.2587891354868646 -1.89917502127917 0 0 0 0 22.476014963776834 -3.0022177037974913 0 -3.0022177037974913 1.9324257425729741 0 0 0 0 17.819507079477717 5.905972517877295 0 5.905972517877295 -1.2573042070913445 0 0 0 0 18.086606546679832 0.65808402312633518 0 0.65808402312633518 3.500157963375031 0 0 0 0 17.894375496305656 -0.1689938683298422 0 -0.1689938683298422 0.10362512034757287 0 0 0 0 50.359184632719916 -7.6279271661268773 0 -7.6279271661268773 -2.7681865352035686 0 0 0 0 34.060682781229843 -3.7299604763074115 0 -3.7299604763074115 -0.88916641560537357 0 0 0 0 30.245215821422789 -4.8460992266439593 0 -4.8460992266439593 1.3187315881051518 0 0 0 0 29.306771900199237 -8.8290598669391613 0 -8.8290598669391613 4.8930241717943659 0 0 0 0 48.638098348841595 -3.6067793371631183 0 -3.6067793371631183 -2.4019340390720565 0 0 0 0 25.797681880085293 -11.436437083976188 0 -11.436437083976188 3.2067022376371028 0 0 0 0 49.766788125260064 -16.269586929178587 0 -16.269586929178587 1.1315991323617709 0 0 0 0 50.344582736994198 -18.784922200547271 0 -18.784922200547271 -5.0381081978175359 0 0 0 0 13.868556933566651 0.1226255433156922 0 0.1226255433156922 2.7223622926882172 0 0 0 0 29.436012538095383 -10.234090260800428 0 -10.234090260800428 -1.5691315606266016 0 0 0 0 12.27723527476337 -7.5624402790250826 0 -7.5624402790250826 -5.3712226034995751 0 0 0 0 12.661897225294524 -25.667543252156037 0 -25.667543252156037 -6.2258844208690647 0 0 0 0 8.7674089552056103 -7.049326115286874 0 -7.049326115286874 -2.0550570299430717 0 0 0 0 33.390891773648036 -40.865390688873191 0 -40.865390688873191 -14.291948371493959 0 0 0 0 10.290250522406495 5.2265191083814599 0 5.2265191083814599 0.62722818631590371 0 0 0 0 15.506596200557397 -0.1747563421123175 0 -0.1747563421123175 -1.3261972990376307 0 0 0 0 8.4697240986351972 3.2130484657889724 0 3.2130484657889724 -2.8637505988314729 0 0 0 0 9.7964926014310549 3.1346886996760759 0 3.1346886996760759 -6.2129369975299369 0 0 0 0 6.9882506888898206 0.33349216055590603 0 0.33349216055590603 -5.0223110110347307 0 0 0 0 3.6630762000058894 -1.2530555420661926 0 -1.2530555420661926 -6.9775272186442443 0 0 0 0 -13.828391919769274 -0.55291463774776162 0 -0.55291463774776162 -1.1216456196274862 0 0 0 0 0.36380860683893701 -0.36919517036242766 0 -0.36919517036242766 0.23246354493913457 0 0 0 0 -11.782668095953341 -29.395947550406504 0 -29.395947550406504 -1.7004628819817071 0 0 0 0 -2.4655325839376019 -7.5771748995813937 0 -7.5771748995813937 -4.5514888642679807 0 0 0 0 4.4158384438378562 3.1053618782135288 0 3.1053618782135288 -7.1395830435398011 0 0 0 0 109.8992000564067 36.160602768659146 0 36.160602768659146 2.6012222642737584 0 0 0 0 0.2285270543185689 0.046983702339229438 0 0.046983702339229438 0.10177948582935314 0 0 0 0 182.4336585448209 78.622911848992032 0 78.622911848992032 -10.251206850366714 0 0 0 0 135.15918175723527 16.272738859987186 0 16.272738859987186 -1.1993557505829813 0 0 0 0 86.892124654896179 32.166380032748734 0 32.166380032748734 17.532719015202872 0 0 0 0 200.32275130757262 -5.5146870790545961 0 -5.5146870790545961 28.424892860190539 0 0 0 0 97.374655975636415 -10.568203313537978 0 -10.568203313537978 40.927701119637163 0 0 0 0 88.812850795401573 38.322810899289244 0 38.322810899289244 16.773352184687383 0 0 0 0 69.064493937872612 23.83447409254245 0 23.83447409254245 6.5061711686719264 0 0 0 0 94.921252519461632 24.510514301860795 0 24.510514301860795 -10.88692414737568 0 0 0 0 113.56424913723458 15.814409489270872 0 15.814409489270872 -7.2620104706537632 0 0 0 0 56.941472376936872 -9.5959208083676231 0 -9.5959208083676231 -3.8089272606848255 0 0 0 0 81.77192752540941 -23.768991360054969 0 -23.768991360054969 -15.218272895643054 0 0 0 0 61.323073667705103 -41.791589517511028 0 -41.791589517511028 -16.102851512108828 0 0 0 0 147.81164739432279 -20.67171201978374 0 -20.67171201978374 -17.623668342412628 0 0 0 0 148.64919084639405 48.954962639601717 0 48.954962639601717 -5.4597249139977748 0 0 0 0 87.761728534751455 -0.63429429386167158 0 -0.63429429386167158 22.383238033608052 0 0 0 0 49.163990825458313 2.4727809250723851 0 2.4727809250723851 7.0323731761435226 0 0 0 0 33.38585568821145 26.678986519647864 0 26.678986519647864 22.238017721093911 0 0 0 0 87.157936970535957 14.053147706763582 0 14.053147706763582 -0.018822701718875123 0 0 0 0 69.893479892123651 16.777841245734926 0 16.777841245734926 -4.7568801701134475 0 0 0 0 10.700217498926577 20.706494998899473 0 20.706494998899473 31.818882803319411 0 0 0 0 0.15593664449727918 0.15448872686761206 0 0.15448872686761206 -0.43700876502305908 0 0 0 0 71.237045091690561 20.419710456732204 0 20.419710456732204 14.14781811289663 0 0 0 0 93.248450344039156 18.289523326307119 0 18.289523326307119 -12.286137060928553 0 0 0 0 -0.54001157401481237 -0.25859958805632388 0 -0.25859958805632388 -1.7978727431694375 0 0 0 0 13.471769959411176 4.9053164146307608 0 4.9053164146307608 10.124052978721124 0 0 0 0 20.023497050038713 5.5869601934526365 0 5.5869601934526365 10.49454252417334 0 0 0 0 67.197694028240221 -13.625116845842902 0 -13.625116845842902 -13.423246922467984 0 0 0 0 111.0753568365526 19.755274666065297 0 19.755274666065297 -11.244229350419204 0 0 0 0 0.25166301071103447 -0.035846010564757336 0 -0.035846010564757336 0.15335930658111971 0 0 0 0 93.659963839429111 1.1737781534045482 0 1.1737781534045482 11.043794271609734 0 0 0 0 67.643167135910176 21.201349316094952 0 21.201349316094952 4.1830764069646023 0 0 0 0 56.096570586570579 18.701027459784669 0 18.701027459784669 17.573594956808975 0 0 0 0 102.61748968883148 24.689730835802763 0 24.689730835802763 -6.8880387015694993 0 0 0 0 58.867201161074263 5.0188634601090172 0 5.0188634601090172 -18.127189080988998 0 0 0 0 -9.1774096876979456 13.186559649508808 0 13.186559649508808 3.0784982289709433 0 0 0 0 5.1769680802460032 0.72425955474484383 0 0.72425955474484383 -4.5075077941624775 0 0 0 0 26.636353946647432 26.805777634606045 0 26.805777634606045 -14.578655171874743 0 0 0 0 29.941469619421696 6.1510653366036649 0 6.1510653366036649 -16.768329507704948 0 0 0 0 16.79728319320202 -9.4616569926960565 0 -9.4616569926960565 -3.0305471221559515 0 0 0 0 53.715435734953644 2.006808784632625 0 2.006808784632625 -18.298570669203457 0 0 0 0 53.443804312883003 6.4201629684488637 0 6.4201629684488637 -3.9215388472191535 0 0 0 0 77.479816155901062 -3.2115446911404923 0 -3.2115446911404923 -6.0246130026612192 0 0 0 0 62.184352957847295 -8.8508962778310547 0 -8.8508962778310547 -21.16052468279122 0 0 0 0 64.647225753995372 0.27733679208347439 0 0.27733679208347439 -40.857291996928666 0 0 0 0 165.02067681835251 -116.26648076322272 0 -116.26648076322272 62.501199561948852 0 0 0 0 22.941501904748293 -58.46822929809025 0 -58.46822929809025 -26.043040965572686 0 0 0 0 8.0873274369951105 111.77641435787007 0 111.77641435787007 29.750193351002736 0 0 0 0 63.019968369846538 -9.969921008200572 0 -9.969921008200572 -20.113971558612775 0 0 0 0 2.547576337195423 1.5603094137526092 0 1.5603094137526092 1.1252809263603099 0 0 0 0 61.391675215818395 -33.331295290880917 0 -33.331295290880917 -37.988503994202574 0 0 0 0 29.776823627583294 4.7657965178128787 0 4.7657965178128787 -7.9993477114731437 0 0 0 0 19.616114497189301 24.776577316290513 0 24.776577316290513 37.163395073072024 0 0 0 0 88.670760705332214 -26.891321925197019 0 -26.891321925197019 -42.044956440599492 0 0 0 0 41.04298244256097 9.159051268330586 0 9.159051268330586 27.441806924483672 0 0 0 0 34.955102526530027 18.597014923926508 0 18.597014923926508 30.796208318486151 0 0 0 0 59.419817908885307 44.22777337052139 0 44.22777337052139 23.594749730329085 0 0 0 0 71.502815680776621 14.55570802619053 0 14.55570802619053 -9.3702147291487563 0 0 0 0 36.88645136490959 25.795737392504918 0 25.795737392504918 -7.3396582943370845 0 0 0 0 50.237461660344479 5.9053841334978614 0 5.9053841334978614 -23.38900457390514 0 0 0 0 -27.076470226174933 -11.011007038304172 0 -11.011007038304172 -0.83177447724142439 0 0 0 0 46.719611398584675 -29.867611759123179 0 -29.867611759123179 0.34159056707426316 0 0 0 0 22.779013158396992 -25.766941160833028 0 -25.766941160833028 26.587926132152688 0 0 0 0 59.886985440676654 23.447386495354635 0 23.447386495354635 -22.559673147380522 0 0 0 0 0.22027954090169466 -0.17169026060751591 0 -0.17169026060751591 -0.0010852899844855379 0 0 0 0 97.833804064903234 20.019339136743682 0 20.019339136743682 -9.8752257331299731 0 0 0 0 53.135802680638335 17.27457340312403 0 17.27457340312403 81.081873909012344 0 0 0 0 90.93977804471433 53.039409768918944 0 53.039409768918944 -0.96850068297123926 0 0 0 0 58.805794180412249 17.462560839252646 0 17.462560839252646 22.596060621094807 0 0 0 0 45.321377142063284 59.900943667926811 0 59.900943667926811 79.560939538656768 0 0 0 0 0.084880612532565181 -0.065308584067260256 0 -0.065308584067260256 0.37982640814529423 0 0 0 0 113.35406706122649 -8.074858654556337 0 -8.074858654556337 15.749527029743705 0 0 0 0 18.810753168259907 2.2297666001998948 0 2.2297666001998948 -2.374342307171446 0 0 0 0 42.380638617090881 42.017509213028774 0 42.017509213028774 31.74808416513882 0 0 0 0 0.10406666644381346 1.3026620520118897 0 1.3026620520118897 -0.30575938716984996 0 0 0 0 3.5022908464340858 2.2165459945367161 0 2.2165459945367161 -2.1292211322192429 0 0 0 0 6.9264548340229339 -5.1761308851046834 0 -5.1761308851046834 -2.6910766296369388 0 0 0 0 11.006992747563345 -1.9240336121247736 0 -1.9240336121247736 -3.2181941526376363 0 0 0 0 7.1403506522110547 -3.5894044283331539 0 -3.5894044283331539 -4.4639410362347007 0 0 0 0 102.37600477206797 39.181728980599459 0 39.181728980599459 -19.820610265021543 0 0 0 0 1.5990918530124425 -1.2915175160651664 0 -1.2915175160651664 0.78260975804611355 0 0 0 0 93.445304844093698 16.657248613828195 0 16.657248613828195 51.952490592948379 0 0 0 0 -0.6060273490693362 4.8857017526975994 0 4.8857017526975994 -9.295085472587914 0 0 0 0 4.4198017386734136 -0.36608061563930505 0 -0.36608061563930505 -7.9280081138246032 0 0 0 0 6.4197895462939414 -4.3572766889167127 0 -4.3572766889167127 -1.6205762986822947 0 0 0 0 5.5861094347083053 2.1035784499199863 0 2.1035784499199863 -2.4399885140682613 0 0 0 0 8.0811559540816233 0.11461891643301669 0 0.11461891643301669 0.20352085991615493 0 0 0 0 10.33192707771741 -3.8466715475663591 0 -3.8466715475663591 -5.9845521506519503 0 0 0 0 0.21446010661540349 -0.72465001642466831 0 -0.72465001642466831 0.9191948956445386 0 0 0 0 -0.69973551203247553 -6.032095529932576 0 -6.032095529932576 -2.1359613131804167 0 0 0 0 11.544083206859796 1.1603017219210301 0 1.1603017219210301 -1.0596233754209408 0 0 0 0 10.380660846987666 0.95648862668456047 0 0.95648862668456047 -3.0880498756572123 0 0 0 0 21.261410315030389 -1.6596341536324175 0 -1.6596341536324175 -6.6042683127939767 0 0 0 0 -8.8734388663324353 -15.960818352121677 0 -15.960818352121677 -5.698244381134117 0 0 0 0 11.089432726689665 -0.7214463256775332 0 -0.7214463256775332 0.87668202291801833 0 0 0 0 32.436589428556545 10.031145614632337 0 10.031145614632337 -2.7331592625458825 0 0 0 0 64.080821697583815 -7.4322665682157112 0 -7.4322665682157112 2.4881694295853052 0 0 0 0 56.824781092298508 -12.903212873209943 0 -12.903212873209943 1.3709670066005408 0 0 0 0 57.554460803876736 -12.366337113211788 0 -12.366337113211788 1.7236727085929218 0 0 0 0 0.31222105645179532 -0.59288124526969099 0 -0.59288124526969099 0.64984562345295815 0 0 0 0 56.408625973368544 -8.19020336006934 0 -8.19020336006934 -0.90691630652662525 0 0 0 0 41.008658916016429 3.1168119246952557 0 3.1168119246952557 7.3615764981856344 0 0 0 0 26.604482523394381 -9.0901995148218653 0 -9.0901995148218653 1.9006362638727836 0 0 0 0 46.821320199935371 -12.039371767665159 0 -12.039371767665159 -7.2866397545890322 0 0 0 0 88.063895686676915 -27.308435816359719 0 -27.308435816359719 -7.2959142832382469 0 0 0 0 30.093159987545732 -27.834098002241973 0 -27.834098002241973 25.422505556007934 0 0 0 0 37.204103995638434 -29.123409290689892 0 -29.123409290689892 -3.6081466752788742 0 0 0 0 16.959729598100239 -1.7295174264093873 0 -1.7295174264093873 1.631954095490272 0 0 0 0 12.054554469179493 -9.0740861921645717 0 -9.0740861921645717 7.7059373908939364 0 0 0 0 47.41529815214426 -8.5047849482000029 0 -8.5047849482000029 -1.6367805173439365 0 0 0 0 16.617117435322143 3.4545785860753995 0 3.4545785860753995 3.7790392716585721 0 0 0 0 2.5355042125784166 -6.1253538876741089 0 -6.1253538876741089 7.5197955043390721 0 0 0 0 1.378281864685885 -0.82779502095095481 0 -0.82779502095095481 0.84731138871987155 0 0 0 0 3.608603916493859 2.1623134615303776 0 2.1623134615303776 -2.3155809470412709 0 0 0 0 8.1933104916442971 -3.500158634917824 0 -3.500158634917824 0.19471645014187927 0 0 0 0 8.9621510974948251 3.6839168118775092 0 3.6839168118775092 -3.3895103012656875 0 0 0 0 9.5743867878600213 3.4710961599275834 0 3.4710961599275834 -3.4343851315057066 0 0 0 0 1.8964272321791213 2.2512373272786661 0 2.2512373272786661 1.3895942212719063 0 0 0 0 0.98630726372731736 0.69815166040554644 0 0.69815166040554644 -1.288559706551764 0 0 0 0 1.962068084047889 1.3860792798577322 0 1.3860792798577322 -0.54823574952270959 0 0 0 0 14.035756210573936 0.6666619688369515 0 0.6666619688369515 -3.1233725524709826 0 0 0 0 -3.1197836798073695 6.1156733934375893 0 6.1156733934375893 1.8097045094609996 0 0 0 0 2.8996619226418261 0.62395998277337128 0 0.62395998277337128 -0.51639497381332333 0 0 0 0 5.4045974847485923 1.176554171362298 0 1.176554171362298 -0.79987428216662693 0 0 0 0 10.67001220639213 5.7785246130151933 0 5.7785246130151933 -0.03319162725981073 0 0 0 0 5.5389758383662411 -1.1671525942185603 0 -1.1671525942185603 2.0608720891297354 0 0 0 0 4.8440278136786219 1.5217036070766756 0 1.5217036070766756 -0.97142136913324251 0 0 0 0 -0.38637369918649789 0.60234236343855585 0 0.60234236343855585 -0.59367995224473935 0 0 0 0 2.4518594306373416 0.07125458530678408 0 0.07125458530678408 -1.2789830574228063 0 0 0 0 2.4559259762736474 1.2135707515280316 0 1.2135707515280316 -0.86313840186448942 0 0 0 0 2.2172790999150997 0.73003234193339139 0 0.73003234193339139 -1.1555432088187489 0 0 0 0 8.7314415528835525 -2.2633473450993904 0 -2.2633473450993904 -13.609561339286472 0 0 0 0 206.71189658545336 55.278715541888133 0 55.278715541888133 4.2618261421636898 0 0 0 0 -58.086615952872307 74.356332991329523 0 74.356332991329523 148.35505197288512 0 0 0 0 -6.7207966785281315 -44.411521863503111 0 -44.411521863503111 -15.968518772669807 0 0 0 0 2.6478589851815642 -1.2094703087688892 0 -1.2094703087688892 0.77790868890144738 0 0 0 0 0.73642151660101263 6.107270430642366 0 6.107270430642366 7.6790453805850802 0 0 0 0 4.7375542699137441 6.5554062198783072 0 6.5554062198783072 -1.8529077312747972 0 0 0 0 8.7592121805391798 -7.0354117273643055 0 -7.0354117273643055 0.60336059033471656 0 0 0 0 6.0714835633443727 1.4905121912724439 0 1.4905121912724439 -9.2038825391233559 0 0 0 0 6.3791671022001992 -1.5088835409948249 0 -1.5088835409948249 -7.2770825142887361 0 0 0 0 -5.007769402825943 22.808832412384383 0 22.808832412384383 -0.050017461305230881 0 0 0 0 4.3579220235569665 0.37310748059124421 0 0.37310748059124421 -7.1589004698259657 0 0 0 0 0.36026504051324437 0.38527770120708027 0 0.38527770120708027 0.39003813500374285 0 0 0 0 35.524527597118094 33.770867797346988 0 33.770867797346988 2.3383308237311269 0 0 0 0 35.095429296152361 27.00771870201595 0 27.00771870201595 6.3807334664517725 0 0 0 0 1.3426593349359415 0.93612181917887582 0 0.93612181917887582 0.98650577196041689 0 0 0 0 2.1323631212984537 0.34801484529128679 0 0.34801484529128679 -0.98038998853488935 0 0 0 0 3.2275526231919685 2.5416573308989925 0 2.5416573308989925 -3.564328242553529 0 0 0 0 2.6931157137732953 4.2774624525183071 0 4.2774624525183071 -7.6906277194685799 0 0 0 0 2.5085665760974507 1.3612295263375245 0 1.3612295263375245 0.036004275616853931 0 0 0 0 2.9586640915185853 -1.3732664837932873 0 -1.3732664837932873 -5.8043080792068906 0 0 0 0 3.653531328155168 1.4416336545130681 0 1.4416336545130681 0.019819139927506058 0 0 0 0 2.5684170161548536 0.62163895213103615 0 0.62163895213103615 0.011821311448102279 0 0 0 0 3.5835046724132553 0.78340427831450299 0 0.78340427831450299 -0.55281082198061071 0 0 0 0 3.3824477465950622 -0.91446146046490107 0 -0.91446146046490107 3.8443865540503879 0 0 0 0 1.7683877000599963 -0.048088912408321249 0 -0.048088912408321249 -1.0628020982568278 0 0 0 0 0.016210426047814863 0.48406189653281118 0 0.48406189653281118 -0.12021526282259733 0 0 0 0 0.067316656597540714 -3.659356922265431 0 -3.659356922265431 -5.8582993702494974 0 0 0 0 0.9691972471926249 -0.25717169304375709 0 -0.25717169304375709 -0.85409304802768793 0 0 0 0 0.31020746666361987 0.14931531756633731 0 0.14931531756633731 0.052824812993045839 0 0 0 0 2.9442130089446437 1.3341778104586695 0 1.3341778104586695 0.83636452136511252 0 0 0 0 -2.4296537682839698 -2.3909053860393064 0 -2.3909053860393064 -5.5403644644961787 0 0 0 0 -2.514012146896107 -5.2852551325127521 0 -5.2852551325127521 -4.575914637353776 0 0 0 0 1.223226703852994 0.20674300050386663 0 0.20674300050386663 -0.15446981400624343 0 0 0 0 1.041961249356973 0.3732080203057615 0 0.3732080203057615 -0.087820021595922171 0 0 0 0 1.182153451463563 -0.029970769283981014 0 -0.029970769283981014 -1.0029795181456764 0 0 0 0 2.904600628578919 -3.4711312270046051 0 -3.4711312270046051 -5.8478442131317365 0 0 0 0 5.8124896248166351 -5.0691279496413362 0 -5.0691279496413362 -6.951881553107512 0 0 0 0 6.1748341316269943 -1.9399411821170816 0 -1.9399411821170816 -7.5425466757479569 0 0 0 0 0.40909779510911903 -4.926581868839321 0 -4.926581868839321 -5.9649388092501852 0 0 0 0 8.3845920635103539 -5.2219881712485972 0 -5.2219881712485972 -7.6586361790238584 0 0 0 0 14.002974807133796 0.78438952473314316 0 0.78438952473314316 -6.3906682633572132 0 0 0 0 8.6362477681359451 -5.4891266190695234 0 -5.4891266190695234 -8.2000740319990655 0 0 0 0 -6.1998761129461855 -2.6351767343011474 0 -2.6351767343011474 -4.3789262667741014 0 0 0 0 -5.7911708087722218 -4.2613961590910208 0 -4.2613961590910208 -4.669702368364824 0 0 0 0 0.2271835779902176 -6.692894581780223 0 -6.692894581780223 -5.910458616944311 0 0 0 0 0.65237041056388989 -6.0360893862410876 0 -6.0360893862410876 -7.2546211531835354 0 0 0 0 -6.2386749985887491 -8.5689825288665258 0 -8.5689825288665258 -5.6698699018381831 0 0 0 0 -6.365737554810039 -7.3136609627618441 0 -7.3136609627618441 -5.1495301012868993 0 0 0 0 0.70693692287750309 -8.8090058482503082 0 -8.8090058482503082 -7.4656465192261976 0 0 0 0 -2.8507513776421547 -6.3384664654860785 0 -6.3384664654860785 -6.6306665122557717 0 0 0 0 0.57304056526299973 -9.5864708290475562 0 -9.5864708290475562 -7.002794378033002 0 0 0 0 -8.187354092951864 -11.735935301897861 0 -11.735935301897861 -3.6559200389610567 0 0 0 0 9.5254302349167119 -3.5223284881606105 0 -3.5223284881606105 -6.8855878775314494 0 0 0 0 10.580080102845386 -7.4189835907679651 0 -7.4189835907679651 -8.9402084769135683 0 0 0 0 13.317170889538829 -7.3386685432815142 0 -7.3386685432815142 -8.8965932710701523 0 0 0 0 18.002796686709189 -5.3562578747654328 0 -5.3562578747654328 -8.5296017968275919 0 0 0 0 19.186240428567544 3.2115731319863468 0 3.2115731319863468 -6.402956967892294 0 0 0 0 15.32384176315918 0.35503135425938126 0 0.35503135425938126 -8.1019543818035515 0 0 0 0 22.834033836559684 7.2652804252959271 0 7.2652804252959271 -6.2399611460633171 0 0 0 0 8.7549992892866157 3.1115429964897352 0 3.1115429964897352 -5.5292561470726014 0 0 0 0 9.2185630873864284 -3.099822078803669 0 -3.099822078803669 -7.4212190505033391 0 0 0 0 45.154931943636257 32.179276700942751 0 32.179276700942751 0.091067563515821348 0 0 0 0 43.769226274940593 13.075720199712016 0 13.075720199712016 -8.4076793008613322 0 0 0 0 19.591945220195157 16.604239197552474 0 16.604239197552474 -5.4427145193437809 0 0 0 0 37.723647445413008 -5.1943067286867803 0 -5.1943067286867803 0.030309105086903078 0 0 0 0 55.974476952677833 13.977673432394965 0 13.977673432394965 -6.7454369119936644 0 0 0 0 32.473107176810572 12.842506772228266 0 12.842506772228266 -5.4682092259505168 0 0 0 0 39.424741585055017 4.7923285842685885 0 4.7923285842685885 -9.4442684196488926 0 0 0 0 32.639349455759657 3.4727261715107804 0 3.4727261715107804 1.3644568756104114 0 0 0 0 0.38532462832864312 -0.16125762385872022 0 -0.16125762385872022 -0.22254429497479167 0 0 0 0 0.205861239387648 -0.068695613601935435 0 -0.068695613601935435 -0.09198308652709819 0 0 0 0 37.944935964823344 -21.261931335305242 0 -21.261931335305242 -19.249698308025348 0 0 0 0 82.518420174143102 26.767684042084571 0 26.767684042084571 1.5136442550430758 0 0 0 0 37.690917870957492 -7.6890341814114365 0 -7.6890341814114365 -2.334546839934049 0 0 0 0 11.795681221501582 -4.3651425580518071 0 -4.3651425580518071 0.98550642622733708 0 0 0 0 3.5443314020697017 0.43357410849568812 0 0.43357410849568812 0.90755161606178802 0 0 0 0 15.692572125444713 -14.374008380685908 0 -14.374008380685908 -5.1231714938841009 0 0 0 0 35.419651684520431 4.8801112877751862 0 4.8801112877751862 -6.1989332672563222 0 0 0 0 20.74694180791812 -3.7902591434355841 0 -3.7902591434355841 -7.4409602779193449 0 0 0 0 12.465797024029598 -2.6756974772666808 0 -2.6756974772666808 -4.7715896758393441 0 0 0 0 -2.2219263284878252 -13.231618775862827 0 -13.231618775862827 -3.9181210619684919 0 0 0 0 -2.9024054776509729 -5.6121757005747668 0 -5.6121757005747668 -4.9069585041514188 0 0 0 0 -9.9040497677160602 -5.1848825959528995 0 -5.1848825959528995 -6.7084179688466179 0 0 0 0 0.016015762381270449 -0.05959584534536333 0 -0.05959584534536333 -0.71730818943308194 0 0 0 0 -30.214866031219572 -13.396690490043071 0 -13.396690490043071 0.56154785611477109 0 0 0 0 11.750968202391959 -2.2403528359438596 0 -2.2403528359438596 -5.7978111488297586 0 0 0 0 61.082136031346636 -0.79391780306095028 0 -0.79391780306095028 0.0086905377307764584 0 0 0 0 -16.603677267219609 -18.481606236476296 0 -18.481606236476296 -7.0436138763618246 0 0 0 0 -5.8946590222112718 -13.425905445193482 0 -13.425905445193482 -10.160987161400683 0 0 0 0 -7.3972938558654278 -4.5847827603683386 0 -4.5847827603683386 4.8867152767467239 0 0 0 0 23.548388815606813 -13.409937818740492 0 -13.409937818740492 7.2420092987642235 0 0 0 0 0.0061778502056188955 -0.025055076933966802 0 -0.025055076933966802 -0.21165191578260717 0 0 0 0 -41.100903787242714 -15.292711627805566 0 -15.292711627805566 -0.86951937457447936 0 0 0 0 -3.3533098644938946 -19.662767849560002 0 -19.662767849560002 -10.197532009101252 0 0 0 0 19.986705146764507 -3.712606475878895 0 -3.712606475878895 -6.3519516039664463 0 0 0 0 20.972103904943708 -20.106932245200113 0 -20.106932245200113 -3.9880037336926097 0 0 0 0 70.128720257980603 4.1319697542129603 0 4.1319697542129603 2.0725494361721877 0 0 0 0 65.934245309077596 -6.9654085186022776 0 -6.9654085186022776 18.484996392662111 0 0 0 0 89.401517362764935 -0.29315466441356719 0 -0.29315466441356719 8.6853297776211136 0 0 0 0 0.24093307331815339 -0.13428049855777857 0 -0.13428049855777857 0.083193881767260169 0 0 0 0 94.593053763524949 32.688180598891861 0 32.688180598891861 11.718483582594217 0 0 0 0 66.793629506151774 6.5756663220645404 0 6.5756663220645404 7.1681961992193628 0 0 0 0 67.74377965820895 6.4719585505258763 0 6.4719585505258763 -4.7874971697434665 0 0 0 0 73.500473589151625 6.144312790010229 0 6.144312790010229 -4.7719843206503931 0 0 0 0 54.058648486057791 9.570530934687298 0 9.570530934687298 -2.3186612896876966 0 0 0 0 54.630570738099777 11.384607163927718 0 11.384607163927718 -3.0836945530863353 0 0 0 0 70.557557601530789 13.60356666085219 0 13.60356666085219 -3.8332382298993011 0 0 0 0 48.445283214246956 21.321909634469527 0 21.321909634469527 10.166872027571735 0 0 0 0 41.046922530375014 15.052603231621324 0 15.052603231621324 5.006613139177837 0 0 0 0 0.50893431938810352 -0.37677685903716096 0 -0.37677685903716096 0.20994880047717907 0 0 0 0 42.030027861641429 12.082331955868 0 12.082331955868 5.6888105434400131 0 0 0 0 -6.0936451412962924 -4.1729857514761619 0 -4.1729857514761619 2.738683364103295 0 0 0 0 -15.472280489146215 -1.9837253903919532 0 -1.9837253903919532 -7.9206338805760765 0 0 0 0 12.54675291591002 -3.8222661515584733 0 -3.8222661515584733 0.53981108246222931 0 0 0 0 0.37486288414537228 0.10068527586954445 0 0.10068527586954445 -1.2450565179408544 0 0 0 0 0.64050233057916373 -0.56757153615218314 0 -0.56757153615218314 0.11739780619972906 0 0 0 0 7.0273385242689983 -2.5841880328637359 0 -2.5841880328637359 -4.6137783795220315 0 0 0 0 -10.488740628663436 -7.2134436562635642 0 -7.2134436562635642 -2.8884438580369647 0 0 0 0 47.83916421865797 18.460468490856961 0 18.460468490856961 2.7956992420662239 0 0 0 0 21.920301959980861 19.617970504948072 0 19.617970504948072 5.6987517033685648 0 0 0 0 38.699097762695601 11.711829511117372 0 11.711829511117372 1.6547316519482536 0 0 0 0 38.075995647535819 10.158978646612351 0 10.158978646612351 1.8422483909340741 0 0 0 0 46.627336196474062 5.8922064208071916 0 5.8922064208071916 -3.2406652508969529 0 0 0 0 29.02940077070707 5.1868888516775478 0 5.1868888516775478 1.321422168102508 0 0 0 0 35.646341897481761 8.0708398291219012 0 8.0708398291219012 -1.7881045367553838 0 0 0 0 38.957667338359897 2.5860264533189152 0 2.5860264533189152 -2.8539251829530343 0 0 0 0 47.295224035673527 8.3865681730337904 0 8.3865681730337904 -3.681990182843677 0 0 0 0 0.022055284993257374 -0.23421986068906619 0 -0.23421986068906619 -0.14310677691800322 0 0 0 0 27.534881912855781 8.4729255069540379 0 8.4729255069540379 0.88879400038698009 0 0 0 0 0.059046314176491421 -0.014079532722659494 0 -0.014079532722659494 -0.049240757764418656 0 0 0 0 15.40962103172933 10.553889007593234 0 10.553889007593234 2.11693267827971 0 0 0 0 19.546296270473249 -1.0867870433368694 0 -1.0867870433368694 -3.6587946571502989 0 0 0 0 26.351775049804928 1.3411849108277174 0 1.3411849108277174 -1.4543689263681898 0 0 0 0 27.245043161428839 6.4207511735672398 0 6.4207511735672398 -2.7552355090950726 0 0 0 0 41.65550177651312 6.209066380491393 0 6.209066380491393 -4.7893415356982594 0 0 0 0 33.498665500683273 -0.61156847627799849 0 -0.61156847627799849 -1.54843487419474 0 0 0 0 46.344078197322233 0.44437257698729482 0 0.44437257698729482 -4.0330831529309279 0 0 0 0 60.66966344235334 4.9167475920352928 0 4.9167475920352928 -7.0702084327772496 0 0 0 0 56.704229809591197 2.1464677801465726 0 2.1464677801465726 -5.9691709638699173 0 0 0 0 52.893783718283885 6.000268882817366 0 6.000268882817366 -6.7233266490332539 0 0 0 0 66.5556039734156 1.6340079592851033 0 1.6340079592851033 -6.3661062940637692 0 0 0 0 65.755477309934577 4.4922675551083309 0 4.4922675551083309 -7.0871999992713341 0 0 0 0 64.819002693616312 4.3756941834989771 0 4.3756941834989771 -8.6969550274115477 0 0 0 0 60.793947927330009 3.6422872057279747 0 3.6422872057279747 -6.9719249366831768 0 0 0 0 63.691975390462176 3.0671238264792464 0 3.0671238264792464 -7.3082604994305882 0 0 0 0 64.020458919845169 6.4674728446122263 0 6.4674728446122263 -7.3906686687639791 0 0 0 0 52.439553160345895 3.1558786753964476 0 3.1558786753964476 -5.9015277801998849 0 0 0 0 58.163471202558867 7.493248281603492 0 7.493248281603492 -7.4438491065268817 0 0 0 0 65.078751345703495 -1.3882140504930263 0 -1.3882140504930263 -10.022295447689906 0 0 0 0 60.280602389160777 0.034737722498171308 0 0.034737722498171308 -8.7060640874910291 0 0 0 0 56.083938703537569 -2.1753857185789514 0 -2.1753857185789514 -5.9228081554448551 0 0 0 0 66.960878926509395 2.0618042376763164 0 2.0618042376763164 -7.2418014882546231 0 0 0 0 67.889959575273679 1.3604001785923288 0 1.3604001785923288 -9.9407750239319945 0 0 0 0 71.045637463758794 2.1550885824521977 0 2.1550885824521977 -10.330090804506 0 0 0 0 65.034016693960439 0.6674515371776053 0 0.6674515371776053 -5.0876486794428217 0 0 0 0 65.828031735501099 3.1418415150250691 0 3.1418415150250691 -3.1380904112426435 0 0 0 0 54.811085514738807 5.4564199407150227 0 5.4564199407150227 2.9986401661236641 0 0 0 0 50.705907886376735 5.4791161361022063 0 5.4791161361022063 3.0108882761527127 0 0 0 0 54.993928937634337 9.9071102050651092 0 9.9071102050651092 6.8744982073040433 0 0 0 0 0.77566087904206071 -3.918620832178604 0 -3.918620832178604 6.5293327229761102 0 0 0 0 -77.081669897117536 -3.075226474946362 0 -3.075226474946362 -5.4954867351132464 0 0 0 0 3.9099302792472557 -4.70216487954238 0 -4.70216487954238 0.87755713972119187 0 0 0 0 33.669919885887793 -0.21741987097234983 0 -0.21741987097234983 6.0093789580573782 0 0 0 0 -0.19106169442420651 15.221469932694092 0 15.221469932694092 27.906023348811573 0 0 0 0 26.165503723132133 35.197564456071461 0 35.197564456071461 -16.842177463320468 0 0 0 0 0.21724646364193489 -3.3507348443790281 0 -3.3507348443790281 -2.9104665373227272 0 0 0 0 70.689823884844373 -76.828269483375124 0 -76.828269483375124 44.02214371270405 0 0 0 0 2.9256605396953237 -3.8287001698110075 0 -3.8287001698110075 1.5694010661874618 0 0 0 0 61.910878941553165 10.440004887660379 0 10.440004887660379 -27.299193272515822 0 0 0 0 116.90371717576454 -74.003713544722231 0 -74.003713544722231 32.84103547348343 0 0 0 0 17.470460490336336 -6.4775133208467111 0 -6.4775133208467111 3.3915044158759997 0 0 0 0 49.806215699280983 2.8218646772563609 0 2.8218646772563609 -4.7800749244253353 0 0 0 0 28.889911767393642 3.1356359877642888 0 3.1356359877642888 -2.1466606145886473 0 0 0 0 45.474964631699549 0.87683715888513092 0 0.87683715888513092 -6.6113209493689595 0 0 0 0 18.119543597573283 -14.711532683234511 0 -14.711532683234511 -2.6186130375107268 0 0 0 0 32.068036483817195 -14.532534546781957 0 -14.532534546781957 -3.7736608504063582 0 0 0 0 30.338277348748306 -15.222035580919872 0 -15.222035580919872 -11.362592759379538 0 0 0 0 35.096388432571985 -6.9398332323147365 0 -6.9398332323147365 -6.499601357459273 0 0 0 0 44.318093975374723 -16.213211606767757 0 -16.213211606767757 -5.1559602258824455 0 0 0 0 154.78109504677377 71.915313081174617 0 71.915313081174617 9.3078248266779156 0 0 0 0 23.661888380953314 -6.3489460630046608 0 -6.3489460630046608 -13.671767469285811 0 0 0 0 97.42075552996539 19.854419495767019 0 19.854419495767019 -36.200488896674074 0 0 0 0 -4.7251917801686432 -14.904643966807882 0 -14.904643966807882 12.037098908738301 0 0 0 0 -16.787816605174157 -9.4251090008926379 0 -9.4251090008926379 14.030953840129541 0 0 0 0 2.5319138599693911 -3.31440870428764 0 -3.31440870428764 0.73413777586276729 0 0 0 0 105.57512910109472 31.618237293595357 0 31.618237293595357 -50.938822419160374 0 0 0 0 -0.17452349827726721 8.1037821778658987 0 8.1037821778658987 -7.7942852270801577 0 0 0 0 53.67898555053398 -6.5836374062945957 0 -6.5836374062945957 -4.9272763644074118 0 0 0 0 8.8451118250759464 -7.8262101452328494 0 -7.8262101452328494 7.5384881917401572 0 0 0 0 13.407083992427943 -4.6612777686288176 0 -4.6612777686288176 2.4193402762993408 0 0 0 0 18.973531985291629 -20.151927650066327 0 -20.151927650066327 14.172328657314416 0 0 0 0 92.780803071887931 2.9532044743270802 0 2.9532044743270802 -8.3401516273397007 0 0 0 0 79.545190777827884 -24.711700119168555 0 -24.711700119168555 -4.1813298072396812 0 0 0 0 73.065398273240135 -2.8025587293745691 0 -2.8025587293745691 -13.200446404551293 0 0 0 0 60.455787527667781 -2.5439631162837983 0 -2.5439631162837983 -9.8050970647139053 0 0 0 0 62.667327059050876 -6.4121808922197676 0 -6.4121808922197676 -6.5971127156456362 0 0 0 0 54.140269133244146 -8.7336112458138935 0 -8.7336112458138935 -10.07329959468845 0 0 0 0 71.823036440480791 5.0026832751728278 0 5.0026832751728278 -5.3781264812773379 0 0 0 0 77.919113304089478 15.65042075041557 0 15.65042075041557 15.588298832735822 0 0 0 0 72.029410699802611 1.6288522443107039 0 1.6288522443107039 -1.4795365578726347 0 0 0 0 67.084999743067897 1.0617377976146452 0 1.0617377976146452 26.61070217940485 0 0 0 0 82.808817284594625 -6.5075363741611181 0 -6.5075363741611181 1.9228331981185161 0 0 0 0 56.655847714315314 0.28727673828946043 0 0.28727673828946043 2.2727038592961644 0 0 0 0 25.678237029796946 -1.8490255216888307 0 -1.8490255216888307 -3.6550400887471159 0 0 0 0 11.940282120505799 -4.0389596283645943 0 -4.0389596283645943 -1.3049919820948215 0 0 0 0 51.620138679924935 24.322416589118962 0 24.322416589118962 1.1295037481014649 0 0 0 0 1.1670631742592548 -0.92485971415073287 0 -0.92485971415073287 0.30352236558121687 0 0 0 0 81.573724550980501 23.02082376480277 0 23.02082376480277 -4.3857075010284943 0 0 0 0 0.6093036207339253 -0.20813613409340093 0 -0.20813613409340093 0.14537095033818748 0 0 0 0 9.4568055715371884 -15.389363294675189 0 -15.389363294675189 23.424927198389206 0 0 0 0 52.875913713689442 -29.939560023123047 0 -29.939560023123047 13.532033845802573 0 0 0 0 0.19363937877415083 3.7878452360786259 0 3.7878452360786259 0.66777495680040744 0 0 0 0 167.15957852803331 44.417696566869935 0 44.417696566869935 -1.2548288837427606 0 0 0 0 499.71295585513326 -22.555306632768922 0 -22.555306632768922 130.83794747705863 0 0 0 0 37.130770491254225 1.4513516474051831 0 1.4513516474051831 -0.10859238432237911 0 0 0 0 188.24257652365304 87.725196975940534 0 87.725196975940534 9.4448931548631343 0 0 0 0 112.15819533220747 94.598105788951756 0 94.598105788951756 61.234517128809301 0 0 0 0 197.01645368973732 73.001226378821642 0 73.001226378821642 4.1178210019901798 0 0 0 0 3.0609158692711951 -2.2907496055076599 0 -2.2907496055076599 -0.59295621318464575 0 0 0 0 -2.5069614652975361 0.38457868385160054 0 0.38457868385160054 -3.0670528502723045 0 0 0 0 61.322540430070148 24.955840906784317 0 24.955840906784317 39.540924118322827 0 0 0 0 5.1015100813193328 -1.2268656679231107 0 -1.2268656679231107 -0.50652551271302682 0 0 0 0 157.45664418169144 80.203321500394864 0 80.203321500394864 46.471706959865642 0 0 0 0 8.0063973062970035 1.4578859654490275 0 1.4578859654490275 -13.775609406365312 0 0 0 0 1.2148764006450605 0.13126707280763128 0 0.13126707280763128 -0.21571681198260931 0 0 0 0 2.4341879786697973 -10.672158793200261 0 -10.672158793200261 -21.222384003838798 0 0 0 0 591.97021453874913 -9.8593692015774792 0 -9.8593692015774792 -38.414387905863414 0 0 0 0 2.4206349274965291 0.0085210056369398046 0 0.0085210056369398046 -0.1292100491865952 0 0 0 0 331.53140532545876 324.70860240752091 0 324.70860240752091 251.82118258278703 0 0 0 0 146.34467467844479 97.800967413841065 0 97.800967413841065 64.372614484614459 0 0 0 0 529.81373865670139 171.76787581768301 0 171.76787581768301 -41.608279641470766 0 0 0 0 416.36147178225474 56.980420105007738 0 56.980420105007738 -83.937713418123153 0 0 0 0 259.660615177203 161.32925814325566 0 161.32925814325566 65.767300011002277 0 0 0 0 499.90865383710707 -73.483607314321929 0 -73.483607314321929 -155.31544670716167 0 0 0 0 300.72391642063849 6.8400545294470163 0 6.8400545294470163 -97.847551928800854 0 0 0 0 358.41151702887601 14.207593249822644 0 14.207593249822644 -99.450853656880312 0 0 0 0 191.81048319509841 -69.482906498933716 0 -69.482906498933716 -56.232533282182374 0 0 0 0 85.115346225542453 36.45751624448323 0 36.45751624448323 -17.656720426342265 0 0 0 0 104.92974409212184 17.259036172836574 0 17.259036172836574 -34.82530637028151 0 0 0 0 93.478564816887229 9.4036112123485225 0 9.4036112123485225 -15.078738219208333 0 0 0 0 91.546331672532688 47.470362912702797 0 47.470362912702797 -61.79450132739737 0 0 0 0 25.999437825181303 139.74705115230881 0 139.74705115230881 -132.58831182931291 0 0 0 0 105.40107841401459 29.184598287756344 0 29.184598287756344 -101.21121453338986 0 0 0 0 3.3614561208287341 -0.13667800261538332 0 -0.13667800261538332 -34.864069653852198 0 0 0 0 198.59536383925843 24.671088823860487 0 24.671088823860487 -88.954286627891094 0 0 0 0 152.13019203247222 -22.886355587205458 0 -22.886355587205458 -77.200926645745383 0 0 0 0 71.399529662474379 -76.512784994478409 0 -76.512784994478409 114.3735453535693 0 0 0 0 0.80477069507650612 0.057763895537005894 0 0.057763895537005894 -0.47864656997940314 0 0 0 0 170.44970986127862 -182.1181981858368 0 -182.1181981858368 97.262567124588486 0 0 0 0 69.770942240547811 -88.593580187053362 0 -88.593580187053362 61.273618113842076 0 0 0 0 155.06355953571347 -105.50239961260763 0 -105.50239961260763 48.460180182062118 0 0 0 0 2.0231253839466561 0.1389087982179138 0 0.1389087982179138 -1.2304388958982078 0 0 0 0 310.93155370526256 -132.91759120714599 0 -132.91759120714599 -6.0484912642760538 0 0 0 0 311.62180598931991 -134.05203454916079 0 -134.05203454916079 -5.9227370608956527 0 0 0 0 157.97972608229566 1.0784696352614134 0 1.0784696352614134 -43.793175234157303 0 0 0 0 51.857560682589792 -16.787682079522543 0 -16.787682079522543 -1.0337933097343273 0 0 0 0 55.237977597769714 -22.331604098008675 0 -22.331604098008675 2.4021587348925335 0 0 0 0 63.596868462154816 -23.070417002241257 0 -23.070417002241257 1.7296932878322036 0 0 0 0 40.050538665859676 -5.409034008936267 0 -5.409034008936267 3.9567106514856398 0 0 0 0 48.90657723264485 -16.068539930223942 0 -16.068539930223942 8.3582447245332308 0 0 0 0 42.511132059324154 -22.017843488268682 0 -22.017843488268682 9.077758966498287 0 0 0 0 29.892045321888872 -16.244049029018552 0 -16.244049029018552 8.6808978186230039 0 0 0 0 42.495393906985868 -25.732252316862297 0 -25.732252316862297 6.1056485529483666 0 0 0 0 66.724284753086977 -31.723477042849311 0 -31.723477042849311 3.9070434683410014 0 0 0 0 66.502650449783687 -26.154482693768131 0 -26.154482693768131 1.4366487193797051 0 0 0 0 67.375817510976049 -20.710982112120242 0 -20.710982112120242 4.4315657378361735 0 0 0 0 76.159763899040627 -3.2511821374059462 0 -3.2511821374059462 -3.2775760883907683 0 0 0 0 82.345624314121324 13.821873334060726 0 13.821873334060726 19.261388396429133 0 0 0 0 118.77796907979973 10.4437916962363 0 10.4437916962363 1.0818633189375788 0 0 0 0 78.586831651387911 -8.9900429190433933 0 -8.9900429190433933 6.2416185446763439 0 0 0 0 60.688321456420454 -19.768658396142861 0 -19.768658396142861 0.88104723473229685 0 0 0 0 62.092236604679783 -20.213407313541193 0 -20.213407313541193 -4.9079315506581462 0 0 0 0 65.753981858518273 -21.378710054252611 0 -21.378710054252611 -4.630247861731128 0 0 0 0 52.311442426755093 -24.34854045697044 0 -24.34854045697044 -2.6391817279882011 0 0 0 0 67.702899058347612 -8.7370079776152636 0 -8.7370079776152636 5.2809547032616555 0 0 0 0 55.408376371748545 -14.359117915175524 0 -14.359117915175524 -14.984032284761019 0 0 0 0 60.052377537261236 -25.811674375556102 0 -25.811674375556102 -12.302224861121982 0 0 0 0 74.357647674934924 -13.974401297769145 0 -13.974401297769145 -11.683170002968863 0 0 0 0 61.598791503416123 -18.439532790130006 0 -18.439532790130006 -11.183667275935434 0 0 0 0 58.932430879272943 -15.254794198102079 0 -15.254794198102079 -1.5886382856268781 0 0 0 0 57.453056865849248 -5.4846098338247797 0 -5.4846098338247797 -4.2390767171764789 0 0 0 0 60.235101266982383 5.9651203594537874 0 5.9651203594537874 -5.2040440013288478 0 0 0 0 57.598124375028419 -1.5782043413895863 0 -1.5782043413895863 -8.1920191664735604 0 0 0 0 51.846663493659435 9.8642653407865151 0 9.8642653407865151 -5.268564442852977 0 0 0 0 50.078939504886876 8.4670145529863632 0 8.4670145529863632 -3.2131839262907533 0 0 0 0 48.376874954245523 10.989163867782946 0 10.989163867782946 -3.9118202691960775 0 0 0 0 49.969832710901755 5.8327254243169051 0 5.8327254243169051 -2.071327279940288 0 0 0 0 44.041659344702566 10.846011251068679 0 10.846011251068679 0.19120095571155815 0 0 0 0 42.610109192799428 11.774852816626289 0 11.774852816626289 -0.28821100131303368 0 0 0 0 43.515823840294615 8.0735924497414544 0 8.0735924497414544 5.8392584726868115 0 0 0 0 48.836401605296487 -3.7632722933387139 0 -3.7632722933387139 2.4165103193550692 0 0 0 0 46.151215920999675 4.5828388460129013 0 4.5828388460129013 -0.50616579097951675 0 0 0 0 26.065142219333211 2.2806940512478899 0 2.2806940512478899 -3.687268877366904 0 0 0 0 30.539556705228279 11.243744618007083 0 11.243744618007083 1.8644429379916403 0 0 0 0 15.317986024012498 1.4662931377662671 0 1.4662931377662671 -0.43682079643182625 0 0 0 0 36.133790261283139 6.4607635021200345 0 6.4607635021200345 -2.6221716168226479 0 0 0 0 44.287625040897183 13.962465565580903 0 13.962465565580903 -0.39949744890153482 0 0 0 0 36.47718311558674 11.262323177666271 0 11.262323177666271 0.50170448292118763 0 0 0 0 43.716017591959826 12.137630060480237 0 12.137630060480237 -4.9010818819486017 0 0 0 0 37.520722209225141 5.2163354061953262 0 5.2163354061953262 -8.1497883654637722 0 0 0 0 7.9962398766274418 -10.026876531055713 0 -10.026876531055713 -2.761008166214971 0 0 0 0 53.6534575111084 0.38537876185533371 0 0.38537876185533371 -3.4410470292568505 0 0 0 0 45.14994734643733 10.608570375008597 0 10.608570375008597 -2.8593638190900776 0 0 0 0 44.972637637964283 17.612772084263959 0 17.612772084263959 7.0044982133134965 0 0 0 0 56.854981715739996 20.788515498749732 0 20.788515498749732 2.8822398295219145 0 0 0 0 41.848438054379585 21.10613642183862 0 21.10613642183862 19.633827906261189 0 0 0 0 42.812629277701035 24.486533365059856 0 24.486533365059856 18.904466694772907 0 0 0 0 34.687495334965206 24.506226074333341 0 24.506226074333341 46.237136502638975 0 0 0 0 56.914777956109901 25.718844305833201 0 25.718844305833201 21.013605735242038 0 0 0 0 55.492432087878115 25.958023299943903 0 25.958023299943903 34.902115206356598 0 0 0 0 60.083874969253316 8.8123429633890691 0 8.8123429633890691 5.2472443178882813 0 0 0 0 0.19942663085940637 0.17100256756283017 0 0.17100256756283017 0.12874559698449051 0 0 0 0 49.618130375340115 16.761289209122829 0 16.761289209122829 11.277732304934517 0 0 0 0 67.252396692238108 19.425715106974422 0 19.425715106974422 11.523977003315764 0 0 0 0 58.839212459693954 18.551456027147296 0 18.551456027147296 29.854059820514578 0 0 0 0 37.886982803782303 -2.493177059857798 0 -2.493177059857798 10.525936308541869 0 0 0 0 34.098466379897218 6.5088825236949948 0 6.5088825236949948 8.6489796549806996 0 0 0 0 33.494043678761955 16.139852525932998 0 16.139852525932998 11.589266677042936 0 0 0 0 34.801363813639909 10.985370746113201 0 10.985370746113201 14.600362584542246 0 0 0 0 23.865911134154885 8.2153850291181243 0 8.2153850291181243 20.623423582178276 0 0 0 0 31.271912279709795 13.726008212436113 0 13.726008212436113 23.955400055420206 0 0 0 0 22.06455202692996 18.477307961102476 0 18.477307961102476 30.09626667636482 0 0 0 0 13.314749602122902 1.0172976159497864 0 1.0172976159497864 16.762483703316825 0 0 0 0 31.937497766844672 -4.9318686952774371 0 -4.9318686952774371 13.015843256204967 0 0 0 0 21.865754474969435 -6.4283300212036707 0 -6.4283300212036707 16.007965510869646 0 0 0 0 12.445901575494645 3.2966484514167291 0 3.2966484514167291 13.59426937448972 0 0 0 0 7.110477361258063 -17.777436415777814 0 -17.777436415777814 -10.834808792563877 0 0 0 0 3.4340587135375245 -7.9460054894809531 0 -7.9460054894809531 16.622867762302192 0 0 0 0 11.329941732460611 6.6325095448298637 0 6.6325095448298637 4.296666020740588 0 0 0 0 25.525061205451493 -7.8761568307488261 0 -7.8761568307488261 18.950511386753934 0 0 0 0 12.647933446636671 -33.260263339641732 0 -33.260263339641732 -34.465255817693489 0 0 0 0 6.1524272311344248 2.0586642724444602 0 2.0586642724444602 -28.77935829239749 0 0 0 0 48.188064251367905 62.876083551285859 0 62.876083551285859 61.167581379604513 0 0 0 0 53.444300709661547 -25.7642443531849 0 -25.7642443531849 -8.7842552351731911 0 0 0 0 0.76027423005976402 -0.077544292528736847 0 -0.077544292528736847 -0.021248377432217969 0 0 0 0 78.576333516932209 11.639381009842282 0 11.639381009842282 32.233614294185401 0 0 0 0 108.51731709500291 25.448593730332028 0 25.448593730332028 8.9413596301777147 0 0 0 0 84.439454746519914 -25.407525773112845 0 -25.407525773112845 46.601399757366892 0 0 0 0 56.835341461599455 10.27334226180232 0 10.27334226180232 1.1974458494721603 0 0 0 0 43.715161669919326 14.758096950867127 0 14.758096950867127 98.416120856622626 0 0 0 0 79.626895799941849 36.98090934163173 0 36.98090934163173 39.214964046300821 0 0 0 0 43.069879045868674 8.1460495158605735 0 8.1460495158605735 31.812440518336928 0 0 0 0 23.57465738335668 0.75921711701901273 0 0.75921711701901273 53.47409855866141 0 0 0 0 16.215696823179314 11.037480436428812 0 11.037480436428812 -30.63521967485125 0 0 0 0 57.718655040571321 -17.895595080275676 0 -17.895595080275676 -10.465109675616819 0 0 0 0 30.348969337997005 22.733856270061629 0 22.733856270061629 15.147354740879962 0 0 0 0 54.785389014727116 32.796026363692683 0 32.796026363692683 -15.74542351394042 0 0 0 0 18.112378775768263 -1.9038517017732224 0 -1.9038517017732224 -0.11725748427287791 0 0 0 0 48.939242483690578 -8.6825009315124451 0 -8.6825009315124451 -107.11111582187024 0 0 0 0 12.806843891086828 -4.1831423799254033 0 -4.1831423799254033 -26.58812570133912 0 0 0 0 29.447396575963467 -74.334789809813628 0 -74.334789809813628 -176.73601823760455 0 0 0 0 48.079067015921737 12.745246523309902 0 12.745246523309902 -78.710701934317626 0 0 0 0 15.605046260185535 -1.2393672001150815 0 -1.2393672001150815 -0.25205133869247071 0 0 0 0 29.124984671529091 -19.295475453508544 0 -19.295475453508544 -103.24013949227125 0 0 0 0 85.2841874297701 -18.84716001318094 0 -18.84716001318094 -196.9073807246472 0 0 0 0 17.570538901363648 33.674900523686553 0 33.674900523686553 -53.430275687863286 0 0 0 0 -5.3587975139894297 53.68831672603315 0 53.68831672603315 -22.59606317135956 0 0 0 0 78.182069363937444 62.186290523633232 0 62.186290523633232 -33.836525041187542 0 0 0 0 36.79766140182619 113.30053286100332 0 113.30053286100332 40.338663224154629 0 0 0 0 88.505858951855771 84.275889554131652 0 84.275889554131652 12.042088432174324 0 0 0 0 62.239052562974393 104.55719598824922 0 104.55719598824922 5.34333423566585 0 0 0 0 8.9731657457305118 43.60460366419909 0 43.60460366419909 22.769627951116902 0 0 0 0 10.941836466721426 -0.3820005965560469 0 -0.3820005965560469 -0.23479728482155962 0 0 0 0 60.281651690117542 47.898437906014408 0 47.898437906014408 -89.833606907642661 0 0 0 0 13.264740865638259 -23.023730454419194 0 -23.023730454419194 -74.459387135768907 0 0 0 0 7.7771760660234577 10.017274359644958 0 10.017274359644958 -20.594450702376406 0 0 0 0 -11.526959673874899 -30.135344452097833 0 -30.135344452097833 26.834827232453051 0 0 0 0 74.237774933157198 -39.124103260735048 0 -39.124103260735048 -0.12795641090283283 0 0 0 0 33.466986443549558 -36.98951834593629 0 -36.98951834593629 8.1076725860421135 0 0 0 0 16.222970537590754 -26.791056103307245 0 -26.791056103307245 1.9531008763467241 0 0 0 0 26.086678735842725 -17.38330719327741 0 -17.38330719327741 10.051648198922697 0 0 0 0 127.0936653521494 45.877221738198138 0 45.877221738198138 -3.7801385682341113 0 0 0 0 98.050644058124817 23.883502314174329 0 23.883502314174329 1.7583509474798262 0 0 0 0 75.890858350972849 -32.131382886642179 0 -32.131382886642179 -1.6212965566825659 0 0 0 0 105.41102170299928 -29.543456507979847 0 -29.543456507979847 -6.8539332655605989 0 0 0 0 88.471580565812474 -89.468182609845442 0 -89.468182609845442 -16.54509435554283 0 0 0 0 235.16952462285008 -38.543271332583799 0 -38.543271332583799 -34.398353270169792 0 0 0 0 81.215066311320697 140.77316224206911 0 140.77316224206911 164.6095723639998 0 0 0 0 258.40825425832372 116.53840781652002 0 116.53840781652002 23.08465830565612 0 0 0 0 82.759900524264594 -151.47125009379303 0 -151.47125009379303 113.18544085286791 0 0 0 0 303.46997055742031 -32.410349993527916 0 -32.410349993527916 -32.887638719615211 0 0 0 0 -99.595100840830128 -52.212620068124352 0 -52.212620068124352 106.6863869041126 0 0 0 0 80.215490357004455 147.26845237591579 0 147.26845237591579 168.3944503710359 0 0 0 0 4.1020184003205813 0.17639217570127297 0 0.17639217570127297 -0.020103618018900066 0 0 0 0 244.91223398865623 146.25156316923392 0 146.25156316923392 13.122916686984468 0 0 0 0 121.93955266205921 27.42927873812846 0 27.42927873812846 -34.374968584987187 0 0 0 0 85.619282040179314 79.650298698297689 0 79.650298698297689 5.0258382445086909 0 0 0 0 95.658278926326602 19.555300025335853 0 19.555300025335853 -56.670259225216796 0 0 0 0 87.824872357403365 38.30026645251894 0 38.30026645251894 -12.911115161321959 0 0 0 0 87.805587089114852 -6.0085251546350378 0 -6.0085251546350378 -27.301399756366663 0 0 0 0 53.119312209302734 -37.428881577381389 0 -37.428881577381389 -70.429628716131901 0 0 0 0 83.881699273429149 4.1725943738867954 0 4.1725943738867954 -37.800954069292857 0 0 0 0 16.061887031670267 0.365392364357632 0 0.365392364357632 -16.584294023616593 0 0 0 0 77.299854942884849 2.4562794689313705 0 2.4562794689313705 0.94139035019696848 0 0 0 0 75.584151432583894 7.2409939400803118 0 7.2409939400803118 -15.905230316956079 0 0 0 0 62.754596772225341 37.749010436690405 0 37.749010436690405 12.998483884013684 0 0 0 0 35.937381736383941 3.9406842646795379 0 3.9406842646795379 -13.576841457812549 0 0 0 0 79.403139506883235 -11.684727112417177 0 -11.684727112417177 9.5635344206637658 0 0 0 0 136.10063552784413 30.064156867415811 0 30.064156867415811 -12.994031986855832 0 0 0 0 11.623731407633386 5.6790600096370003 0 5.6790600096370003 39.369351021581259 0 0 0 0 0.13727427617025256 -0.070670927941694828 0 -0.070670927941694828 -0.045308946952274484 0 0 0 0 74.6396237671579 -30.148227187089464 0 -30.148227187089464 -25.965800078559809 0 0 0 0 0.0036212660457044521 -0.4840710055948918 0 -0.4840710055948918 -1.050493207729724 0 0 0 0 55.632334210913541 -4.3348617635153177 0 -4.3348617635153177 9.7937353733177908 0 0 0 0 44.864806303619844 -5.4598946055433402 0 -5.4598946055433402 42.723873374688495 0 0 0 0 71.223054576321374 -23.421122266681053 0 -23.421122266681053 30.55387947848223 0 0 0 0 34.869116160621161 5.9822790288547445 0 5.9822790288547445 16.457192456032733 0 0 0 0 42.453245251781482 -6.6727310558513437 0 -6.6727310558513437 29.682666040895903 0 0 0 0 28.465440719413436 -12.969698852856123 0 -12.969698852856123 7.5029746128352848 0 0 0 0 18.235655704242163 2.4239552747207247 0 2.4239552747207247 -13.352178598188013 0 0 0 0 40.22326407618857 17.219117560111602 0 17.219117560111602 11.795956278780523 0 0 0 0 1.0737365599597979 -15.141261937182868 0 -15.141261937182868 3.7539465371458505 0 0 0 0 7.8099981335590201 -16.131958277925342 0 -16.131958277925342 -7.0033235127857836 0 0 0 0 7.2313164767256239 -8.6913739333861333 0 -8.6913739333861333 0.60063531930517122 0 0 0 0 11.904493707195797 -11.857383331202954 0 -11.857383331202954 -23.901320025931678 0 0 0 0 7.0522037548416847 -15.394190741391327 0 -15.394190741391327 8.2720095430350433 0 0 0 0 4.3249753092013634 -11.868757229919193 0 -11.868757229919193 16.112579135906703 0 0 0 0 7.3897561488229258 -5.851277851836282 0 -5.851277851836282 18.5860838143889 0 0 0 0 9.7235155319631303 -9.5667900219166953 0 -9.5667900219166953 11.296319431065516 0 0 0 0 16.906892429866275 -3.6826709179033728 0 -3.6826709179033728 7.2477022255731711 0 0 0 0 17.572015203398223 -8.8058774996296254 0 -8.8058774996296254 19.534419557310212 0 0 0 0 30.372040510197621 -1.3192166434397343 0 -1.3192166434397343 21.583934475353871 0 0 0 0 18.188032731715111 -8.5208443860462939 0 -8.5208443860462939 17.729881927474395 0 0 0 0 16.842121724208482 -0.56840762561997416 0 -0.56840762561997416 27.154298501766824 0 0 0 0 25.621291149866011 5.0064841850716952 0 5.0064841850716952 25.903485526465438 0 0 0 0 9.4014037750566786 -5.4812730507137646 0 -5.4812730507137646 25.313575647415401 0 0 0 0 9.0904059108786441 -9.3373626994844621 0 -9.3373626994844621 18.196848218828997 0 0 0 0 20.589834217844327 1.0905339371412248 0 1.0905339371412248 20.562888338552536 0 0 0 0 6.4094965002477693 -2.7023905187331732 0 -2.7023905187331732 19.143859092850242 0 0 0 0 13.627944452726297 -7.334998288859385 0 -7.334998288859385 16.86184197972603 0 0 0 0 29.484000075818585 -7.1972368802009905 0 -7.1972368802009905 16.917976080352204 0 0 0 0 43.152442159691418 13.76614562704472 0 13.76614562704472 28.483409110097465 0 0 0 0 52.80100487444497 11.747737452156205 0 11.747737452156205 15.144111092768973 0 0 0 0 59.494062769121228 32.981441411494245 0 32.981441411494245 32.119329245057052 0 0 0 0 66.618239885439834 39.05674905404674 0 39.05674905404674 37.220804016897269 0 0 0 0 101.80983729264972 34.947802905827501 0 34.947802905827501 21.708231116654289 0 0 0 0 65.730429179428029 44.088259096800662 0 44.088259096800662 26.011122708049768 0 0 0 0 113.56624272855061 76.5736851667819 0 76.5736851667819 46.93486243917026 0 0 0 0 -33.056308689434445 9.125615641171386 0 9.125615641171386 69.651125404530916 0 0 0 0 25.94112680226317 13.805878347724814 0 13.805878347724814 42.966506964096247 0 0 0 0 48.854208409440616 54.180881908814044 0 54.180881908814044 89.176165327861469 0 0 0 0 39.039865751914476 3.9940715962214313 0 3.9940715962214313 20.165294568373682 0 0 0 0 45.105183500694693 0.92617673608319961 0 0.92617673608319961 23.314491933047954 0 0 0 0 38.325013354872681 10.624909854215426 0 10.624909854215426 35.684621180447266 0 0 0 0 53.10648775728805 -10.450647141239127 0 -10.450647141239127 1.6917743216263936 0 0 0 0 49.455811085634195 -12.043481743756704 0 -12.043481743756704 9.3432731826187574 0 0 0 0 25.649351843949262 -8.9003693495124168 0 -8.9003693495124168 -1.8969449632137803 0 0 0 0 26.026011951638793 -6.436812938230398 0 -6.436812938230398 4.4144229474992009 0 0 0 0 13.114426228252341 3.8642275290805657 0 3.8642275290805657 19.022451364401107 0 0 0 0 8.6068311541730509 -10.319835880154672 0 -10.319835880154672 8.8903945375781994 0 0 0 0 12.754752222224852 -8.1078701194643497 0 -8.1078701194643497 9.8962432982704378 0 0 0 0 13.517679428365227 -3.6041630883389235 0 -3.6041630883389235 7.4996803598079715 0 0 0 0 25.056879829552713 -3.4414125642011433 0 -3.4414125642011433 -5.8055996756633448 0 0 0 0 12.512480921588576 -7.8811361654512959 0 -7.8811361654512959 -7.9424523201472539 0 0 0 0 6.1347448634296597 -13.497994605909749 0 -13.497994605909749 4.5186169164916468 0 0 0 0 8.2075736355420759 -8.8557270914121915 0 -8.8557270914121915 8.9107403669229228 0 0 0 0 6.2503371312341187 -11.583578706930183 0 -11.583578706930183 11.219570828736984 0 0 0 0 5.5528727045475534 -11.675774756097226 0 -11.675774756097226 16.476927989955051 0 0 0 0 6.6266230293331319 -9.1215453152988211 0 -9.1215453152988211 14.297883284612595 0 0 0 0 5.4833341019334512 -8.0768628574397088 0 -8.0768628574397088 13.447176949889503 0 0 0 0 5.5933602585282642 -7.3750257656264129 0 -7.3750257656264129 17.627200386566248 0 0 0 0 3.5648193000124593 -1.1672443492476994 0 -1.1672443492476994 10.60149150934703 0 0 0 0 5.398848507733419 -4.5641389238156798 0 -4.5641389238156798 15.721435087020946 0 0 0 0 5.3162498608180613 -7.3639301904349068 0 -7.3639301904349068 14.325795682557963 0 0 0 0 3.5717339070715752 -5.1502396215314725 0 -5.1502396215314725 12.485773413050929 0 0 0 0 6.8039145608482841 -7.0669667330909647 0 -7.0669667330909647 12.398756149735348 0 0 0 0 3.436540794571556 -5.6242558864747476 0 -5.6242558864747476 10.08864853646876 0 0 0 0 3.4279239047773444 2.7438249175648366 0 2.7438249175648366 1.8235825338626732 0 0 0 0 7.8430539549253808 -5.7539035372125547 0 -5.7539035372125547 3.3645989645024237 0 0 0 0 71.882179534997704 2.4811893275499983 0 2.4811893275499983 -0.50726821527737798 0 0 0 0 67.454222750306144 -13.144865497668185 0 -13.144865497668185 2.4745081529063242 0 0 0 0 60.934805170763866 0.49587871827321806 0 0.49587871827321806 15.070260812423648 0 0 0 0 0.10382898902963777 0.15079015565898501 0 0.15079015565898501 0.19020624532951791 0 0 0 0 94.035723813669392 -2.9631519463355502 0 -2.9631519463355502 -1.1592563053702634 0 0 0 0 145.09413826048331 -49.527132782550609 0 -49.527132782550609 -34.188205301618467 0 0 0 0 86.873733627862748 -80.082871009814966 0 -80.082871009814966 38.361039142910386 0 0 0 0 89.212406157617124 -14.055790109042233 0 -14.055790109042233 -49.251832455369424 0 0 0 0 90.401650691840587 2.0174043132869031 0 2.0174043132869031 -26.456484936510947 0 0 0 0 0.074778171098127899 0.46716494359764837 0 0.46716494359764837 0.66308120674523829 0 0 0 0 1.8355832365132301 2.408765967149765 0 2.408765967149765 2.4353702026259541 0 0 0 0 4.279775518039969 2.5884930343049213 0 2.5884930343049213 0.83144763360860097 0 0 0 0 6.331151484961083 0.08069150132324765 0 0.08069150132324765 -1.7599142835544583 0 0 0 0 4.4476508683637803 2.91200834661025 0 2.91200834661025 -3.9083053078257706 0 0 0 0 4.5581331921239325 2.2341269436019253 0 2.2341269436019253 -1.4210943135853071 0 0 0 0 3.8353057150925451 2.8444213600163906 0 2.8444213600163906 -1.8078676075147868 0 0 0 0 5.7215188557674992 -1.9127471573112675 0 -1.9127471573112675 8.1110790479942452 0 0 0 0 2.3834074522510491 4.6543819119972376 0 4.6543819119972376 3.6205365948175405 0 0 0 0 4.9436662124289796 0.33740150399711855 0 0.33740150399711855 6.2554635986003007 0 0 0 0 5.0642057168806787 2.754208533252207 0 2.754208533252207 9.7460440703390354 0 0 0 0 7.0264517801460897 -0.8971851645280573 0 -0.8971851645280573 -19.428212626743687 0 0 0 0 2.5655187751362973 -1.029319213449881 0 -1.029319213449881 -7.2358507795972358 0 0 0 0 1.5590565467355191 8.3018931116257377 0 8.3018931116257377 0.72642258224584566 0 0 0 0 2.4988558060034478 -0.071025516469160443 0 -0.071025516469160443 -0.16799178562154973 0 0 0 0 14.978487060607222 83.109980124307654 0 83.109980124307654 37.408931416031557 0 0 0 0 100.67898189350672 80.834273345183917 0 80.834273345183917 -5.3235872252951921 0 0 0 0 41.123304382770584 -36.789880742902845 0 -36.789880742902845 17.705212840260764 0 0 0 0 121.83109813140982 -63.716968610854458 0 -63.716968610854458 26.724643745112758 0 0 0 0 -25.394781073780905 7.6182931669704459 0 7.6182931669704459 32.14739165330414 0 0 0 0 18.828607209514303 2.8775042219004274 0 2.8775042219004274 61.171433170394131 0 0 0 0 79.05985399509882 52.354599086148326 0 52.354599086148326 31.01169362619347 0 0 0 0 18.939232424559123 16.974145497937212 0 16.974145497937212 -9.3408698521938476 0 0 0 0 3.7684907831561745 -0.54619868544701777 0 -0.54619868544701777 -0.17616501296447884 0 0 0 0 4.8320791344158351 1.4211340266757304 0 1.4211340266757304 -5.2858182489541221 0 0 0 0 4.0696128457439045 1.3019078707478116 0 1.3019078707478116 -3.5746476867008212 0 0 0 0 44.17487219953 -23.632635798469384 0 -23.632635798469384 -31.003747441780078 0 0 0 0 24.701249807790646 75.928097104595224 0 75.928097104595224 139.9756350775167 0 0 0 0 0.62394264695542123 0.40799485170142091 0 0.40799485170142091 0.79760150572060573 0 0 0 0 1.2437099402102105 -0.069484095830020465 0 -0.069484095830020465 -0.0067955753330979918 0 0 0 0 6.1362430157223571 -0.26850747528571617 0 -0.26850747528571617 0.51304250870450119 0 0 0 0 1.2651235794910463 -4.7143743618482432 0 -4.7143743618482432 -4.2537027614780243 0 0 0 0 3.5574521614543855 -1.0148488745755451 0 -1.0148488745755451 0.2899756137442645 0 0 0 0 2.1826641504176223 2.4251737423907826 0 2.4251737423907826 5.173776547033043 0 0 0 0 0.90348702515631096 -0.18012989186084738 0 -0.18012989186084738 0.36227323122112975 0 0 0 0 6.3877791852628434 3.0407516536101831 0 3.0407516536101831 -18.660556719980761 0 0 0 0 6.3684542225464611 7.0629066183288316 0 7.0629066183288316 6.9400199440291033 0 0 0 0 24.898427285857906 -25.940410029995007 0 -25.940410029995007 38.278633787422365 0 0 0 0 1.9237709243579957 -32.866266629580451 0 -32.866266629580451 52.294134906160366 0 0 0 0 -11.770536930533126 8.7189669116289963 0 8.7189669116289963 12.110701726822686 0 0 0 0 -10.826076460579543 16.808795441003962 0 16.808795441003962 -17.191904606506682 0 0 0 0 0.69351717307945959 -0.18004610303577095 0 -0.18004610303577095 -0.034667833198589765 0 0 0 0 42.779189591754402 -46.93538081707117 0 -46.93538081707117 55.905754473078012 0 0 0 0 258.01586312064319 59.975038452666695 0 59.975038452666695 -122.08292634891819 0 0 0 0 1.4868897920115529 -0.20731220088105662 0 -0.20731220088105662 0.11599910301972528 0 0 0 0 82.788255428102275 -26.708565750630953 0 -26.708565750630953 -6.9807102984065068 0 0 0 0 83.84703454893679 -50.990727862018602 0 -50.990727862018602 12.103721281788481 0 0 0 0 210.54369492024489 -76.398856413506294 0 -76.398856413506294 2.0261941391688865 0 0 0 0 281.48108775528817 12.609986130178612 0 12.609986130178612 -46.521462467437431 0 0 0 0 261.56521770726977 67.031330832008337 0 67.031330832008337 -62.558226960581521 0 0 0 0 33.668880128974706 43.896640517282293 0 43.896640517282293 185.97595465704285 0 0 0 0 1.1030472879828395 -0.62731643458428188 0 -0.62731643458428188 0.40228882410735084 0 0 0 0 279.92324581156026 10.206520501480554 0 10.206520501480554 2.7009569157000897 0 0 0 0 179.00156544410129 116.15807856348641 0 116.15807856348641 -107.68319220871008 0 0 0 0 10.41788977854435 -40.09177926483332 0 -40.09177926483332 60.277729347773402 0 0 0 0 51.826241566071985 -5.2703268257454958 0 -5.2703268257454958 59.557017127794687 0 0 0 0 56.158259964529861 -4.9273410155019306 0 -4.9273410155019306 16.915051039260245 0 0 0 0 61.559530506148803 2.6079252361719201 0 2.6079252361719201 17.831110274160828 0 0 0 0 68.40005916956494 30.916400181486804 0 30.916400181486804 30.400894301504138 0 0 0 0 68.697632303930732 22.205168831916474 0 22.205168831916474 16.839568758705472 0 0 0 0 62.844546415578407 37.613226443443416 0 37.613226443443416 52.517270451424586 0 0 0 0 80.978274623383186 39.358871179524883 0 39.358871179524883 27.395505383921765 0 0 0 0 76.807509515414495 3.2812873261788909 0 3.2812873261788909 -5.1653272096809246 0 0 0 0 22.4476688915056 1.2074371348749331 0 1.2074371348749331 22.497459149734709 0 0 0 0 4.4686504147157393 -2.316942034957215 0 -2.316942034957215 18.740548321332017 0 0 0 0 18.859275882068687 -6.6429633671994237 0 -6.6429633671994237 10.601526549333414 0 0 0 0 5.4923971325015373 8.1059562021626022 0 8.1059562021626022 -12.456691502289232 0 0 0 0 -2.3930275429775065 2.734584800213014 0 2.734584800213014 10.015288902940298 0 0 0 0 47.882686655717407 97.252290182540293 0 97.252290182540293 150.17610977692436 0 0 0 0 28.135043428407698 -23.68197860328662 0 -23.68197860328662 -16.594002363537527 0 0 0 0 0.82252337504189654 0.063154426342324932 0 0.063154426342324932 -0.015156514589221015 0 0 0 0 108.03689694689001 25.905509453789573 0 25.905509453789573 37.539613787029232 0 0 0 0 39.104585797092568 -11.687449603543305 0 -11.687449603543305 27.869250640912046 0 0 0 0 -7.196832414399978 0.76929736749241329 0 0.76929736749241329 -8.4888980724676912 0 0 0 0 56.196482481615021 52.177280953555297 0 52.177280953555297 27.578655146644117 0 0 0 0 36.485941793167513 45.585200690031542 0 45.585200690031542 35.625884685079662 0 0 0 0 0.058492145861237077 26.599780859333979 0 26.599780859333979 101.42197839950876 0 0 0 0 -11.264569904666132 82.726864712557173 0 82.726864712557173 15.419749760740437 0 0 0 0 -20.550944864447956 47.840028374608607 0 47.840028374608607 -97.494861838907354 0 0 0 0 0.52255470661754089 0.81889987529557828 0 0.81889987529557828 0.18731904808150396 0 0 0 0 -20.413360602924513 128.16928541232173 0 128.16928541232173 -23.498450129616259 0 0 0 0 -83.797823438173509 22.535867121369648 0 22.535867121369648 -28.388633349877409 0 0 0 0 -147.42022196023026 118.28872821269238 0 118.28872821269238 -88.759119850190032 0 0 0 0 -13.386487468207349 70.017359454558942 0 70.017359454558942 -137.78061779039467 0 0 0 0 0.29011380198873837 0.1789952325816131 0 0.1789952325816131 -0.51136066284560355 0 0 0 0 33.536329463609036 -5.8701261685651502 0 -5.8701261685651502 -38.107886451352741 0 0 0 0 12.416184747315128 42.20685955578665 0 42.20685955578665 -49.007537273715798 0 0 0 0 -12.118535346432623 18.298438239699902 0 18.298438239699902 -71.918749445868457 0 0 0 0 -10.573836530493281 68.344667753198365 0 68.344667753198365 -89.747089205412436 0 0 0 0 1.6501172410135041 34.089413533784985 0 34.089413533784985 -50.584027727189486 0 0 0 0 50.758209830346004 -22.422296906117346 0 -22.422296906117346 -17.526164923391583 0 0 0 0 40.706091239841044 13.964595641072137 0 13.964595641072137 -9.9940600809220221 0 0 0 0 45.472204021389189 -8.246037775098074 0 -8.246037775098074 19.255778816556273 0 0 0 0 33.643745290086372 6.0534487747395023 0 6.0534487747395023 -27.317030380759832 0 0 0 0 42.13083364214981 -21.451218117320522 0 -21.451218117320522 -18.76340205379957 0 0 0 0 14.26049767174527 -3.5616003542575259 0 -3.5616003542575259 -23.251031924677925 0 0 0 0 -5.7630152879992238 32.259324636778622 0 32.259324636778622 -56.007404433937587 0 0 0 0 -6.6789443785801268 33.046208824064912 0 33.046208824064912 -41.724166007534102 0 0 0 0 0.21338997020327355 0.33281421736636752 0 0.33281421736636752 0.3528794970738699 0 0 0 0 -1.8854431139493499 2.5958894691521088 0 2.5958894691521088 -0.35636708409401763 0 0 0 0 -13.131092866762629 19.852985778252759 0 19.852985778252759 -31.534623188633933 0 0 0 0 -11.555243117809368 16.266228139036123 0 16.266228139036123 -45.85496451841329 0 0 0 0 33.718639940418143 -1.9113441973698713 0 -1.9113441973698713 -46.10783113194131 0 0 0 0 -0.31988015830759053 0.57373484766983829 0 0.57373484766983829 0.48724126581254945 0 0 0 0 5.3309556709209573 32.774868945411484 0 32.774868945411484 -58.072545345628015 0 0 0 0 -30.278783823785488 66.233241075490042 0 66.233241075490042 -64.440217626159665 0 0 0 0 -39.835681645980003 56.636205353965984 0 56.636205353965984 -51.814609706875366 0 0 0 0 56.331461699143802 -15.533862758861215 0 -15.533862758861215 2.5988531982939094 0 0 0 0 -52.958102680400771 56.322711120248925 0 56.322711120248925 -65.831457126150468 0 0 0 0 62.156342235975899 -19.327526809552822 0 -19.327526809552822 2.6424004509050008 0 0 0 0 57.468285719101914 -18.047532819606808 0 -18.047532819606808 7.7262373319213111 0 0 0 0 1.1085573335302232 1.3682302493408365 0 1.3682302493408365 -1.1182801582941186 0 0 0 0 59.679201526221732 -15.704452692932271 0 -15.704452692932271 -2.6472722152187487 0 0 0 0 59.875112835703476 -12.889405300917701 0 -12.889405300917701 -0.45942407771298122 0 0 0 0 -2.0173722837898822 2.0234783257711655 0 2.0234783257711655 -1.1373563819478818 0 0 0 0 -2.0160099113327306 2.6242072140434871 0 2.6242072140434871 -1.9129832994173626 0 0 0 0 0.86310803271587311 1.5024780478448534 0 1.5024780478448534 -1.0198889291524016 0 0 0 0 -0.74273368566173303 2.5114900958384254 0 2.5114900958384254 -1.0183880164502597 0 0 0 0 52.486966692316855 -4.9238320498412982 0 -4.9238320498412982 -1.5551727588866555 0 0 0 0 56.002561884322859 -8.0138987249973326 0 -8.0138987249973326 -4.2212751042428067 0 0 0 0 59.072600484748591 -11.709544064795995 0 -11.709544064795995 2.0067915736617579 0 0 0 0 59.134700273276266 -5.1354948357093519 0 -5.1354948357093519 -3.00555283251623 0 0 0 0 -1.6626884789893666 3.5193940370947772 0 3.5193940370947772 -1.2122521468067475 0 0 0 0 1.4392742596395713 1.4812167478363882 0 1.4812167478363882 -0.92094486227407457 0 0 0 0 2.6755092890107335 3.2536678089031312 0 3.2536678089031312 -1.5014756315382733 0 0 0 0 32.443627058130005 -0.65477000236502292 0 -0.65477000236502292 1.3441886063766191 0 0 0 0 -1.7114159916254721 15.057697574336956 0 15.057697574336956 5.7440253394879903 0 0 0 0 -2.0983007138383982 0.64393108940886634 0 0.64393108940886634 9.1978609162743368 0 0 0 0 0.13236120371742288 0.13869420933042065 0 0.13869420933042065 0.091550906739436666 0 0 0 0 16.433395224403284 18.673465104746352 0 18.673465104746352 -32.959658864475045 0 0 0 0 -2.6493703452324553 2.9410340562510129 0 2.9410340562510129 -0.34805187389574144 0 0 0 0 146.06246928066139 -28.299642216467191 0 -28.299642216467191 -17.987475978640688 0 0 0 0 95.139805816574153 24.363123057954297 0 24.363123057954297 8.3863705048829615 0 0 0 0 92.001346433617528 -16.640461863322948 0 -16.640461863322948 -15.439962358886078 0 0 0 0 106.22310219322026 -26.677817918095222 0 -26.677817918095222 -15.213379056113325 0 0 0 0 90.371420916408169 -24.648734644358214 0 -24.648734644358214 -11.277677581735908 0 0 0 0 21.524670761769812 -9.8972886091574566 0 -9.8972886091574566 9.1260642444215705 0 0 0 0 48.491334227172047 -17.700908522517707 0 -17.700908522517707 -4.7634206462978455 0 0 0 0 50.873627809738537 -24.198127181654243 0 -24.198127181654243 -0.27939792098362659 0 0 0 0 50.707478723810937 -8.1254175022621489 0 -8.1254175022621489 -10.947926501702341 0 0 0 0 -0.06971225473201903 -0.0070490939127836327 0 -0.0070490939127836327 1.2878689400489338 0 0 0 0 79.872441098406853 2.4189230488513545 0 2.4189230488513545 -12.56606974528043 0 0 0 0 46.564401102228658 11.117401740894095 0 11.117401740894095 1.5951405048387812 0 0 0 0 118.3512843362405 -7.6126991689311936 0 -7.6126991689311936 -20.914017117313364 0 0 0 0 61.641585899757047 -21.09223284605244 0 -21.09223284605244 3.8774688446315508 0 0 0 0 9.6230098626066365 9.8603632290741761 0 9.8603632290741761 20.807402764495976 0 0 0 0 69.038480502282255 42.538862721989602 0 42.538862721989602 -8.3854497762227993 0 0 0 0 35.573181420762921 -14.204287346826867 0 -14.204287346826867 -13.387491454775045 0 0 0 0 30.787659461106159 27.032168966190568 0 27.032168966190568 -5.2827430130366579 0 0 0 0 151.90631121726074 -0.67295723554654785 0 -0.67295723554654785 -17.80258008957108 0 0 0 0 0.15559406567489376 0.11561713580646327 0 0.11561713580646327 -0.00084024380309422053 0 0 0 0 66.113530238380008 -15.126226334156012 0 -15.126226334156012 -5.674226866919895 0 0 0 0 59.247709177703655 -7.1333160631633774 0 -7.1333160631633774 -11.506782394657051 0 0 0 0 51.93863905136277 -3.2350849918028786 0 -3.2350849918028786 -4.6673995132311603 0 0 0 0 0.25567106778164828 0.31500898292792101 0 0.31500898292792101 0.12923636942118671 0 0 0 0 65.129114711409784 0.3687814573535686 0 0.3687814573535686 -10.501578664095348 0 0 0 0 54.977774848845002 -7.3008777150283493 0 -7.3008777150283493 -0.69236040621032657 0 0 0 0 57.383166127649019 -16.546470690293596 0 -16.546470690293596 -3.3622565763270487 0 0 0 0 0.20574259138067497 0.30284515158122005 0 0.30284515158122005 0.35915247085467406 0 0 0 0 56.277354497864508 -3.1418818440343301 0 -3.1418818440343301 -11.494522211589697 0 0 0 0 19.878414326190068 10.27790663121546 0 10.27790663121546 25.61380341453274 0 0 0 0 28.69065456993485 -9.7707422318141717 0 -9.7707422318141717 37.299890813569654 0 0 0 0 53.100142399356628 -8.67264436674804 0 -8.67264436674804 -4.6032644231446032 0 0 0 0 35.276202717317574 0.61961249804081575 0 0.61961249804081575 0.29463051750642855 0 0 0 0 51.121725509081443 8.942417558277171 0 8.942417558277171 -1.6473329359643163 0 0 0 0 53.111330601594091 -20.324055907814341 0 -20.324055907814341 3.9059652745889508 0 0 0 0 0.071498290652638463 -0.020904032158480135 0 -0.020904032158480135 1.1904706222937378 0 0 0 0 29.284958516367624 -7.8182381392037001 0 -7.8182381392037001 17.95250816919841 0 0 0 0 85.51279058439286 -12.139162895953589 0 -12.139162895953589 -21.614715450478684 0 0 0 0 95.199355685259434 29.293827014584942 0 29.293827014584942 3.6401434086735378 0 0 0 0 0.25779346241710854 -0.092229564770878625 0 -0.092229564770878625 -0.15736344546685033 0 0 0 0 22.82036069771857 -20.864670561149701 0 -20.864670561149701 -17.920571541741239 0 0 0 0 113.06656751183618 -21.257811748542167 0 -21.257811748542167 -20.445275566313924 0 0 0 0 55.997478240602504 1.3418018387303352 0 1.3418018387303352 31.674809814650757 0 0 0 0 55.271536497180932 11.806992834997242 0 11.806992834997242 -16.082231018223801 0 0 0 0 38.444300758719692 3.465751854626518 0 3.465751854626518 -8.6850217650700898 0 0 0 0 49.14786261199697 15.430947262922174 0 15.430947262922174 4.3162322695568651 0 0 0 0 49.17946210977243 1.5484576395277756 0 1.5484576395277756 12.231970397982337 0 0 0 0 0.045306047159440199 -0.026801223191242229 0 -0.026801223191242229 0.46356767282250089 0 0 0 0 55.996588685306051 4.4145723955675287 0 4.4145723955675287 8.2465789427818947 0 0 0 0 21.767682261977825 0.26830949701979695 0 0.26830949701979695 13.903518508504643 0 0 0 0 0.48722070638980597 -0.36472966822136144 0 -0.36472966822136144 0.1984592254744377 0 0 0 0 55.489623971045148 14.84117145536765 0 14.84117145536765 -16.077669013826611 0 0 0 0 16.83040124377294 74.23143989524948 0 74.23143989524948 -11.709445421375214 0 0 0 0 49.222088739876199 1.5171503985352999 0 1.5171503985352999 19.843007857419536 0 0 0 0 50.967259871793885 4.1881493376978565 0 4.1881493376978565 -6.052220599152113 0 0 0 0 61.490406443335814 12.511287247172415 0 12.511287247172415 -4.1240313439514811 0 0 0 0 51.739603552156041 18.297199916845706 0 18.297199916845706 11.918793381344482 0 0 0 0 26.916370716386155 17.93592516155455 0 17.93592516155455 12.480487399525455 0 0 0 0 -11.47240939848416 -25.360904886909736 0 -25.360904886909736 57.385003300456674 0 0 0 0 0.25466539733508142 -0.20470424409014143 0 -0.20470424409014143 0.20649739080591858 0 0 0 0 85.254390954287373 29.689677049172293 0 29.689677049172293 -7.7015332461773554 0 0 0 0 10.309598040985293 -16.933462506456777 0 -16.933462506456777 -4.2756182799982483 0 0 0 0 66.119520326734346 8.7278537690815163 0 8.7278537690815163 -17.869164318300321 0 0 0 0 23.142489609785116 -10.168245935989532 0 -10.168245935989532 -9.4564761373570612 0 0 0 0 87.627499564451682 -14.58141454013116 0 -14.58141454013116 -1.6930666132223422 0 0 0 0 23.939671940572225 8.2368836217621535 0 8.2368836217621535 -2.789533339918794 0 0 0 0 7.3933086262422876 5.2984671342087966 0 5.2984671342087966 6.4395558210671613 0 0 0 0 0.10368118147577654 0.12511703535061613 0 0.12511703535061613 0.21928749704845546 0 0 0 0 23.233142411187146 37.266755664437994 0 37.266755664437994 6.1381637671910205 0 0 0 0 46.87235829438896 -13.155841962712607 0 -13.155841962712607 3.4901359900445943 0 0 0 0 0.21612391656226038 0.072290192440181755 0 0.072290192440181755 0.0063821960627857572 0 0 0 0 10.709886258906408 -10.288316334478379 0 -10.288316334478379 3.3450322160258299 0 0 0 0 35.083364816600806 0.8439972535261322 0 0.8439972535261322 -0.017560330403205249 0 0 0 0 32.756966286684474 3.0635019115142166 0 3.0635019115142166 -2.1282072824727272 0 0 0 0 56.207014442653417 8.5418822187169994 0 8.5418822187169994 -2.8300624009630484 0 0 0 0 36.523638145936275 17.463700007351456 0 17.463700007351456 15.968223503609822 0 0 0 0 69.245436885354138 35.491377592001612 0 35.491377592001612 6.8601405824447825 0 0 0 0 35.073768810713318 6.8822204857020521 0 6.8822204857020521 -2.0007123352056713 0 0 0 0 30.667971069384066 14.208719034014834 0 14.208719034014834 -1.3124468813451537 0 0 0 0 14.415589542716589 2.3257544622701452 0 2.3257544622701452 0.014170532132713689 0 0 0 0 0.25390634236253007 -0.11093891152385993 0 -0.11093891152385993 0.046316361738154843 0 0 0 0 -1.5126137061433838 -18.788333415878999 0 -18.788333415878999 -5.895716830339417 0 0 0 0 -17.13527884425821 -11.90528637746559 0 -11.90528637746559 -8.2924544075951161 0 0 0 0 25.774314831445736 0.23125749893196179 0 0.23125749893196179 -5.7237363243206865 0 0 0 0 -13.647497400858811 -11.603375657145049 0 -11.603375657145049 -3.5139588404437241 0 0 0 0 4.3924487380176771 -0.52047778135913214 0 -0.52047778135913214 -0.16476587889944194 0 0 0 0 -1.088650865870477 -19.869633966206106 0 -19.869633966206106 -18.204386966011338 0 0 0 0 2.9246187079661468 6.8333317232225994 0 6.8333317232225994 -13.842664264661423 0 0 0 0 0.41827624393113183 0.29356676655348846 0 0.29356676655348846 -0.12644972910416755 0 0 0 0 62.693988194310805 -22.593439756532284 0 -22.593439756532284 3.3704054054096133 0 0 0 0 78.214077878299577 11.50138606497169 0 11.50138606497169 -4.5898456200493172 0 0 0 0 72.019368638686501 4.8776419846441259 0 4.8776419846441259 20.789346500719741 0 0 0 0 86.703421002607683 -3.6570593617144453 0 -3.6570593617144453 -4.8267840621735996 0 0 0 0 0.78966767691509787 -0.14873914072428107 0 -0.14873914072428107 -0.27848085392231825 0 0 0 0 7.4100657913040777 -1.2664965704009852 0 -1.2664965704009852 4.7049415327099524 0 0 0 0 37.729908545767103 -30.45814058871488 0 -30.45814058871488 20.380648863860245 0 0 0 0 43.352650852688384 -32.747990659927979 0 -32.747990659927979 -19.009106729774452 0 0 0 0 46.032807836708344 -17.772644258701593 0 -17.772644258701593 12.394225054769194 0 0 0 0 18.613086147066497 -36.880405582831976 0 -36.880405582831976 0.68859796657109706 0 0 0 0 0.26749977975893557 0.042690185838072381 0 0.042690185838072381 -0.0078794848457702689 0 0 0 0 2.9206574368354268 2.9628315081626511 0 2.9628315081626511 0.011303150113760346 0 0 0 0 40.106612603554822 -40.065955154113915 0 -40.065955154113915 0.7176135615402629 0 0 0 0 53.607896870232707 -12.140283759269517 0 -12.140283759269517 -0.038201219107500961 0 0 0 0 22.083980275105205 3.3195534840999876 0 3.3195534840999876 0.083652591944829796 0 0 0 0 20.061015419341857 8.649601337344281 0 8.649601337344281 2.9000073416776662 0 0 0 0 -15.349398856564221 -20.377229454511209 0 -20.377229454511209 -0.10224550188278103 0 0 0 0 25.710000081757244 6.7954480546325433 0 6.7954480546325433 2.7648355426125648 0 0 0 0 66.292496463374846 18.33698083171884 0 18.33698083171884 0.036498881767530016 0 0 0 0 20.979248488399662 22.094301095885967 0 22.094301095885967 26.651269216390915 0 0 0 0 100.42299502214473 68.106223120224229 0 68.106223120224229 31.756296406593371 0 0 0 0 45.38675369898192 34.284734234864651 0 34.284734234864651 60.853216881734525 0 0 0 0 59.607348563184132 17.950926317617231 0 17.950926317617231 12.338269130715963 0 0 0 0 107.31340549435618 -48.112755022453115 0 -48.112755022453115 -35.629458850220324 0 0 0 0 161.69669219762909 35.691586752523975 0 35.691586752523975 -0.088682884917629184 0 0 0 0 1.4849844236707668 0.018918676628315367 0 0.018918676628315367 -0.043618992699472975 0 0 0 0 46.775824728705629 58.152842051716753 0 58.152842051716753 24.350516692078504 0 0 0 0 175.86964505536116 98.31236033900025 0 98.31236033900025 28.358547806174144 0 0 0 0 205.30952705454115 21.205131813096695 0 21.205131813096695 11.635874570393883 0 0 0 0 181.32623437848997 87.347037162276976 0 87.347037162276976 11.67086206466584 0 0 0 0 212.32207921720737 11.976503688038107 0 11.976503688038107 31.043084142581193 0 0 0 0 6.4690725811442462 10.546054456923603 0 10.546054456923603 27.830099510600828 0 0 0 0 32.813747056876309 48.023513360366721 0 48.023513360366721 16.329576158480208 0 0 0 0 33.792558186586575 -6.3647751955817498 0 -6.3647751955817498 -49.383807725356135 0 0 0 0 38.835285255410781 -29.125501672529118 0 -29.125501672529118 -7.1439907660176658 0 0 0 0 3.7941071533200414 -0.54658336937812191 0 -0.54658336937812191 0.018239260451638484 0 0 0 0 24.466606882549968 -7.249588343829565 0 -7.249588343829565 -45.08586820953073 0 0 0 0 5.4257142539609049 17.391941288811793 0 17.391941288811793 -8.5267516913917234 0 0 0 0 25.264360646027853 1.0310691779459091 0 1.0310691779459091 -15.720176461584707 0 0 0 0 18.771781931367514 5.3021079963416433 0 5.3021079963416433 -0.25990991690223453 0 0 0 0 49.754962261886249 -31.423088401095548 0 -31.423088401095548 8.4640216505084247 0 0 0 0 -11.923020389597696 -9.5159382850717087 0 -9.5159382850717087 14.167895134670687 0 0 0 0 1.686160857373352 -0.15866598693066214 0 -0.15866598693066214 0.015696030361798563 0 0 0 0 52.57960093802194 -63.081598440210371 0 -63.081598440210371 11.06678069031156 0 0 0 0 71.337397024048187 53.302235646368651 0 53.302235646368651 94.285609739232925 0 0 0 0 103.51718607777002 13.691777780911195 0 13.691777780911195 -16.742571688254888 0 0 0 0 174.25668336367858 55.67994870561445 0 55.67994870561445 3.6707277847309001 0 0 0 0 153.54934472486639 -52.089265283135674 0 -52.089265283135674 -26.52674225460644 0 0 0 0 76.330343066932983 -13.551893914004449 0 -13.551893914004449 -12.015693563370739 0 0 0 0 66.055250292338314 -24.627120790124707 0 -24.627120790124707 -11.794422092068068 0 0 0 0 89.676704879475267 -17.12250902207461 0 -17.12250902207461 -20.798242504395386 0 0 0 0 82.391759455098509 3.4602647914569573 0 3.4602647914569573 -14.69992092833121 0 0 0 0 89.4204553431573 -0.45860078267472026 0 -0.45860078267472026 -14.559167514108644 0 0 0 0 73.655299323119834 0.593395129476324 0 0.593395129476324 -9.4396641524644629 0 0 0 0 68.916606557090745 -6.5932488456392555 0 -6.5932488456392555 -16.374411942385215 0 0 0 0 66.202436817080525 -21.366506158305096 0 -21.366506158305096 -17.670186364844472 0 0 0 0 64.892211839818629 -18.500490271572172 0 -18.500490271572172 -18.176024130698096 0 0 0 0 51.438564539792424 -21.837331330062369 0 -21.837331330062369 -16.057474798097545 0 0 0 0 51.415382369592407 -11.021159478460314 0 -11.021159478460314 -33.883452324798242 0 0 0 0 24.089981988277941 4.0551158974708024 0 4.0551158974708024 -24.462817121363205 0 0 0 0 43.635977341054968 -16.35437569734745 0 -16.35437569734745 -13.419819406025042 0 0 0 0 58.747664522354171 -11.35379573899926 0 -11.35379573899926 -22.635686007201251 0 0 0 0 18.769415454527916 10.162289052729594 0 10.162289052729594 12.043756013638657 0 0 0 0 18.694366582397379 9.4832176440092173 0 9.4832176440092173 8.430044625164399 0 0 0 0 6.5436153124592238 7.5863149408796602 0 7.5863149408796602 10.362894517453228 0 0 0 0 10.806590474039695 6.7867668047866125 0 6.7867668047866125 6.6218714190536261 0 0 0 0 21.189617126618032 9.826489639828683 0 9.826489639828683 5.8616705800828726 0 0 0 0 23.437891785083593 6.1067394861370943 0 6.1067394861370943 2.0945779075556601 0 0 0 0 35.488712321039202 16.411003648785016 0 16.411003648785016 6.4858650881255144 0 0 0 0 41.111239165981715 9.7464643990950197 0 9.7464643990950197 -0.28108455202467297 0 0 0 0 48.032828224853802 17.50105474859328 0 17.50105474859328 1.9909194925693328 0 0 0 0 63.386679562996505 10.36587773232641 0 10.36587773232641 -5.7301917192086833 0 0 0 0 62.256979307319853 8.0125183568583331 0 8.0125183568583331 -9.7186361426499701 0 0 0 0 87.145003546294447 14.169196173192272 0 14.169196173192272 -8.2194085274840205 0 0 0 0 60.659608254652994 21.595800885485694 0 21.595800885485694 1.6768260689805174 0 0 0 0 59.562194730169722 18.931070805618184 0 18.931070805618184 1.8738992228206186 0 0 0 0 31.478717671137929 16.527103355823801 0 16.527103355823801 24.58604391858421 0 0 0 0 45.187358324101297 22.860928176340863 0 22.860928176340863 26.81461263555444 0 0 0 0 42.773084944856237 31.321345399077607 0 31.321345399077607 45.22028762844765 0 0 0 0 96.237580166669431 42.924244936415199 0 42.924244936415199 13.323774333925414 0 0 0 0 63.638955152695416 23.02212050831276 0 23.02212050831276 33.717172359861543 0 0 0 0 11.56574866992014 4.7584177931474798 0 4.7584177931474798 37.422942497496948 0 0 0 0 14.873008389800816 13.812493969839062 0 13.812493969839062 11.821259763766204 0 0 0 0 16.856076526281868 -10.181255654417827 0 -10.181255654417827 5.9235771637602461 0 0 0 0 18.225644530779391 -1.8403340105982684 0 -1.8403340105982684 40.380906384665195 0 0 0 0 30.182456044446099 9.3737613256686743 0 9.3737613256686743 6.4181031779544355 0 0 0 0 0.23310918409988801 -0.17789814069083576 0 -0.17789814069083576 0.18954142825963705 0 0 0 0 -16.263765781090115 6.1085270717714408 0 6.1085270717714408 42.319419728877804 0 0 0 0 23.750707940347638 -40.25333441671458 0 -40.25333441671458 18.771028901844311 0 0 0 0 -13.308671340153523 -0.032700544117905572 0 -0.032700544117905572 40.399079020252188 0 0 0 0 2.6425645333110879 4.1012480177951076 0 4.1012480177951076 -7.5872984017120482 0 0 0 0 12.017457437308622 -10.596346459778516 0 -10.596346459778516 -20.824632151852335 0 0 0 0 3.5601956078155794 -0.27789415570168963 0 -0.27789415570168963 -0.056700398188903073 0 0 0 0 3.9013643237922224 1.9452699578850172 0 1.9452699578850172 -8.3916232642429609 0 0 0 0 2.8628540848185366 2.955833748383192 0 2.955833748383192 -4.1213615339961045 0 0 0 0 28.720449604848909 -20.250918512269802 0 -20.250918512269802 36.508708986441349 0 0 0 0 35.754007148943856 34.257574542039485 0 34.257574542039485 47.724836070343436 0 0 0 0 27.888107310008309 6.7015866138250999 0 6.7015866138250999 -34.0340541090996 0 0 0 0 3.2762670264641329 -0.21146601346109417 0 -0.21146601346109417 -0.069393321781111031 0 0 0 0 11.419497555842099 9.8963054829866017 0 9.8963054829866017 -15.39302858938062 0 0 0 0 15.336971059019561 18.775931446449857 0 18.775931446449857 0.048610552565739651 0 0 0 0 7.711892753110078 0.94311327257946509 0 0.94311327257946509 -25.147800567721585 0 0 0 0 2.2611778424052318 11.316636462580693 0 11.316636462580693 -0.013670664022233901 0 0 0 0 2.7633056571285124 2.5268082637830158 0 2.5268082637830158 -4.7776152459083967 0 0 0 0 2.7084109832057948 4.4555853107069723 0 4.4555853107069723 -5.823829781272714 0 0 0 0 2.6368170245359579 4.9269444017972548 0 4.9269444017972548 -5.8912542167813555 0 0 0 0 1.6903432936906029 7.514373714328098 0 7.514373714328098 -7.9205582044848395 0 0 0 0 1.7478835939928103 6.8630824818165843 0 6.8630824818165843 -2.9001952282576977 0 0 0 0 0.64926220329107309 6.6753631159734521 0 6.6753631159734521 0.0012368716855891389 0 0 0 0 -0.31826037846258259 5.7434392587147922 0 5.7434392587147922 -0.81491301255013582 0 0 0 0 -1.0918438020348731 3.5923795225533932 0 3.5923795225533932 1.5580210269015033 0 0 0 0 2.2257652452317416 3.6956523441196509 0 3.6956523441196509 -1.3782849131822248 0 0 0 0 3.00680525392454 1.4233945402497916 0 1.4233945402497916 0.27220193683917415 0 0 0 0 1.5572755461034831 3.1559374635321529 0 3.1559374635321529 -1.0503249369524212 0 0 0 0 3.5473476097758976 1.6005940928796356 0 1.6005940928796356 -1.3784622471769481 0 0 0 0 2.7467744090963606 4.0493599985400683 0 4.0493599985400683 -2.3054800704765199 0 0 0 0 3.1546417500685493 2.62035332216605 0 2.62035332216605 -3.9522794544417046 0 0 0 0 3.3272159920779814 1.8640407064492663 0 1.8640407064492663 -0.34221904970194927 0 0 0 0 4.517600689221581 2.2065118508995614 0 2.2065118508995614 -0.75277154296454007 0 0 0 0 3.2957290909635049 0.75770206194551226 0 0.75770206194551226 0.13964903642951976 0 0 0 0 0.80965696683025001 0.23457087308300117 0 0.23457087308300117 -0.033073179762798111 0 0 0 0 2.6516406718137659 0.6385613640341129 0 0.6385613640341129 0.00047913286703095984 0 0 0 0 -0.026784044271341401 0.032275600985794739 0 0.032275600985794739 0.011477471065617643 0 0 0 0 2.962279681560176 0.83964916447742444 0 0.83964916447742444 0.1238979119908008 0 0 0 0 2.8385313206963474 0.6290243469064809 0 0.6290243469064809 0.27190721388452177 0 0 0 0 2.7322816396936105 0.80313305140697944 0 0.80313305140697944 -6.4298565042732398e-05 0 0 0 0 2.6174495461250586 0.79160575259158783 0 0.79160575259158783 0.13297820621170053 0 0 0 0 9.3211117424189069 -45.479035917974763 0 -45.479035917974763 38.502087639502861 0 0 0 0 2.6338132550036519 0.8724957838916545 0 0.8724957838916545 0.33196391682658016 0 0 0 0 3.0548889331366809 0.56480338601133484 0 0.56480338601133484 0.28949364156220758 0 0 0 0 1.2499123946399777 6.0919045975923751 0 6.0919045975923751 -2.8626883803763832 0 0 0 0 19.57007032713409 -6.6643270865941844 0 -6.6643270865941844 4.1625953197846641 0 0 0 0 0.70292742065882763 0.023381605994924115 0 0.023381605994924115 0.32745609943545417 0 0 0 0 8.0200362232535554 -26.321225439463369 0 -26.321225439463369 24.950586285288161 0 0 0 0 -14.384622528290492 -12.009653143478982 0 -12.009653143478982 17.542536172366027 0 0 0 0 12.250086854297479 -16.848047977690932 0 -16.848047977690932 35.097904129977721 0 0 0 0 -0.17658664746704744 -7.3309737841722722 0 -7.3309737841722722 20.631202974409106 0 0 0 0 -0.93324000997199619 -7.9065381873030063 0 -7.9065381873030063 36.130031258122351 0 0 0 0 -5.4045157186774304 0.22832486782236572 0 0.22832486782236572 29.267437723242619 0 0 0 0 -9.5292270306854334 -14.483061204757622 0 -14.483061204757622 28.760149163104021 0 0 0 0 -9.4125780271315307 -9.7120363866986708 0 -9.7120363866986708 34.205377092038376 0 0 0 0 -6.7711371330524344 -10.685675164060857 0 -10.685675164060857 22.521334172104805 0 0 0 0 3.3417263815208571 0.34613895815785867 0 0.34613895815785867 -0.60570872871382875 0 0 0 0 -6.1154913050359028 -15.415588338329702 0 -15.415588338329702 20.278270672478634 0 0 0 0 0.1932894414324835 0.45785560414944104 0 0.45785560414944104 0.037600798427741652 0 0 0 0 3.0636605660104408 0.56221711103624905 0 0.56221711103624905 0.027224363280498168 0 0 0 0 4.036807157775911 -0.067677116196836806 0 -0.067677116196836806 -4.7787752405682937 0 0 0 0 3.2279852101428332 6.6276102251815718 0 6.6276102251815718 22.84302917758523 0 0 0 0 6.5831698655383661 3.1929761351951207 0 3.1929761351951207 -1.3704628862494381 0 0 0 0 25.109687644961014 24.505303693788953 0 24.505303693788953 -28.807688211887111 0 0 0 0 39.024392136873757 46.259209529051283 0 46.259209529051283 0.42927664530669479 0 0 0 0 234.84840445123336 -37.208421068919236 0 -37.208421068919236 -35.499676071598884 0 0 0 0 -48.218111731752288 -4.3440888531742985 0 -4.3440888531742985 -39.276012552569604 0 0 0 0 158.38380085319841 -184.40562394712933 0 -184.40562394712933 -90.497720772712299 0 0 0 0 256.95778041574886 -108.94465992597974 0 -108.94465992597974 -43.842899337390094 0 0 0 0 1.5105814077195987 -0.44969751845755823 0 -0.44969751845755823 0.0043012878914037156 0 0 0 0 1.4578922287609686 0.10614036985418096 0 0.10614036985418096 -0.015780447961286061 0 0 0 0 235.1848500409823 -188.41217896717197 0 -188.41217896717197 5.6553496642872503 0 0 0 0 2.3338460264203604 0.49376086670487895 0 0.49376086670487895 -0.16113577023506021 0 0 0 0 2.0902513028304384 0.69630342646274901 0 0.69630342646274901 -0.00092395178404799971 0 0 0 0 33.991536032805016 53.068430223973536 0 53.068430223973536 -21.654325890877118 0 0 0 0 296.52849828914077 -80.587329145129516 0 -80.587329145129516 31.793912564555555 0 0 0 0 5.0713410187017871 26.865555764495831 0 26.865555764495831 92.022027450640138 0 0 0 0 80.913964494981883 20.275359007235316 0 20.275359007235316 12.156130750290657 0 0 0 0 -19.311899924889985 12.661724633591184 0 12.661724633591184 11.930608057893593 0 0 0 0 16.142837044224507 -2.8070835585602083 0 -2.8070835585602083 -6.0285616148268701 0 0 0 0 131.91952805450092 -37.384962899566432 0 -37.384962899566432 18.437657919025128 0 0 0 0 0.6068551923754768 0.48637879637189485 0 0.48637879637189485 0.26222785195287579 0 0 0 0 383.52582289786915 20.092309292193796 0 20.092309292193796 -22.266977433462756 0 0 0 0 252.56319116452505 56.028857045692803 0 56.028857045692803 -6.8973828493060125 0 0 0 0 88.419000086096275 63.552154506939857 0 63.552154506939857 14.504562204462687 0 0 0 0 -8.5556752752872853 -35.549074665386229 0 -35.549074665386229 2.3336147174997706 0 0 0 0 92.705280371562822 36.999331685777229 0 36.999331685777229 15.490715472885256 0 0 0 0 13.016561406380788 16.926983759378828 0 16.926983759378828 28.064831307476538 0 0 0 0 -5.5436101284049073 -7.4949773834231905 0 -7.4949773834231905 13.166549932635576 0 0 0 0 24.065111601426906 14.086587136122219 0 14.086587136122219 -118.12527406068006 0 0 0 0 2.9633567575672402 -0.87757292354851479 0 -0.87757292354851479 -0.052168105228117434 0 0 0 0 3.5580305051312955 3.242192103763637 0 3.242192103763637 2.412310631185751 0 0 0 0 19.357297190418876 35.222397612469969 0 35.222397612469969 0.86064760968992005 0 0 0 0 117.27315408336653 4.3713725526938276 0 4.3713725526938276 -9.6538891300020282 0 0 0 0 27.418089572212239 -8.7190489250366312 0 -8.7190489250366312 9.2672234840795795 0 0 0 0 144.25331170114259 -4.5474208646074885 0 -4.5474208646074885 -16.668294936180033 0 0 0 0 112.95207582715375 1.7054036014753251 0 1.7054036014753251 19.895146068226097 0 0 0 0 1.284458446478201 1.5027126697199726 0 1.5027126697199726 0.9519501843983218 0 0 0 0 175.47685400889713 -13.203235209138711 0 -13.203235209138711 -17.558863401797339 0 0 0 0 -10.996070875302394 21.28126240707341 0 21.28126240707341 0.082069891702630571 0 0 0 0 167.52106956492702 37.712540020035938 0 37.712540020035938 10.815020551497582 0 0 0 0 72.968302656749984 19.964737709312885 0 19.964737709312885 7.8026477300763304 0 0 0 0 21.21106235895968 -18.672584285552603 0 -18.672584285552603 -27.791169090408403 0 0 0 0 0.24533716363226432 0.82775697586644625 0 0.82775697586644625 0.42986882788477843 0 0 0 0 163.97891540903038 -36.718432907228532 0 -36.718432907228532 32.368763641043643 0 0 0 0 1.2472215033799294 0.87409339400388575 0 0.87409339400388575 0.47487123168894962 0 0 0 0 327.07211972141522 38.689584550939912 0 38.689584550939912 -89.153644442423683 0 0 0 0 284.26527002603507 -94.296147670757136 0 -94.296147670757136 1.8877512981697464 0 0 0 0 -10.511587603854423 123.40817492936532 0 123.40817492936532 -36.769856143753714 0 0 0 0 101.63477383711052 -24.600370736355586 0 -24.600370736355586 0.75002842955927918 0 0 0 0 188.27267387796746 -59.050446898830785 0 -59.050446898830785 10.085199421574771 0 0 0 0 3.0012324449697338 2.3612646035337832 0 2.3612646035337832 1.3297622099207067 0 0 0 0 92.975147159926564 0.85081676416319851 0 0.85081676416319851 -13.897787311545869 0 0 0 0 -28.150022318286574 10.753393213548748 0 10.753393213548748 -17.440865894165881 0 0 0 0 18.744160389755052 -3.2223635103961215 0 -3.2223635103961215 -47.686033877161151 0 0 0 0 8.2991731232264101 -11.4003325992432 0 -11.4003325992432 -1.28396435315085 0 0 0 0 -0.57161312447010459 7.2022748769790894 0 7.2022748769790894 -10.534059279969597 0 0 0 0 -7.9872955337923486 32.879790914756029 0 32.879790914756029 -46.995952073873241 0 0 0 0 0.49973377943375397 -0.53139073723479768 0 -0.53139073723479768 0.29377314351780587 0 0 0 0 -0.12532881558581721 -2.9751011856082386 0 -2.9751011856082386 2.2091795432766368 0 0 0 0 -0.48404884359842981 5.9779057590552327 0 5.9779057590552327 12.834268302127363 0 0 0 0 -4.3474778310464899 0.74903297692264736 0 0.74903297692264736 13.697182492210018 0 0 0 0 6.1905951982134866 -14.619256243876737 0 -14.619256243876737 -0.94937133700589982 0 0 0 0 26.220905246807888 -13.571939280757164 0 -13.571939280757164 8.4431860417075484 0 0 0 0 -0.47318291790224976 0.69834626688251156 0 0.69834626688251156 0.96595075884324899 0 0 0 0 13.981424090212386 9.4710505977210246 0 9.4710505977210246 5.8816151401934462 0 0 0 0 4.7454544462816557 1.1738025750802734 0 1.1738025750802734 -1.2343290486802942 0 0 0 0 3.6335089674976189 7.4535478878138335 0 7.4535478878138335 -6.5060890231731605 0 0 0 0 8.2025756087841728 0.17417437498125565 0 0.17417437498125565 -8.2981445990749449 0 0 0 0 1.0844266796231778 -0.081225732208419998 0 -0.081225732208419998 0.91830944056288333 0 0 0 0 -0.75871188350174634 -0.53734397974385573 0 -0.53734397974385573 2.6668576098168231 0 0 0 0 1.6450008275819847 2.1877888233222755 0 2.1877888233222755 1.8414439560345102 0 0 0 0 -19.945619994243316 35.462413390172713 0 35.462413390172713 0.61908926508704099 0 0 0 0 1.0509225966644991 2.064039470072121 0 2.064039470072121 3.8254956327174452 0 0 0 0 -13.255457953349833 4.0242346638060109 0 4.0242346638060109 20.310233830377353 0 0 0 0 10.37517004993606 3.9563366851630359 0 3.9563366851630359 3.2090599610938817 0 0 0 0 0.35335549983756209 8.1759744093816309 0 8.1759744093816309 6.8977343548327479 0 0 0 0 2.9818161957141456 5.6436733573008429 0 5.6436733573008429 7.606975452363784 0 0 0 0 5.6320396319315478 4.7722700262528122 0 4.7722700262528122 7.7369743519455412 0 0 0 0 10.143674543709494 4.7856222718452095 0 4.7856222718452095 4.0695135131836899 0 0 0 0 -2.1069463689382246 5.6997526800803815 0 5.6997526800803815 9.3415015819840264 0 0 0 0 -0.87533121805245173 1.5885029404277162 0 1.5885029404277162 3.4403349900832438 0 0 0 0 12.874204219830062 7.1912449198381356 0 7.1912449198381356 -2.6447264808827686 0 0 0 0 -10.474926840113767 9.2731758208307049 0 9.2731758208307049 7.6007897204703383 0 0 0 0 27.141628400146146 -4.1239167953840159 0 -4.1239167953840159 -5.1196454897779802 0 0 0 0 -4.8606518099368259 -3.0499930891175007 0 -3.0499930891175007 0.86575496333792756 0 0 0 0 0.16089979851895464 0.14687745647042405 0 0.14687745647042405 0.089931308061103943 0 0 0 0 1.6464396328992734 7.0160186771017905 0 7.0160186771017905 -2.0985694999446025 0 0 0 0 14.59668140244321 -2.2712985321266697 0 -2.2712985321266697 0.98701757953173441 0 0 0 0 3.6577768156644197 -5.9331768654218671 0 -5.9331768654218671 7.6129915292655426 0 0 0 0 0.31271739339564064 0.32053175017008328 0 0.32053175017008328 0.23679689702742898 0 0 0 0 5.9506217796879355 -0.17578873435921682 0 -0.17578873435921682 -8.9085054032511977 0 0 0 0 1.9777104433906061 12.045137494079512 0 12.045137494079512 -2.5028246157247871 0 0 0 0 0.43352054659245098 0.94626850468847223 0 0.94626850468847223 2.0786766623495447 0 0 0 0 16.057922500029235 1.1609974899880484 0 1.1609974899880484 -9.9531761203298572 0 0 0 0 20.650545432411491 -10.094494918390275 0 -10.094494918390275 -3.6289882837865264 0 0 0 0 -7.8533845742831545 -3.9977775953443313 0 -3.9977775953443313 33.792816880676071 0 0 0 0 34.222803770604514 -7.0542729238665061 0 -7.0542729238665061 4.9642246611772975 0 0 0 0 46.444802516311029 2.1312545601335273 0 2.1312545601335273 10.887343141297947 0 0 0 0 0.1059240834844104 0.25268348493943193 0 0.25268348493943193 0.7783713466840827 0 0 0 0 6.4643242353404275 21.046467777352618 0 21.046467777352618 31.727721114428192 0 0 0 0 -6.6483919997663179 9.8264576679302706 0 9.8264576679302706 30.310336477201815 0 0 0 0 -10.196074910820244 6.3027415792659198 0 6.3027415792659198 27.931121179776056 0 0 0 0 13.73250250165438 -14.093763203002851 0 -14.093763203002851 2.6140518591487023 0 0 0 0 12.253750312608645 -11.232887737723772 0 -11.232887737723772 3.5814680770175755 0 0 0 0 24.692982314252731 -5.1581001115875722 0 -5.1581001115875722 -0.356562035790148 0 0 0 0 -2.9943692387023475 -5.0449937047723097 0 -5.0449937047723097 5.2336319287178412 0 0 0 0 3.6747326114018506 1.0796064256074374 0 1.0796064256074374 4.7924193542835951 0 0 0 0 -1.7694755146967509 -2.4259158536534926 0 -2.4259158536534926 10.332354182221479 0 0 0 0 2.2540857495205273 -1.6899881816276547 0 -1.6899881816276547 -0.32894398693787252 0 0 0 0 -5.0443658958502056 -9.3942339095077614 0 -9.3942339095077614 -2.6423190680347943 0 0 0 0 -21.921655263357025 4.9103452234488714 0 4.9103452234488714 6.1778996381039519 0 0 0 0 -5.9490558633733599 -10.185625534589462 0 -10.185625534589462 14.744388460463369 0 0 0 0 18.634828522452153 -6.3973921452357843 0 -6.3973921452357843 1.1388439798575405 0 0 0 0 26.187852123184712 -16.438046506025387 0 -16.438046506025387 6.0592752709907813 0 0 0 0 -3.7764344435490784 6.2558262115699108 0 6.2558262115699108 3.853420333759459 0 0 0 0 11.249636236382685 -16.943702441399211 0 -16.943702441399211 21.325671254927329 0 0 0 0 -1.6632893867790699 6.1933823309844911 0 6.1933823309844911 -8.0848704163295224 0 0 0 0 -47.20064071332672 17.585271270532417 0 17.585271270532417 18.844849500399619 0 0 0 0 13.030574454591942 7.9693483571566635 0 7.9693483571566635 -2.6641616464244215 0 0 0 0 0.7346920970563815 1.6065836863938578 0 1.6065836863938578 3.2131684962018596 0 0 0 0 30.513786253077342 8.4494400026785339 0 8.4494400026785339 -11.417753678616716 0 0 0 0 2.1574139758013189 3.6854579628616193 0 3.6854579628616193 -11.081710509472146 0 0 0 0 36.397440840599302 -1.1245116606877446 0 -1.1245116606877446 11.546541343996068 0 0 0 0 -13.534757117158733 -5.8547529659164752 0 -5.8547529659164752 26.276230596375399 0 0 0 0 -16.34287089740792 -13.239619428679021 0 -13.239619428679021 7.5746238618630741 0 0 0 0 13.771455639074702 21.900844024273965 0 21.900844024273965 13.276317840612819 0 0 0 0 24.608839401591467 -11.228595309514191 0 -11.228595309514191 32.731671059827931 0 0 0 0 146.77508944711008 27.993389464795655 0 27.993389464795655 -14.528475936765517 0 0 0 0 42.998173205196508 -19.391999265733375 0 -19.391999265733375 39.359234589896232 0 0 0 0 122.56009959552102 -3.5084418440239915 0 -3.5084418440239915 19.950050046749197 0 0 0 0 113.54678760852585 2.9013234643846317 0 2.9013234643846317 91.800336749433882 0 0 0 0 236.63831087698782 116.22722197437156 0 116.22722197437156 66.81618808258736 0 0 0 0 174.34965936886692 108.61077202902982 0 108.61077202902982 -36.430006074510402 0 0 0 0 230.62318384506943 20.056532530545496 0 20.056532530545496 10.671325128140552 0 0 0 0 68.220274499462903 32.352913022765108 0 32.352913022765108 7.8451825282240861 0 0 0 0 129.20447472671822 108.84828950613979 0 108.84828950613979 54.756394738957056 0 0 0 0 115.72921580042384 45.854233611371342 0 45.854233611371342 11.572069813942562 0 0 0 0 81.427511656040224 5.7892752075849216 0 5.7892752075849216 -2.0318286394636971 0 0 0 0 49.245147028028441 -1.4139354571300373 0 -1.4139354571300373 5.5174552290878793 0 0 0 0 52.0813112477299 -6.6327184227371561 0 -6.6327184227371561 7.123669113779215 0 0 0 0 119.06614526839985 -14.655695282706802 0 -14.655695282706802 6.9098134530918287 0 0 0 0 18.604509465760202 -23.499424243055756 0 -23.499424243055756 34.928803863823418 0 0 0 0 12.897041158229513 -9.2035639101362392 0 -9.2035639101362392 -0.72240432616240469 0 0 0 0 63.612879086460453 45.233164941062228 0 45.233164941062228 -6.9377975612669616 0 0 0 0 92.259310559808 25.088527416413399 0 25.088527416413399 -17.525501890220596 0 0 0 0 205.27704997084948 55.78734111785667 0 55.78734111785667 -6.4936753894267412 0 0 0 0 116.68706927033236 -56.829395826475547 0 -56.829395826475547 42.905895912975211 0 0 0 0 1.4241033495869004 0.63403899842371025 0 0.63403899842371025 0.29937935852777686 0 0 0 0 107.26820383316954 101.38793365919059 0 101.38793365919059 0.78255212585162326 0 0 0 0 4.3380743596298998 -10.861332591415277 0 -10.861332591415277 -21.944654936001712 0 0 0 0 185.67584089181946 60.535908508778164 0 60.535908508778164 5.0625534278425448 0 0 0 0 107.64608500953545 36.9417665205223 0 36.9417665205223 4.7484432252568674 0 0 0 0 149.69661581113178 56.921417483093897 0 56.921417483093897 -7.7699041061409773 0 0 0 0 96.156334290750692 95.211352584676177 0 95.211352584676177 32.128565527906758 0 0 0 0 41.755901930793698 7.4741123082859531 0 7.4741123082859531 10.249190550784078 0 0 0 0 129.50274223533233 -34.537794079970951 0 -34.537794079970951 37.549797204659043 0 0 0 0 45.461609214597729 11.327430464617995 0 11.327430464617995 27.76610058096378 0 0 0 0 0.083849560512510024 -0.30760619548150103 0 -0.30760619548150103 -0.52395706528426089 0 0 0 0 129.38261502023124 12.481457175175592 0 12.481457175175592 -14.546715881525131 0 0 0 0 26.011722240347808 -5.333708334719006 0 -5.333708334719006 0.64386772180083085 0 0 0 0 24.454919250201783 -3.2400965784488278 0 -3.2400965784488278 -1.7896023799900149 0 0 0 0 22.627406110304946 -1.8231292646142947 0 -1.8231292646142947 -1.5978533343529655 0 0 0 0 15.822511667853178 -5.0354090949859867 0 -5.0354090949859867 -1.247605455564134 0 0 0 0 -0.087993626059279961 -0.33562267640387944 0 -0.33562267640387944 -1.7870330680617226 0 0 0 0 50.940628002210445 4.624947696678567 0 4.624947696678567 -3.3603009916086819 0 0 0 0 86.712765031876188 19.485090411305521 0 19.485090411305521 -6.9217332875440434 0 0 0 0 33.18452116374101 3.6002065000664061 0 3.6002065000664061 -7.0377767069494119 0 0 0 0 3.2434751953496743 -0.46608212289527273 0 -0.46608212289527273 1.26478665750804 0 0 0 0 19.103971014868875 -2.2205812673818315 0 -2.2205812673818315 -4.0964534194385109 0 0 0 0 22.166448107111137 -7.3139624029281798 0 -7.3139624029281798 0.61692925206651239 0 0 0 0 99.836398055644622 47.12164274253341 0 47.12164274253341 -8.9431583022908114 0 0 0 0 114.78816546417011 76.559550972240174 0 76.559550972240174 3.0140323701187413 0 0 0 0 84.237684187637569 47.407351348451527 0 47.407351348451527 -3.8553231485880133 0 0 0 0 61.140379679975808 21.656095995954018 0 21.656095995954018 0.5710720298779961 0 0 0 0 63.16963181234496 44.00027615942372 0 44.00027615942372 10.812926838361363 0 0 0 0 115.97562926442151 60.890634476049456 0 60.890634476049456 -0.27415631540617369 0 0 0 0 91.507744471931119 56.748383169045731 0 56.748383169045731 1.0684873156366166 0 0 0 0 89.676270845571707 49.593410129645349 0 49.593410129645349 -2.9857731845107196 0 0 0 0 61.531371582103588 73.028596542550872 0 73.028596542550872 53.294666518623217 0 0 0 0 136.9940723554173 81.760170317225857 0 81.760170317225857 18.759379007776033 0 0 0 0 83.787620660291395 56.760525161324779 0 56.760525161324779 7.1335181323497636 0 0 0 0 75.774726711580115 65.66312661448967 0 65.66312661448967 26.68249727957118 0 0 0 0 63.889334538791445 49.025647760290212 0 49.025647760290212 18.273841754129535 0 0 0 0 50.575492552428841 35.515705731232401 0 35.515705731232401 6.942493541030899 0 0 0 0 48.634632849632908 33.316876904867968 0 33.316876904867968 14.474417469335322 0 0 0 0 6.1713460683149606 12.502757078329751 0 12.502757078329751 17.219266244515666 0 0 0 0 -29.647141973800899 8.1363516208109559 0 8.1363516208109559 14.779472646721274 0 0 0 0 0.90363311398744628 0.44651748815311021 0 0.44651748815311021 0.052418254244040785 0 0 0 0 212.42394388140383 -64.492144482920594 0 -64.492144482920594 -20.742543591483809 0 0 0 0 8.9687180950906296 -0.13179801964648963 0 -0.13179801964648963 -1.1921729258473359 0 0 0 0 16.389401934098714 -9.9197883424551492 0 -9.9197883424551492 4.3676241603069172 0 0 0 0 -49.008570331230658 12.442777874922172 0 12.442777874922172 4.945497378227401 0 0 0 0 31.901184320089669 27.662741503057418 0 27.662741503057418 8.3884072841824491 0 0 0 0 21.356390333682612 35.063225786726889 0 35.063225786726889 45.476217499459835 0 0 0 0 33.56827415540829 30.486180488938544 0 30.486180488938544 31.386234974625722 0 0 0 0 -15.451427152755059 2.7117493516384457 0 2.7117493516384457 54.48720321479459 0 0 0 0 59.677260944856243 5.9402241611701356 0 5.9402241611701356 -38.161634786568357 0 0 0 0 -4.0372825003432808 39.460332269387891 0 39.460332269387891 58.481879332187418 0 0 0 0 9.5821067476088686 1.2619561163904383 0 1.2619561163904383 -0.4798668296742421 0 0 0 0 29.735471041276469 33.784022321839984 0 33.784022321839984 57.624119196406809 0 0 0 0 85.963505679919763 69.975629004066377 0 69.975629004066377 45.850758227559027 0 0 0 0 26.687569274963607 64.674702780351026 0 64.674702780351026 88.76200302398729 0 0 0 0 1.1771780901644746 0.087369625562075726 0 0.087369625562075726 -0.28922268101007159 0 0 0 0 15.205556902830722 -6.9160189202045501 0 -6.9160189202045501 -3.2071891547864624 0 0 0 0 9.0671712080584257 -23.069559129317895 0 -23.069559129317895 -43.77935460851036 0 0 0 0 2.0858113629915422 0.42514072180815354 0 0.42514072180815354 -0.78266847122366423 0 0 0 0 115.89495286989586 73.891233157268971 0 73.891233157268971 48.418193053463611 0 0 0 0 1.9529819938518023 -0.050346600106117023 0 -0.050346600106117023 -3.4261287637981237 0 0 0 0 23.402830956104481 -3.2789308992557835 0 -3.2789308992557835 -7.0042488642554872 0 0 0 0 16.777602637406744 9.2054140256404935 0 9.2054140256404935 7.566597801812577 0 0 0 0 24.400997762015322 9.7557537510008387 0 9.7557537510008387 2.6262277108453986 0 0 0 0 23.799692182645231 11.45033144462468 0 11.45033144462468 -1.4424247107799602 0 0 0 0 24.173622795418851 -6.2100439999886703 0 -6.2100439999886703 -6.2381782036735558 0 0 0 0 -71.725648356958118 80.342031324222148 0 80.342031324222148 92.986049107875431 0 0 0 0 4.9587267331260225 5.0188529922883962 0 5.0188529922883962 -3.3375540490851274 0 0 0 0 11.542972489826731 -2.0756643758873183 0 -2.0756643758873183 -1.8717765914770386 0 0 0 0 2.3271909180226231 0.13668533596906052 0 0.13668533596906052 -0.044964706836774226 0 0 0 0 21.805463853657784 -16.083411436900633 0 -16.083411436900633 -40.666666470676262 0 0 0 0 54.046333734560903 -23.324349589685426 0 -23.324349589685426 -43.900225625241944 0 0 0 0 43.367804363599134 -35.821573057453179 0 -35.821573057453179 -65.665577100735732 0 0 0 0 15.118527636180161 -1.9728314250039323 0 -1.9728314250039323 -0.27671967213394821 0 0 0 0 -58.009673243572252 -11.304561789981562 0 -11.304561789981562 -22.561572368314728 0 0 0 0 -3.3091538824173767 -69.098912840044818 0 -69.098912840044818 -11.276399618201594 0 0 0 0 -48.792850440122493 8.0303799281956003 0 8.0303799281956003 -16.264440486185094 0 0 0 0 10.943286453944893 -16.166392536928242 0 -16.166392536928242 -34.69628657013061 0 0 0 0 -7.242622272704466 -19.381864263410336 0 -19.381864263410336 -32.271285839682889 0 0 0 0 81.939098200666194 99.270194074931922 0 99.270194074931922 29.483254768091044 0 0 0 0 -3.5902271075772205 -3.161949956250691 0 -3.161949956250691 -26.550192812062619 0 0 0 0 5.7128776737408771 0.093451039775722222 0 0.093451039775722222 -29.016820987870233 0 0 0 0 8.1556583015826618 1.0887146789685964 0 1.0887146789685964 -25.022587666333109 0 0 0 0 17.419321704690365 -2.6319464093986902 0 -2.6319464093986902 0.26066218659780782 0 0 0 0 10.085079813279663 -0.95715356344186375 0 -0.95715356344186375 -30.596473418892742 0 0 0 0 76.028776677594578 -43.354841062740888 0 -43.354841062740888 -148.56270060770288 0 0 0 0 28.468480872675173 -56.152919208039521 0 -56.152919208039521 -150.72749438390102 0 0 0 0 18.58133113053885 -2.2187572791994912 0 -2.2187572791994912 0.016986024893124535 0 0 0 0 18.204841919232422 26.666496269145405 0 26.666496269145405 -26.889983882793345 0 0 0 0 29.686682106965236 7.3165916461981624 0 7.3165916461981624 -68.927265129304061 0 0 0 0 12.922632774541853 3.2595204148791268 0 3.2595204148791268 -25.712477746634576 0 0 0 0 12.274624501795188 -3.7684725387797764 0 -3.7684725387797764 -21.524143810553753 0 0 0 0 1.7400365745257105 -0.178501552635975 0 -0.178501552635975 -0.20747454431090467 0 0 0 0 9.7782786277912237 22.719042963694307 0 22.719042963694307 5.2764707643625144 0 0 0 0 31.321780538841267 -12.805647123553314 0 -12.805647123553314 -32.621435584569468 0 0 0 0 20.874546055731116 7.0085504566773693 0 7.0085504566773693 -2.015099305578957 0 0 0 0 11.461585900515274 18.597557120943833 0 18.597557120943833 47.889377533165984 0 0 0 0 -31.026074784025695 -11.474964559791289 0 -11.474964559791289 40.15819261215924 0 0 0 0 89.567108130213455 22.316363030573541 0 22.316363030573541 -28.327155295206673 0 0 0 0 -46.534675057723689 24.451221822873642 0 24.451221822873642 74.398128753960691 0 0 0 0 38.650371834490215 37.772222239478538 0 37.772222239478538 40.135899136718564 0 0 0 0 -15.906571204965076 6.7016400391542703 0 6.7016400391542703 20.849510956142865 0 0 0 0 -1.2034419616029481 24.470126707200592 0 24.470126707200592 38.843027827076099 0 0 0 0 17.770347458057586 8.5670748496636975 0 8.5670748496636975 15.993486633364299 0 0 0 0 15.761568999527299 0.77340560162220839 0 0.77340560162220839 -1.4862696772790116 0 0 0 0 22.396325523508494 -3.6450673340547723 0 -3.6450673340547723 -0.21583697218956033 0 0 0 0 51.095460817185085 5.3277282499243839 0 5.3277282499243839 -6.4421339206782946 0 0 0 0 36.772527634577273 4.032514046371972 0 4.032514046371972 -0.98268157198058148 0 0 0 0 39.559262467304507 -6.9413991815052754 0 -6.9413991815052754 -4.7318776764858086 0 0 0 0 -11.099378941239593 20.316841564923333 0 20.316841564923333 13.630352705535927 0 0 0 0 1.9745789641573808 -0.1661143611762963 0 -0.1661143611762963 -0.28802401298745994 0 0 0 0 24.398213472937641 28.641541390425473 0 28.641541390425473 12.791739756170578 0 0 0 0 -11.730880186936702 -56.200261961049875 0 -56.200261961049875 47.287936014255195 0 0 0 0 6.7630666142595146 -2.449805851605106 0 -2.449805851605106 -0.46262767037282515 0 0 0 0 3.1906971660646377 -0.71343010827149556 0 -0.71343010827149556 -0.154005478112623 0 0 0 0 3.2755780734005384 0.059326810461442392 0 0.059326810461442392 -0.11420453016671672 0 0 0 0 2.5762610131901278 -0.80957295704790866 0 -0.80957295704790866 -0.084564366890288678 0 0 0 0 8.8786830721146544 -0.16075781689055191 0 -0.16075781689055191 -0.78171109467871247 0 0 0 0 1.5784363173806923 -1.2396164598308133 0 -1.2396164598308133 0.26904668788861841 0 0 0 0 2.657735599669957 -2.1108914325867705 0 -2.1108914325867705 0.58878505693326177 0 0 0 0 2.1509906404993977 -1.4373883081435763 0 -1.4373883081435763 1.070182113420777 0 0 0 0 4.3693059586821619 -0.78806459926420303 0 -0.78806459926420303 2.0945634041451058 0 0 0 0 5.9820562932181929 -1.0531893486463559 0 -1.0531893486463559 -2.8067755166339339 0 0 0 0 3.555199269300914 -0.42635653729379386 0 -0.42635653729379386 -0.39434636741990636 0 0 0 0 21.373582321668437 -12.523834931201762 0 -12.523834931201762 16.846355274392408 0 0 0 0 1.890785928175319 0.15293754565436757 0 0.15293754565436757 91.551438986100493 0 0 0 0 79.665604437828733 -52.360720581449698 0 -52.360720581449698 -5.7321176418436153 0 0 0 0 72.346169105287117 19.15333350932508 0 19.15333350932508 -78.768967053536642 0 0 0 0 94.483611345212012 -8.7452513147698152 0 -8.7452513147698152 -65.137120885877692 0 0 0 0 36.14578186572362 -13.549361361024097 0 -13.549361361024097 -36.422588773670725 0 0 0 0 34.650922825123416 -12.222710033064615 0 -12.222710033064615 -30.864714287237092 0 0 0 0 2.818409944040468 -0.21429847318950124 0 -0.21429847318950124 0.4654373299758845 0 0 0 0 2.4735775678818754 -5.5106638632020797 0 -5.5106638632020797 1.9051299559283912 0 0 0 0 2.7054996976898593 -0.010189101509054055 0 -0.010189101509054055 -0.26887394874628678 0 0 0 0 12.664070751307008 -14.060163628801249 0 -14.060163628801249 16.692368042508832 0 0 0 0 0.03994044894929516 0.042546350893999829 0 0.042546350893999829 0.031947193404467944 0 0 0 0 10.800171753316135 -4.6876733489832958 0 -4.6876733489832958 -2.3125786205907843 0 0 0 0 1.2908358277999739 -1.7619443334878522 0 -1.7619443334878522 0.97173379137201499 0 0 0 0 0.47520230624104443 -0.98385065294428387 0 -0.98385065294428387 1.8552319469815757 0 0 0 0 3.6293549812689889 -8.7177650286372295 0 -8.7177650286372295 -7.1110175954777146 0 0 0 0 5.6721481738823059 -6.0540515314947143 0 -6.0540515314947143 -5.9288924527421294 0 0 0 0 4.5688577410073776 -2.8247248380516794 0 -2.8247248380516794 -4.0398379169922976 0 0 0 0 5.2528662770255643 -0.69133228463141128 0 -0.69133228463141128 0.29264762814740686 0 0 0 0 2.2770986981140595 -1.7925045986985708 0 -1.7925045986985708 2.2099988634289502 0 0 0 0 4.8673038804759017 -2.0408481947191603 0 -2.0408481947191603 1.0209738657743515 0 0 0 0 1.1222989792204103 -0.64467815229865089 0 -0.64467815229865089 1.3747431300436292 0 0 0 0 3.1741712679258853 3.6210744662176921 0 3.6210744662176921 -2.825041545432768 0 0 0 0 3.5646673992955584 6.4095336995445962 0 6.4095336995445962 3.1412698353587984 0 0 0 0 -11.17067699567815 5.7773729174095934 0 5.7773729174095934 4.1076968872739315 0 0 0 0 0.10208187514891875 -0.47325142895297034 0 -0.47325142895297034 1.1928987754581781 0 0 0 0 -0.83652926701870456 -2.3867950843650192 0 -2.3867950843650192 16.530413482724043 0 0 0 0 3.5427703863433635 1.036901903126477 0 1.036901903126477 2.4746808069613309 0 0 0 0 4.2860121470280319 -4.270410663767592 0 -4.270410663767592 22.472374690463766 0 0 0 0 3.0562198470424846 -4.4617845202170088 0 -4.4617845202170088 3.5757376678975561 0 0 0 0 5.0088096500685424 -3.5029962648475248 0 -3.5029962648475248 -2.0633064819293168 0 0 0 0 0.57070892017947727 -0.59002812011670613 0 -0.59002812011670613 -0.24963663605934894 0 0 0 0 3.0148938424235894 -9.2887519438164645 0 -9.2887519438164645 1.1895167100281014 0 0 0 0 6.1459875888058377 -4.4373747303740174 0 -4.4373747303740174 -6.8380106717572744 0 0 0 0 -15.053654824075238 -9.9303873653726669 0 -9.9303873653726669 1.6042315031925796 0 0 0 0 -0.13842000419989997 -0.1421270477034362 0 -0.1421270477034362 -0.096653934871152813 0 0 0 0 -17.529493936605832 -27.484355373275605 0 -27.484355373275605 54.076361456085465 0 0 0 0 -17.243340649916718 -60.970376427202041 0 -60.970376427202041 -32.628596839420879 0 0 0 0 -45.427774614929149 -49.975987468691301 0 -49.975987468691301 172.02992691312966 0 0 0 0 -46.317412922146104 -196.35584216353925 0 -196.35584216353925 -119.35558751903568 0 0 0 0 17.710945521881513 13.031916857123747 0 13.031916857123747 -3.6508430532400098 0 0 0 0 4.1213812087884634 1.9807850764248762 0 1.9807850764248762 0.54377122610133855 0 0 0 0 21.575508435701977 2.0459924708075903 0 2.0459924708075903 -202.37976743545869 0 0 0 0 1.2722099293441715 -7.8836081637336974 0 -7.8836081637336974 -22.07706318541571 0 0 0 0 2.9544885603681905 -12.605978641170395 0 -12.605978641170395 -12.338628714516972 0 0 0 0 125.47030388491112 111.43193496365097 0 111.43193496365097 81.893274968393143 0 0 0 0 102.32703783433317 107.75681127926214 0 107.75681127926214 81.784741517192856 0 0 0 0 327.89829774857571 308.61542370175857 0 308.61542370175857 239.73329373407819 0 0 0 0 24.160803649286208 78.521987120581798 0 78.521987120581798 174.55200720654921 0 0 0 0 -2.0737452920293435 -114.68211639799574 0 -114.68211639799574 60.383128388953992 0 0 0 0 -308.71268062018135 -85.413903437632598 0 -85.413903437632598 542.89526955938891 0 0 0 0 3.706021057295132 1.2644689499642006 0 1.2644689499642006 0.36211280222970577 0 0 0 0 104.41889571760476 144.65426810625752 0 144.65426810625752 23.504940013515352 0 0 0 0 353.25397759934759 -25.375796001391411 0 -25.375796001391411 11.112055074878526 0 0 0 0 403.91292337652885 525.2501296600459 0 525.2501296600459 4.1288203917879613 0 0 0 0 1.783266486696494 1.5353737536717045 0 1.5353737536717045 1.0199001146155418 0 0 0 0 -249.24081798012048 -136.31365913555942 0 -136.31365913555942 331.3618699799045 0 0 0 0 9.6543223765311268 0.016707024574202478 0 0.016707024574202478 16.925113145235969 0 0 0 0 186.75543302949518 -50.74584334786914 0 -50.74584334786914 8.1227280913614095 0 0 0 0 77.171344369437065 -48.420327287503937 0 -48.420327287503937 13.999163421834737 0 0 0 0 185.60045950739186 29.217174817031378 0 29.217174817031378 -11.417759204457525 0 0 0 0 293.51504367647431 96.491072052123513 0 96.491072052123513 6.7152938499348238 0 0 0 0 126.25533018427632 49.417434355349542 0 49.417434355349542 -6.5068809358949693 0 0 0 0 102.22275286577383 17.567491634531933 0 17.567491634531933 -12.677072175179774 0 0 0 0 84.024097757554046 5.2481150715818785 0 5.2481150715818785 12.490204128635838 0 0 0 0 64.811837011248826 -24.466994827285873 0 -24.466994827285873 5.480602212791382 0 0 0 0 95.061227419773786 -42.116229361396009 0 -42.116229361396009 -61.192229332697735 0 0 0 0 1.929682667350594 0.16221838045361547 0 0.16221838045361547 -0.34402362140055159 0 0 0 0 54.646035994439444 75.460560954032914 0 75.460560954032914 24.334977106030223 0 0 0 0 69.397791973238782 23.984304759279524 0 23.984304759279524 29.484989281003649 0 0 0 0 -27.038392369309804 26.447862982763539 0 26.447862982763539 34.972283931323943 0 0 0 0 68.078883435731768 63.889144796296875 0 63.889144796296875 0.13097209704039869 0 0 0 0 2.4606403204574612 0.21875048072675574 0 0.21875048072675574 -0.26890273340212023 0 0 0 0 6.3589735558482516 -1.5667891503709939 0 -1.5667891503709939 -15.008149627992907 0 0 0 0 3.4018880304678945 0.39005338264361988 0 0.39005338264361988 0.053752419648295469 0 0 0 0 -3.6047585654578143 -0.31980372056867168 0 -0.31980372056867168 -0.55849652636948122 0 0 0 0 -0.34300557343601668 -14.115523977181716 0 -14.115523977181716 2.1563993765855685 0 0 0 0 30.035688208645297 6.1082393125226133 0 6.1082393125226133 -2.6482587216164575 0 0 0 0 -3.3746107595507056 -1.764566074045149 0 -1.764566074045149 8.2441963695000879 0 0 0 0 -74.959209684802772 42.575061312152101 0 42.575061312152101 75.273258916094065 0 0 0 0 0.71349285232174253 0.16127169065826386 0 0.16127169065826386 5.6999267650459373e-05 0 0 0 0 0.97007804139255427 0.080896288206939282 0 0.080896288206939282 -0.16473791908865265 0 0 0 0 -45.557683332670422 47.771276351758971 0 47.771276351758971 -5.2871575288300221 0 0 0 0 14.95202225212779 -53.864646933673157 0 -53.864646933673157 -12.198155333809694 0 0 0 0 15.141256918421277 -19.333284023622383 0 -19.333284023622383 -17.643610647279331 0 0 0 0 8.3738491290596357 -18.983468762169878 0 -18.983468762169878 -9.0352793920436056 0 0 0 0 9.2860403281501931 -9.1627423519849458 0 -9.1627423519849458 -14.130678440279297 0 0 0 0 19.944188068576295 -12.815750707635132 0 -12.815750707635132 -17.30262984553093 0 0 0 0 9.5177170377046423 -5.5502079621327312 0 -5.5502079621327312 -17.957340301568991 0 0 0 0 9.4591209193019949 -5.6487518474239806 0 -5.6487518474239806 1.1650901378284289 0 0 0 0 -1.9036742760254128 -5.7509875809420805 0 -5.7509875809420805 -16.18581188491649 0 0 0 0 1.168739635784938 0.41323440372528353 0 0.41323440372528353 -0.30583494461811384 0 0 0 0 12.862902392508659 -6.2165330852358309 0 -6.2165330852358309 -20.198010633160422 0 0 0 0 7.0005721634618112 -2.1652992915006255 0 -2.1652992915006255 -18.109590659300778 0 0 0 0 -1.8178751020586787 -6.4930103356737163 0 -6.4930103356737163 -18.164014466440563 0 0 0 0 2.3419825740993474 3.8522954920216534 0 3.8522954920216534 -21.421684678090998 0 0 0 0 4.7377861782379114 1.1441819244712406 0 1.1441819244712406 -41.133986831556399 0 0 0 0 4.0336322232926562 1.286118690617192 0 1.286118690617192 0.38655149575234349 0 0 0 0 11.973238668695956 -5.0266381514825973 0 -5.0266381514825973 -1.3217750574315232 0 0 0 0 11.94671549503073 -5.7129658612869889 0 -5.7129658612869889 -4.0907533589735294 0 0 0 0 9.1524488264094543 -13.816854269417888 0 -13.816854269417888 14.504106614897466 0 0 0 0 23.850636150599712 -5.081986010052276 0 -5.081986010052276 -8.6288212057503699 0 0 0 0 7.049662763072206 -1.0258685556361762 0 -1.0258685556361762 -2.562155668822129 0 0 0 0 7.6393993508027052 5.9752407832025938 0 5.9752407832025938 -18.685762905108277 0 0 0 0 4.7414181460176223 -1.626733764304845 0 -1.626733764304845 -10.483421043185785 0 0 0 0 14.945242320616671 -4.5521468138365435 0 -4.5521468138365435 -5.6195498151881793 0 0 0 0 5.9544448308968256 1.8355690693241753 0 1.8355690693241753 0.58478126368700889 0 0 0 0 9.6600589928384579 13.263916768807462 0 13.263916768807462 -2.4965957780490271 0 0 0 0 7.6177295595784749 2.5563543871985166 0 2.5563543871985166 0.39945558930303271 0 0 0 0 15.477035907862955 -4.4057966364625258 0 -4.4057966364625258 -2.4807447317020888 0 0 0 0 15.845897332764252 2.3390442517498968 0 2.3390442517498968 -9.9565494553115741 0 0 0 0 1.6785038331005406 -1.046667472987787 0 -1.046667472987787 -3.0062406332876317 0 0 0 0 11.448298593948493 -2.9126814790469666 0 -2.9126814790469666 -0.81310202675854271 0 0 0 0 11.488822519048199 -2.4439216588735917 0 -2.4439216588735917 0.74401782490963342 0 0 0 0 8.418696797883058 -1.2266334004123678 0 -1.2266334004123678 -1.3977919539628374 0 0 0 0 11.772417999711251 -5.7634659661461995 0 -5.7634659661461995 -1.850336600125047 0 0 0 0 6.5886293031926471 2.7939265858579088 0 2.7939265858579088 -7.9624481749794995 0 0 0 0 6.3175071052719431 -2.4727136184206557 0 -2.4727136184206557 -1.3815784380918394 0 0 0 0 14.432807880871906 -0.99000446723113456 0 -0.99000446723113456 -12.657837079353897 0 0 0 0 8.9535411506985838 0.28660825797670952 0 0.28660825797670952 -11.291966318317952 0 0 0 0 -0.33620405772624196 -0.66889318320782998 0 -0.66889318320782998 -1.9203288900830586 0 0 0 0 9.3666339584506204 -3.310375754874356 0 -3.310375754874356 -30.536238288806523 0 0 0 0 4.8909444851278749 3.6208335330602264 0 3.6208335330602264 -21.258501335368393 0 0 0 0 0.42660068545012564 -0.460500665012475 0 -0.460500665012475 0.04567667931875935 0 0 0 0 18.662555729669748 5.9995941689936867 0 5.9995941689936867 -30.399784817555474 0 0 0 0 16.568668935423375 11.173699826403581 0 11.173699826403581 -37.063756127259069 0 0 0 0 9.8331858513829502 10.990265912145105 0 10.990265912145105 -22.081734510826934 0 0 0 0 -19.399249300092379 49.744731432673696 0 49.744731432673696 -46.486814753681628 0 0 0 0 -0.13879001009308123 -0.38299283631801018 0 -0.38299283631801018 -0.62414849983671727 0 0 0 0 5.8288203101938052 -0.81993648112820949 0 -0.81993648112820949 -14.759494721062772 0 0 0 0 8.3627113991169608 0.41247415765028883 0 0.41247415765028883 -14.312479674980175 0 0 0 0 8.6773719998927845 2.1204586853321672 0 2.1204586853321672 -24.573483703544248 0 0 0 0 6.0621085660573044 -6.7263648733888246 0 -6.7263648733888246 -19.263131162627889 0 0 0 0 7.4928140197771427 0.11219128297514658 0 0.11219128297514658 -12.937711499324251 0 0 0 0 -3.3248853594641332 4.1466212302176615 0 4.1466212302176615 -14.377777820088681 0 0 0 0 4.7041410869123865 4.2026263144949496 0 4.2026263144949496 -11.309743714482011 0 0 0 0 8.6867077572715061 4.1890055140026181 0 4.1890055140026181 -16.215551750997641 0 0 0 0 7.2979992741547903 4.7527449033143512 0 4.7527449033143512 -14.05019353646378 0 0 0 0 14.62449247206132 -5.709109861895854 0 -5.709109861895854 -6.1418664002907235 0 0 0 0 9.8631924356468517 3.1706463367325028 0 3.1706463367325028 -13.653902009882586 0 0 0 0 8.0160198637934172 3.4733179284440538 0 3.4733179284440538 -11.025103223972678 0 0 0 0 6.5292177935734799 1.4570135378385203 0 1.4570135378385203 -5.7074284491164917 0 0 0 0 8.9760260128491609 0.095890954318754495 0 0.095890954318754495 -8.5323399124818025 0 0 0 0 8.5725738575783907 -2.3388014805981925 0 -2.3388014805981925 -3.461838078808853 0 0 0 0 10.476504231205581 -3.4092326136524633 0 -3.4092326136524633 -2.6830033533811957 0 0 0 0 8.0717138270128999 -1.1993037085953233 0 -1.1993037085953233 1.0630872217371916 0 0 0 0 9.6814507204582831 -1.9749160220152815 0 -1.9749160220152815 0.036569841023661898 0 0 0 0 8.9838465399384404 -0.3485140144796901 0 -0.3485140144796901 -3.0720498676438979 0 0 0 0 10.294976441837207 3.1359472649917279 0 3.1359472649917279 5.5007717257042827 0 0 0 0 7.3248175341432216 0.35892174034461277 0 0.35892174034461277 4.2878936304577451 0 0 0 0 5.2051193956594943 -3.0160839146725635 0 -3.0160839146725635 -3.0071557595579179 0 0 0 0 9.0920499882904551 -0.65396171495575572 0 -0.65396171495575572 -1.2597110101892213 0 0 0 0 11.425314596039243 0.56888719962012146 0 0.56888719962012146 -4.0007605969362885 0 0 0 0 6.3638528968315313 1.5400877377165045 0 1.5400877377165045 -3.0087050525376071 0 0 0 0 12.596753094243468 -1.4056126577491455 0 -1.4056126577491455 -10.315777848500261 0 0 0 0 10.186601654220794 0.77250079380974057 0 0.77250079380974057 -9.0957903444721069 0 0 0 0 19.158435682826166 -3.8667217933848406 0 -3.8667217933848406 -6.8609306589479502 0 0 0 0 17.491929519464975 -2.9450721300154328 0 -2.9450721300154328 -1.5849664971233324 0 0 0 0 9.0765113223803837 -0.62235215402491662 0 -0.62235215402491662 3.7955422782436017 0 0 0 0 9.0864301279814548 -1.893716794070027 0 -1.893716794070027 0.24504609339792549 0 0 0 0 5.4040775960020255 -0.26717963137002698 0 -0.26717963137002698 1.9140956942235334 0 0 0 0 8.8921666057922266 -1.8089266902763939 0 -1.8089266902763939 -3.3397033807755179 0 0 0 0 0.99326714730002053 -0.16598927439138933 0 -0.16598927439138933 -0.16080556061189366 0 0 0 0 1.033844080623652 -1.3395867217215534 0 -1.3395867217215534 -0.072830773743628896 0 0 0 0 5.9004964870185788 -0.24230440504596018 0 -0.24230440504596018 -1.1306706057797737 0 0 0 0 3.2724484929276514 0.32608347047425923 0 0.32608347047425923 -2.1547015811374877 0 0 0 0 4.2281602350819441 0.42415367040347185 0 0.42415367040347185 -0.74419312233564128 0 0 0 0 6.1094546304775577 -1.7551458990025139 0 -1.7551458990025139 1.1825412552502712 0 0 0 0 6.0930515247619041 -1.5423473167421662 0 -1.5423473167421662 1.3768062139624817 0 0 0 0 6.6252964899977087 0.060455102335708943 0 0.060455102335708943 1.8967881206057911 0 0 0 0 13.887009464859148 4.736181059316209 0 4.736181059316209 -3.7050019944124415 0 0 0 0 6.138387884497206 3.5792489858911267 0 3.5792489858911267 0.68452133184194963 0 0 0 0 0.082274879459873773 3.7500355204306572 0 3.7500355204306572 3.7901293983657069 0 0 0 0 7.0633299105700589 0.82321493876385077 0 0.82321493876385077 -0.65378671554643564 0 0 0 0 -0.078084720963488508 5.2762214278812962 0 5.2762214278812962 -9.3862095225667872 0 0 0 0 0.81254432161185264 0.56363181361169623 0 0.56363181361169623 -0.18206928433386649 0 0 0 0 -3.8024441944007776 10.162512868060901 0 10.162512868060901 -13.005459643909489 0 0 0 0 9.0923367146997407 2.014031925462632 0 2.014031925462632 -15.407425534638378 0 0 0 0 2.8759395607776241 -3.333647499844119 0 -3.333647499844119 -8.5357188674865938 0 0 0 0 5.1586257472135912 8.2283579529014332 0 8.2283579529014332 -21.284596008211338 0 0 0 0 14.475481370049238 -8.0904211400761596 0 -8.0904211400761596 -15.263663649138266 0 0 0 0 10.521491897821761 -3.4921830032043317 0 -3.4921830032043317 -15.592852988466802 0 0 0 0 -1.2193134718690999 14.538631181305732 0 14.538631181305732 0.041578676409244508 0 0 0 0 8.5630113360566611 13.133684077003636 0 13.133684077003636 -21.652431638145799 0 0 0 0 12.019271104500149 4.7064555592061197 0 4.7064555592061197 -2.2216400533807246 0 0 0 0 13.783569100341992 1.5198736047731245 0 1.5198736047731245 5.5454343626590799 0 0 0 0 5.7732237298757383 1.3038801291640834 0 1.3038801291640834 -2.1348714742027792 0 0 0 0 4.2595486189529765 -1.6308298638440419 0 -1.6308298638440419 -9.3528151360599452 0 0 0 0 6.9402202951787331 7.4837222214298436 0 7.4837222214298436 1.1252089324025292 0 0 0 0 8.6747556421262857 -4.8006015747976107 0 -4.8006015747976107 -4.0721348943675366 0 0 0 0 11.327207286361954 2.9881164680296024 0 2.9881164680296024 0.76223338454769873 0 0 0 0 8.4610378652344025 0.36631658143675949 0 0.36631658143675949 2.9706201266481003 0 0 0 0 10.344776954618283 3.1963966783955584 0 3.1963966783955584 1.9236306435991537 0 0 0 0 2.7767978327750349 1.1987969129672571 0 1.1987969129672571 0.54723865716962372 0 0 0 0 11.197458589733287 4.1261269888441348 0 4.1261269888441348 2.2863081336345203 0 0 0 0 12.625602107731538 4.3413290169125958 0 4.3413290169125958 1.6284816942834368 0 0 0 0 16.924206134199267 0.49083942189713525 0 0.49083942189713525 -1.67731581208227 0 0 0 0 2.9514155058751665 1.3716966576248275 0 1.3716966576248275 -0.70871143919146218 0 0 0 0 16.350027696425968 1.233387859026692 0 1.233387859026692 -4.5397252664405983 0 0 0 0 9.504338099162851 0.68085164468421366 0 0.68085164468421366 -3.8323060611691844 0 0 0 0 0.53368277645199669 -2.5028904893094932 0 -2.5028904893094932 -1.7322023579868424 0 0 0 0 4.8103475515940275 -0.64095535327046527 0 -0.64095535327046527 -1.1578050467300822 0 0 0 0 7.2996915789399281 -2.0692882418652623 0 -2.0692882418652623 -7.258123468508936 0 0 0 0 4.2595486189711664 -1.6308298638461878 0 -1.6308298638461878 -9.3528151360595011 0 0 0 0 4.633091894445613 0.81432761610892024 0 0.81432761610892024 -15.057106201696383 0 0 0 0 4.4352670058142394 -3.3067781257399664 0 -3.3067781257399664 -4.3627394283036649 0 0 0 0 3.6674180326572241 -2.2855553252205354 0 -2.2855553252205354 -3.0500911706139107 0 0 0 0 3.5023525314685173 0.036099413564358862 0 0.036099413564358862 0.06625917762540906 0 0 0 0 4.9217971582720565 -4.2628658091697531 0 -4.2628658091697531 -7.8582498019473661 0 0 0 0 4.8713981641067221 -2.4183385563362094 0 -2.4183385563362094 -4.5749368602547236 0 0 0 0 4.0435655611236143 -4.2825082043576543 0 -4.2825082043576543 -3.5557419516700008 0 0 0 0 6.9228868847148206 0.029130750978271891 0 0.029130750978271891 -1.642648978252752 0 0 0 0 4.5119439854079246 -0.59493303757697902 0 -0.59493303757697902 -5.8393797440863153 0 0 0 0 4.2595486189529765 -1.6308298638468841 0 -1.6308298638468841 -9.3528151360590428 0 0 0 0 11.973895630345169 -5.1752938456284596 0 -5.1752938456284596 -3.4978444424921236 0 0 0 0 12.726440996853853 -0.55711822155097934 0 -0.55711822155097934 -28.252090052777362 0 0 0 0 14.217678714378962 0.029984090620246207 0 0.029984090620246207 -3.2793917671283452 0 0 0 0 14.123602422387194 1.9933596174111017 0 1.9933596174111017 -15.331994820288628 0 0 0 0 15.623944869459592 3.602032493857962 0 3.602032493857962 3.7346430532991235 0 0 0 0 24.750542436084288 2.3596431080208049 0 2.3596431080208049 -7.0187908277534916 0 0 0 0 18.4551399367665 -6.5363148476018296 0 -6.5363148476018296 -1.8441038550770941 0 0 0 0 7.1318919845252822 -3.1550519259093335 0 -3.1550519259093335 -1.0845289690098525 0 0 0 0 29.444191477612549 4.180713583433203 0 4.180713583433203 0.94436489419376812 0 0 0 0 16.364020976136999 19.076649324375239 0 19.076649324375239 15.608245696926588 0 0 0 0 0.13077150904142343 -0.016041894201883622 0 -0.016041894201883622 0.0068874694242664347 0 0 0 0 10.744028665303631 -11.364455756985762 0 -11.364455756985762 -13.84194475048389 0 0 0 0 20.786238796354155 -7.9186149853532015 0 -7.9186149853532015 -13.343203244354754 0 0 0 0 11.949647011213528 -4.6354532498924073 0 -4.6354532498924073 -4.9014772523200918 0 0 0 0 12.56806293225236 -4.0156893502421553 0 -4.0156893502421553 -9.6645983089611036 0 0 0 0 13.518680908775423 -3.9635811841651503 0 -3.9635811841651503 -4.690239106601382 0 0 0 0 14.476062471598198 -1.4513806512456711 0 -1.4513806512456711 -4.866262127765367 0 0 0 0 13.829900395155164 -4.3684569375083129 0 -4.3684569375083129 -4.1698002565499337 0 0 0 0 9.5139991424499257 -0.21290585896580438 0 -0.21290585896580438 -1.8562190582481048 0 0 0 0 11.254235195490764 -2.9600692237888779 0 -2.9600692237888779 -3.452019096153947 0 0 0 0 16.172272967063691 -1.5282590115776884 0 -1.5282590115776884 -8.2728837171398197 0 0 0 0 11.737046207513231 2.8600435285363233 0 2.8600435285363233 -3.2609275865618201 0 0 0 0 10.302972389121351 5.1881708884070576 0 5.1881708884070576 -1.3344115305720265 0 0 0 0 9.3520114879056564 0.074169869282115997 0 0.074169869282115997 -4.6651896880380264 0 0 0 0 16.429257121049886 -0.70321999099689947 0 -0.70321999099689947 -8.1424737709436386 0 0 0 0 17.629852487536709 4.7337092146778446 0 4.7337092146778446 -8.6720615855942924 0 0 0 0 10.926879427772292 5.0573144698180386 0 5.0573144698180386 -6.0740386096606471 0 0 0 0 10.498817743511381 4.1195989559773949 0 4.1195989559773949 -4.3880230667532487 0 0 0 0 10.642429704366805 5.1362291526025956 0 5.1362291526025956 -4.3718736312805415 0 0 0 0 5.088871899312533 3.7014878586189042 0 3.7014878586189042 2.6565010255642112 0 0 0 0 4.8029163843129936 7.0605160666203801 0 7.0605160666203801 -4.9088980488440939 0 0 0 0 4.3861521655271645 10.699989406268458 0 10.699989406268458 -15.286021939044247 0 0 0 0 5.3338681802197243 11.505764596986896 0 11.505764596986896 -31.296415603296744 0 0 0 0 -8.5783239773672904 0.95293006055313967 0 0.95293006055313967 2.7224296032394761 0 0 0 0 3.2761436421247723 0.052227823477723589 0 0.052227823477723589 0.34686225248282121 0 0 0 0 3.7194677180996223 13.429959680098037 0 13.429959680098037 -17.852234580485423 0 0 0 0 1.8250098921258555 0.12956134655071949 0 0.12956134655071949 -0.31644422449842091 0 0 0 0 9.3293110134782182 -0.87769900816167024 0 -0.87769900816167024 -1.3438678431857625 0 0 0 0 14.709055806644756 -5.7793106305818043 0 -5.7793106305818043 2.2522771026526982 0 0 0 0 9.343168191582663 -6.2645081671841751 0 -6.2645081671841751 -3.6319151675893835 0 0 0 0 8.7361671103310599 0.38660756948266339 0 0.38660756948266339 -1.339529050924309 0 0 0 0 17.794028452444763 7.0018340649138509 0 7.0018340649138509 -1.7503876764171196 0 0 0 0 8.3884715554028162 3.541278382553152 0 3.541278382553152 -0.18661599505895765 0 0 0 0 22.211368072836194 2.8700472506030223 0 2.8700472506030223 -1.8099273374346296 0 0 0 0 0.043691064973256033 0.096575697017506457 0 0.096575697017506457 -0.38000279799830677 0 0 0 0 19.41548291518302 4.7523944316003934 0 4.7523944316003934 1.509091986474516 0 0 0 0 24.561336626924458 6.4060153435539178 0 6.4060153435539178 1.5507272132927596 0 0 0 0 24.170314945242126 6.3716274169043068 0 6.3716274169043068 2.1725405473486035 0 0 0 0 24.56133662684806 6.406015343553463 0 6.406015343553463 1.5507272132946355 0 0 0 0 24.561336626851698 6.4060153435476082 0 6.4060153435476082 1.5507272132916228 0 0 0 0 22.248497139531537 4.6285338174174768 0 4.6285338174174768 0.5493938828930709 0 0 0 0 21.855695872191063 4.6043404500177445 0 4.6043404500177445 3.0975628176271925 0 0 0 0 28.86598982783471 2.4696590488915433 0 2.4696590488915433 3.6470946995538043 0 0 0 0 42.910711747563255 9.3788628544889683 0 9.3788628544889683 -12.238954048776257 0 0 0 0 23.979351142472296 9.3730066972841541 0 9.3730066972841541 -0.3550980661099743 0 0 0 0 36.878381366612302 19.242055821589794 0 19.242055821589794 -19.385666614197135 0 0 0 0 6.8723221730560908 1.7423455406899955 0 1.7423455406899955 19.901746282073887 0 0 0 0 -0.33772536278956977 -0.33895866418910203 0 -0.33895866418910203 -0.23933990013548645 0 0 0 0 -0.0083708383362299799 0.040140572707382915 0 0.040140572707382915 -0.077218748875775192 0 0 0 0 -6.6892349914414808 23.193249109708326 0 23.193249109708326 0.040054955138221979 0 0 0 0 8.1627118498901154 25.519828841941656 0 25.519828841941656 -7.7911336837107399 0 0 0 0 42.151185640528638 -12.113715093988599 0 -12.113715093988599 1.6268633452355081 0 0 0 0 -12.215819897730398 26.695074996014018 0 26.695074996014018 -7.8563265860903115 0 0 0 0 -0.0010140051689759844 0.15599181743205648 0 0.15599181743205648 0.16768565145196845 0 0 0 0 -10.255855520722776 14.677129666142203 0 14.677129666142203 -15.172600360146724 0 0 0 0 -1.991082433279189 23.264947002870535 0 23.264947002870535 -9.9069971178242255 0 0 0 0 1.0297144146661594 28.88497881132901 0 28.88497881132901 -0.13324296300374552 0 0 0 0 2.8264880458109474 12.203857529296394 0 12.203857529296394 -24.986029895656912 0 0 0 0 2.0632369757804554 -6.6040612768335265 0 -6.6040612768335265 7.4525849725839191 0 0 0 0 5.0170444207424225 -2.7013583029052892 0 -2.7013583029052892 0.89167933319733628 0 0 0 0 2.3852851182909944 -7.4894630457108304 0 -7.4894630457108304 0.12161379383708626 0 0 0 0 5.5135169871955441 -4.9904467802923698 0 -4.9904467802923698 -10.686182253937345 0 0 0 0 2.760016606361205 -5.9076215107526968 0 -5.9076215107526968 0.092298578503172024 0 0 0 0 5.1412797486373165 -3.4171834481066128 0 -3.4171834481066128 -4.400922234702441 0 0 0 0 5.2943792017449596 -2.2860034688586595 0 -2.2860034688586595 -1.7963991843155114 0 0 0 0 4.0482868419876468 -1.2918037388450063 0 -1.2918037388450063 -0.49103839927124149 0 0 0 0 -0.10818306939099109 0.38050665285485152 0 0.38050665285485152 -0.77891418323864436 0 0 0 0 21.704898751773726 6.8197545706022993 0 6.8197545706022993 -3.2917446862131499 0 0 0 0 0.2381342713124468 0.03699935264633547 0 0.03699935264633547 -0.77518236786050254 0 0 0 0 0.31916441253669348 0.036948996193797434 0 0.036948996193797434 -0.14300865679281718 0 0 0 0 2.9559506514124223 -2.7528089833537805 0 -2.7528089833537805 1.1895474063499076 0 0 0 0 3.003886202328431 -2.6526524852806066 0 -2.6526524852806066 0.91345879188475365 0 0 0 0 -0.12969402702765365 -0.58386226542993558 0 -0.58386226542993558 0.00069993102200575778 0 0 0 0 0.29060964126620092 0.015259683065184271 0 0.015259683065184271 -0.7678988348365654 0 0 0 0 0.24527344424495823 0.097587781814299224 0 0.097587781814299224 -0.58437894637621568 0 0 0 0 0.20774041974800639 -0.24814414885392566 0 -0.24814414885392566 -0.99346776855967989 0 0 0 0 0.18381559773843037 -0.27355524552744193 0 -0.27355524552744193 -0.36665036249160737 0 0 0 0 0.236948696352556 -0.70118256514042976 0 -0.70118256514042976 -0.59135488869067554 0 0 0 0 0.22243069469141119 -0.58089869599111155 0 -0.58089869599111155 -1.5523643860859064 0 0 0 0 0.74415228181442217 -1.6624732212693973 0 -1.6624732212693973 -0.003095518692891893 0 0 0 0 0.27659271826723852 0.1579043856946355 0 0.1579043856946355 -1.9226790834971417 0 0 0 0 0.22083771940836527 -0.024079681836972178 0 -0.024079681836972178 -0.013345705082212785 0 0 0 0 0.079252889810483396 -0.0081037452637673368 0 -0.0081037452637673368 -0.0050696002536322442 0 0 0 0 15.822846213912271 -1.8588484891430916 0 -1.8588484891430916 6.7012883640934824 0 0 0 0 10.471891516730466 6.0753172637434902 0 6.0753172637434902 -3.7999536599672501 0 0 0 0 17.866378049058767 1.1501390753086049 0 1.1501390753086049 6.5856154917615273 0 0 0 0 8.6669156997013488 -10.499182103529005 0 -10.499182103529005 12.274738145738693 0 0 0 0 13.264457003458574 4.6385375583184203 0 4.6385375583184203 6.8682026736628998 0 0 0 0 24.988692388200434 4.0816987972023311 0 4.0816987972023311 3.0295750036909412 0 0 0 0 18.755184882151298 5.571612886857082 0 5.571612886857082 3.4882699328116162 0 0 0 0 4.1357112556670472 -4.1629283772083792 0 -4.1629283772083792 1.4879820119779419 0 0 0 0 9.2940210406354709 1.9470283916169668 0 1.9470283916169668 -22.269818368151771 0 0 0 0 61.292028109819512 -6.9601922715359947 0 -6.9601922715359947 -2.4555676140995919 0 0 0 0 26.894475296059682 23.09588859545125 0 23.09588859545125 -12.934812177713525 0 0 0 0 37.85077226588146 5.2430140722274077 0 5.2430140722274077 -1.095755519699023 0 0 0 0 26.735906244559374 -0.18903979055530962 0 -0.18903979055530962 0.01232237466136156 0 0 0 0 25.915659682719706 1.6379364188465044 0 1.6379364188465044 3.992061816483865 0 0 0 0 39.080091108953638 5.075704792008831 0 5.075704792008831 1.6627704286016967 0 0 0 0 58.841043558788442 14.094325669727573 0 14.094325669727573 0.0037613340136645789 0 0 0 0 47.479713041707328 3.7094648807525483 0 3.7094648807525483 7.2452567789593409 0 0 0 0 40.709485380248225 8.5774530512513945 0 8.5774530512513945 7.2854257278803267 0 0 0 0 44.743321246825872 -3.0166444739143254 0 -3.0166444739143254 8.2668361041998306 0 0 0 0 43.553708840145191 -8.1474346379989981 0 -8.1474346379989981 -11.990984667961071 0 0 0 0 73.905307995588373 59.861958024813333 0 59.861958024813333 53.53748657953858 0 0 0 0 71.592421476081654 14.977932975109965 0 14.977932975109965 12.216928332765155 0 0 0 0 0.28240684880915978 0.050383538389771942 0 0.050383538389771942 -0.07670999074647003 0 0 0 0 27.048288293098267 24.486109890532575 0 24.486109890532575 37.611412514068697 0 0 0 0 57.339570799220382 19.477545544716982 0 19.477545544716982 18.551383042868377 0 0 0 0 23.140663118308112 7.4020746138849294 0 7.4020746138849294 15.108525061304849 0 0 0 0 33.373791471147342 12.141436449813989 0 12.141436449813989 -0.59858134849876521 0 0 0 0 39.396300892422005 17.605889624026304 0 17.605889624026304 0.17123525700049669 0 0 0 0 42.525761018365301 -3.360418991799536 0 -3.360418991799536 10.165375350119453 0 0 0 0 34.499003418977736 2.1029253408843975 0 2.1029253408843975 21.456063140308451 0 0 0 0 25.909976340213689 -5.9521806397846522 0 -5.9521806397846522 16.151898295591987 0 0 0 0 34.411363389244798 -6.6117265887954613 0 -6.6117265887954613 13.05495038446702 0 0 0 0 44.612502460411633 -18.359629081674417 0 -18.359629081674417 17.20311304553946 0 0 0 0 30.468774027242034 27.974513285364729 0 27.974513285364729 4.0869694910410175 0 0 0 0 27.390078256438301 -6.3295876306828198 0 -6.3295876306828198 29.43457556366161 0 0 0 0 21.814345697795034 10.030689056754195 0 10.030689056754195 -1.1063532071352569 0 0 0 0 20.913134019244353 17.837196773682802 0 17.837196773682802 -17.781207045064505 0 0 0 0 25.710916503123372 3.5636001245809403 0 3.5636001245809403 -16.067034058631346 0 0 0 0 26.769653565614135 20.697360921445942 0 20.697360921445942 -29.024523385016366 0 0 0 0 23.34755811193827 3.1611375417088361 0 3.1611375417088361 -51.921035073507042 0 0 0 0 19.766551448765313 29.52560159818707 0 29.52560159818707 -41.05105577630269 0 0 0 0 32.08506507772654 6.1798634376354142 0 6.1798634376354142 -30.224463001077602 0 0 0 0 17.877775240045594 13.498691413816346 0 13.498691413816346 -0.070686364938516544 0 0 0 0 31.89523577764885 13.469550901161 0 13.469550901161 -25.908360388778533 0 0 0 0 19.058130201301537 6.5493235964537391 0 6.5493235964537391 -2.6045344943939739 0 0 0 0 15.954350847194291 18.20804934797161 0 18.20804934797161 -23.175894998564388 0 0 0 0 30.983937708528174 12.976220060752173 0 12.976220060752173 -22.681470504437371 0 0 0 0 28.53656645308547 24.081808426936071 0 24.081808426936071 -57.527383164556682 0 0 0 0 25.547120470755587 4.5184928391349892 0 4.5184928391349892 0.74511203180348429 0 0 0 0 28.263978517043142 11.146021018997921 0 11.146021018997921 -31.942446595004107 0 0 0 0 7.9003821309961495 19.311318170887048 0 19.311318170887048 -33.822247026242316 0 0 0 0 29.40112283990311 8.1168314416316321 0 8.1168314416316321 -46.55606348856864 0 0 0 0 13.973085611118222 15.456240545018559 0 15.456240545018559 -26.063337626999214 0 0 0 0 32.94865109130842 9.7220837528389552 0 9.7220837528389552 -20.548807504523381 0 0 0 0 39.93213720782478 5.4738248373004126 0 5.4738248373004126 -31.508669201885255 0 0 0 0 20.410481191627696 16.729194901414303 0 16.729194901414303 -25.913485878710162 0 0 0 0 39.793922702198415 -3.7121442290500966 0 -3.7121442290500966 -5.6614864129606701 0 0 0 0 56.202766182936102 3.2912463960036007 0 3.2912463960036007 -20.900515678085497 0 0 0 0 35.597649991828803 -4.8940975478601274 0 -4.8940975478601274 -3.2503128550837062 0 0 0 0 37.323041409428697 23.583723091351985 0 23.583723091351985 -71.515013276116974 0 0 0 0 17.583083598270605 19.041860931100416 0 19.041860931100416 -29.844741396520696 0 0 0 0 16.316205905761308 12.64954019093534 0 12.64954019093534 -29.447956784697226 0 0 0 0 24.728679265829719 3.8492211866069534 0 3.8492211866069534 0.51758287033703487 0 0 0 0 0.029409432184140272 -0.11371253417531868 0 -0.11371253417531868 -0.08468186488046836 0 0 0 0 -0.57718341669078654 20.469842479131472 0 20.469842479131472 -12.334073412760233 0 0 0 0 12.072419555448505 8.2797537800322942 0 8.2797537800322942 -0.63686089716952665 0 0 0 0 20.240185650856802 16.67802003158414 0 16.67802003158414 -13.770862678070813 0 0 0 0 23.047422505341274 10.293900145444297 0 10.293900145444297 -16.287905790247407 0 0 0 0 19.796144620000632 12.741943247516531 0 12.741943247516531 -10.155189473111733 0 0 0 0 21.506345360067826 10.709492063405492 0 10.709492063405492 -10.590747024658413 0 0 0 0 23.019051468482324 4.1011017777075747 0 4.1011017777075747 0.11230677746308909 0 0 0 0 42.78026146188131 -9.4903884759328321 0 -9.4903884759328321 -46.764110003832542 0 0 0 0 8.0591684106257162 31.565359924882046 0 31.565359924882046 -53.939021693584095 0 0 0 0 19.70318415622387 1.6499115229676988 0 1.6499115229676988 -22.47153132132253 0 0 0 0 4.2707931131850216 -1.4864078278333359 0 -1.4864078278333359 -1.6374239361419773 0 0 0 0 10.435114127123581 2.157263659209633 0 2.157263659209633 -1.4023938717357787 0 0 0 0 19.756856165944498 6.8515213881863204 0 6.8515213881863204 -7.2322443852370952 0 0 0 0 19.204941497091568 11.598273584284811 0 11.598273584284811 -10.80102677778774 0 0 0 0 16.802549032148818 -6.8092198193305649 0 -6.8092198193305649 -9.2947495098578656 0 0 0 0 3.3262594153784448 -1.6856990605099327 0 -1.6856990605099327 11.748073953664402 0 0 0 0 6.4749695972896006 -6.5701278105682377 0 -6.5701278105682377 -22.930043707651748 0 0 0 0 18.711871220205694 9.9389094004606449 0 9.9389094004606449 -9.027383941624521 0 0 0 0 1.804133959896042 1.8341183801157772 0 1.8341183801157772 -0.66315579650567713 0 0 0 0 8.3929305242418195 0.093868824501669224 0 0.093868824501669224 2.384789339839017 0 0 0 0 12.525242933586924 0.3102560185988068 0 0.3102560185988068 -3.6536009150406699 0 0 0 0 8.0055600530977244 -2.7596298321581116 0 -2.7596298321581116 -4.2743690529030118 0 0 0 0 15.925509107379185 2.9720432272276867 0 2.9720432272276867 -26.821784844317904 0 0 0 0 0.88903567471592737 -2.2078855160438224 0 -2.2078855160438224 -0.91629201442959984 0 0 0 0 9.5374573395874904 -5.5862767395553874 0 -5.5862767395553874 -12.026587888407448 0 0 0 0 11.650027643379872 -4.798355839660303 0 -4.798355839660303 -10.900950969552298 0 0 0 0 9.8601402831627638 -6.7575089240438047 0 -6.7575089240438047 -10.333621470051412 0 0 0 0 8.8453805737115587 -0.27855753481158985 0 -0.27855753481158985 -1.1213498827268511 0 0 0 0 6.9891039046378864 -2.7047199488930005 0 -2.7047199488930005 -9.8579511561480864 0 0 0 0 10.603069658449058 2.9216289562423139 0 2.9216289562423139 0.22132833707933242 0 0 0 0 16.176880715433072 2.2981037731718743 0 2.2981037731718743 -22.247777203640865 0 0 0 0 10.85317145215231 2.244696903982458 0 2.244696903982458 -0.45666863234782795 0 0 0 0 11.958919912406145 1.5889792327878283 0 1.5889792327878283 -18.795558062154214 0 0 0 0 14.286960477751563 -9.3366429984254751 0 -9.3366429984254751 -9.1314920603688918 0 0 0 0 10.804770687322161 -3.3112385687922767 0 -3.3112385687922767 -13.515632639350542 0 0 0 0 19.225388430892053 -3.0721132117979657 0 -3.0721132117979657 -28.70666729767936 0 0 0 0 19.942141485480533 -5.7927079102540091 0 -5.7927079102540091 -18.380787697833803 0 0 0 0 11.352107186921785 -11.114896291528332 0 -11.114896291528332 0.037034453367070341 0 0 0 0 11.407908319578155 -10.28386884299513 0 -10.28386884299513 12.249548920665724 0 0 0 0 11.235548494132672 -6.1184273094101052 0 -6.1184273094101052 -5.1439110087803783 0 0 0 0 10.831930545427895 -7.516127473476395 0 -7.516127473476395 -4.3523675145716325 0 0 0 0 4.8502362888211792 -2.2057672092483784 0 -2.2057672092483784 0.79286368446835809 0 0 0 0 2.3021949156416568 -0.190965039545826 0 -0.190965039545826 -0.075181531742038316 0 0 0 0 5.4828601487406559 -8.3345442901062654 0 -8.3345442901062654 11.195288959595686 0 0 0 0 14.442550825391663 -38.360549961818279 0 -38.360549961818279 61.750552708126776 0 0 0 0 0.82353017045310395 -0.098456545829357811 0 -0.098456545829357811 0.0084512738904635246 0 0 0 0 64.905336630722843 -41.596771698693772 0 -41.596771698693772 -9.7207014057852206 0 0 0 0 61.829214103432605 21.497354816370727 0 21.497354816370727 -32.575550477917353 0 0 0 0 26.740635818003739 -2.9367879462830091 0 -2.9367879462830091 -49.147356732141766 0 0 0 0 43.351082958142797 -1.7613170153889968 0 -1.7613170153889968 -60.046091562514 0 0 0 0 31.192002798819885 -27.406448095756875 0 -27.406448095756875 -11.741138755753862 0 0 0 0 327.15767480258 34.610649294322826 0 34.610649294322826 -6.6665699189219705 0 0 0 0 468.71098909448574 103.1993779228072 0 103.1993779228072 30.651353414448167 0 0 0 0 490.40237172281013 98.235594764818288 0 98.235594764818288 -32.193884198381092 0 0 0 0 196.12407084706956 1.6041523089123642 0 1.6041523089123642 0.037889774509438159 0 0 0 0 0.25758899031706761 0.20810702053140417 0 0.20810702053140417 -0.15567855027094057 0 0 0 0 123.58771923009681 104.75325579989234 0 104.75325579989234 41.932619407753961 0 0 0 0 117.47431414158291 36.300731396169382 0 36.300731396169382 -13.854944281064588 0 0 0 0 37.357457744829844 39.498807628611623 0 39.498807628611623 42.464289629592251 0 0 0 0 0.52967097135204 0.13045249255334568 0 0.13045249255334568 -0.21841261267680503 0 0 0 0 0.41447843169712684 0.25579855186005673 0 0.25579855186005673 -0.20838611645824531 0 0 0 0 21.058850945626546 43.062590825538827 0 43.062590825538827 53.556001130229369 0 0 0 0 20.60214142229961 6.5425523618810715 0 6.5425523618810715 24.353141385583793 0 0 0 0 19.59904966996055 22.706656813967012 0 22.706656813967012 37.062944106656921 0 0 0 0 27.387378311619614 18.421926376783674 0 18.421926376783674 11.895553722178427 0 0 0 0 18.532682748704246 15.288619608377367 0 15.288619608377367 11.660926281283777 0 0 0 0 21.350886897849705 2.6545548577379776 0 2.6545548577379776 -32.349584243718482 0 0 0 0 8.5752285440867126 21.227149312276481 0 21.227149312276481 -32.75018818938559 0 0 0 0 0.35747229072876507 26.803480107915718 0 26.803480107915718 7.6465579982926215 0 0 0 0 10.07592121540074 -3.3325414107321762 0 -3.3325414107321762 -30.759223124265532 0 0 0 0 0.4786244257556973 -18.546555924828681 0 -18.546555924828681 -49.4162556591967 0 0 0 0 21.977230249474815 9.6252439751802825 0 9.6252439751802825 -49.018849158009118 0 0 0 0 5.7931623116254514 0.1692568763278679 0 0.1692568763278679 -0.6887657776067595 0 0 0 0 34.852466808297322 -2.9663393882121341 0 -2.9663393882121341 -13.861947881947117 0 0 0 0 26.401026611786278 3.7727783361966227 0 3.7727783361966227 -0.050766074744030582 0 0 0 0 27.658934204211619 21.300145202517228 0 21.300145202517228 -36.625832030915817 0 0 0 0 25.268661306760123 -2.6869809442291341 0 -2.6869809442291341 -7.2378296095859014 0 0 0 0 37.252913582777182 -0.92832501990136507 0 -0.92832501990136507 -8.2931563751945419 0 0 0 0 28.6050444709972 -8.0113030266783483 0 -8.0113030266783483 -2.5298824903080401 0 0 0 0 32.315671471684709 -7.2685220694828132 0 -7.2685220694828132 -2.5742168897772331 0 0 0 0 34.059355497821343 -1.6392084243589409 0 -1.6392084243589409 -7.2575897947554608 0 0 0 0 9.1985331035033902 -8.6006635745184674 0 -8.6006635745184674 -2.0079764680301997 0 0 0 0 -18.347166538114834 -16.66821257557676 0 -16.66821257557676 22.540724993613892 0 0 0 0 6.8066454739596338 19.189707427395351 0 19.189707427395351 3.1618803148643622 0 0 0 0 6.5301987198066307 -10.146659779452424 0 -10.146659779452424 -1.0806810295455391 0 0 0 0 -3.619287329155668 -36.237808087824604 0 -36.237808087824604 11.21623367885298 0 0 0 0 92.076185874052044 4.7854279497914574 0 4.7854279497914574 -17.89976140751105 0 0 0 0 92.784877819547546 -41.123519590569551 0 -41.123519590569551 23.844565594223567 0 0 0 0 -3.1681615666584548 21.303987581994235 0 21.303987581994235 13.686386696066451 0 0 0 0 60.243644530637539 -80.035600811289328 0 -80.035600811289328 61.800571181741873 0 0 0 0 26.295422423070704 3.3002240461139252 0 3.3002240461139252 -29.732169710294102 0 0 0 0 -0.27912303005905414 11.047977847915533 0 11.047977847915533 -25.012027756060437 0 0 0 0 5.9541664594648509 -0.62947030759514 0 -0.62947030759514 0.10313033999398379 0 0 0 0 23.793721131220082 -0.16590527440011726 0 -0.16590527440011726 -27.852878267391553 0 0 0 0 13.858932744375124 52.017580461722247 0 52.017580461722247 54.863815429490273 0 0 0 0 26.969068550182783 23.143846403949176 0 23.143846403949176 -29.417338851588966 0 0 0 0 37.295339375190451 35.85294850392517 0 35.85294850392517 8.6807124966796323 0 0 0 0 20.940750538640714 10.417319746324814 0 10.417319746324814 12.202034828087491 0 0 0 0 12.945655689288742 39.663377594855461 0 39.663377594855461 56.354895302814192 0 0 0 0 -14.86970978012323 -8.6226544325000347 0 -8.6226544325000347 41.405018061054562 0 0 0 0 499.61538727533355 145.55615448857699 0 145.55615448857699 10.276927034925663 0 0 0 0 2.0532138740084847 0.65024216799931711 0 0.65024216799931711 0.20796586612906462 0 0 0 0 355.63223094376099 180.9752653016549 0 180.9752653016549 -21.013301672950412 0 0 0 0 457.3287246562204 -24.2660077220002 0 -24.2660077220002 -59.755699719957711 0 0 0 0 241.38107456948273 -137.66031021068045 0 -137.66031021068045 63.984341714593597 0 0 0 0 259.22494042433391 -51.788281287145537 0 -51.788281287145537 -17.445259101870803 0 0 0 0 224.3193377384523 37.243803201123072 0 37.243803201123072 -52.113382436959739 0 0 0 0 233.33148480800037 35.176880088399045 0 35.176880088399045 -56.819595700459573 0 0 0 0 154.51595430240195 3.8755847932088301 0 3.8755847932088301 -15.31074886323859 0 0 0 0 193.53590718589658 42.129972757376933 0 42.129972757376933 -25.907898021722616 0 0 0 0 286.0060935242218 53.297632679056626 0 53.297632679056626 -21.139740004609038 0 0 0 0 139.32449946506131 112.28778144726726 0 112.28778144726726 -8.6490963451582452 0 0 0 0 229.26801267988753 74.245152485149958 0 74.245152485149958 -7.649221933722032 0 0 0 0 584.27894810588805 95.001461529694609 0 95.001461529694609 -1.2162903094232256 0 0 0 0 0.48425812006831492 0.66222506246341695 0 0.66222506246341695 -0.26460201995616289 0 0 0 0 0.52502557665203842 1.5387983735849886 0 1.5387983735849886 -0.66529578880582996 0 0 0 0 491.03232596062844 115.59781122011044 0 115.59781122011044 -1.0857798405505177 0 0 0 0 499.73980277916235 200.692321619398 0 200.692321619398 -69.697365789944229 0 0 0 0 -150.4001781399096 405.11901064304845 0 405.11901064304845 426.56260594256207 0 0 0 0 579.20503373818337 227.97139032287538 0 227.97139032287538 -35.119542698814939 0 0 0 0 0.34925057201017573 0.56566335162046499 0 0.56566335162046499 -0.052897188457110667 0 0 0 0 -84.349245899189555 84.117490442434246 0 84.117490442434246 409.77511818087964 0 0 0 0 362.6174689098234 98.446219798210024 0 98.446219798210024 22.90784777620204 0 0 0 0 0.40311562590528816 1.7293862509079574 0 1.7293862509079574 -0.39843664471310558 0 0 0 0 330.78295467681164 96.359927956325208 0 96.359927956325208 13.058529933444234 0 0 0 0 151.17761043803876 17.932105749313735 0 17.932105749313735 27.541730830694444 0 0 0 0 154.3819042782095 17.040443869319603 0 17.040443869319603 -15.670061386001862 0 0 0 0 204.75894230418817 73.095855434467452 0 73.095855434467452 17.658981850853706 0 0 0 0 64.634335134778212 -42.014610606597948 0 -42.014610606597948 -1.5451172252349465 0 0 0 0 150.10372123293109 91.201892886257838 0 91.201892886257838 45.463436117590049 0 0 0 0 270.37905111852706 4.9862594293080065 0 4.9862594293080065 41.814894328520879 0 0 0 0 -37.685369410461135 -12.686315407396421 0 -12.686315407396421 76.499086175036041 0 0 0 0 -14.398193035558506 -44.206056045710312 0 -44.206056045710312 27.187577382824429 0 0 0 0 8.4743921114133922 -9.8598084021117103 0 -9.8598084021117103 -1.0726293473808219 0 0 0 0 7.5231249593596203 -19.224937622894625 0 -19.224937622894625 10.321634195128325 0 0 0 0 18.038271818424619 -5.2527133542405977 0 -5.2527133542405977 -4.1104096253606954 0 0 0 0 40.830025476187075 -14.199388177079172 0 -14.199388177079172 -0.80018521408004517 0 0 0 0 23.246431521896739 -5.7328768034861639 0 -5.7328768034861639 -6.7368149431801498 0 0 0 0 6.8788966997556678 -10.381044850730634 0 -10.381044850730634 -0.6229649000449573 0 0 0 0 -7.240955601197129 14.672595084784312 0 14.672595084784312 42.872222159572281 0 0 0 0 78.852728411838143 51.331101452184157 0 51.331101452184157 -2.0826059122803855 0 0 0 0 25.117193107030744 -10.51460966053007 0 -10.51460966053007 3.6233687279718652 0 0 0 0 18.161369547675349 -5.1995142985738738 0 -5.1995142985738738 0.9598934292910144 0 0 0 0 17.970449020952174 -7.2734786952445489 0 -7.2734786952445489 -3.8586694214471322 0 0 0 0 23.596608803760091 -16.383295033212718 0 -16.383295033212718 6.0052051816376775 0 0 0 0 42.689876509940405 2.2882839529870402 0 2.2882839529870402 3.1842513163662147 0 0 0 0 46.036517201107927 -13.071997070096018 0 -13.071997070096018 -2.1433243262901556 0 0 0 0 73.176881323080806 -2.1049848793227328 0 -2.1049848793227328 -4.2250037428901237 0 0 0 0 48.723531754239957 -0.9303322726897818 0 -0.9303322726897818 -3.3522174680990062 0 0 0 0 0.22062274531100101 -0.27170068164753225 0 -0.27170068164753225 0.035417100697731851 0 0 0 0 2.1525517278932966 -7.2805989119584886 0 -7.2805989119584886 2.2000715378298672 0 0 0 0 20.348135925426732 0.84927440289508471 0 0.84927440289508471 -4.2172847397375364 0 0 0 0 30.717502579851498 -13.179256534144237 0 -13.179256534144237 -5.741109198625054 0 0 0 0 0.31550818142377413 -0.45917997657197063 0 -0.45917997657197063 0.27897592541648247 0 0 0 0 23.561848327221014 -2.9151475752189953 0 -2.9151475752189953 -1.8706557370990922 0 0 0 0 40.426971804239201 -2.7159288252579472 0 -2.7159288252579472 -3.2583339644803289 0 0 0 0 49.569673794645382 7.1424882820605351 0 7.1424882820605351 4.5747373024329931 0 0 0 0 49.072568704588775 -2.1279817956244926 0 -2.1279817956244926 -18.89320834679296 0 0 0 0 6.3021616690712108 -17.319064034803944 0 -17.319064034803944 88.882646034126083 0 0 0 0 0.20619150176016987 -0.26431349103239121 0 -0.26431349103239121 0.18375986245751119 0 0 0 0 21.749623696902745 26.090058460645437 0 26.090058460645437 16.178573164404838 0 0 0 0 -5.5152508955825397 -0.20955273491691173 0 -0.20955273491691173 68.447394992971567 0 0 0 0 33.536957615738174 18.683043196248406 0 18.683043196248406 80.293128336122095 0 0 0 0 58.741822626212524 -5.3218866234170719 0 -5.3218866234170719 37.053057083643864 0 0 0 0 6.5336036658445664 -12.072219238654895 0 -12.072219238654895 60.441153349825129 0 0 0 0 20.58586719050254 -2.2203686635177746 0 -2.2203686635177746 10.34884756865506 0 0 0 0 12.439053614125442 8.4947077595007841 0 8.4947077595007841 -0.90779203822947352 0 0 0 0 67.84087853029132 45.553210792631035 0 45.553210792631035 69.202995824331026 0 0 0 0 -0.71444303285397837 -30.948927247919755 0 -30.948927247919755 11.489817449357815 0 0 0 0 0.14192965953424164 -0.1817108169747339 0 -0.1817108169747339 0.44914826821797904 0 0 0 0 56.63063776875515 39.71151539327235 0 39.71151539327235 32.295808032336367 0 0 0 0 37.046432335560894 -8.547955710991971 0 -8.547955710991971 74.134897459192985 0 0 0 0 70.96254907007733 45.860801009004319 0 45.860801009004319 23.261712697144748 0 0 0 0 65.258124590054194 32.080062906283615 0 32.080062906283615 22.32088957625399 0 0 0 0 31.881190660422362 19.170919917229469 0 19.170919917229469 12.195681664968788 0 0 0 0 44.547987347525122 23.136394181655589 0 23.136394181655589 7.7279810795696449 0 0 0 0 47.042785730154719 35.751768099896935 0 35.751768099896935 21.715427655349458 0 0 0 0 45.530362513249656 21.924583635188867 0 21.924583635188867 16.06504370041705 0 0 0 0 26.474352785411611 26.03556253647838 0 26.03556253647838 20.016729284943722 0 0 0 0 17.66971719058256 11.594545798723402 0 11.594545798723402 5.5764088769305999 0 0 0 0 17.158658392112557 9.6311974527623647 0 9.6311974527623647 10.933737999832317 0 0 0 0 37.064571041260024 -2.9594817944325769 0 -2.9594817944325769 9.1692237048853258 0 0 0 0 15.960547693975968 12.487827651337739 0 12.487827651337739 5.3165729736249432 0 0 0 0 32.452167952637865 27.610846841420283 0 27.610846841420283 26.75533110405695 0 0 0 0 19.235826512771382 -4.8356585140214179 0 -4.8356585140214179 24.967719851720041 0 0 0 0 8.4822514854049587 -5.0509514437866869 0 -5.0509514437866869 1.8214222705723842 0 0 0 0 14.547955523288692 4.6449193527192847 0 4.6449193527192847 6.8935244373020623 0 0 0 0 7.112428143276702 -6.0783361092788937 0 -6.0783361092788937 3.0904560836755763 0 0 0 0 -11.53204985076809 -13.138951358010374 0 -13.138951358010374 10.605171334144075 0 0 0 0 14.979877537516586 -14.05532287535101 0 -14.05532287535101 7.8281680788440902 0 0 0 0 25.493416210363648 -19.601382946672118 0 -19.601382946672118 14.660567574314822 0 0 0 0 20.41469929591608 -0.55663998171534246 0 -0.55663998171534246 16.344454109067044 0 0 0 0 81.813112066572558 -10.087597558263056 0 -10.087597558263056 -2.8806843342069897 0 0 0 0 58.34611632831411 -14.476293421140447 0 -14.476293421140447 -16.798511338780713 0 0 0 0 31.169111972171777 6.178610722182782 0 6.178610722182782 4.2884897675466789 0 0 0 0 51.342394575676735 -1.4817805053282598 0 -1.4817805053282598 3.2736632553836102 0 0 0 0 3.5964292554422173 2.1532804212565821 0 2.1532804212565821 -3.2220426109898028 0 0 0 0 20.905452216245067 -25.476849258602293 0 -25.476849258602293 12.434778797769539 0 0 0 0 34.609881613926518 -1.1132177370265168 0 -1.1132177370265168 -24.126119836297704 0 0 0 0 0.47140071850926901 -2.0193801654181023 0 -2.0193801654181023 0.083432306423561003 0 0 0 0 15.594392077849204 -0.49459703911951447 0 -0.49459703911951447 -0.65756743625283831 0 0 0 0 16.39486535769538 7.2507818061766613 0 7.2507818061766613 -25.999023450903959 0 0 0 0 45.755222784623584 -11.441297957781046 0 -11.441297957781046 -76.349113007370761 0 0 0 0 243.25691396156162 145.4882104580393 0 145.4882104580393 -26.688510857248616 0 0 0 0 13.245962941016501 -29.275425385772188 0 -29.275425385772188 31.847978325345537 0 0 0 0 6.674081322881193 16.076650390537633 0 16.076650390537633 17.104159874397169 0 0 0 0 61.320238353839159 -6.0163550130630519 0 -6.0163550130630519 5.6612508543044111 0 0 0 0 39.070801820920678 -16.028929012816519 0 -16.028929012816519 13.820086248168764 0 0 0 0 103.90118584852098 -43.182534824106412 0 -43.182534824106412 19.007733126693466 0 0 0 0 56.422910597550981 -27.184721502866612 0 -27.184721502866612 37.110079777722227 0 0 0 0 37.473477851333882 9.1209537713213713 0 9.1209537713213713 15.815399330947409 0 0 0 0 81.100347455801966 -33.13392105724418 0 -33.13392105724418 16.276789191601182 0 0 0 0 64.553810214278656 7.1462568453541078 0 7.1462568453541078 -47.726491604211134 0 0 0 0 3.4461509151149929 -2.4936347819391038 0 -2.4936347819391038 0.53202709867555031 0 0 0 0 -0.089826048705617723 23.135297363038489 0 23.135297363038489 20.320557486916243 0 0 0 0 -10.600746256529192 -17.787071384249892 0 -17.787071384249892 5.3569313868094923 0 0 0 0 -10.875497501882819 -2.5847812346932351 0 -2.5847812346932351 15.174429449434498 0 0 0 0 15.836689768528231 -9.7270444605542679 0 -9.7270444605542679 22.992320970011235 0 0 0 0 -6.4074265561539505 -6.4603015739476177 0 -6.4603015739476177 -17.840975580014401 0 0 0 0 -3.1423380362612079 -9.4454545386948894 0 -9.4454545386948894 -15.796903190254397 0 0 0 0 -1.5710933244208718 -14.862411731378074 0 -14.862411731378074 2.6013990952578752 0 0 0 0 -0.12534664365375647 3.6403146030262405 0 3.6403146030262405 -4.6503367689422817 0 0 0 0 -15.359288077293058 -4.4971485706069814 0 -4.4971485706069814 -0.80100956936666989 0 0 0 0 -17.964034906788584 4.5188643886790771 0 4.5188643886790771 -19.336234949478694 0 0 0 0 -21.276483560766792 -2.0848986188441359 0 -2.0848986188441359 0.61478613522285741 0 0 0 0 -15.864864428447618 4.133925744463113 0 4.133925744463113 -2.8096818027498784 0 0 0 0 -8.1154364866324613 -3.6232596200575244 0 -3.6232596200575244 0.24169087481254792 0 0 0 0 -24.138302322106028 1.235202315005381 0 1.235202315005381 2.9665226583369986 0 0 0 0 -14.604394696121744 -1.8256235604617359 0 -1.8256235604617359 0.55948218368757807 0 0 0 0 -25.047568608908477 -6.8342516908564903 0 -6.8342516908564903 3.6890658382444599 0 0 0 0 -14.969801019335137 1.7691892217269469 0 1.7691892217269469 4.4897079201530232 0 0 0 0 64.808341984296476 -33.938522548582 0 -33.938522548582 -0.30703840292926543 0 0 0 0 -15.599568504570925 60.140486802817207 0 60.140486802817207 -6.881999433079045 0 0 0 0 -39.936921755708681 -6.71232167343274 0 -6.71232167343274 5.9779776820575989 0 0 0 0 0.36057498953594536 -2.8328018900420453 0 -2.8328018900420453 1.8482480326982991 0 0 0 0 63.775762744046006 -26.447773457817576 0 -26.447773457817576 -14.053383148250433 0 0 0 0 62.711996963792444 2.8703495696191048 0 2.8703495696191048 -14.769170254720166 0 0 0 0 -32.314999922360585 7.4901439217289862 0 7.4901439217289862 -3.7215296182630482 0 0 0 0 -30.603919409132686 -11.819894052885843 0 -11.819894052885843 3.0526727820663382 0 0 0 0 122.25571580815631 -47.067461468762218 0 -47.067461468762218 28.932197330742838 0 0 0 0 -19.308580845448887 -11.656477114165227 0 -11.656477114165227 -2.3657502721002857 0 0 0 0 -15.3142621983352 -3.8016092404118353 0 -3.8016092404118353 -2.5258098250700414 0 0 0 0 -20.181930017730338 -3.304044339643724 0 -3.304044339643724 1.9359463538839918 0 0 0 0 -16.860527697332145 -9.0879689163446074 0 -9.0879689163446074 -4.3248115601252266 0 0 0 0 -16.23485505091594 -4.4271633756110305 0 -4.4271633756110305 4.7183212897480189 0 0 0 0 -18.604862037576822 -8.7021902979124661 0 -8.7021902979124661 1.0410546319558307 0 0 0 0 -13.485859093549152 -4.3839574674682922 0 -4.3839574674682922 1.9632508338231673 0 0 0 0 -11.896279776232404 -0.11736056257228711 0 -0.11736056257228711 4.2802577155671315 0 0 0 0 -15.817907254029706 -3.4591613075131136 0 -3.4591613075131136 4.559407229404087 0 0 0 0 -22.440020347394238 -6.1618206302134695 0 -6.1618206302134695 4.0321745520436707 0 0 0 0 1.925904019871596 -2.8878728052917708 0 -2.8878728052917708 1.6502883193409414 0 0 0 0 -2.7919613840058446 4.6203320160507246 0 4.6203320160507246 13.496975920551222 0 0 0 0 -1.9023349792082627 0.94632047773284 0 0.94632047773284 0.51803500170217376 0 0 0 0 -16.207607205629756 -2.3622149966686692 0 -2.3622149966686692 3.4984261650683948 0 0 0 0 -10.744817742535815 -3.0917081139944003 0 -3.0917081139944003 0.83201484947903737 0 0 0 0 -12.15159895960096 -0.13159775186022671 0 -0.13159775186022671 7.362333209739063 0 0 0 0 0.13681874140820582 6.0398054960652416 0 6.0398054960652416 4.2298917454645562 0 0 0 0 -7.6567060566376313 -2.2416852107330669 0 -2.2416852107330669 3.2434718671222527 0 0 0 0 2.5055237042888621 3.2376122806301737 0 3.2376122806301737 5.7723313993722059 0 0 0 0 11.783243722635234 13.897623384607186 0 13.897623384607186 9.9872347683814269 0 0 0 0 14.235942410887219 12.142951710736952 0 12.142951710736952 5.2858453938089269 0 0 0 0 -1.4681899150746176 4.9603290782872591 0 4.9603290782872591 7.2720419736184567 0 0 0 0 2.8751773869862518 2.6247312872309294 0 2.6247312872309294 3.1820513006587134 0 0 0 0 -6.6779281461822393 3.3173453165425144 0 3.3173453165425144 6.6265679951143284 0 0 0 0 -1.0214034383591404 0.02730142904797539 0 0.02730142904797539 0.28813862144152247 0 0 0 0 1.5970425582230217 -2.7608160421502692 0 -2.7608160421502692 1.8896291369427607 0 0 0 0 -9.62721680467439 -34.899058693194888 0 -34.899058693194888 68.388325983835102 0 0 0 0 -20.998106925515458 -5.0992545593063312 0 -5.0992545593063312 -4.8309030367644255 0 0 0 0 -7.4013075969633064 1.097018475232062 0 1.097018475232062 0.7506427142531038 0 0 0 0 -7.1953501022398996 -2.6124774285879084 0 -2.6124774285879084 -1.632956186301044 0 0 0 0 -11.189071057578985 -5.843226317143376 0 -5.843226317143376 -2.4449547318399709 0 0 0 0 -15.245692718321152 -8.58067167984197 0 -8.58067167984197 4.1188982489411501 0 0 0 0 -11.546118299178488 -0.53614347163772891 0 -0.53614347163772891 3.9220299823182359 0 0 0 0 -0.41786915183183737 -1.6399020351497029 0 -1.6399020351497029 0.067264544035879226 0 0 0 0 -7.5038891224794497 -4.5843804120619325 0 -4.5843804120619325 2.5796410028187893 0 0 0 0 2.4885051481251139 0.4488578621853776 0 0.4488578621853776 2.2107616590230066 0 0 0 0 15.618561748025058 12.295886438068294 0 12.295886438068294 2.5632551999840416 0 0 0 0 1.0713369386212435 1.8657693822959232 0 1.8657693822959232 1.573561369152003 0 0 0 0 -4.4075337572121498 -9.9101221548032754 0 -9.9101221548032754 -4.524152311957323 0 0 0 0 7.339340299480682 -1.0341449621305969 0 -1.0341449621305969 -7.4105906397576291 0 0 0 0 22.899671305156517 22.558933983901397 0 22.558933983901397 15.45675880836751 0 0 0 0 19.997356434821086 9.4588238202323396 0 9.4588238202323396 4.2870867589060708 0 0 0 0 12.812433489547402 10.664709601442951 0 10.664709601442951 12.990185819145438 0 0 0 0 252.51762944361872 10.454205733744629 0 10.454205733744629 -17.087974638988932 0 0 0 0 151.60954635864982 46.215913439076452 0 46.215913439076452 -17.722941902775119 0 0 0 0 132.35292256859066 11.068968901551386 0 11.068968901551386 -7.5765010194571687 0 0 0 0 105.14906651165438 -7.6846912810751746 0 -7.6846912810751746 7.4206870706128711 0 0 0 0 108.04085794419461 0.059803044165107622 0 0.059803044165107622 2.5956776061946698 0 0 0 0 120.01741773627145 -1.9588422369167233 0 -1.9588422369167233 2.8775403250265299 0 0 0 0 165.04159056441131 7.513520886899812 0 7.513520886899812 -12.97297438158121 0 0 0 0 156.62273368479782 -21.471754531056 0 -21.471754531056 -4.5802094545573482 0 0 0 0 76.912368606837845 -9.2115973225119276 0 -9.2115973225119276 17.338201444959751 0 0 0 0 113.47702377826499 -12.998712542055245 0 -12.998712542055245 9.4242594582506172 0 0 0 0 107.64314665619167 -4.0684076331542087 0 -4.0684076331542087 7.585283716291805 0 0 0 0 118.11305469899162 -35.884451858656604 0 -35.884451858656604 9.1413439143855726 0 0 0 0 107.02938624373201 -16.765596480725058 0 -16.765596480725058 -16.324985320225863 0 0 0 0 90.773419752578775 -31.487926356127559 0 -31.487926356127559 12.308007325097996 0 0 0 0 137.13519961355541 -85.868472307300209 0 -85.868472307300209 29.887138953399212 0 0 0 0 303.5375857993522 -129.85937377755948 0 -129.85937377755948 -34.695319843478771 0 0 0 0 297.26914506572462 -145.32248802313811 0 -145.32248802313811 -6.9727975978095955 0 0 0 0 219.70461927969791 -36.951203934788808 0 -36.951203934788808 -30.132863209518394 0 0 0 0 209.64880744428137 -43.757558317529337 0 -43.757558317529337 -14.135836468618834 0 0 0 0 253.43940818371084 -68.450530019121672 0 -68.450530019121672 -9.7849993530390655 0 0 0 0 499.33479217914737 -252.14645346799546 0 -252.14645346799546 21.248743640656485 0 0 0 0 93.031899907591651 -103.52686535206593 0 -103.52686535206593 94.055611133604927 0 0 0 0 11.222264730435377 1.60136968870667 0 1.60136968870667 0.29676163081555551 0 0 0 0 79.905764537374125 -38.050892441109198 0 -38.050892441109198 4.8499674880220596 0 0 0 0 48.657146730171007 -36.159764924307524 0 -36.159764924307524 57.741626445117504 0 0 0 0 203.91458962570186 -285.66980205566364 0 -285.66980205566364 328.33160423845214 0 0 0 0 -97.735793258852937 93.786209644988688 0 93.786209644988688 455.6013125923983 0 0 0 0 4.3343889605346604 0.49035906677043828 0 0.49035906677043828 0.52350194985579557 0 0 0 0 10.820551255303144 8.6670023064926625 0 8.6670023064926625 -1.1804854120136383 0 0 0 0 21.344912204277989 10.15450795262721 0 10.15450795262721 0.73043943785259557 0 0 0 0 27.243740509890813 1.3550970805133886 0 1.3550970805133886 -1.9451396609430347 0 0 0 0 13.352966703751008 7.1105673662815718 0 7.1105673662815718 4.8499615445607844 0 0 0 0 6.7193105246760751 -0.94533722367744133 0 -0.94533722367744133 -1.5156368485993088 0 0 0 0 5.8711859235718293 1.0559812540392386 0 1.0559812540392386 -4.5213604162400998 0 0 0 0 5.8448997037043 -1.1834938255509706 0 -1.1834938255509706 -6.5405683809123332 0 0 0 0 6.520046630736033 4.0855823101448152 0 4.0855823101448152 -10.531918015344587 0 0 0 0 4.0343882239940285 3.2675350007861113 0 3.2675350007861113 -10.768211031010466 0 0 0 0 2.8206339828375349 7.6742433302193263 0 7.6742433302193263 -12.982788829511833 0 0 0 0 4.5411749293581352 0.66170670637139439 0 0.66170670637139439 -4.2966561832127894 0 0 0 0 3.138382984105192 6.9242833998217179 0 6.9242833998217179 -7.8609869672662427 0 0 0 0 7.3625950560126512 2.7353454207233767 0 2.7353454207233767 -10.880629879674359 0 0 0 0 3.5987800725542911 4.3968269170111398 0 4.3968269170111398 -12.092390065079087 0 0 0 0 1.242099130626741 4.9131957600781746 0 4.9131957600781746 -8.4253180713998859 0 0 0 0 0.47536471126488777 11.906372737518335 0 11.906372737518335 -17.249652367612555 0 0 0 0 9.1097957340066387 5.7411544442256854 0 5.7411544442256854 -19.156959913649587 0 0 0 0 6.0556235588956042 5.0789808876630218 0 5.0789808876630218 -29.070739976589323 0 0 0 0 1.7934706823636262 -0.74660385911876226 0 -0.74660385911876226 -0.28624970367857605 0 0 0 0 3.6937891483394196 7.7183890086122346 0 7.7183890086122346 -19.877732488764224 0 0 0 0 7.3755853114531291 2.802077705425031 0 2.802077705425031 -0.66812257426075128 0 0 0 0 13.498980143967856 -9.2102615866290307 0 -9.2102615866290307 7.9314007908619146 0 0 0 0 0.99080145326287905 1.4773274710345241 0 1.4773274710345241 -0.42342209003002917 0 0 0 0 16.938712664456034 -1.2373784676924515 0 -1.2373784676924515 2.2019892512659283 0 0 0 0 3.8226839175949863 6.6806150507957227 0 6.6806150507957227 -0.97369922400503128 0 0 0 0 0.13966978712369382 13.644031246941239 0 13.644031246941239 -4.4294164290964773 0 0 0 0 1.1718823577994044 9.7658095807939844 0 9.7658095807939844 0.82237749860536269 0 0 0 0 4.7568045155337586 9.6329687123642458 0 9.6329687123642458 -4.7138712666767333 0 0 0 0 8.7426913159069954 7.9824053699725255 0 7.9824053699725255 -7.2618284069198964 0 0 0 0 13.603629089674087 9.0632703559096655 0 9.0632703559096655 -9.1840168715513641 0 0 0 0 16.937231126207735 13.747670570735067 0 13.747670570735067 -8.7904625895552613 0 0 0 0 12.042899402844341 12.786399420369094 0 12.786399420369094 -17.731163423568859 0 0 0 0 17.596288713051308 4.6341587352329299 0 4.6341587352329299 -7.182720146099399 0 0 0 0 18.567578971988951 13.562215210074413 0 13.562215210074413 -6.6345227642003088 0 0 0 0 24.230569456113699 9.2491962980267317 0 9.2491962980267317 -7.8182034498344706 0 0 0 0 20.06489287029035 13.740637768093734 0 13.740637768093734 -6.983426812979701 0 0 0 0 33.25210475163567 5.2144448246116895 0 5.2144448246116895 -4.6942785595563805 0 0 0 0 0.064612798716218389 -0.060338213407844066 0 -0.060338213407844066 -0.18171816025211607 0 0 0 0 32.34370731834133 0.75778675517556593 0 0.75778675517556593 -0.63253053569143691 0 0 0 0 22.184836707604973 9.2976511832602142 0 9.2976511832602142 -0.75266797543312691 0 0 0 0 38.708017431386907 3.8452479583574188 0 3.8452479583574188 0.78106527730130892 0 0 0 0 39.053277000974106 2.4165239635921552 0 2.4165239635921552 2.1269120099293559 0 0 0 0 42.519087311555268 0.47509578638126726 0 0.47509578638126726 -0.90646595958184761 0 0 0 0 42.600146439544915 -6.3649852368174855 0 -6.3649852368174855 9.4505172691984534 0 0 0 0 32.397867167511322 1.2451526331343494 0 1.2451526331343494 1.3898476069522303 0 0 0 0 48.440708281869775 -2.1743465159052366 0 -2.1743465159052366 -4.1288652638935943 0 0 0 0 55.826362398986021 -0.012818435132032846 0 -0.012818435132032846 -6.3640100072909576 0 0 0 0 49.838165636531812 -0.92264785498383617 0 -0.92264785498383617 -6.3396991899321051 0 0 0 0 49.512616601364243 6.7837171668392742 0 6.7837171668392742 -3.142261297388929 0 0 0 0 0.071520840813937392 -0.086991257205712103 0 -0.086991257205712103 -0.13131331745564467 0 0 0 0 0.042791893851392038 -0.16150802714211387 0 -0.16150802714211387 -0.0317087049416237 0 0 0 0 16.493342061223302 5.5864047999696851 0 5.5864047999696851 1.8008576743681317 0 0 0 0 65.35096351815082 7.4939625034997448 0 7.4939625034997448 -2.9838222018036902 0 0 0 0 28.723969518237936 4.8394928702429496 0 4.8394928702429496 4.3155385336537933 0 0 0 0 20.487304523765488 14.955593345540848 0 14.955593345540848 4.1297929936662285 0 0 0 0 111.03578905404629 4.7010947328183192 0 4.7010947328183192 -9.0837509745652483 0 0 0 0 43.823120350395584 5.1794088005133787 0 5.1794088005133787 7.3678235717944744 0 0 0 0 -7.0427590662675357 11.321833403738452 0 11.321833403738452 13.921511697136737 0 0 0 0 47.244825516864694 15.804031347060654 0 15.804031347060654 1.0680712057740607 0 0 0 0 51.748586551908375 -6.2476808012116294 0 -6.2476808012116294 -4.8771945870079492 0 0 0 0 53.542857760926381 -9.7902303158475377 0 -9.7902303158475377 5.1283185532504092 0 0 0 0 62.533955406081986 12.780828202088003 0 12.780828202088003 -9.2234445275561256 0 0 0 0 85.390281998021237 -47.555072918703274 0 -47.555072918703274 46.856674134306843 0 0 0 0 23.703035654757059 -1.0099898743934403 0 -1.0099898743934403 47.707177009610973 0 0 0 0 49.031246293536242 -6.7231568507644397 0 -6.7231568507644397 11.17277172297031 0 0 0 0 47.219046760393212 -10.192942199953023 0 -10.192942199953023 30.249588357376638 0 0 0 0 16.353337856500275 -21.701896633821406 0 -21.701896633821406 42.976623269864376 0 0 0 0 25.658057835563341 -9.0124136182542429 0 -9.0124136182542429 57.103153144050168 0 0 0 0 27.637803133566763 -27.783363962990354 0 -27.783363962990354 98.334060141776035 0 0 0 0 133.91398054871433 -23.999114271562632 0 -23.999114271562632 14.77894697574186 0 0 0 0 32.682870393353369 30.776536783828078 0 30.776536783828078 76.742781149163363 0 0 0 0 36.313677433086923 -1.2254343080084027 0 -1.2254343080084027 24.3982893959286 0 0 0 0 27.206264302491036 9.8420001093375049 0 9.8420001093375049 28.222387018171162 0 0 0 0 40.095181566034626 -85.118433159316965 0 -85.118433159316965 88.046467867109442 0 0 0 0 1.3978593469015266 -0.16407446590955149 0 -0.16407446590955149 0.061942222099683031 0 0 0 0 59.423138067175387 29.76420316906615 0 29.76420316906615 4.3639761112160613 0 0 0 0 -2.8809847853472093 -29.074986741542318 0 -29.074986741542318 25.156020355925875 0 0 0 0 -0.29844329135539738 -49.983632395297775 0 -49.983632395297775 59.316860440202731 0 0 0 0 1.4378985224720964 -16.510017855771764 0 -16.510017855771764 15.330945316290723 0 0 0 0 28.240003709317762 26.947090076551547 0 26.947090076551547 -14.158032680723068 0 0 0 0 40.508279011862214 -39.049584362495978 0 -39.049584362495978 -43.530233286969292 0 0 0 0 3.5382231185103663 -0.48365694727578318 0 -0.48365694727578318 0.008444275027602588 0 0 0 0 10.801656129042385 -7.8601379411249184 0 -7.8601379411249184 -18.535327140836387 0 0 0 0 5.1142092425245664 -5.4525959718664367 0 -5.4525959718664367 -9.3380532434710517 0 0 0 0 1.7486321257092641 1.0254927247036818 0 1.0254927247036818 0.89139618239390472 0 0 0 0 17.299951996635684 -1.7961331400176004 0 -1.7961331400176004 -0.5066881390983724 0 0 0 0 3.507530107392995 -1.6367533666438874 0 -1.6367533666438874 -6.2893747320797218 0 0 0 0 4.0233618263619064 -3.7228647129085886 0 -3.7228647129085886 -3.8473208529542262 0 0 0 0 3.5544016752555763 -1.0982411106895711 0 -1.0982411106895711 -0.93481608734094834 0 0 0 0 3.1875234883600569 -3.8309033639545191 0 -3.8309033639545191 -2.2146933124852808 0 0 0 0 5.0719618618395934 -0.39871227584695423 0 -0.39871227584695423 -0.043336168434737199 0 0 0 0 3.4168783846107544 -4.1174769998218039 0 -4.1174769998218039 -4.1027494499243744 0 0 0 0 5.9701634744760668 8.2444553970012748 0 8.2444553970012748 -20.021864974676404 0 0 0 0 3.9964750368055775 15.81332906466973 0 15.81332906466973 2.3392851565406545 0 0 0 0 17.514782521153393 -7.2792522951029923 0 -7.2792522951029923 -53.718898655829179 0 0 0 0 4.6121269426989464 -0.50241733071516292 0 -0.50241733071516292 -0.015460067857885063 0 0 0 0 1.2653538109980218 4.4617452479739654 0 4.4617452479739654 39.948258863647084 0 0 0 0 8.6669559344054505 15.344099096803461 0 15.344099096803461 2.1655364635491026 0 0 0 0 2.0323355676819119 -5.7354734091007913 0 -5.7354734091007913 26.416359268057704 0 0 0 0 1.0993502627604244 1.2575492077137653 0 1.2575492077137653 32.932892000972743 0 0 0 0 25.749589126121464 2.6440963875596708 0 2.6440963875596708 37.373399935824182 0 0 0 0 0.94100692220206383 -7.7427246854515346 0 -7.7427246854515346 75.362961895812987 0 0 0 0 40.653772135960025 -26.803096015754363 0 -26.803096015754363 58.007437379961175 0 0 0 0 -8.504903338945951 -21.633888689609932 0 -21.633888689609932 69.72533599644828 0 0 0 0 0.43738484375970188 -9.4250702347335285 0 -9.4250702347335285 75.874661477160316 0 0 0 0 6.7009152831574283 17.203479103165819 0 17.203479103165819 33.940067990614352 0 0 0 0 56.946478802392448 2.3259096662940237 0 2.3259096662940237 28.109967719439965 0 0 0 0 -0.25173178584287825 0.68706595869641518 0 0.68706595869641518 39.55078991298501 0 0 0 0 -7.329239468850119 19.163868369066904 0 19.163868369066904 25.164312847346991 0 0 0 0 1.6872342610260134 0.19132701742501235 0 0.19132701742501235 -0.088444298549437084 0 0 0 0 14.96918938492604 -8.0740959249937987 0 -8.0740959249937987 -21.380417312039526 0 0 0 0 72.70454164274679 -33.140474635546866 0 -33.140474635546866 1.0925589973362548 0 0 0 0 0.79033287304473632 0.15470908365043101 0 0.15470908365043101 -0.040162781724893237 0 0 0 0 111.12643152825058 15.368149004119459 0 15.368149004119459 -9.0115293067690345 0 0 0 0 58.293063935636383 37.067403956631779 0 37.067403956631779 5.6446674819151497 0 0 0 0 56.632481157487632 6.202043338101376 0 6.202043338101376 -7.6902887467297205 0 0 0 0 88.887398914973346 -21.487732658037658 0 -21.487732658037658 9.7238600458598512 0 0 0 0 60.680539303381011 22.253927604780756 0 22.253927604780756 -1.3941945361593753 0 0 0 0 125.44205373184468 1.9482057248441151 0 1.9482057248441151 -7.2352546846021824 0 0 0 0 0.75559055401403619 -0.52330826664166619 0 -0.52330826664166619 0.44134706480865482 0 0 0 0 106.72022550989186 -75.994517882115474 0 -75.994517882115474 83.443094641339485 0 0 0 0 40.362376605562531 -14.624487302737862 0 -14.624487302737862 28.470956269483167 0 0 0 0 23.975644337259155 5.1988058727787632 0 5.1988058727787632 125.37116239048601 0 0 0 0 97.584756931321863 9.9223176454968325 0 9.9223176454968325 22.405895801162387 0 0 0 0 55.026512018693438 -78.784777813313866 0 -78.784777813313866 64.166687000014804 0 0 0 0 -9.8285725555688259 -27.047661277094221 0 -27.047661277094221 123.81575928368602 0 0 0 0 10.130626128234326 -15.564701402097683 0 -15.564701402097683 10.255416353845703 0 0 0 0 36.33581068829244 -52.469607544423241 0 -52.469607544423241 47.475763674311793 0 0 0 0 17.155008535112756 -3.3591211832625731 0 -3.3591211832625731 18.963166703836109 0 0 0 0 5.0527692250273049 0.58987626155104067 0 0.58987626155104067 1.9349733101746551 0 0 0 0 0.2528700004265243 -0.86744705526449017 0 -0.86744705526449017 -0.55110107878567094 0 0 0 0 4.8687107869864121 -8.8633148005446287 0 -8.8633148005446287 15.558452989575699 0 0 0 0 33.230970960908053 5.8293421149693927 0 5.8293421149693927 1.0424476799316835 0 0 0 0 34.639753715167899 13.257743525582782 0 13.257743525582782 15.779175869316532 0 0 0 0 43.823162509945178 2.7842673461060485 0 2.7842673461060485 -0.58885386802307949 0 0 0 0 -0.14177717073912888 -0.10738942327765777 0 -0.10738942327765777 -0.20293623134050209 0 0 0 0 5.1626218912088007 -0.028556439870158101 0 -0.028556439870158101 5.3839829315209045 0 0 0 0 26.254411764709403 -3.5270015196259692 0 -3.5270015196259692 -2.4586844336794229 0 0 0 0 33.40800790084063 9.9664235731104611 0 9.9664235731104611 -2.6514680884429254 0 0 0 0 32.030950407986893 9.8883508182108244 0 9.8883508182108244 -0.018127446179732942 0 0 0 0 37.46719075659712 8.8261820959711486 0 8.8261820959711486 -2.9942471970452118 0 0 0 0 32.644351448208454 3.3044387029411268 0 3.3044387029411268 2.1006099589671976 0 0 0 0 65.67245813783893 -1.3964629876172125 0 -1.3964629876172125 0.33319459065751289 0 0 0 0 30.778144386589702 20.821429797320661 0 20.821429797320661 12.108922962795532 0 0 0 0 20.774819728296279 6.127808298297623 0 6.127808298297623 3.773474881104903 0 0 0 0 18.731921684136069 11.612313249309977 0 11.612313249309977 7.1122300150423143 0 0 0 0 18.351113208066124 3.0460485598645377 0 3.0460485598645377 1.8964770086777207 0 0 0 0 3.3658140351762995 -0.16278977817569285 0 -0.16278977817569285 6.4104135596915057 0 0 0 0 4.4322910672681246 0.3109733562744168 0 0.3109733562744168 -1.1844613296657371 0 0 0 0 -3.0671291646590362 -1.5692646206261429 0 -1.5692646206261429 7.9084182937485821 0 0 0 0 2.6350986529297629 -1.3591286640602456 0 -1.3591286640602456 0.96243324682665055 0 0 0 0 0.57131874242350023 -9.3501174100899505 0 -9.3501174100899505 -4.2115297606114837 0 0 0 0 -0.60748341442888432 -7.4281882840756666 0 -7.4281882840756666 -6.4645261316200049 0 0 0 0 0.32202307549799269 -0.17317033184469821 0 -0.17317033184469821 0.01898140861041675 0 0 0 0 -5.7913740260157738 -10.036034414115079 0 -10.036034414115079 -10.772337129666994 0 0 0 0 8.8132060562820698 -0.36059449711206071 0 -0.36059449711206071 -0.6692126971684047 0 0 0 0 0.66244034751252912 -0.33992903189755452 0 -0.33992903189755452 3.3852504589212913 0 0 0 0 8.1063397858507642 9.7080869200696682 0 9.7080869200696682 12.371983690740763 0 0 0 0 12.682118372998048 -31.579300124995484 0 -31.579300124995484 -20.171475349276633 0 0 0 0 46.345939327373344 -15.291140361121961 0 -15.291140361121961 6.2318497650389872 0 0 0 0 12.123508649059659 7.5921583452886807 0 7.5921583452886807 7.4557067739865488 0 0 0 0 0.8421861368022725 -0.23845231971833503 0 -0.23845231971833503 0.52356259950878803 0 0 0 0 76.031634221184504 -8.4770863725684649 0 -8.4770863725684649 -18.832159667041878 0 0 0 0 15.202358469483897 -11.954405932189331 0 -11.954405932189331 3.5358393223853 0 0 0 0 5.2897893984345501 1.8156859521486695 0 1.8156859521486695 8.4099716939375639 0 0 0 0 1.6608699138064189 -1.6202249945161222 0 -1.6202249945161222 0.96897986603648212 0 0 0 0 -1.3645924656466377 -6.12023451906623 0 -6.12023451906623 0.83814145787519578 0 0 0 0 2.2363802672928124 -1.852419286851684 0 -1.852419286851684 0.83686212506511248 0 0 0 0 3.1568964316629717 -2.5968805092255707 0 -2.5968805092255707 0.41631228317169189 0 0 0 0 1.2134485477054113 -2.0283387040603884 0 -2.0283387040603884 2.2598736698178072 0 0 0 0 1.2284736084118322 -1.9354448958871728 0 -1.9354448958871728 2.8176032902479164 0 0 0 0 3.6392485682781626 -1.7146445167365982 0 -1.7146445167365982 2.5856502017207106 0 0 0 0 0.31013824392347189 -0.73092477556698476 0 -0.73092477556698476 -0.026214437358885512 0 0 0 0 3.264616110986708 -3.367371174428655 0 -3.367371174428655 2.5569837506704971 0 0 0 0 1.0068422953218032 1.4083207444218715 0 1.4083207444218715 3.0673593132989083 0 0 0 0 7.2458806357276444 -8.4272942104836375 0 -8.4272942104836375 6.2635552425579135 0 0 0 0 0.72207599816562507 0.54048316111504136 0 0.54048316111504136 0.34481779700372472 0 0 0 0 2.0315572594672631 -2.504409692579884 0 -2.504409692579884 3.5448785538951597 0 0 0 0 1.3874601163861371 -1.5075032983672827 0 -1.5075032983672827 2.1817946447568204 0 0 0 0 1.425221289718138 -1.3642944817406715 0 -1.3642944817406715 2.6659325548029074 0 0 0 0 1.4276956681326372 0.29262794118817759 0 0.29262794118817759 0.62001028506331757 0 0 0 0 2.82074412569591 -2.0829970063341534 0 -2.0829970063341534 1.6331542290472498 0 0 0 0 1.3844284563328983 -0.45745036384903415 0 -0.45745036384903415 2.20975000406861 0 0 0 0 1.1353775079278421 -3.5141413582900896 0 -3.5141413582900896 3.3900038392791885 0 0 0 0 -0.019187108391633956 -1.6784862076535774 0 -1.6784862076535774 11.616686521553675 0 0 0 0 2.9450746685838567 1.5042459872383915 0 1.5042459872383915 -5.6171277129856207 0 0 0 0 -5.304868137131507 -2.0265091117131533 0 -2.0265091117131533 15.80027475901079 0 0 0 0 1.1869120792543981 -7.6629066323275765 0 -7.6629066323275765 0.29210146885998256 0 0 0 0 62.574788908042137 69.804134433142963 0 69.804134433142963 7.8255870918334551 0 0 0 0 54.064758867543787 -14.438409966803647 0 -14.438409966803647 5.8965429263178066 0 0 0 0 53.09926943827432 22.072739238098173 0 22.072739238098173 -3.4588076227616966 0 0 0 0 0.046283195314012815 -0.042806920871950815 0 -0.042806920871950815 -0.12137758224679951 0 0 0 0 0.94559983388891267 -0.28794342862024891 0 -0.28794342862024891 0.53944696403118453 0 0 0 0 5.0551049751375103 -2.2753181441509014 0 -2.2753181441509014 -1.2965207902213933 0 0 0 0 4.8425650194349146 -0.46601125470124316 0 -0.46601125470124316 -0.42977799417690221 0 0 0 0 1.4633015344420528 -1.1996590997477359 0 -1.1996590997477359 1.2019362070064048 0 0 0 0 -0.18820347807976212 -0.10425258270626081 0 -0.10425258270626081 2.853081777551207 0 0 0 0 5.1693955606988311 0.80404705000921695 0 0.80404705000921695 1.7341435135998609 0 0 0 0 7.653329367824881 -3.3334697999122227 0 -3.3334697999122227 6.9817212501084214 0 0 0 0 4.450516479635553 -0.52097133841903087 0 -0.52097133841903087 3.1189988432554401 0 0 0 0 1.3596607891411168 -12.125065002792013 0 -12.125065002792013 23.066847089444309 0 0 0 0 23.474906236544484 -33.444054560081668 0 -33.444054560081668 5.1278086538637808 0 0 0 0 0.41156831198057553 -0.41449767430484297 0 -0.41449767430484297 0.51164730562347538 0 0 0 0 25.705395799579492 25.638095549978402 0 25.638095549978402 -2.1975489863684743 0 0 0 0 13.133485094091139 4.6847253382944229 0 4.6847253382944229 0.98277276310460304 0 0 0 0 0.56782015825810817 2.6347878763470374 0 2.6347878763470374 0.50821415743469445 0 0 0 0 35.613515357880715 -24.11570013809245 0 -24.11570013809245 -51.966557035754704 0 0 0 0 22.699665936101155 -32.886103573428045 0 -32.886103573428045 -57.253794421542466 0 0 0 0 14.536216056759713 0.52350740057488565 0 0.52350740057488565 9.960414702599337 0 0 0 0 23.930478747672169 -11.418074714021827 0 -11.418074714021827 -4.2764310034295363 0 0 0 0 9.4808757156333741 -6.905030154492465 0 -6.905030154492465 4.9433120991903934 0 0 0 0 6.2365448322027532 4.1360344883999431 0 4.1360344883999431 7.3314532496228821 0 0 0 0 14.292580642490975 -1.7493970912368866 0 -1.7493970912368866 1.1103600613944877 0 0 0 0 11.789848873287156 -4.1265295109890303 0 -4.1265295109890303 4.1164624311907119 0 0 0 0 2.9072536691813191 0.80277595013088643 0 0.80277595013088643 5.0622234549963228 0 0 0 0 14.676004872059821 -4.1116400523113725 0 -4.1116400523113725 -7.390173858620301 0 0 0 0 10.806512295898704 3.8538534901463226 0 3.8538534901463226 1.9147913820957827 0 0 0 0 6.8587431207697591 23.254661954115328 0 23.254661954115328 -14.473186858465656 0 0 0 0 -1.3925501070807513 10.058947082722085 0 10.058947082722085 -9.0165246545016799 0 0 0 0 24.757928457073376 2.7278075175580092 0 2.7278075175580092 -13.784418028895359 0 0 0 0 16.357980151626634 13.926936331213305 0 13.926936331213305 -19.34886352110982 0 0 0 0 2.7400418072098773 15.472140085246499 0 15.472140085246499 -4.3566807133030494 0 0 0 0 -0.38066542272190418 1.9547923393579367 0 1.9547923393579367 17.048800571509673 0 0 0 0 2.067357130245 4.3227610146404913 0 4.3227610146404913 18.585858785246273 0 0 0 0 1.3881239083693799 -1.1606372070896214 0 -1.1606372070896214 16.448483355960093 0 0 0 0 13.323332543444849 10.22784733955541 0 10.22784733955541 19.043378815671076 0 0 0 0 1.2328430269208184 0.66043890758237467 0 0.66043890758237467 11.194501353174928 0 0 0 0 1.9509155599480437 0.37565593463182267 0 0.37565593463182267 8.4653445712538087 0 0 0 0 2.0431133730944566 0.26756400983174444 0 0.26756400983174444 4.7175837678296375 0 0 0 0 -0.97316698683243885 3.7030465808479676 0 3.7030465808479676 11.902809248643734 0 0 0 0 -0.37911389182499988 0.082252957045739095 0 0.082252957045739095 12.294636507202085 0 0 0 0 0.14991096473477228 9.2682650035417282 0 9.2682650035417282 7.3508240609078825 0 0 0 0 -3.36970986205597 9.2025888125776873 0 9.2025888125776873 9.2426338521231628 0 0 0 0 -0.34142270470692893 5.3707332167824688 0 5.3707332167824688 13.85450907854738 0 0 0 0 1.7144836685392875 7.3838962164692248 0 7.3838962164692248 7.8846789367748897 0 0 0 0 -0.84982467536610784 8.329682173467063 0 8.329682173467063 7.8606348926603005 0 0 0 0 -13.093039960302121 3.7905768939599511 0 3.7905768939599511 11.4163318064343 0 0 0 0 -4.4986977084881801 7.720512091597584 0 7.720512091597584 13.213344127469099 0 0 0 0 -3.5417599820357282 4.5995497875915135 0 4.5995497875915135 16.121555381978851 0 0 0 0 0.36361467347342113 6.5194003075162072 0 6.5194003075162072 15.955335428210674 0 0 0 0 2.7149687452094895 -0.53268607226777931 0 -0.53268607226777931 16.189463059752597 0 0 0 0 13.193044309728066 3.8200427590436448 0 3.8200427590436448 14.375061410197759 0 0 0 0 3.5186921055301354 6.371865301723119 0 6.371865301723119 16.598917202994841 0 0 0 0 11.026241247300277 5.7896527217512812 0 5.7896527217512812 2.853035308179642 0 0 0 0 -0.10984721074964909 0.46967510226852482 0 0.46967510226852482 7.0145260875915483 0 0 0 0 39.063386746354809 1.2473096449093646 0 1.2473096449093646 10.686213399671942 0 0 0 0 35.531698094669082 6.5603338799969606 0 6.5603338799969606 13.165756890071407 0 0 0 0 11.114061835740358 -2.4111497319520367 0 -2.4111497319520367 16.20505206884809 0 0 0 0 36.670806786070898 -5.2558088179131346 0 -5.2558088179131346 10.113076311959958 0 0 0 0 65.351939020613827 -8.4439199868545529 0 -8.4439199868545529 6.9283090809290115 0 0 0 0 13.090451735306942 -2.4640161353416232 0 -2.4640161353416232 15.795743379829219 0 0 0 0 25.30145244272353 1.725055206754746 0 1.725055206754746 12.851231524854029 0 0 0 0 75.489121095937662 20.274200922912314 0 20.274200922912314 6.9931214547796117 0 0 0 0 59.36017362741859 -17.301766182351457 0 -17.301766182351457 26.859776929949021 0 0 0 0 82.128880167424541 -20.035092571106759 0 -20.035092571106759 7.9221772534988304 0 0 0 0 75.411692810272143 -13.813586368253027 0 -13.813586368253027 4.5279112716718828 0 0 0 0 64.854344289145502 -8.9585674070228833 0 -8.9585674070228833 7.0254137285901379 0 0 0 0 62.789390895131874 -14.129278912932932 0 -14.129278912932932 10.597387414635705 0 0 0 0 63.056032561305074 -11.706593108787501 0 -11.706593108787501 9.4713413392876191 0 0 0 0 78.231648648267765 3.393936388461043 0 3.393936388461043 10.258456587344426 0 0 0 0 66.885976048502016 8.9723559226335965 0 8.9723559226335965 8.9905352002454038 0 0 0 0 68.756610995111259 16.514935833913796 0 16.514935833913796 14.449274565125734 0 0 0 0 43.115770964813237 16.473956789385511 0 16.473956789385511 20.579160861995206 0 0 0 0 50.749362416759141 14.056866164323083 0 14.056866164323083 18.522261048541623 0 0 0 0 45.044850146064618 22.677031929850386 0 22.677031929850386 18.542462570630505 0 0 0 0 40.416882736230036 21.843601716763715 0 21.843601716763715 21.959386972025982 0 0 0 0 33.21651551182822 23.081483579408996 0 23.081483579408996 21.747958681689397 0 0 0 0 41.796701996198863 14.690188836173093 0 14.690188836173093 25.480671783700927 0 0 0 0 43.985491302474657 14.119618983826058 0 14.119618983826058 19.241940145135572 0 0 0 0 26.111774812679869 11.792824961267343 0 11.792824961267343 24.965815187621558 0 0 0 0 53.560164422061462 -3.6684094495233239 0 -3.6684094495233239 18.109109084925876 0 0 0 0 55.256915024981026 -0.89546532187620187 0 -0.89546532187620187 15.77250434161715 0 0 0 0 24.980521231248872 -6.605151791145488 0 -6.605151791145488 22.682985180093056 0 0 0 0 55.027856278537911 -9.2373261884569047 0 -9.2373261884569047 8.8480183298113388 0 0 0 0 28.895561517200576 12.426202992831591 0 12.426202992831591 22.911335719155431 0 0 0 0 10.569274211502488 0.24976859090998005 0 0.24976859090998005 16.035122433847391 0 0 0 0 15.362988377762122 -6.6911231845695056 0 -6.6911231845695056 -45.068962645863621 0 0 0 0 15.727404985475914 17.423608611254281 0 17.423608611254281 -9.5064216957857752 0 0 0 0 1.1254066372671332 -11.710016876439511 0 -11.710016876439511 10.659127167707311 0 0 0 0 106.34826291350782 -11.204649341261927 0 -11.204649341261927 -20.416632557724142 0 0 0 0 63.067015624597843 -46.212452716378266 0 -46.212452716378266 -18.634515481696369 0 0 0 0 46.159185524964414 24.640150403999769 0 24.640150403999769 24.020269255293044 0 0 0 0 -0.14252025546119107 -0.063851154363989693 0 -0.063851154363989693 -0.011180105510541161 0 0 0 0 -5.1840047791938559 -4.629467814679515 0 -4.629467814679515 12.007831239930965 0 0 0 0 0.29588173733602119 0.21033069424161255 0 0.21033069424161255 0.19114223235803562 0 0 0 0 69.669420924995393 -24.87168879283945 0 -24.87168879283945 11.144370150639133 0 0 0 0 12.588304119348322 16.84300954025764 0 16.84300954025764 11.47429320182664 0 0 0 0 92.930667615321454 -6.8239820789519285 0 -6.8239820789519285 -19.72980422176488 0 0 0 0 60.246225624686303 -0.14256223879806385 0 -0.14256223879806385 22.398529042308837 0 0 0 0 500.03193134761682 -63.875839465956112 0 -63.875839465956112 -93.429967285745946 0 0 0 0 373.20032456734634 38.360242740962626 0 38.360242740962626 -8.4721795862257423 0 0 0 0 451.61596572083499 73.205713471192766 0 73.205713471192766 0.42675322207615141 0 0 0 0 0.67109701312713188 -0.43767092688563913 0 -0.43767092688563913 0.41883205724520894 0 0 0 0 398.61999384318096 39.490796303734911 0 39.490796303734911 -24.949061486549724 0 0 0 0 386.53649049423279 -31.061226928112227 0 -31.061226928112227 -42.103412787663444 0 0 0 0 383.68728843317876 52.600798101074304 0 52.600798101074304 -0.34917243541877374 0 0 0 0 1.4592256866641407 -2.4640474025503867 0 -2.4640474025503867 1.7448269937630894 0 0 0 0 248.34809549333568 -5.4210542348658564 0 -5.4210542348658564 9.6703561218238292 0 0 0 0 293.85079781549848 56.041631789455408 0 56.041631789455408 0.032766284340906893 0 0 0 0 15.706138360234036 6.4699350239337292 0 6.4699350239337292 18.726568288538942 0 0 0 0 32.107471546430133 14.442323415807607 0 14.442323415807607 12.903617981530715 0 0 0 0 17.3150476962619 21.651542810501383 0 21.651542810501383 14.533015907621845 0 0 0 0 20.926888258395593 12.672693988556091 0 12.672693988556091 3.5605790729121622 0 0 0 0 51.203229268333416 29.135376050564417 0 29.135376050564417 20.894307017299099 0 0 0 0 39.244980211406528 7.5816294417975598 0 7.5816294417975598 -4.0201675179157235 0 0 0 0 47.33313525306653 33.119294596710837 0 33.119294596710837 20.957782669727465 0 0 0 0 62.326314250171436 44.838153266358148 0 44.838153266358148 28.566006821714439 0 0 0 0 71.266868289390914 36.267379168180639 0 36.267379168180639 20.418900452548424 0 0 0 0 51.539529484869945 28.994402797006259 0 28.994402797006259 20.48126111758603 0 0 0 0 1.2195691205631034 -1.5533357175006461 0 -1.5533357175006461 1.1591142420313325 0 0 0 0 41.849939737904151 15.337811994484717 0 15.337811994484717 17.651093875113389 0 0 0 0 68.896595558009722 29.658136852128024 0 29.658136852128024 10.351364355904707 0 0 0 0 89.494537333850985 50.614314169025135 0 50.614314169025135 31.529519858969849 0 0 0 0 60.340305562854155 32.048816015058364 0 32.048816015058364 32.544791393536229 0 0 0 0 6.7384580734874362 -1.2054486383197798 0 -1.2054486383197798 0.9256448428195938 0 0 0 0 80.803514227161941 52.123910201753233 0 52.123910201753233 22.360955702773481 0 0 0 0 69.879887866897207 52.824754728559263 0 52.824754728559263 54.108614476783032 0 0 0 0 5.4689562097075832 1.9184473352656015 0 1.9184473352656015 2.5507742658742676 0 0 0 0 0.42800262526436939 -0.33549946067585878 0 -0.33549946067585878 0.2169363563338208 0 0 0 0 65.015873407404797 41.007891585384868 0 41.007891585384868 33.410599830126216 0 0 0 0 1.825282915673597 2.2856291367420454 0 2.2856291367420454 4.3158820903709056 0 0 0 0 -0.87807587446786783 4.6656216841059859 0 4.6656216841059859 2.3513300730942319 0 0 0 0 -0.74777111694493215 5.1778973301853739 0 5.1778973301853739 4.3626087556441462 0 0 0 0 0.63977112900465727 7.2746833063254144 0 7.2746833063254144 6.0491816212970662 0 0 0 0 -1.2906289844995626 1.952206059333605 0 1.952206059333605 3.5002290946811172 0 0 0 0 -4.8757383437300632 2.5656656362768899 0 2.5656656362768899 10.107562965921488 0 0 0 0 -0.91824843667382083 2.8442806228123345 0 2.8442806228123345 4.2713338378787853 0 0 0 0 0.7512022972051593 -0.47369639230805305 0 -0.47369639230805305 2.9283662550423299 0 0 0 0 68.415611529492935 45.720693865626629 0 45.720693865626629 24.66283308594177 0 0 0 0 68.964478832117265 48.748066833521378 0 48.748066833521378 25.535170849308997 0 0 0 0 55.107052242725331 26.255342836600363 0 26.255342836600363 25.141899950136299 0 0 0 0 49.119551119106745 31.666290337986936 0 31.666290337986936 28.785715632738345 0 0 0 0 49.512008998222882 33.94497247915865 0 33.94497247915865 13.874537442210553 0 0 0 0 0.10962262774471654 -0.38932202687443951 0 -0.38932202687443951 1.3298166884555376 0 0 0 0 67.075436588781486 31.384758172406691 0 31.384758172406691 13.545148670633353 0 0 0 0 -10.478912848278014 -4.2691236268404396 0 -4.2691236268404396 6.3816474863563144 0 0 0 0 -0.10886486620499625 -0.53606854820957484 0 -0.53606854820957484 2.101618217387871 0 0 0 0 -7.5192905454075571 5.8741968411221848 0 5.8741968411221848 4.7488970862882525 0 0 0 0 5.6067833785518815 0.89078776046653729 0 0.89078776046653729 4.2873048029014171 0 0 0 0 5.4324524896892399 4.0897269508396903 0 4.0897269508396903 8.7018447001673849 0 0 0 0 8.0755522918134375 0.82650651863957592 0 0.82650651863957592 -0.16076785802300719 0 0 0 0 -21.690181263404611 -3.3550811891250305 0 -3.3550811891250305 7.067806850696229 0 0 0 0 5.4508223724210438 2.4541453229043668 0 2.4541453229043668 4.1420063929729167 0 0 0 0 25.089711644578529 13.47188534555653 0 13.47188534555653 4.6689400059408115 0 0 0 0 22.219163590225435 5.9446297916606454 0 5.9446297916606454 2.7722173177075433 0 0 0 0 24.607923904099152 4.8690542712876663 0 4.8690542712876663 0.81820362217695219 0 0 0 0 27.929798075087092 5.9422428978905373 0 5.9422428978905373 0.96227032891425779 0 0 0 0 19.047373649389101 -4.0790686239032823 0 -4.0790686239032823 10.358378938446776 0 0 0 0 16.61457221923115 1.857166674407452 0 1.857166674407452 8.8780340946195793 0 0 0 0 2.1707767049092581 5.7966199758913035 0 5.7966199758913035 19.089938123246725 0 0 0 0 21.331472145285261 -13.170787896658794 0 -13.170787896658794 29.995181798915837 0 0 0 0 3.3190060576712312 4.8195901381806721 0 4.8195901381806721 5.0909784857033173 0 0 0 0 1.8448023347118578 8.2012288415160128 0 8.2012288415160128 5.3798143433473058 0 0 0 0 -3.5292044769630593 6.7374121780773066 0 6.7374121780773066 3.6895487238800371 0 0 0 0 15.677939601671824 10.969761379355759 0 10.969761379355759 32.39008537222395 0 0 0 0 15.474242406125086 2.2355882187397356 0 2.2355882187397356 4.2673452558008194 0 0 0 0 5.5577689327838016 10.121956163919663 0 10.121956163919663 -8.0946776427895202 0 0 0 0 3.4133971812908044 4.4798274117670971 0 4.4798274117670971 -3.1287264857610353 0 0 0 0 3.1542523206398982 1.188959336691255 0 1.188959336691255 -10.997775880326003 0 0 0 0 3.5321055711820009 2.0893477741267361 0 2.0893477741267361 0.38766786918341722 0 0 0 0 3.3681337610050832 1.0542576237188825 0 1.0542576237188825 -0.73634749697180268 0 0 0 0 5.1317882274577187 3.4827782372262099 0 3.4827782372262099 1.3133438441994816 0 0 0 0 3.9674571797961962 1.0658926323876479 0 1.0658926323876479 -0.096155866585744931 0 0 0 0 0.47737673469944042 0.78544171526702655 0 0.78544171526702655 -0.1158407387542546 0 0 0 0 27.415852412406821 33.786707360776973 0 33.786707360776973 -28.812131616381663 0 0 0 0 9.8610236160311615 56.648154185361818 0 56.648154185361818 -7.1369021133929209 0 0 0 0 17.954026378418348 -47.617525532406944 0 -47.617525532406944 -10.20756846867198 0 0 0 0 15.881303140064119 -54.853444938296093 0 -54.853444938296093 53.404031133472017 0 0 0 0 32.147415415225623 65.760582130559442 0 65.760582130559442 73.478622338364147 0 0 0 0 88.033398291594494 2.9652837562057357 0 2.9652837562057357 -5.2283439495631683 0 0 0 0 5.4167250142336805 1.6845346647002968 0 1.6845346647002968 0.13843528166823882 0 0 0 0 2.0876596720681846 -4.3413230085824352 0 -4.3413230085824352 -5.6528710773050079 0 0 0 0 3.2283964129354032 1.2875604152351845 0 1.2875604152351845 0.20629559725497049 0 0 0 0 -25.643767617635604 -24.258155791176932 0 -24.258155791176932 -19.768638297108737 0 0 0 0 23.559964914135662 -2.7007247164514325 0 -2.7007247164514325 -8.9876863218374012 0 0 0 0 16.839664721650156 -1.3661137308364588 0 -1.3661137308364588 -7.4849761788982789 0 0 0 0 18.489242691307709 -7.9048106655999462 0 -7.9048106655999462 6.7238304129891873 0 0 0 0 15.663718269032188 -3.7962791710354225 0 -3.7962791710354225 0.75200820352465314 0 0 0 0 29.660262627515294 -8.534310616254281 0 -8.534310616254281 -4.3335347269048299 0 0 0 0 22.779302544541224 5.6651391099787318 0 5.6651391099787318 -7.1718138515149263 0 0 0 0 3.7077356875399268 3.2986195752778689 0 3.2986195752778689 -7.7195869855300714 0 0 0 0 16.049650799986239 -1.4754484664473821 0 -1.4754484664473821 -5.2409753246182973 0 0 0 0 1.077086970107799 -0.024644576779835781 0 -0.024644576779835781 -0.36986895250542773 0 0 0 0 5.6513629009259603 3.2227338557025291 0 3.2227338557025291 -0.42056491424619935 0 0 0 0 18.573113741209454 -2.3240943136466825 0 -2.3240943136466825 -7.0199087063467971 0 0 0 0 7.8114650663264493 2.6594028943559551 0 2.6594028943559551 0.41190424168642387 0 0 0 0 6.3722065457657209 1.3061780795146802 0 1.3061780795146802 -0.69226450458631916 0 0 0 0 6.1471284970230045 -1.0056266797283797 0 -1.0056266797283797 -2.3454199207035344 0 0 0 0 6.0681776159116296 0.34980470203514358 0 0.34980470203514358 -0.47544850044601539 0 0 0 0 3.6397857366623549 -1.0367108115905905 0 -1.0367108115905905 0.93564710614622548 0 0 0 0 6.2870348751484926 -0.42000668848390887 0 -0.42000668848390887 -0.87992400500377244 0 0 0 0 2.3678008830133876 -0.92896960081952784 0 -0.92896960081952784 1.0713723648543692 0 0 0 0 3.8330216418144119 -1.6821641702018155 0 -1.6821641702018155 -2.9342258667520582 0 0 0 0 1.8663229928851779 -1.4228448935248184 0 -1.4228448935248184 -0.40722167660853104 0 0 0 0 2.6647100145000877 -1.0525003329269111 0 -1.0525003329269111 -0.95970864663144084 0 0 0 0 2.9671990197072136 0.57162814516558091 0 0.57162814516558091 -0.061014807421722494 0 0 0 0 6.6890826693463623 0.01660713109031775 0 0.01660713109031775 0.31814445167784555 0 0 0 0 7.462589954782743 -0.014447362894770777 0 -0.014447362894770777 -1.7211539581907118 0 0 0 0 4.9320343745068955 -0.020099441888421193 0 -0.020099441888421193 -0.99221857423585447 0 0 0 0 0.77089318766610049 0.090516379198902985 0 0.090516379198902985 -0.27335890383725425 0 0 0 0 2.070136812651981 -2.9958781110576638 0 -2.9958781110576638 -2.4418299047977143 0 0 0 0 3.5845549626871431 0.94672911746628219 0 0.94672911746628219 4.3560603465887766 0 0 0 0 5.0113638030522907 1.8343452991846689 0 1.8343452991846689 4.8235733594997612 0 0 0 0 8.9954617522691933 -14.020642388876695 0 -14.020642388876695 -0.70393260257436197 0 0 0 0 6.3785812983610981 2.5506836129513202 0 2.5506836129513202 4.0463829150446031 0 0 0 0 2.9263363797949231 -0.87505187257481909 0 -0.87505187257481909 -0.65704332410852817 0 0 0 0 2.6452252391685818 -1.2828558656058675 0 -1.2828558656058675 -1.1400379050256788 0 0 0 0 0.08445798965401341 -0.018908719909654259 0 -0.018908719909654259 0.12545475987322641 0 0 0 0 -1.5494439734250136 -0.11174848677516991 0 -0.11174848677516991 0.18547713117061448 0 0 0 0 1.3361505809530172 -3.1719991437607291 0 -3.1719991437607291 -2.1412727928372419 0 0 0 0 1.8276863371692027 -1.4361230128647651 0 -1.4361230128647651 -0.78748592480711144 0 0 0 0 1.1320851699465493 -0.83734331660645012 0 -0.83734331660645012 -3.841628997386465 0 0 0 0 2.0804210731307649 -0.97253911069373089 0 -0.97253911069373089 -2.2511928679318771 0 0 0 0 2.1270312235951927 -0.044864604775538108 0 -0.044864604775538108 0.2616115381709454 0 0 0 0 5.3399139230323271 -0.98746578844964006 0 -0.98746578844964006 0.53850814767054089 0 0 0 0 2.7101843767345457 -0.53251067900787175 0 -0.53251067900787175 -0.11330661923141377 0 0 0 0 4.4544610271404963 -1.8663288599047974 0 -1.8663288599047974 -0.62316184176660272 0 0 0 0 3.3473734557729813 -0.84916390062892899 0 -0.84916390062892899 -0.18371524820034404 0 0 0 0 4.7198893198163141 -2.9497910103099843 0 -2.9497910103099843 -1.3269843077057299 0 0 0 0 1.7012055039740517 -0.78962764431116739 0 -0.78962764431116739 -2.2439049428191424 0 0 0 0 1.5019369979923436 -0.5545888688915418 0 -0.5545888688915418 0.040987784621583673 0 0 0 0 1.629331020063546 -0.77947943740764458 0 -0.77947943740764458 -0.90564906711836102 0 0 0 0 2.2327790822321356 -0.16971431465068498 0 -0.16971431465068498 -0.15293817227642537 0 0 0 0 3.0512865934997349 -0.8658204625616146 0 -0.8658204625616146 -0.092760615867256702 0 0 0 0 2.7503235532531107 -0.63964409763667618 0 -0.63964409763667618 -0.58983897417999742 0 0 0 0 5.4258430253651611 -2.3920951239920289 0 -2.3920951239920289 -0.024621214683634207 0 0 0 0 9.6774630061927382 -4.5430785604023072 0 -4.5430785604023072 4.0198626362236496 0 0 0 0 4.2400896081708197 -1.3404460371677374 0 -1.3404460371677374 2.1462147258699815 0 0 0 0 2.8641810970207189 0.76630560914452417 0 0.76630560914452417 0.31923848825920231 0 0 0 0 1.3364903372015799 0.030911202182863917 0 0.030911202182863917 0.5914227875382303 0 0 0 0 4.7452977217162697 -2.019816177686323 0 -2.019816177686323 0.553883229314863 0 0 0 0 2.8530284371699715 1.9715034574033199 0 1.9715034574033199 0.91509602798268919 0 0 0 0 2.6978225264452131 1.101929192035386 0 1.101929192035386 0.53103224952052464 0 0 0 0 2.6665600920659926 1.7398788033285655 0 1.7398788033285655 0.89212867586695666 0 0 0 0 2.214776655067908 5.9390579557743308 0 5.9390579557743308 -3.5681690542751312 0 0 0 0 2.2162935530743884 1.6707662718593426 0 1.6707662718593426 1.3778195704176559 0 0 0 0 3.0606429860235949 1.2263093042641913 0 1.2263093042641913 1.310995882460702 0 0 0 0 2.3580979172739145 1.4174463658830083 0 1.4174463658830083 1.1246846495661036 0 0 0 0 6.9792629518406102 5.348843935300863 0 5.348843935300863 3.2063807065769652 0 0 0 0 -0.27503631227772907 0.18138780914218122 0 0.18138780914218122 0.45453297078750432 0 0 0 0 499.43664148978456 96.897565940374861 0 96.897565940374861 -7.2163491770170243 0 0 0 0 3.2463818151547974 -2.4103836600598765 0 -2.4103836600598765 1.7069315681084023 0 0 0 0 5.7586873759683499 -2.3854715958419597 0 -2.3854715958419597 5.0081233594305559 0 0 0 0 5.4345816065097097 7.141170056232113 0 7.141170056232113 1.4943994708013975 0 0 0 0 61.742795165762345 40.618672625061116 0 40.618672625061116 60.050247579250154 0 0 0 0 2.5008676881977738 -2.4465463238976053 0 -2.4465463238976053 1.3699274967927111 0 0 0 0 15.639841534317384 -3.174378228451701 0 -3.174378228451701 17.380618225394301 0 0 0 0 232.94744530759817 -18.507641333432755 0 -18.507641333432755 22.49132283875149 0 0 0 0 0.087553587433831126 4.4617814511240113 0 4.4617814511240113 10.516015309223604 0 0 0 0 17.856602428016231 -11.900402578071464 0 -11.900402578071464 6.3227596349838109 0 0 0 0 0.076327255766937441 0.023589311571891258 0 0.023589311571891258 0.044516477121144149 0 0 0 0 5.4494349643055102 10.084493024284285 0 10.084493024284285 7.7794558668271065 0 0 0 0 9.5184751858387529 3.9320205841116529 0 3.9320205841116529 3.6041816352108071 0 0 0 0 5.3940812520557202 0.31333642518051175 0 0.31333642518051175 -2.2207336362135948 0 0 0 0 0.36882002354013821 0.018117387353697723 0 0.018117387353697723 1.9537223728550259 0 0 0 0 3.5433683195083177 1.675214383278167 0 1.675214383278167 -2.2206801370538187 0 0 0 0 0.95104609916907279 -0.32957399573172541 0 -0.32957399573172541 -0.0083230701816021657 0 0 0 0 8.3412394995382328 -3.2608539502572 0 -3.2608539502572 0.72931924017734673 0 0 0 0 4.4291228869060433 -5.0461073030521675 0 -5.0461073030521675 1.5227792477903677 0 0 0 0 7.7165994414376655 -1.6107315032688518 0 -1.6107315032688518 -2.8386624352489207 0 0 0 0 -0.22075500972079531 -1.2464267784171132 0 -1.2464267784171132 0.17635885666521992 0 0 0 0 5.3371493136835433 -0.65903531781316371 0 -0.65903531781316371 0.054933650640624776 0 0 0 0 3.6435216489867344 1.9324625188809819 0 1.9324625188809819 2.204822592423767 0 0 0 0 10.973951152670679 -0.71598060851448508 0 -0.71598060851448508 -8.7102546401427503 0 0 0 0 9.2123265043373976 -3.0188654158102963 0 -3.0188654158102963 -6.4245513625270121 0 0 0 0 10.472026167170952 6.5115448830896128 0 6.5115448830896128 -1.3117581058596386 0 0 0 0 6.8205984628330043 -5.4729888105690065 0 -5.4729888105690065 -12.98698915490219 0 0 0 0 5.8585516741077299 2.8087944940467935 0 2.8087944940467935 -5.1775818067164607 0 0 0 0 5.3275608120457036 2.1151316154884796 0 2.1151316154884796 -0.62507792389760652 0 0 0 0 5.0517026883758263 1.7144715067137639 0 1.7144715067137639 -0.70701345613377953 0 0 0 0 10.261473339674012 -4.3748472587423066 0 -4.3748472587423066 -5.4672215283035257 0 0 0 0 21.676909446472223 0.48189925060926697 0 0.48189925060926697 -3.1640280810163404 0 0 0 0 363.23629373338417 220.5816021751657 0 220.5816021751657 56.73805901425181 0 0 0 0 2.6950627231332644 -1.1423041956242121 0 -1.1423041956242121 0.74359034208717356 0 0 0 0 161.07231462262325 191.67768390678503 0 191.67768390678503 237.49210452193813 0 0 0 0 4.8128311185362698 -1.2492774247489471 0 -1.2492774247489471 0.31710427637120742 0 0 0 0 1.9038128889343646 -0.17934305298413755 0 -0.17934305298413755 0.33886694842948484 0 0 0 0 1.7859562532783197 -0.38618840861565862 0 -0.38618840861565862 0.053358119072865667 0 0 0 0 498.68853668528027 84.538311108075192 0 84.538311108075192 -29.083654732691244 0 0 0 0 2.0330665797296774 -1.483965475490554 0 -1.483965475490554 -0.34862705091411428 0 0 0 0 2.9086604407663117 -0.45912445876367514 0 -0.45912445876367514 -0.47739490544705632 0 0 0 0 -4.6918780992368738 2.1938712496178425 0 2.1938712496178425 75.699269235263856 0 0 0 0 499.42484602019567 -30.89026543335434 0 -30.89026543335434 -62.922190778044076 0 0 0 0 216.53884781299257 40.802759290601337 0 40.802759290601337 -35.822364612992857 0 0 0 0 -26.15075440624264 -36.731747353261682 0 -36.731747353261682 38.135646027513808 0 0 0 0 223.69788715244022 -84.299841583209087 0 -84.299841583209087 38.166264699927716 0 0 0 0 0.88396174998586741 -0.57790407664050303 0 -0.57790407664050303 0.51982197223357218 0 0 0 0 498.71838081900637 78.144948275781033 0 78.144948275781033 -71.034542840791488 0 0 0 0 87.494216086788583 -78.571007544674103 0 -78.571007544674103 73.420541915576976 0 0 0 0 -0.83076009614364921 -20.606805629793747 0 -20.606805629793747 -19.103297806757354 0 0 0 0 2.4507384222456983 -1.0277246353356739 0 -1.0277246353356739 0.88523347080416037 0 0 0 0 14.382541210093677 3.0035646222506642 0 3.0035646222506642 -6.8683425686903661 0 0 0 0 42.762466132254758 -3.8658800910842821 0 -3.8658800910842821 -18.599677895565666 0 0 0 0 24.682004205442013 21.920186650448695 0 21.920186650448695 5.8901996794727722 0 0 0 0 -1.2765737094312044 10.531097093619769 0 10.531097093619769 20.905351606522544 0 0 0 0 4.4140335856027377 5.4761666669159013 0 5.4761666669159013 -5.0360580487185587 0 0 0 0 4.2186115222845046 6.2501271675724794 0 6.2501271675724794 5.0306783127990684 0 0 0 0 12.000854775624703 2.8081485486019062 0 2.8081485486019062 -0.23963343693750971 0 0 0 0 -4.4002114104500833 -0.56815488044813378 0 -0.56815488044813378 1.033125587245209 0 0 0 0 11.906073167136583 -1.2987173639204457 0 -1.2987173639204457 -2.3968669825615052 0 0 0 0 -10.230501601516266 -6.0718800500490673 0 -6.0718800500490673 4.2932300039141751 0 0 0 0 -12.026445627672729 -3.8999716135394067 0 -3.8999716135394067 7.1353116757977659 0 0 0 0 -0.57729053500387684 -0.29509908294083209 0 -0.29509908294083209 0.23702781353439567 0 0 0 0 2.5219428956344663 -1.7547426220736091 0 -1.7547426220736091 0.56902909097510768 0 0 0 0 -0.62025880958123025 0.78552586267077373 0 0.78552586267077373 4.2263694109003893 0 0 0 0 -0.35859856928414047 0.434032150548191 0 0.434032150548191 1.1609765236315752 0 0 0 0 1.3399861523712389 -1.1327448322852547 0 -1.1327448322852547 -0.47845612038031504 0 0 0 0 -9.7243099138332809 -23.142832051678347 0 -23.142832051678347 1.3024675005353235 0 0 0 0 2.1656965306812461 -1.1149530607551268 0 -1.1149530607551268 0.33059350551487732 0 0 0 0 1.0278290313593557 -0.49821173058556023 0 -0.49821173058556023 0.2774033156834953 0 0 0 0 2.3151777069520381 -0.26503039046537402 0 -0.26503039046537402 -0.12042291441637532 0 0 0 0 2.5563554286659951 0.79208655682014317 0 0.79208655682014317 -2.8352175998827533 0 0 0 0 1.3772212213936337 -0.36371657904788424 0 -0.36371657904788424 0.046639758941708354 0 0 0 0 -0.11389633885113426 2.803993752069097 0 2.803993752069097 2.9078962488720776 0 0 0 0 0.12845117517304061 2.7895287399613125 0 2.7895287399613125 0.67988476401740172 0 0 0 0 2.1094703098524494 0.02514770797318704 0 0.02514770797318704 -0.051637708492184423 0 0 0 0 -1.646741576597833 9.6323112260733552 0 9.6323112260733552 -18.17752778655252 0 0 0 0 -7.0630377009762952 -6.9076839523449447 0 -6.9076839523449447 6.28798968447947 0 0 0 0 -1.0535791527090055 24.770958240114233 0 24.770958240114233 7.344772593553671 0 0 0 0 -19.608207636277029 -2.1221429019661002 0 -2.1221429019661002 27.392365089876407 0 0 0 0 -16.27339781080002 -7.2020664342211376 0 -7.2020664342211376 0.34231951645637082 0 0 0 0 -7.7281911030212314 -28.402516150979437 0 -28.402516150979437 11.973397893903609 0 0 0 0 -17.986116256065543 -13.315243136182744 0 -13.315243136182744 -7.6627503829882926 0 0 0 0 1.9815880643167008 -1.6758869060820252 0 -1.6758869060820252 0.023002602053100007 0 0 0 0 -5.4452729903076715 -16.230694052992391 0 -16.230694052992391 -7.3646503906671228 0 0 0 0 -2.9801886527725401 -3.1058419135624433 0 -3.1058419135624433 -0.44283691632827527 0 0 0 0 11.85561386355414 12.411587091120751 0 12.411587091120751 -51.914106150949266 0 0 0 0 0.25384792092033326 -0.50277585508535905 0 -0.50277585508535905 -0.30269421674250663 0 0 0 0 -6.5287167369261851 -12.496413223071627 0 -12.496413223071627 -15.51619803309859 0 0 0 0 7.0007429655570945 -19.459838693345858 0 -19.459838693345858 3.6142200762792527 0 0 0 0 50.556006750188089 -57.931337305048032 0 -57.931337305048032 32.55374072375875 0 0 0 0 -3.8469060013605851 -6.8215507415822589 0 -6.8215507415822589 86.040753028438473 0 0 0 0 9.0794536038470142 -25.973228056113328 0 -25.973228056113328 -10.09678010007174 0 0 0 0 -3.7611025874398365 -2.1579283125345796 0 -2.1579283125345796 10.635069741420182 0 0 0 0 143.66247374058207 32.279247354095745 0 32.279247354095745 6.2272317387074736 0 0 0 0 -35.962379808991273 -4.633022084489312 0 -4.633022084489312 -0.025921780932961269 0 0 0 0 68.316444675921275 -29.702543804454535 0 -29.702543804454535 -48.790006532963787 0 0 0 0 -4.6464752816557393 2.2661684731211054 0 2.2661684731211054 -50.855862314433182 0 0 0 0 12.349324223650001 -16.984229711753429 0 -16.984229711753429 -30.289952013751048 0 0 0 0 -8.3668643512499159 70.602877562045492 0 70.602877562045492 35.239105524827721 0 0 0 0 -0.15730722396943353 0.014788258995520609 0 0.014788258995520609 0.16446903265099877 0 0 0 0 77.292630181294498 -16.255099824926674 0 -16.255099824926674 3.1622659774034787 0 0 0 0 50.389975165072883 -2.4318756029339283 0 -2.4318756029339283 -6.1122808902769066 0 0 0 0 29.034438794713878 -17.301361840844478 0 -17.301361840844478 11.366545847746224 0 0 0 0 1.6239713450869031 0.14818196676000384 0 0.14818196676000384 0.013344021577257354 0 0 0 0 -4.3174147865297527 23.89721588627549 0 23.89721588627549 107.66628812703115 0 0 0 0 27.352684302150124 104.67198249920303 0 104.67198249920303 51.391645490686926 0 0 0 0 65.359603297333649 -15.390785925704293 0 -15.390785925704293 -36.41908409506047 0 0 0 0 73.79881129309274 39.903045934732745 0 39.903045934732745 33.224867135777956 0 0 0 0 76.07579177663456 -7.8504090694276556 0 -7.8504090694276556 -31.367000491784239 0 0 0 0 63.784076815960589 -24.131743813662418 0 -24.131743813662418 -30.053790514436997 0 0 0 0 0.89165098608122739 -0.018211097493629827 0 -0.018211097493629827 -0.010609292292629694 0 0 0 0 81.667801574999771 -15.436030715358942 0 -15.436030715358942 -28.772344648411735 0 0 0 0 77.672858732237003 29.376920608912776 0 29.376920608912776 4.0949019314644346 0 0 0 0 66.066942192126092 10.368839935454515 0 10.368839935454515 -10.691560699156966 0 0 0 0 9.0734696987461803 3.7624859347925534 0 3.7624859347925534 -0.5708244206314248 0 0 0 0 29.483384712532057 48.084874714607906 0 48.084874714607906 22.81954480124061 0 0 0 0 4.8778715038029077 3.5103842456296945 0 3.5103842456296945 1.2007265857894949 0 0 0 0 0.36301855412759232 0.62041351705346759 0 0.62041351705346759 -0.14535142129559547 0 0 0 0 1.7243100352726515 3.106866249760893 0 3.106866249760893 0.65326902071264925 0 0 0 0 0.35201392163251244 0.47096782182516961 0 0.47096782182516961 0.47235243671165272 0 0 0 0 26.873230125104897 18.170374834254488 0 18.170374834254488 10.879139518033107 0 0 0 0 23.568749965679572 27.785402842159542 0 27.785402842159542 14.989453920954546 0 0 0 0 19.704761920091812 31.485812480873474 0 31.485812480873474 17.620127464662449 0 0 0 0 23.784623762434364 31.082928278598509 0 31.082928278598509 9.4055486806712789 0 0 0 0 17.45238524324489 12.631469211852028 0 12.631469211852028 19.86314362255467 0 0 0 0 19.553339385232704 28.01384763780597 0 28.01384763780597 23.040658577533545 0 0 0 0 31.151722945495379 9.0423093047196179 0 9.0423093047196179 35.716344134506272 0 0 0 0 59.760767328203031 5.4840865157024297 0 5.4840865157024297 25.739065368203175 0 0 0 0 32.85070799405355 23.671224782849997 0 23.671224782849997 31.681544763113941 0 0 0 0 26.010351769284462 14.836398296756897 0 14.836398296756897 20.270802824037801 0 0 0 0 9.7394963258481084 28.155623469296501 0 28.155623469296501 15.417040291294448 0 0 0 0 9.1723992156299801 24.750485528421891 0 24.750485528421891 8.7845386682737292 0 0 0 0 21.165939428295474 26.649213608054538 0 26.649213608054538 -42.225880216052801 0 0 0 0 16.121922077617256 14.283403729530063 0 14.283403729530063 -18.265258639346712 0 0 0 0 33.208430921552235 15.462872184718945 0 15.462872184718945 -12.012420621690303 0 0 0 0 -23.97565751478291 -8.9414355610810397 0 -8.9414355610810397 -20.699419995828666 0 0 0 0 18.858186668229337 9.2845390939888759 0 9.2845390939888759 -43.106814131321272 0 0 0 0 45.561938672544443 -13.229833302571492 0 -13.229833302571492 -76.127878114491665 0 0 0 0 39.957465877204299 -35.16738507623878 0 -35.16738507623878 -19.458555137625609 0 0 0 0 40.218527898682396 -17.878683430900246 0 -17.878683430900246 4.3681560469592142 0 0 0 0 96.026547884458296 -48.896873549134348 0 -48.896873549134348 14.131602561844872 0 0 0 0 48.844568921330335 11.726842829220928 0 11.726842829220928 12.703686923448792 0 0 0 0 35.561496946736327 -2.3300699644998346 0 -2.3300699644998346 -0.47173705587174908 0 0 0 0 69.677827719967212 -7.9446693443883447 0 -7.9446693443883447 21.538729404494987 0 0 0 0 82.116815928112956 20.743509111811392 0 20.743509111811392 19.934065833636055 0 0 0 0 89.810190372172144 2.4163617963797037 0 2.4163617963797037 36.318555348929152 0 0 0 0 128.44557294529409 13.939594488102088 0 13.939594488102088 12.807159636025766 0 0 0 0 163.73390595665731 -46.367495809882115 0 -46.367495809882115 1.3310686983822961 0 0 0 0 147.50003365388807 -34.076441639231618 0 -34.076441639231618 -0.837028205625856 0 0 0 0 242.71068947048525 -1.9554781784933368 0 -1.9554781784933368 -28.886058724734937 0 0 0 0 295.07683497143211 -3.7119102801045258 0 -3.7119102801045258 -31.44937158810329 0 0 0 0 500.00212344451768 -25.269214229780545 0 -25.269214229780545 -103.37336573344089 0 0 0 0 307.31074573039837 15.624356579696109 0 15.624356579696109 -91.369782435887316 0 0 0 0 354.15345250971791 -112.16855771350565 0 -112.16855771350565 -70.221601034624214 0 0 0 0 499.20223194076152 -202.37867950443734 0 -202.37867950443734 -67.971393510895069 0 0 0 0 290.63366566148738 -128.98333220453625 0 -128.98333220453625 -74.472907022292262 0 0 0 0 246.43799305538494 -149.49670629797856 0 -149.49670629797856 -2.6197878962091181 0 0 0 0 125.4468070737928 -86.258161222193905 0 -86.258161222193905 -10.307201509998663 0 0 0 0 88.920004691463873 -121.47296814960403 0 -121.47296814960403 14.514611246955534 0 0 0 0 65.742711151968024 -132.4250020439269 0 -132.4250020439269 279.48888724397597 0 0 0 0 -47.027153137185508 -72.091022373026988 0 -72.091022373026988 -1.7087672976331945 0 0 0 0 0.45841504898899199 0.46834126463231307 0 0.46834126463231307 -0.56355371703421397 0 0 0 0 1.6648770423931785 -0.82354612046067444 0 -0.82354612046067444 0.13395134654656454 0 0 0 0 320.41962313065255 -295.45769969960594 0 -295.45769969960594 73.599699105742957 0 0 0 0 8.720400177790907 2.6910596199691099 0 2.6910596199691099 -25.308507076051512 0 0 0 0 23.746984704350325 19.732251112251106 0 19.732251112251106 -31.703930901828812 0 0 0 0 13.956157825001355 32.989267711315506 0 32.989267711315506 -3.9921369022085855 0 0 0 0 -1.1168524421009351 20.888376132688336 0 20.888376132688336 -10.989311480082051 0 0 0 0 8.6719308138436375 7.5617930056781493 0 7.5617930056781493 -2.8529728434386925 0 0 0 0 4.3581957480616893 8.5768393576852304 0 8.5768393576852304 4.3127625652637107 0 0 0 0 5.9475119506015117 5.8448323819803187 0 5.8448323819803187 4.6404607905406845 0 0 0 0 84.097564939872427 -22.798937651298274 0 -22.798937651298274 -5.3933873508684655 0 0 0 0 11.587768343248172 -20.655196555671864 0 -20.655196555671864 3.3272283923292889 0 0 0 0 1.0449075343337206 2.1038531751450678 0 2.1038531751450678 -0.13599445231931639 0 0 0 0 80.633312892047798 48.424933110698476 0 48.424933110698476 15.909958210271157 0 0 0 0 132.78035289476975 -2.8156907113084344 0 -2.8156907113084344 -9.5418800945565181 0 0 0 0 -57.188133507283965 -4.3201432880997572 0 -4.3201432880997572 -17.971481092294198 0 0 0 0 28.425936091042786 -14.114312488952692 0 -14.114312488952692 -48.271971820980752 0 0 0 0 124.89774817821626 -15.759336192996784 0 -15.759336192996784 -22.405277403016044 0 0 0 0 0.7711700299637263 -1.7604857420038895 0 -1.7604857420038895 3.2295205437488104 0 0 0 0 -119.47274682346438 -54.856713953146595 0 -54.856713953146595 13.770944334535216 0 0 0 0 73.744717161482185 155.69581377530722 0 155.69581377530722 126.51281807437226 0 0 0 0 96.83776890198169 -37.335714210082642 0 -37.335714210082642 -0.3634603688574316 0 0 0 0 201.20329819772269 -84.956145815708624 0 -84.956145815708624 -198.79303239316141 0 0 0 0 75.954048324816995 58.634323425426373 0 58.634323425426373 -75.865644896457979 0 0 0 0 151.04346507718856 -109.47810615585718 0 -109.47810615585718 38.27115324747956 0 0 0 0 256.01276238983064 -32.145411109836687 0 -32.145411109836687 -106.33355963574695 0 0 0 0 220.61420605926651 67.383494893143506 0 67.383494893143506 36.682811052853594 0 0 0 0 43.639829255235782 -61.746501909755807 0 -61.746501909755807 83.727211722388574 0 0 0 0 1.3515197257735849 -0.49664301131787303 0 -0.49664301131787303 0.27254687270156941 0 0 0 0 -4.4381006184271428 2.5663680696020492 0 2.5663680696020492 -0.21993258637849067 0 0 0 0 2.9279694423524152 -2.4786099482651904 0 -2.4786099482651904 2.7891130630817837 0 0 0 0 -9.2211769806381199 7.4062925546736551 0 7.4062925546736551 49.937222972433347 0 0 0 0 3.0699420964427162 -1.9796808616671919 0 -1.9796808616671919 1.4318617121049728 0 0 0 0 46.469045678767543 26.531698302530572 0 26.531698302530572 24.59894542209031 0 0 0 0 56.740159677329757 15.861700823418687 0 15.861700823418687 23.183866723949905 0 0 0 0 52.926378356106397 24.944212025717206 0 24.944212025717206 22.022097493123056 0 0 0 0 64.668388634734583 25.575516100994946 0 25.575516100994946 26.918606233371065 0 0 0 0 113.33221438110424 25.187522751732555 0 25.187522751732555 12.169045941234799 0 0 0 0 113.42246139548503 -29.777745666281938 0 -29.777745666281938 11.300286080568185 0 0 0 0 43.881614588894791 -7.8887615969723335 0 -7.8887615969723335 25.674488994784952 0 0 0 0 44.357171503289464 -29.986056009684489 0 -29.986056009684489 38.592103454541302 0 0 0 0 -17.290750919554284 22.443379450424686 0 22.443379450424686 160.81417675475632 0 0 0 0 126.56399567679955 -73.236092612248967 0 -73.236092612248967 60.529243444380427 0 0 0 0 20.824414931036699 40.151903804831704 0 40.151903804831704 -7.4465826903115158 0 0 0 0 10.171354245259863 12.517892495561227 0 12.517892495561227 0.47038941120837308 0 0 0 0 1.6428004278541266 25.044046500568811 0 25.044046500568811 58.352230200322538 0 0 0 0 18.568694513398441 -11.478476139413942 0 -11.478476139413942 48.668350706826232 0 0 0 0 -8.9488517248501012 39.109105508036066 0 39.109105508036066 24.704785956957949 0 0 0 0 -8.9528440896851862 17.151559140817881 0 17.151559140817881 28.318957640369717 0 0 0 0 26.126855177442849 -9.0817055098982564 0 -9.0817055098982564 29.027006767985313 0 0 0 0 29.78812850426425 3.0878342562265857 0 3.0878342562265857 8.5947869864266977 0 0 0 0 7.2838153992915977 1.4906159873801244 0 1.4906159873801244 -2.06233311462438 0 0 0 0 5.612413800948616 22.003336039369287 0 22.003336039369287 -8.0846822414223425 0 0 0 0 -0.8917573788412696 0.44823560807329699 0 0.44823560807329699 1.649003702171786 0 0 0 0 -10.62736756963568 -1.9651214460120627 0 -1.9651214460120627 42.840679488112073 0 0 0 0 -23.948775266821031 5.5949621402614866 0 5.5949621402614866 -1.1713690468977802 0 0 0 0 0.10390456667232684 24.577397788916073 0 24.577397788916073 -7.4749619067479216 0 0 0 0 0.36643104941493654 1.027489437111381 0 1.027489437111381 0.94857117284251036 0 0 0 0 -7.2428852173470659 -2.1713701527123703 0 -2.1713701527123703 6.1248343300708257 0 0 0 0 -7.0065892401230485 -1.0985339158908118 0 -1.0985339158908118 16.092813267695306 0 0 0 0 25.700616784104568 24.17826089515097 0 24.17826089515097 2.39554183213329 0 0 0 0 8.4568516146116721 6.578875000181756 0 6.578875000181756 5.0912094903025062 0 0 0 0 -1.7628428082511034 3.9446367758556646 0 3.9446367758556646 6.7640729307970231 0 0 0 0 35.981836322063828 -2.7285718641809922 0 -2.7285718641809922 2.3136029232500732 0 0 0 0 -1.9273540439661674 -0.019577361893369893 0 -0.019577361893369893 1.9527977706984392 0 0 0 0 2.588885182825285 2.3695942846680467 0 2.3695942846680467 2.4686928246947777 0 0 0 0 3.5284201539006972 1.7087900751612324 0 1.7087900751612324 5.9528455593791989 0 0 0 0 7.3069023267462399 9.229250938886139 0 9.229250938886139 18.029707666385661 0 0 0 0 2.0353812992979012 4.7456774505550232 0 4.7456774505550232 3.0907322925916834 0 0 0 0 0.10425046369346092 4.5345845639689628 0 4.5345845639689628 3.6585716349525228 0 0 0 0 2.3101309406108683 5.0198159205696484 0 5.0198159205696484 4.9675134620949173 0 0 0 0 -3.2399659184466145 13.646717324643078 0 13.646717324643078 10.518606381481732 0 0 0 0 6.1738221110099403 17.007869211181969 0 17.007869211181969 -22.242863844841168 0 0 0 0 -0.14875982254653763 1.8285346078009521 0 1.8285346078009521 1.6358593941308113 0 0 0 0 0.20185218657798032 4.8053780769337209 0 4.8053780769337209 10.50916905136819 0 0 0 0 74.58841113507242 26.992385716119813 0 26.992385716119813 13.618765009840217 0 0 0 0 42.73872694518559 7.6545682374865294 0 7.6545682374865294 6.2324654405599915 0 0 0 0 29.292282457455258 14.381406805984312 0 14.381406805984312 4.578841389398832 0 0 0 0 27.00730058129875 9.8401678946216578 0 9.8401678946216578 -4.2367328796103898 0 0 0 0 6.6672183457978917 21.260045260786228 0 21.260045260786228 6.4500711582198278 0 0 0 0 24.515219872156194 26.309330804467351 0 26.309330804467351 22.303699883234685 0 0 0 0 13.89079102783171 13.398950305898325 0 13.398950305898325 7.8098754992862212 0 0 0 0 17.17377889402951 12.462281976897998 0 12.462281976897998 50.477489298663386 0 0 0 0 -23.796507646355849 16.53466628514289 0 16.53466628514289 13.184839798809548 0 0 0 0 3.142196740010335 0.63142884415210299 0 0.63142884415210299 -0.36272691393977241 0 0 0 0 -4.697861539485757 27.127233463155044 0 27.127233463155044 14.725917159910182 0 0 0 0 -5.5111159740090443 18.574468219331038 0 18.574468219331038 21.568410647607159 0 0 0 0 6.1241311459043573 12.431281321477627 0 12.431281321477627 21.026136013806237 0 0 0 0 43.010664401239069 33.154075161898646 0 33.154075161898646 -51.158732878971023 0 0 0 0 4.5185867215180053 0.98929767758512188 0 0.98929767758512188 0.24296460433805461 0 0 0 0 6.9507105373963896 8.1060534791971577 0 8.1060534791971577 22.733606969369873 0 0 0 0 0.64757004331659118 9.8115116182969473 0 9.8115116182969473 24.659882902409095 0 0 0 0 1.1365766189601345 16.128294142343918 0 16.128294142343918 12.990641490672317 0 0 0 0 -3.3391036626153436 18.830682387944762 0 18.830682387944762 15.923726119133335 0 0 0 0 4.9971131686852459 11.327163524409855 0 11.327163524409855 21.017751612954498 0 0 0 0 -1.9206032651995883 17.753814698980136 0 17.753814698980136 24.542068717834127 0 0 0 0 3.9952228071448417 10.226748021629092 0 10.226748021629092 33.80504461724513 0 0 0 0 17.443295358730211 12.806023153868978 0 12.806023153868978 26.309708263645362 0 0 0 0 12.036672407305105 18.752975742936371 0 18.752975742936371 27.667039587548857 0 0 0 0 16.709657463179155 2.6224595971715985 0 2.6224595971715985 25.753508852808409 0 0 0 0 10.530581070498556 3.6043499323037622 0 3.6043499323037622 61.724453190822516 0 0 0 0 38.771156740282095 35.257194487382947 0 35.257194487382947 47.226121710927032 0 0 0 0 -2.8023831083730784 25.995257887667627 0 25.995257887667627 -2.5748774353338746 0 0 0 0 -5.186226947626551 -2.8390751409444022 0 -2.8390751409444022 -7.7077021430041981 0 0 0 0 -2.3392457196640368 2.6996773200100774 0 2.6996773200100774 1.4439352670115797 0 0 0 0 -8.3904909163467778 11.818201876880643 0 11.818201876880643 -4.897645040429488 0 0 0 0 1.2321818891482508 18.796753156662305 0 18.796753156662305 -16.782625843154193 0 0 0 0 -9.419138829834651 14.23217519864502 0 14.23217519864502 22.288655488677051 0 0 0 0 -11.889401474481872 -10.786545886427801 0 -10.786545886427801 9.8776388900329266 0 0 0 0 6.0778227777882421 7.7843483828657725 0 7.7843483828657725 2.7360234403940922 0 0 0 0 -0.90030159571051627 16.587320204432672 0 16.587320204432672 14.28631644700676 0 0 0 0 6.6604937717555757 6.0380716402718964 0 6.0380716402718964 4.9817238539189663 0 0 0 0 4.3523935033597354 5.9997179399053664 0 5.9997179399053664 2.8162237029383732 0 0 0 0 5.8927866187032123 7.9455114406007965 0 7.9455114406007965 3.3944569042581558 0 0 0 0 8.1663523889883436 6.0699768330795223 0 6.0699768330795223 2.1119718417820081 0 0 0 0 6.2520270068442869 8.4772125090008501 0 8.4772125090008501 4.0312497406125658 0 0 0 0 5.6919064792427889 7.6375561569620345 0 7.6375561569620345 2.7841805707836329 0 0 0 0 4.5501134344915499 8.3445644101901735 0 8.3445644101901735 8.4664243167933364 0 0 0 0 4.2793356252113881 7.1774641831180475 0 7.1774641831180475 4.5637930225488503 0 0 0 0 11.75210386667186 12.12275238203199 0 12.12275238203199 7.5168777330350167 0 0 0 0 6.4610199653106974 7.6403342308916535 0 7.6403342308916535 4.2167048488167609 0 0 0 0 11.341041649312018 3.4736008089669177 0 3.4736008089669177 6.7011220621170651 0 0 0 0 2.6794265272424127 5.823599764355663 0 5.823599764355663 13.35143346952043 0 0 0 0 1.3519057069493723 0.25163794492300795 0 0.25163794492300795 -1.0077549276026265 0 0 0 0 6.1861731419207899 5.9211826437527151 0 5.9211826437527151 4.0445625386421398 0 0 0 0 4.6910191404948209 1.7285917552224996 0 1.7285917552224996 -1.8706705741804415 0 0 0 0 14.599384082836195 9.937901899747942 0 9.937901899747942 4.590167933493376 0 0 0 0 2.7117575264845248 3.1533636038044262 0 3.1533636038044262 0.60834241587879267 0 0 0 0 3.8586494708088139 5.4206322883893563 0 5.4206322883893563 1.0340017867383011 0 0 0 0 7.1739779379299762 8.6202650071121525 0 8.6202650071121525 3.0899915756685914 0 0 0 0 0.69128245402265343 0.71668805117959211 0 0.71668805117959211 -0.49126684905928097 0 0 0 0 3.6695255849546129 3.4982626241252319 0 3.4982626241252319 1.1633676036617544 0 0 0 0 2.3993412006404924 2.2272988929707367 0 2.2272988929707367 -0.0062906616549298633 0 0 0 0 2.2075966750783262 1.5458566083168683 0 1.5458566083168683 -1.2235142536894053 0 0 0 0 -0.4760112938040324 2.5041486638132651 0 2.5041486638132651 0.5736151173445736 0 0 0 0 -9.63393199526854 1.2080154503223977 0 1.2080154503223977 50.889770786847315 0 0 0 0 -2.5359016836756672 1.5520091777003762 0 1.5520091777003762 2.5799468322244241 0 0 0 0 3.5598987654239522 4.2559173285873868 0 4.2559173285873868 7.3104756373470536 0 0 0 0 5.364173359696224 5.3245147907045407 0 5.3245147907045407 5.5198991594465951 0 0 0 0 5.5538921212955756 7.4584510201854073 0 7.4584510201854073 4.0001349086384153 0 0 0 0 5.2225190456406381 5.4251511849640792 0 5.4251511849640792 9.9966097844455817 0 0 0 0 8.0515194806698673 5.309215777659233 0 5.309215777659233 2.9535031887625109 0 0 0 0 6.5957136690217339 7.0753735934541737 0 7.0753735934541737 5.6943482124405023 0 0 0 0 5.6692041365071191 7.2212544933100276 0 7.2212544933100276 7.8088152722111772 0 0 0 0 -1.7627262100716177 1.34142008343926 0 1.34142008343926 3.9155974226247348 0 0 0 0 4.2976005131540544 2.0137822455072638 0 2.0137822455072638 -1.8822080744835357 0 0 0 0 5.8462767231408179 3.4750797034148491 0 3.4750797034148491 0.40519406387296897 0 0 0 0 7.7128191827187607 7.0628722949186695 0 7.0628722949186695 4.3410439113925463 0 0 0 0 5.9458319733138012 3.233736154596528 0 3.233736154596528 0.97878469813008451 0 0 0 0 5.4108076856456364 3.8184980222180087 0 3.8184980222180087 1.5102041989423469 0 0 0 0 5.344704665162169 4.0138540034394268 0 4.0138540034394268 0.93500638562505856 0 0 0 0 4.8334016008025174 3.3141769224459807 0 3.3141769224459807 0.88832558681404805 0 0 0 0 3.7546269067823821 3.4679708645823286 0 3.4679708645823286 1.0814315285706755 0 0 0 0 3.7103070052603471 6.5873022654833147 0 6.5873022654833147 0.86243195281582796 0 0 0 0 1.3381612692911844 0.73143794187935285 0 0.73143794187935285 0.36515855445254108 0 0 0 0 7.6866647673282387 4.4908869804906999 0 4.4908869804906999 1.7514575011082911 0 0 0 0 4.869843124132899 2.5694374036863437 0 2.5694374036863437 -0.9903195658021815 0 0 0 0 0.071045783693432618 -0.0090053726255545641 0 -0.0090053726255545641 -0.048969454170462834 0 0 0 0 3.7821568886574823 3.3287740526291429 0 3.3287740526291429 -0.27673640186826276 0 0 0 0 4.7004241539341365 2.4751326809281409 0 2.4751326809281409 0.47603700974022445 0 0 0 0 5.3094754119442769 2.297975485599876 0 2.297975485599876 -1.4212853164671415 0 0 0 0 3.8290173888702839 3.2751766272245249 0 3.2751766272245249 -1.4341767114399691 0 0 0 0 3.5355802509366345 2.4475997142604626 0 2.4475997142604626 0.13045740919523857 0 0 0 0 5.9112186042830217 1.6621259353020719 0 1.6621259353020719 -0.94796873189103303 0 0 0 0 3.4837951823920434 4.329300542901759 0 4.329300542901759 0.80773803436011349 0 0 0 0 6.4166444839170254 2.8797869609002191 0 2.8797869609002191 -1.3895212271809587 0 0 0 0 7.1826565188625864 3.9091631451751567 0 3.9091631451751567 -0.0062774906191975788 0 0 0 0 7.4834045516349761 5.4610105896741743 0 5.4610105896741743 1.5941728867119309 0 0 0 0 7.1268586139685794 4.9684875774671582 0 4.9684875774671582 0.91496037423900134 0 0 0 0 6.4430404091372111 5.6408517131895906 0 5.6408517131895906 2.8825593414139803 0 0 0 0 5.5125098141456874 4.8318252447853069 0 4.8318252447853069 2.3184390811610456 0 0 0 0 7.5031865371702224 3.0291501801822278 0 3.0291501801822278 1.2506210310397705 0 0 0 0 7.489578660896985 5.3241375587968633 0 5.3241375587968633 1.3169744627617193 0 0 0 0 9.5749216648919173 3.9624133126143875 0 3.9624133126143875 1.580920403217192 0 0 0 0 -37.591650640059925 48.322692320356964 0 48.322692320356964 26.41226353101456 0 0 0 0 10.059111558034147 6.3738050106005346 0 6.3738050106005346 2.2388901712319011 0 0 0 0 9.4288759061619203 6.6739764045153152 0 6.6739764045153152 2.6888321139649634 0 0 0 0 1.422170813112567 1.7907835590375196 0 1.7907835590375196 -0.16826380294148602 0 0 0 0 -109.01023624773734 -71.428981415459816 0 -71.428981415459816 26.293487096530271 0 0 0 0 -22.721677329731392 -77.133130131291466 0 -77.133130131291466 19.38476207348458 0 0 0 0 -25.6947590076457 -30.967555784969068 0 -30.967555784969068 32.078690912616139 0 0 0 0 24.352899435483778 -43.057704290293941 0 -43.057704290293941 -3.2054079463580365 0 0 0 0 0.073762536008051605 -0.28553282885563647 0 -0.28553282885563647 1.4614556194861121 0 0 0 0 303.69145611478234 29.285409126973605 0 29.285409126973605 -27.823683721170937 0 0 0 0 53.860863908652846 -122.34707322448213 0 -122.34707322448213 77.45590901661626 0 0 0 0 34.492632040521585 -63.900553192056037 0 -63.900553192056037 14.586560036022803 0 0 0 0 6.4931541397626775 3.4800681449407511 0 3.4800681449407511 -0.75266084601113059 0 0 0 0 93.559502894124762 65.154831367766604 0 65.154831367766604 -53.270268346612212 0 0 0 0 2.2601907325347383 -34.2782219338863 0 -34.2782219338863 28.685451907655079 0 0 0 0 7.1210048632626695 -38.035729608197649 0 -38.035729608197649 12.472826005878815 0 0 0 0 7.3645874789049515 2.1110918934437892 0 2.1110918934437892 -1.9022428679984102 0 0 0 0 11.96066290604449 -5.5479735960310066 0 -5.5479735960310066 -2.1673089574003086 0 0 0 0 5.2923951691304829 0.64160191633024644 0 0.64160191633024644 -3.3987281691302154 0 0 0 0 5.6625250320043961 2.3634043603993753 0 2.3634043603993753 -1.5036398297784146 0 0 0 0 5.4088713299811388 0.81636815406747232 0 0.81636815406747232 -2.2541399492778851 0 0 0 0 5.3554258162770196 0.17737565277140988 0 0.17737565277140988 -3.8559433142687425 0 0 0 0 5.680632633191447 1.768625817991532 0 1.768625817991532 -3.3470859269855282 0 0 0 0 150.08635531947232 -0.8631262699252602 0 -0.8631262699252602 1.4296299117887656 0 0 0 0 82.168435080832978 -4.0474343998038194 0 -4.0474343998038194 1.8411657355299482 0 0 0 0 3.0180051361792701 -2.5820018329080008 0 -2.5820018329080008 2.2529414560354324 0 0 0 0 112.59784334925803 41.182038152163315 0 41.182038152163315 2.5073074805720239 0 0 0 0 85.635604201088825 44.555251394922976 0 44.555251394922976 15.279183220543359 0 0 0 0 154.11903834680425 -110.8528272009862 0 -110.8528272009862 115.87917404778298 0 0 0 0 252.13592703336053 75.112379910258198 0 75.112379910258198 10.606766315175943 0 0 0 0 11.9624365732017 -63.862114530295685 0 -63.862114530295685 144.87638362194267 0 0 0 0 0.35541161716841696 -0.9293680243723379 0 -0.9293680243723379 1.6663242931992475 0 0 0 0 6.2093457263085838 -5.2846747500562685 0 -5.2846747500562685 25.29933116456408 0 0 0 0 12.437787473116202 -12.57076926306463 0 -12.57076926306463 5.9635268653826188 0 0 0 0 61.721821924256851 -48.22949233124227 0 -48.22949233124227 52.881987412853334 0 0 0 0 -43.548095216038007 -54.051578596370831 0 -54.051578596370831 64.732763648713615 0 0 0 0 41.430094678719342 -40.759120751510721 0 -40.759120751510721 10.170908106744889 0 0 0 0 -28.164404158109619 4.3260150710936784 0 4.3260150710936784 39.554945458289751 0 0 0 0 -87.500546855887592 -46.201443403285225 0 -46.201443403285225 135.53074839290309 0 0 0 0 32.889406313625614 19.857713258350117 0 19.857713258350117 28.158354928464185 0 0 0 0 -14.683805317518136 14.113073402945318 0 14.113073402945318 9.130798659410118 0 0 0 0 17.724868742380444 -21.366163932666907 0 -21.366163932666907 37.062981227761497 0 0 0 0 -0.65053336171081289 0.66162669993354373 0 0.66162669993354373 -0.50275363920669958 0 0 0 0 40.678621807658921 16.352028795535499 0 16.352028795535499 -16.125366086733194 0 0 0 0 78.55155050595863 9.4463219740796376 0 9.4463219740796376 -62.555130858916002 0 0 0 0 52.035106715338856 7.496479856954652 0 7.496479856954652 -38.044154339515558 0 0 0 0 48.540580960870983 31.057090998803208 0 31.057090998803208 -56.774272259712347 0 0 0 0 34.031194848615542 83.712671254911584 0 83.712671254911584 -38.461295066684272 0 0 0 0 31.911687879129659 -34.20599444316781 0 -34.20599444316781 -38.535978860953037 0 0 0 0 46.686388763773778 30.469715019658025 0 30.469715019658025 196.00174505960021 0 0 0 0 -19.898276590075682 74.910401316035404 0 74.910401316035404 -10.077810142107865 0 0 0 0 86.933039597059349 43.840621900683857 0 43.840621900683857 -45.420132156939417 0 0 0 0 44.095176149307463 24.10197360265056 0 24.10197360265056 -28.262615795333431 0 0 0 0 7.7814077609305059 27.231889701690989 0 27.231889701690989 -21.352130972868508 0 0 0 0 2.6015950626631179 1.2409446054017392 0 1.2409446054017392 -3.629123327743176 0 0 0 0 98.102446498085442 58.923433633862345 0 58.923433633862345 -111.32898087381909 0 0 0 0 -17.815398953180107 -24.390308450424214 0 -24.390308450424214 72.007295863972274 0 0 0 0 -51.693703191616976 26.682291922008744 0 26.682291922008744 4.4318237805014178 0 0 0 0 4.1446248182091949 -44.32698151880038 0 -44.32698151880038 75.853636352606031 0 0 0 0 193.0495096450004 -105.62886519204324 0 -105.62886519204324 19.580893853306634 0 0 0 0 210.71790893528055 47.399436595640623 0 47.399436595640623 -21.686220438262353 0 0 0 0 69.92125612356358 -35.403216876885949 0 -35.403216876885949 -13.342377192923323 0 0 0 0 77.914536428088979 10.557874179892394 0 10.557874179892394 -22.416631591049281 0 0 0 0 94.947682306710476 15.258079266514414 0 15.258079266514414 -44.190222860412405 0 0 0 0 45.020323436673834 4.4006018318737006 0 4.4006018318737006 -32.425154619703335 0 0 0 0 94.080301609022627 -35.120427578364342 0 -35.120427578364342 -29.792484968446388 0 0 0 0 72.837398547369276 -57.856980856732115 0 -57.856980856732115 3.335905726765759 0 0 0 0 26.045277309335233 -27.766813450677773 0 -27.766813450677773 -15.958644939261148 0 0 0 0 58.192625266673531 -37.798773861450627 0 -37.798773861450627 -35.717998877304126 0 0 0 0 38.223021484353922 -37.265145053891501 0 -37.265145053891501 -43.804299366909163 0 0 0 0 28.058550756566547 -29.24633398622791 0 -29.24633398622791 -34.360718038894902 0 0 0 0 42.880277105836285 -74.969392145857 0 -74.969392145857 -10.304460658723656 0 0 0 0 7.2781975407610844 -39.071740713400686 0 -39.071740713400686 31.318343530741913 0 0 0 0 0.45338570130511435 -1.0747513987621424 0 -1.0747513987621424 1.3092091004147921 0 0 0 0 187.39402191707316 102.50433498444208 0 102.50433498444208 -8.0284393263482343 0 0 0 0 19.513527257561122 -9.9306867830782721 0 -9.9306867830782721 -13.439278267900249 0 0 0 0 -1.9041003725596966 -17.765958792944275 0 -17.765958792944275 -8.0552947067878904 0 0 0 0 37.452932985847838 -31.865750724739996 0 -31.865750724739996 -3.0068416089425227 0 0 0 0 31.219576719780434 0.91946523249305301 0 0.91946523249305301 -22.014027658213308 0 0 0 0 32.290925395397153 -3.3461746341831713 0 -3.3461746341831713 -11.145481338495983 0 0 0 0 33.318462009689938 4.6739862593913131 0 4.6739862593913131 -27.84154564794494 0 0 0 0 26.071901813410477 -13.501628285643278 0 -13.501628285643278 -26.872585944432103 0 0 0 0 54.610285546599698 -13.644534993801699 0 -13.644534993801699 -28.936969092497975 0 0 0 0 56.144981235151988 -16.975521877725839 0 -16.975521877725839 -36.686187739868728 0 0 0 0 45.511631998708935 6.111052523281046 0 6.111052523281046 -33.707224245978978 0 0 0 0 34.394932253733714 12.867263068557349 0 12.867263068557349 -26.799738256090222 0 0 0 0 -1.716989857089537 3.7501386111964621 0 3.7501386111964621 -19.851828053429927 0 0 0 0 8.4296321856540999 17.949343764832975 0 17.949343764832975 -25.711459881390965 0 0 0 0 10.779662241705282 5.5579301832690362 0 5.5579301832690362 -21.252052226772776 0 0 0 0 9.570442226946291 2.8064106663954766 0 2.8064106663954766 -4.4821834802030756 0 0 0 0 7.9912599950839649 5.794335052821225 0 5.794335052821225 -20.597214786222139 0 0 0 0 13.541142186161096 9.6138695813165214 0 9.6138695813165214 -23.840544454115843 0 0 0 0 35.763033105351042 1.9382713136155871 0 1.9382713136155871 -28.805440106741116 0 0 0 0 30.648611078683643 2.0825994159440597 0 2.0825994159440597 -25.549062450557358 0 0 0 0 11.531834464463614 5.9835952297296302 0 5.9835952297296302 1.2004724467374328 0 0 0 0 4.8588267084496692 1.3596347721920665 0 1.3596347721920665 -0.36552092538856584 0 0 0 0 -6.1336801762190589 11.764080098750583 0 11.764080098750583 0.75664454442176066 0 0 0 0 3.3161450389606548 -0.25739643672760071 0 -0.25739643672760071 -0.36019880759638934 0 0 0 0 -8.5522950624381338 19.268864555752458 0 19.268864555752458 -12.202116067557654 0 0 0 0 15.758936274932694 -4.0375676016549278 0 -4.0375676016549278 -5.7567303886493733 0 0 0 0 20.407034629412692 1.7297799770358324 0 1.7297799770358324 -7.210794858180634 0 0 0 0 18.219869553701074 -5.12226024463871 0 -5.12226024463871 -6.8647518581523741 0 0 0 0 40.122542490532396 -12.480450713855134 0 -12.480450713855134 0.61841244404058671 0 0 0 0 -0.66198622987510847 0.54063533026501709 0 0.54063533026501709 -0.22378526016369449 0 0 0 0 33.771261456397951 5.5902213910267164 0 5.5902213910267164 -9.3841041661287363 0 0 0 0 29.517315290777333 2.6648515900396887 0 2.6648515900396887 -11.179456818134895 0 0 0 0 32.080137037879012 4.3293659918535923 0 4.3293659918535923 -25.281432251613296 0 0 0 0 16.790871836036104 4.5760806092303028 0 4.5760806092303028 -11.263090275428112 0 0 0 0 1.395418184899718 -0.59702438541575109 0 -0.59702438541575109 0.19640820660140257 0 0 0 0 4.4366495080587338 3.2900240552658877 0 3.2900240552658877 -9.6441050697491058 0 0 0 0 19.718268461154821 1.7041246093936593 0 1.7041246093936593 -16.578173941220257 0 0 0 0 7.7144538774527973 13.971578963393824 0 13.971578963393824 -2.3606259831288128 0 0 0 0 18.360256384967897 5.12709297253042 0 5.12709297253042 -24.378441909209187 0 0 0 0 0.96611498901120285 -7.4293672778300675 0 -7.4293672778300675 -10.063485956104842 0 0 0 0 -8.1045485298695894 0.20374724431272284 0 0.20374724431272284 3.4078074503896687 0 0 0 0 5.4591446297763468 19.528482419199634 0 19.528482419199634 -15.555821034020454 0 0 0 0 1.8491736659193521 8.1848393887040345 0 8.1848393887040345 9.1402904461012326 0 0 0 0 4.5567921573617447 1.1810821734395041 0 1.1810821734395041 -3.2128260429880635 0 0 0 0 4.4824942612608787 2.2009275606251464 0 2.2009275606251464 -5.4433792930978964 0 0 0 0 8.1694693731860752 1.4878931982113954 0 1.4878931982113954 -4.02072231702914 0 0 0 0 5.8374920880141872 2.6128856291350075 0 2.6128856291350075 -3.3597104876457706 0 0 0 0 17.864771786945312 -4.3698517506459211 0 -4.3698517506459211 -2.2244053724315336 0 0 0 0 23.508648858706692 -6.1357402809453561 0 -6.1357402809453561 -33.366939989185539 0 0 0 0 7.7478154494650653 -4.3626606170703326 0 -4.3626606170703326 -11.033235390478694 0 0 0 0 4.8959634126977951 1.5157297445236555 0 1.5157297445236555 -4.6440575093309064 0 0 0 0 6.5687940990101197 -6.2893181030303822 0 -6.2893181030303822 13.699340632051303 0 0 0 0 9.7147164950596796 -3.9795912143666792 0 -3.9795912143666792 1.1772407227279187 0 0 0 0 39.41149655465415 19.914062446350727 0 19.914062446350727 21.710217128128079 0 0 0 0 22.607684004551629 14.046469041886667 0 14.046469041886667 25.806251562754824 0 0 0 0 3.0075332123750691 -0.55343725058235549 0 -0.55343725058235549 -0.99965149078479776 0 0 0 0 -50.256953251268897 -114.69951167976023 0 -114.69951167976023 -24.621444891321516 0 0 0 0 37.538507780051077 -6.8918473512126184 0 -6.8918473512126184 -16.67406727724665 0 0 0 0 4.4532142966436368 12.481568258084735 0 12.481568258084735 -27.709663241475937 0 0 0 0 -41.317109002827237 6.0478636864322652 0 6.0478636864322652 7.404836422306289 0 0 0 0 175.9065704374043 -143.03084633656363 0 -143.03084633656363 -151.74838025436657 0 0 0 0 0.73782175135147554 24.217107618414047 0 24.217107618414047 36.250795249443399 0 0 0 0 -5.4941281859755691 -17.065567362762067 0 -17.065567362762067 21.750224911021633 0 0 0 0 13.89042831538336 -3.0868041862406699 0 -3.0868041862406699 -17.116689039702578 0 0 0 0 4.8819406258047149 -2.1472522611328388 0 -2.1472522611328388 -0.93323283698770254 0 0 0 0 31.385031452016847 17.563224118908693 0 17.563224118908693 -3.3230619281011968 0 0 0 0 2.3666757777637031 9.0427975996987016 0 9.0427975996987016 -2.3620858901660995 0 0 0 0 -9.2027829872158691 12.847169600796235 0 12.847169600796235 -1.255806155310438 0 0 0 0 4.8573378084884098 12.849674312260532 0 12.849674312260532 -1.621502939605989 0 0 0 0 6.8032443261627122 12.619269991474084 0 12.619269991474084 -5.8412016837503415 0 0 0 0 4.6544536279434396 9.4304674245850038 0 9.4304674245850038 -7.0304964571597566 0 0 0 0 -7.0514232928780984 12.8727265361847 0 12.8727265361847 -4.9196015412974816 0 0 0 0 2.3686953387956855 2.8921412391779491 0 2.8921412391779491 3.2189334794819242 0 0 0 0 -12.621687626286985 18.042103672495386 0 18.042103672495386 -4.2387652642683022 0 0 0 0 -14.622578456796646 11.511584871431609 0 11.511584871431609 -0.36753866678031955 0 0 0 0 3.6468668690658887 4.4805942555394722 0 4.4805942555394722 1.0724254762158125 0 0 0 0 1.4388168080135983 7.0710424713976181 0 7.0710424713976181 3.7654979242647642 0 0 0 0 6.9626225193669598 4.6394920601690046 0 4.6394920601690046 1.0243922883918515 0 0 0 0 3.2868407024548105 6.0137132039515961 0 6.0137132039515961 -0.64885019072568184 0 0 0 0 2.7756022837872898 3.5041519456799772 0 3.5041519456799772 4.1738910058087155 0 0 0 0 -3.3455736898376927 15.492526652248984 0 15.492526652248984 -3.1547625428806612 0 0 0 0 10.866635876593136 9.9626777314026072 0 9.9626777314026072 -2.2539292312430916 0 0 0 0 18.719743075237602 8.2855228609308824 0 8.2855228609308824 -4.6385017105865813 0 0 0 0 5.9281189901043945 9.3198151511510616 0 9.3198151511510616 -1.1029436992747605 0 0 0 0 1.2159285269417222 0.2991440534931753 0 0.2991440534931753 -0.14454668555649564 0 0 0 0 13.840279270541942 1.8565653756631377 0 1.8565653756631377 -1.4721517832245468 0 0 0 0 23.445395476554495 2.9181699964374133 0 2.9181699964374133 -3.97791667486905 0 0 0 0 8.172050245371338 -0.050567312686894184 0 -0.050567312686894184 -2.6695761402471305 0 0 0 0 -9.3413904229719265 16.81866445938374 0 16.81866445938374 -17.501022068918274 0 0 0 0 16.487725209678956 6.3967982094737295 0 6.3967982094737295 3.4118939760650164 0 0 0 0 29.829911898546015 -7.160329990532091 0 -7.160329990532091 4.110522495265144 0 0 0 0 15.386397071453757 5.1362360839500525 0 5.1362360839500525 -2.8382732639007884 0 0 0 0 24.563194430170824 9.9782518277847601 0 9.9782518277847601 -6.5239471814302306 0 0 0 0 17.486022739611144 5.7570618330787511 0 5.7570618330787511 -2.841627579236274 0 0 0 0 38.922286200408962 13.786898967970103 0 13.786898967970103 -11.347358584548374 0 0 0 0 21.444500653942669 2.5562887163378036 0 2.5562887163378036 -5.6453626493894262 0 0 0 0 20.655666320483988 5.6665786427000739 0 5.6665786427000739 -9.010509301653201 0 0 0 0 -0.27630206728561602 -0.30470783938258705 0 -0.30470783938258705 0.1110151822065335 0 0 0 0 -17.488549767765335 25.047494230355028 0 25.047494230355028 -12.176160595911597 0 0 0 0 57.302400244244836 -3.4039897676400415 0 -3.4039897676400415 -14.468945589549776 0 0 0 0 -1.3413800463448524 26.583593156733514 0 26.583593156733514 -19.369303682418831 0 0 0 0 12.489587113153902 8.7801627316064241 0 8.7801627316064241 -12.097452824709535 0 0 0 0 12.810194537425559 15.146541975851505 0 15.146541975851505 -5.8960109920142258 0 0 0 0 22.010982475320816 9.5329156458718671 0 9.5329156458718671 -9.6341817821617042 0 0 0 0 18.116107200910847 13.086259377351325 0 13.086259377351325 -9.1885812166635787 0 0 0 0 13.167635633965915 13.758924221253224 0 13.758924221253224 -7.426020945792061 0 0 0 0 16.19556187967828 10.959940259654559 0 10.959940259654559 -5.4255679838686319 0 0 0 0 13.101121488913805 8.1009433468058774 0 8.1009433468058774 -6.1351962555163482 0 0 0 0 15.359818684057245 8.6193838447086364 0 8.6193838447086364 -9.6841790032395636 0 0 0 0 11.945035309459854 5.0616447859492837 0 5.0616447859492837 -8.55487063245846 0 0 0 0 -0.13635842792064068 5.9534504661837673 0 5.9534504661837673 -7.0544161907910166 0 0 0 0 6.0443541815238859 5.0493343711905254 0 5.0493343711905254 -8.0415765333580111 0 0 0 0 6.4633199038207749 6.4189595142608482 0 6.4189595142608482 -4.5482623728685212 0 0 0 0 7.709954954494151 4.5018914124777893 0 4.5018914124777893 -10.989869346628439 0 0 0 0 1.4165785334280372 8.6871357322941094 0 8.6871357322941094 -9.1747073513322448 0 0 0 0 8.9921587284297857 7.0814300162869586 0 7.0814300162869586 -7.6608580725929869 0 0 0 0 15.272538955884556 3.804879131498069 0 3.804879131498069 -9.1349949024606758 0 0 0 0 11.74573555338975 7.9556864199521442 0 7.9556864199521442 -7.3612213204088448 0 0 0 0 3.9280132857093122 10.856985070102382 0 10.856985070102382 -7.9643938513596595 0 0 0 0 9.8343667355557045 4.9132230999576336 0 4.9132230999576336 -9.8864821074257634 0 0 0 0 -4.0129144506754528 15.028603789732756 0 15.028603789732756 -8.7311015942862014 0 0 0 0 1.3053021253163024 7.4534777012866016 0 7.4534777012866016 -11.154715163159835 0 0 0 0 11.025670603169601 5.7311654688639919 0 5.7311654688639919 -6.8637046660301166 0 0 0 0 15.429226123846092 9.4446799927916345 0 9.4446799927916345 -6.9541267454010267 0 0 0 0 -14.576475721059978 10.596431082457002 0 10.596431082457002 -9.4245706114318182 0 0 0 0 -35.534908524306957 15.756737972029669 0 15.756737972029669 1.334504821308883 0 0 0 0 1.0892168673575444 0.74006813944050265 0 0.74006813944050265 0.36117766871769064 0 0 0 0 -15.091859073630985 23.590175396424456 0 23.590175396424456 -18.800922756169939 0 0 0 0 -7.3195396282280853 8.3709911012622342 0 8.3709911012622342 -17.361205285471215 0 0 0 0 -5.6458819079944078 12.139352318769511 0 12.139352318769511 -9.892992880195834 0 0 0 0 0.20425334531682893 6.5912040037676434 0 6.5912040037676434 -11.748782352048011 0 0 0 0 -7.6805652657631072 13.478465951191538 0 13.478465951191538 -13.190027417027522 0 0 0 0 0.3665923816843133 6.3993351328515473 0 6.3993351328515473 -15.678347724717071 0 0 0 0 -8.7824677687196981 9.9221642485066752 0 9.9221642485066752 -5.5253846059317766 0 0 0 0 -6.6116756409192021 3.1966748519550947 0 3.1966748519550947 -7.1981179316439921 0 0 0 0 -3.8338243096227416 2.6808790703655632 0 2.6808790703655632 0.64598096033887487 0 0 0 0 -2.2154599768123262 6.4696051930258704 0 6.4696051930258704 -6.6180692926222946 0 0 0 0 -1.2202494127614045 7.9194465605871756 0 7.9194465605871756 6.1377873072403872 0 0 0 0 -0.36244894271328576 4.1430285460913723 0 4.1430285460913723 -3.3861899315975279 0 0 0 0 -0.6092371263403038 6.8162599152394705 0 6.8162599152394705 -5.0304363952263884 0 0 0 0 5.0819178583069515 7.4387137806218107 0 7.4387137806218107 -1.40645740849709 0 0 0 0 9.2713772349256942 7.3892333363851321 0 7.3892333363851321 -1.642178735494781 0 0 0 0 8.1412341449849919 5.2316813062814163 0 5.2316813062814163 -4.7250579360943163 0 0 0 0 -1.0301678375926713 6.8049580219387735 0 6.8049580219387735 0.093985577968169309 0 0 0 0 12.774286925171623 5.864294942576123 0 5.864294942576123 2.154681722709713 0 0 0 0 9.9999926057671473 4.0179470008681335 0 4.0179470008681335 2.4978734017045099 0 0 0 0 11.153429908820499 8.9931682317430841 0 8.9931682317430841 -1.2567282493919265 0 0 0 0 -14.340934221184398 27.123709342502707 0 27.123709342502707 -3.4550977466168433 0 0 0 0 1.5659046946602757 14.874987217303897 0 14.874987217303897 0.38392977471312406 0 0 0 0 -7.8111095318818116 14.591863529949023 0 14.591863529949023 12.421178584250356 0 0 0 0 -35.767127335548139 9.9941733365524215 0 9.9941733365524215 16.934270858901073 0 0 0 0 -7.1940546326063668 3.412835040157006 0 3.412835040157006 15.761818948970813 0 0 0 0 -10.125927557628074 10.234667855438545 0 10.234667855438545 5.6565843387352288 0 0 0 0 1.6736383169209064 0.19754075678203076 0 0.19754075678203076 -0.042991924987652419 0 0 0 0 11.64415305968504 6.4069109816373633 0 6.4069109816373633 3.026201339498674 0 0 0 0 -87.151055934869447 24.107292603530709 0 24.107292603530709 114.89636091952713 0 0 0 0 11.050386687600621 9.2390033113158552 0 9.2390033113158552 2.7271087999104111 0 0 0 0 57.570465501272338 38.644863852392632 0 38.644863852392632 -73.097446979027154 0 0 0 0 12.913974567138212 5.7818780327647801 0 5.7818780327647801 0.8480926914758129 0 0 0 0 15.401827239096747 7.0136107399664525 0 7.0136107399664525 -2.5872044427605942 0 0 0 0 12.633875941701262 10.858256540100228 0 10.858256540100228 -4.9795696399137341 0 0 0 0 14.291766957436266 7.7832419971318814 0 7.7832419971318814 -1.8561335648155364 0 0 0 0 13.721178113795759 8.8930995373591486 0 8.8930995373591486 -3.0125713782163075 0 0 0 0 13.296603203594714 7.6725835164675118 0 7.6725835164675118 -6.1915864611158327 0 0 0 0 15.348640628430076 7.6884119327519329 0 7.6884119327519329 -2.8545743760896585 0 0 0 0 12.205667898804677 9.1056872763865613 0 9.1056872763865613 -0.78248683894230453 0 0 0 0 -51.269572775198753 27.548286225850802 0 27.548286225850802 42.351351035825019 0 0 0 0 2.46277257587488 3.4794771432956115 0 3.4794771432956115 1.9732680466467052 0 0 0 0 7.1078561490195398 36.576133083929278 0 36.576133083929278 -32.510298042066253 0 0 0 0 -21.882856340232308 9.3628018610393084 0 9.3628018610393084 -8.7560118672170688 0 0 0 0 27.900566344932713 10.663171866214498 0 10.663171866214498 -14.009316286952725 0 0 0 0 50.031736877673893 -25.052919765125807 0 -25.052919765125807 -14.602553743677049 0 0 0 0 22.581333179516605 -19.656340144314925 0 -19.656340144314925 -15.147310027288917 0 0 0 0 47.091875981638026 -9.1095401565933969 0 -9.1095401565933969 -32.185571502491484 0 0 0 0 40.887639541109763 -7.118233485780463 0 -7.118233485780463 -30.036051185250876 0 0 0 0 51.414173582936968 1.8896793029605661 0 1.8896793029605661 -27.380966900298155 0 0 0 0 50.391823506372504 4.8710796757639896 0 4.8710796757639896 -16.904074409978993 0 0 0 0 68.613233001970372 -22.626897643420705 0 -22.626897643420705 -24.935256185111939 0 0 0 0 85.284119315430672 -12.546732150018819 0 -12.546732150018819 -48.934827028842392 0 0 0 0 40.009336652671266 6.6818377472921924 0 6.6818377472921924 20.844309554201118 0 0 0 0 24.096088730411282 7.3153321198830668 0 7.3153321198830668 -6.3860477712122474 0 0 0 0 46.750752121939229 0.062249763039176287 0 0.062249763039176287 -15.568696277526008 0 0 0 0 42.51059637404515 14.182832932793666 0 14.182832932793666 -3.8610990672200955 0 0 0 0 16.334663008242956 16.810110196589193 0 16.810110196589193 -28.293895454410993 0 0 0 0 28.348387273999947 12.839208631297936 0 12.839208631297936 0.64898364966606437 0 0 0 0 23.32651968872824 7.7490392310988341 0 7.7490392310988341 22.137010473337625 0 0 0 0 4.3786186314449651 14.894215769666502 0 14.894215769666502 3.5180842785581206 0 0 0 0 8.8543353442927355 14.884465068502891 0 14.884465068502891 24.64526118176974 0 0 0 0 24.412055759604641 -3.5500554038964651 0 -3.5500554038964651 23.676867912947728 0 0 0 0 27.066513141949827 -0.41201904706849746 0 -0.41201904706849746 27.243534755493812 0 0 0 0 35.372790669945857 -21.480912012004183 0 -21.480912012004183 69.275234666754386 0 0 0 0 43.429131187899259 11.042011665769337 0 11.042011665769337 21.421633265688683 0 0 0 0 87.668023816809693 -63.131129130123639 0 -63.131129130123639 83.725526939461474 0 0 0 0 71.51807595126796 7.1883759775015079 0 7.1883759775015079 20.823375400673171 0 0 0 0 40.00834010546123 3.1304823719640922 0 3.1304823719640922 81.087103525086832 0 0 0 0 4.1526432068421855 26.020160192474577 0 26.020160192474577 -19.838507698979811 0 0 0 0 3.2727781126180222 4.3913225243307279 0 4.3913225243307279 2.6238589401292458 0 0 0 0 13.68773653236614 7.080987971527108 0 7.080987971527108 3.3836876815121908 0 0 0 0 -10.867940117399485 59.488575495352052 0 59.488575495352052 33.063540447535615 0 0 0 0 6.7784389118692161 29.853453062927741 0 29.853453062927741 -9.4369154209116459 0 0 0 0 9.5965047922386475 19.144164948098421 0 19.144164948098421 -0.89366063764470383 0 0 0 0 -12.289536382000733 -0.0055134147107764875 0 -0.0055134147107764875 -7.5849672350662445 0 0 0 0 6.7514048036150598 16.37996414719737 0 16.37996414719737 -22.925960090185072 0 0 0 0 -1.0092228582462699 3.1287840975726917 0 3.1287840975726917 1.7013068826590896 0 0 0 0 18.907785019575385 25.726639520897606 0 25.726639520897606 -154.45785242451711 0 0 0 0 -5.1680793934938265 12.060304322252819 0 12.060304322252819 -7.97960672269528 0 0 0 0 -31.120662058612652 53.561044977695019 0 53.561044977695019 -29.203857060183509 0 0 0 0 15.93572909496878 4.931931182716049 0 4.931931182716049 -1.1399197110039641 0 0 0 0 3.578779394487718 1.6439121832638417 0 1.6439121832638417 -2.0191480899585539 0 0 0 0 -1.705169105598884 13.161043834485469 0 13.161043834485469 -0.9589936572301383 0 0 0 0 -1.3814465971607888 28.333762881827411 0 28.333762881827411 -1.1874486245862954 0 0 0 0 13.329528823284136 20.4599278266395 0 20.4599278266395 2.5717542372389062 0 0 0 0 7.9512353631679673 20.043849445094093 0 20.043849445094093 1.4705489975842738 0 0 0 0 9.0543770818643168 9.7908042804066824 0 9.7908042804066824 15.344993862858587 0 0 0 0 15.932813128047201 10.294817261754361 0 10.294817261754361 12.618759141364706 0 0 0 0 15.47445996690476 -2.8568556804584091 0 -2.8568556804584091 21.564847981031562 0 0 0 0 20.022829247786262 5.2213160309068058 0 5.2213160309068058 1.9673754831667338 0 0 0 0 8.2732744658103456 9.4007518721987822 0 9.4007518721987822 9.1422532043012552 0 0 0 0 7.9344742559421348 14.441027833288807 0 14.441027833288807 -2.5955921819182777 0 0 0 0 3.099390393900876 7.4652861495026741 0 7.4652861495026741 3.3914378501299325 0 0 0 0 0.40835894335805278 12.507558014778965 0 12.507558014778965 -2.0592096071139281 0 0 0 0 9.0165512230205422 22.059817701350937 0 22.059817701350937 -8.7205348437591965 0 0 0 0 -0.59525561038708474 9.0610729893832058 0 9.0610729893832058 -12.649672310958636 0 0 0 0 9.6992813760393428 6.0523389278256907 0 6.0523389278256907 2.4346369967883894 0 0 0 0 9.7112284140762242 3.1400966629088871 0 3.1400966629088871 0.017112077381350677 0 0 0 0 29.576963508518446 4.6866902658271101 0 4.6866902658271101 -9.5443599570877211 0 0 0 0 19.353841136958863 -8.0784275082758086 0 -8.0784275082758086 2.4938041593786693 0 0 0 0 2.8485524174617645 1.5545129541902467 0 1.5545129541902467 1.7240596765474154 0 0 0 0 -14.53406336961848 19.901876475497829 0 19.901876475497829 0.29204012265472556 0 0 0 0 87.51365294963307 -5.9487688438082387 0 -5.9487688438082387 -18.149527676438538 0 0 0 0 -29.917785185438561 -53.798600624643313 0 -53.798600624643313 -7.5397691974585541 0 0 0 0 1.5978884723782549 0.84295587297991936 0 0.84295587297991936 0.49909618261773803 0 0 0 0 1.5468105349224266 10.604100932971201 0 10.604100932971201 6.4256347668037028 0 0 0 0 6.4243243000338826 8.8974540523312768 0 8.8974540523312768 3.8794853900694468 0 0 0 0 -16.266987545724987 -20.873367949817748 0 -20.873367949817748 3.7561919167756059 0 0 0 0 23.464382070713327 15.160811677846937 0 15.160811677846937 -25.111777885560514 0 0 0 0 113.64504069847499 19.411431534353142 0 19.411431534353142 -27.306081713712047 0 0 0 0 120.15392391547539 67.196300582394088 0 67.196300582394088 -24.037299922074453 0 0 0 0 156.40602389599553 29.093613614202241 0 29.093613614202241 -25.259736867831407 0 0 0 0 173.08320051522969 74.464374376047545 0 74.464374376047545 -23.039471206002418 0 0 0 0 -144.6519089808844 205.24429075933858 0 205.24429075933858 210.06227156687237 0 0 0 0 264.24044969330134 127.91644139646996 0 127.91644139646996 10.751909207421932 0 0 0 0 6.9435732763045053 11.437195850291062 0 11.437195850291062 -3.8048127369435178 0 0 0 0 13.714731427074874 4.4352490418325807 0 4.4352490418325807 -0.083915733104293011 0 0 0 0 10.528137647593951 1.9653272176075447 0 1.9653272176075447 -0.48804309809167989 0 0 0 0 15.846833063092845 3.6588689163993315 0 3.6588689163993315 -3.1543195962370447 0 0 0 0 10.491047878448384 2.3278364321329472 0 2.3278364321329472 -3.8914460829516382 0 0 0 0 7.709795725721051 5.5958188694885393 0 5.5958188694885393 -3.9654599514031474 0 0 0 0 7.176182016984967 3.1368798424182387 0 3.1368798424182387 -3.9529998827493937 0 0 0 0 5.2125694036694767 -0.65919218928854661 0 -0.65919218928854661 -8.8721822019933825 0 0 0 0 0.52881551914834191 0.1870786093785286 0 0.1870786093785286 -0.73907038858784557 0 0 0 0 2.329693228407395 3.3474890334185172 0 3.3474890334185172 -2.9051371635303136 0 0 0 0 11.877515421069802 -1.6267801526118433 0 -1.6267801526118433 -14.519768672601913 0 0 0 0 3.6042987370536812 -0.41741832610901852 0 -0.41741832610901852 -5.8407902729003176 0 0 0 0 13.313890799778619 3.0745228605501893 0 3.0745228605501893 -3.5209760443574538 0 0 0 0 -8.0778702702555165 -29.124422129548293 0 -29.124422129548293 -51.061477690377046 0 0 0 0 -100.49145971989446 -30.707611921214777 0 -30.707611921214777 37.236658956182055 0 0 0 0 -1.3696713235094649 22.145020812366511 0 22.145020812366511 20.076460023481673 0 0 0 0 -10.989843111485243 5.9659466535388219 0 5.9659466535388219 -2.1631012084103531 0 0 0 0 -7.7983075409472349 -3.6580469522849342 0 -3.6580469522849342 -2.8347201130386566 0 0 0 0 -5.061854491739723 1.3386419013136219 0 1.3386419013136219 -3.3501962139034731 0 0 0 0 -1.0261761180900066 3.9895227977572176 0 3.9895227977572176 -2.4588423203490493 0 0 0 0 1.9560363477266947 -3.7300663198338952 0 -3.7300663198338952 -2.8645648836170494 0 0 0 0 10.904322786545436 -16.493090138656981 0 -16.493090138656981 1.2009122723020482 0 0 0 0 0.42652614308604253 1.4221775566192623 0 1.4221775566192623 -4.262879690770319 0 0 0 0 5.2607000216967208 -3.1131796613112783 0 -3.1131796613112783 -4.7422467629180574 0 0 0 0 0.89587067100882489 -0.28742393121297205 0 -0.28742393121297205 -0.38081349959270305 0 0 0 0 10.51236243909716 11.703430493815986 0 11.703430493815986 -12.687194379040193 0 0 0 0 -22.54602494449864 15.304996449125611 0 15.304996449125611 -8.2227858808737437 0 0 0 0 -12.505681123460818 5.8438459793451329 0 5.8438459793451329 -15.925545748874356 0 0 0 0 4.9912131692690309 18.246535673092239 0 18.246535673092239 -18.86710026740775 0 0 0 0 -51.878047755948501 5.3229965996902138 0 5.3229965996902138 -6.4213677907882811 0 0 0 0 -0.17208709368360964 0.53448743825303779 0 0.53448743825303779 -0.21239686012405823 0 0 0 0 -5.909681688083765 -3.9018836514104578 0 -3.9018836514104578 -15.718950680859962 0 0 0 0 -2.1088141752680514 1.7670812304699113 0 1.7670812304699113 -1.3542692508945247 0 0 0 0 -14.459138697613525 38.272504283000444 0 38.272504283000444 5.3719908421437879 0 0 0 0 134.93720449262219 78.479127317621305 0 78.479127317621305 4.3435871903707266 0 0 0 0 0.80009117291351473 0.13147931306364624 0 0.13147931306364624 -0.78933975526073219 0 0 0 0 2.3278790944223147 -0.26542009219724605 0 -0.26542009219724605 -3.2581812911689951 0 0 0 0 -2.0775140510813799 -21.479946203631698 0 -21.479946203631698 -13.946966033689023 0 0 0 0 -48.767517349899208 0.63684343862058768 0 0.63684343862058768 94.127671034864761 0 0 0 0 52.711682107791603 100.78267771338075 0 100.78267771338075 87.549924481245398 0 0 0 0 -32.413062053591602 60.761490715577565 0 60.761490715577565 136.49714349276746 0 0 0 0 -14.906934163187543 -29.888673751685701 0 -29.888673751685701 22.894560667916267 0 0 0 0 4.8989975563745247 15.081655452830546 0 15.081655452830546 2.1928023504788143 0 0 0 0 29.975909466444136 21.70987727195552 0 21.70987727195552 -3.4061656359122026 0 0 0 0 27.093848117214748 29.606496398547165 0 29.606496398547165 21.702009076772811 0 0 0 0 98.099043113004882 28.087566305544897 0 28.087566305544897 -7.2042703897411684 0 0 0 0 58.005405064071965 29.715389120296095 0 29.715389120296095 16.524825408763718 0 0 0 0 -25.503646241193564 69.325703987261136 0 69.325703987261136 1.8865609391986027 0 0 0 0 0.53269507761977763 0.67419003388386933 0 0.67419003388386933 0.90686611205580192 0 0 0 0 179.78086847300983 47.845069924655263 0 47.845069924655263 -5.8552763752172723 0 0 0 0 58.057519677604432 86.887173133875422 0 86.887173133875422 2.929891365089361 0 0 0 0 9.1064577616662064 36.166683814852149 0 36.166683814852149 6.1399945525877229 0 0 0 0 -40.633030061248974 17.676939831895425 0 17.676939831895425 0.95168681753233386 0 0 0 0 -1.8251307546361204 0.37505384449536905 0 0.37505384449536905 4.2785976066220428 0 0 0 0 16.449065653703656 30.18453041646444 0 30.18453041646444 2.9634101775066028 0 0 0 0 -3.0203400684858934 18.064668325673892 0 18.064668325673892 5.805712876659527 0 0 0 0 44.169726916471973 13.986721260896672 0 13.986721260896672 3.8843155633740025 0 0 0 0 7.5716867674782407 1.6805382030429428 0 1.6805382030429428 13.078298735307726 0 0 0 0 2.8663583190646023 9.6547881592482554 0 9.6547881592482554 10.007116529988252 0 0 0 0 15.929738212671509 -16.571626963849212 0 -16.571626963849212 0.27407663041685737 0 0 0 0 49.762761279599999 11.285380114529062 0 11.285380114529062 7.6188139516125375 0 0 0 0 48.415382020191373 14.182059459890297 0 14.182059459890297 5.5206647138247718 0 0 0 0 101.83815145065091 64.141845141052272 0 64.141845141052272 -6.4441299358086326 0 0 0 0 5.7406909950636873 -6.9943300665918855 0 -6.9943300665918855 -26.058061172541329 0 0 0 0 0.5961905059572068 0.018160994312905299 0 0.018160994312905299 -0.22510773067188961 0 0 0 0 115.91112793573575 41.766812784150488 0 41.766812784150488 -5.7822067748766131 0 0 0 0 33.355269804290856 46.083480960413169 0 46.083480960413169 10.164341705122297 0 0 0 0 91.632277912813151 34.579245822144827 0 34.579245822144827 -24.398908608463074 0 0 0 0 65.826149701236432 14.761418269847113 0 14.761418269847113 -3.1281023280492946 0 0 0 0 68.501910287543069 5.7364691830915149 0 5.7364691830915149 -37.536698176665766 0 0 0 0 120.8698345119958 -16.642088203530832 0 -16.642088203530832 -30.923157903364881 0 0 0 0 22.394205698947644 1.4301921438197951 0 1.4301921438197951 19.746417323662854 0 0 0 0 38.375902836431123 -40.519911136810606 0 -40.519911136810606 -37.703439729789011 0 0 0 0 37.236617193317215 10.065704040058449 0 10.065704040058449 -3.7148074642019822 0 0 0 0 67.598759906025407 46.516669421566348 0 46.516669421566348 29.835650661971158 0 0 0 0 6.7284164561060607 -18.390811056088069 0 -18.390811056088069 2.1305191747517256 0 0 0 0 -4.2939984783879481 29.716641231501583 0 29.716641231501583 97.596053412766196 0 0 0 0 86.115818936708365 16.898127438679197 0 16.898127438679197 -7.5870305386333712 0 0 0 0 51.833850446563247 22.248981653954761 0 22.248981653954761 6.3222422793846125 0 0 0 0 54.40629481875294 18.343103880247494 0 18.343103880247494 -2.644470121918264 0 0 0 0 27.535492507417075 12.626462708411054 0 12.626462708411054 3.3533498494471132 0 0 0 0 5.4750057532919527 -11.334099380031091 0 -11.334099380031091 10.625135720676326 0 0 0 0 43.930307290503151 -9.1392594947423618 0 -9.1392594947423618 -6.3164798162669058 0 0 0 0 0.98668732693645467 0.043262927793542738 0 0.043262927793542738 0.018415841396930088 0 0 0 0 -0.18368045154238644 2.3075438963068109 0 2.3075438963068109 0.023143754915281534 0 0 0 0 4.6926566077963798 0.5970731566176255 0 0.5970731566176255 -1.4941202717020587 0 0 0 0 2.5820366023694845 0.84819324514453609 0 0.84819324514453609 -0.38017670036053086 0 0 0 0 11.59978072800611 0.0082670542109664069 0 0.0082670542109664069 -3.1891144535141795 0 0 0 0 13.139674920365451 -2.3172586833190696 0 -2.3172586833190696 -8.3617674766555865 0 0 0 0 4.0786341148117593 -1.0002800648230936 0 -1.0002800648230936 -0.15259708042564046 0 0 0 0 10.764389870484592 0.66389221857875924 0 0.66389221857875924 -9.5664733702861895 0 0 0 0 4.6687121292325173 4.0734631555191072 0 4.0734631555191072 -8.6901859876549281 0 0 0 0 8.4013322768860235 -1.5835454768718762 0 -1.5835454768718762 -3.1442454799427537 0 0 0 0 5.2144784942884144 7.3830402830637922 0 7.3830402830637922 -2.3058815915627804 0 0 0 0 6.9702486353744462 4.9511076791221456 0 4.9511076791221456 -18.95432106570081 0 0 0 0 8.7426020243328821 9.2563517930825583 0 9.2563517930825583 -16.054048595346103 0 0 0 0 -34.372265903022708 14.756147675575107 0 14.756147675575107 -2.6503806052312484 0 0 0 0 29.584445844417132 14.250028724845833 0 14.250028724845833 -15.826896224718169 0 0 0 0 5.9353792719534795 15.028658153225194 0 15.028658153225194 -21.111917044779602 0 0 0 0 -18.280782151387029 43.768495235664489 0 43.768495235664489 -17.757360014243886 0 0 0 0 3.4046857042258125 3.1289213325266587 0 3.1289213325266587 -9.2719411128713318 0 0 0 0 3.9971078463281629 4.7066912376436063 0 4.7066912376436063 -60.190225442087808 0 0 0 0 2.4225993207140917 -0.80901616382212094 0 -0.80901616382212094 0.033378515095825276 0 0 0 0 0.58665921728697867 38.186679715215348 0 38.186679715215348 -34.425371113189044 0 0 0 0 -8.0358527599030367 19.878412687496109 0 19.878412687496109 -71.681901572018319 0 0 0 0 72.040406456005257 -87.587620986961042 0 -87.587620986961042 -206.30609255556101 0 0 0 0 220.06786709977428 32.600619535035634 0 32.600619535035634 -152.08408360443832 0 0 0 0 0.78854358275168401 -0.32854298877243338 0 -0.32854298877243338 0.10996139959104745 0 0 0 0 115.22132617193802 131.0848743661916 0 131.0848743661916 84.313649210298379 0 0 0 0 59.54710256758699 30.1092929145873 0 30.1092929145873 24.190786968720857 0 0 0 0 150.42824790285476 -34.505118833153801 0 -34.505118833153801 17.644947648665038 0 0 0 0 58.299484183165987 41.264358121562282 0 41.264358121562282 19.56376976015963 0 0 0 0 77.704172707151656 58.887521095561056 0 58.887521095561056 -58.57404450770548 0 0 0 0 41.011714728632796 24.567259073232549 0 24.567259073232549 -5.7537122379676475 0 0 0 0 98.799181293357378 34.570899772193968 0 34.570899772193968 -20.810992023232757 0 0 0 0 60.945547245961279 -42.814794508756222 0 -42.814794508756222 65.599312692917465 0 0 0 0 46.383556980730646 37.695939533029787 0 37.695939533029787 15.779292501687905 0 0 0 0 -59.823529671282813 -38.933675397802745 0 -38.933675397802745 -39.504237745466298 0 0 0 0 21.623443174493787 92.720696746689782 0 92.720696746689782 -122.49804290370298 0 0 0 0 -92.379963553332345 80.502317566695638 0 80.502317566695638 -9.3471736819158764 0 0 0 0 -1.0872817737401235 0.4841991907312817 0 0.4841991907312817 -0.24121717282747257 0 0 0 0 2.3828266575528687 -18.265873080304118 0 -18.265873080304118 -158.14188475785659 0 0 0 0 -66.379534160670573 20.80741032586252 0 20.80741032586252 24.94760351273203 0 0 0 0 8.4069430064337212 -10.815300233574362 0 -10.815300233574362 7.3478144301502653 0 0 0 0 3.782340864298078 6.0886903596350876 0 6.0886903596350876 -34.827001280027616 0 0 0 0 -73.031026747084127 122.07056342579848 0 122.07056342579848 -92.404339846535549 0 0 0 0 -24.022390402604287 39.409732236256787 0 39.409732236256787 4.6362752057411853 0 0 0 0 -31.877858697270767 68.745354997530484 0 68.745354997530484 -7.1297935823922671 0 0 0 0 -2.9701209379853291 55.832622069185646 0 55.832622069185646 -1.7909988741371308 0 0 0 0 -2.9357020297447889 32.459677428621944 0 32.459677428621944 3.990403577882546 0 0 0 0 0.64563815160454396 26.989130037398581 0 26.989130037398581 40.904088052639054 0 0 0 0 6.1045635548925929 -7.5596076462853716 0 -7.5596076462853716 92.654690642224523 0 0 0 0 15.974249498465724 -11.271596173651403 0 -11.271596173651403 122.19567510666502 0 0 0 0 75.233593180935713 -57.627337665009918 0 -57.627337665009918 110.82284912639972 0 0 0 0 -47.27108238778419 40.712292842719421 0 40.712292842719421 64.190621075807258 0 0 0 0 17.760533410166772 -36.349064025224436 0 -36.349064025224436 61.007718425260919 0 0 0 0 30.821451113492003 1.234871745219607 0 1.234871745219607 61.13167617096201 0 0 0 0 85.730020172901277 -8.3000041205613115 0 -8.3000041205613115 63.873034151304182 0 0 0 0 187.07411150921325 -59.505522240549681 0 -59.505522240549681 49.415805841869428 0 0 0 0 96.718142042882391 -65.467621442590371 0 -65.467621442590371 126.26748475030263 0 0 0 0 137.66709478724897 -31.296650403554054 0 -31.296650403554054 142.18905612940171 0 0 0 0 405.18549628448181 114.85207304681171 0 114.85207304681171 38.068373309271465 0 0 0 0 353.98581542088687 -113.50824314757301 0 -113.50824314757301 94.206499501019948 0 0 0 0 262.17747724041692 -150.70613825016926 0 -150.70613825016926 20.959969320792879 0 0 0 0 239.90787683423059 -11.193829549381462 0 -11.193829549381462 81.69050501620768 0 0 0 0 36.597620638871376 0.43680451969717637 0 0.43680451969717637 1.4687786626359411 0 0 0 0 1.7263984684501761 1.999431837639305 0 1.999431837639305 2.2466547538442754 0 0 0 0 -15.879363543059299 23.461089908658323 0 23.461089908658323 -20.122202519364009 0 0 0 0 29.31955125705872 6.7620131542527133 0 6.7620131542527133 2.9396060582080281 0 0 0 0 -13.312611253049056 22.317334200231741 0 22.317334200231741 -24.22662086882724 0 0 0 0 -12.195082190970425 0.9502768937439896 0 0.9502768937439896 -23.707502895359539 0 0 0 0 168.82117668754836 -23.918851459058146 0 -23.918851459058146 -13.375825414892006 0 0 0 0 61.601872144181471 -12.695457614612451 0 -12.695457614612451 8.1470468551573276 0 0 0 0 42.879706968933533 21.242231583696139 0 21.242231583696139 -0.2264835283656339 0 0 0 0 25.951176628541361 38.235468292902624 0 38.235468292902624 -3.1593969784680667 0 0 0 0 44.001514361141744 43.768061169958855 0 43.768061169958855 -10.678480230256014 0 0 0 0 37.158916262649655 28.726673996081672 0 28.726673996081672 -29.098341696104171 0 0 0 0 79.70987354802719 17.046969199079001 0 17.046969199079001 -14.413603576502283 0 0 0 0 -2.645881771150016 -1.5946668565015898 0 -1.5946668565015898 -36.034975184812083 0 0 0 0 9.1941611833353818 18.895703619493361 0 18.895703619493361 -25.065560558589354 0 0 0 0 -7.6185766285689169 1.8523612026870069 0 1.8523612026870069 -26.036283367464421 0 0 0 0 -4.5722225461545349 19.342663082275237 0 19.342663082275237 -5.8747127388187437 0 0 0 0 8.4661634549156588 16.578644148717558 0 16.578644148717558 -17.245151245317857 0 0 0 0 5.4598178914457094 25.735744618585159 0 25.735744618585159 -12.143962730590829 0 0 0 0 3.9765001311079686 8.9745354593694628 0 8.9745354593694628 -43.371035270541142 0 0 0 0 15.201405740455357 40.411079331334633 0 40.411079331334633 -11.539299332662267 0 0 0 0 20.413397393217565 49.691564723163992 0 49.691564723163992 -19.87662193101005 0 0 0 0 14.222736232492025 50.095163462876826 0 50.095163462876826 -69.572712299656359 0 0 0 0 28.412426861214044 34.412238685157831 0 34.412238685157831 -0.72828237236535642 0 0 0 0 46.86620192068176 30.051871021271353 0 30.051871021271353 -18.683305601762186 0 0 0 0 13.917699503643234 30.534078377902006 0 30.534078377902006 2.8440248952558704 0 0 0 0 -7.8249454855067597 50.105320515376434 0 50.105320515376434 24.347311542876469 0 0 0 0 7.5139094941368967 26.365619217213407 0 26.365619217213407 34.415890938202665 0 0 0 0 1.5974982540592464 22.039473583670087 0 22.039473583670087 28.308835628284328 0 0 0 0 5.0583427917110839 33.373577603684623 0 33.373577603684623 17.298705138292462 0 0 0 0 0.73131481224845629 14.036949427081709 0 14.036949427081709 9.4033044537277988 0 0 0 0 0.089590615206333268 -0.30004569902929479 0 -0.30004569902929479 0.35507409266612289 0 0 0 0 24.213845727428179 18.717750379768518 0 18.717750379768518 10.091564633495182 0 0 0 0 15.570929959530531 7.2987240817355428 0 7.2987240817355428 3.010092280471099 0 0 0 0 0.74986944567277192 0.30404039696138074 0 0.30404039696138074 0.71827391313291145 0 0 0 0 4.3217803362076666 2.0693123331152492 0 2.0693123331152492 0.65477139302265641 0 0 0 0 7.3889077123913012 2.2608801423497198 0 2.2608801423497198 0.62088484834286817 0 0 0 0 8.8628246377204434 -1.5214870656841724 0 -1.5214870656841724 16.938709598370451 0 0 0 0 2.6587208845062378 0.21784738468051046 0 0.21784738468051046 3.7454084177365985 0 0 0 0 12.788537786674169 2.1534125702584674 0 2.1534125702584674 3.527251892465074 0 0 0 0 22.07704952541917 -27.452371310556941 0 -27.452371310556941 25.588419853950114 0 0 0 0 8.3797963671413527 16.05548892840693 0 16.05548892840693 16.227894546933157 0 0 0 0 16.72314614031211 -5.5651286172179084 0 -5.5651286172179084 65.683040353962497 0 0 0 0 16.261287375118854 -28.692595801570292 0 -28.692595801570292 69.163763093050193 0 0 0 0 -5.229001068152229 0.81797638396699313 0 0.81797638396699313 57.546338155849753 0 0 0 0 0.076909316797271643 -0.12184039952578996 0 -0.12184039952578996 0.24228411627952529 0 0 0 0 14.140199775764813 -38.906995794490399 0 -38.906995794490399 54.633929495335742 0 0 0 0 26.449021287951837 -40.154481491594197 0 -40.154481491594197 35.795984041566726 0 0 0 0 23.536212291906395 -21.602475044847324 0 -21.602475044847324 45.771069526144856 0 0 0 0 18.617953981114624 -43.857668470390195 0 -43.857668470390195 25.072269094677722 0 0 0 0 13.949868097170111 -37.214003447759069 0 -37.214003447759069 35.854541757263064 0 0 0 0 29.456137532145476 -41.066071052150619 0 -41.066071052150619 20.391200027067043 0 0 0 0 19.514475070393928 -41.713047162742498 0 -41.713047162742498 29.577374617706482 0 0 0 0 33.272795682866672 -18.918165852352217 0 -18.918165852352217 14.110019731350434 0 0 0 0 24.100867602860035 -0.94409320102238325 0 -0.94409320102238325 2.9033145282489841 0 0 0 0 11.681064271904233 -30.275239222066887 0 -30.275239222066887 31.217530758995281 0 0 0 0 162.4379856408691 15.896400920857445 0 15.896400920857445 27.961049328969693 0 0 0 0 197.21468820197515 49.942779011563744 0 49.942779011563744 21.1665179195939 0 0 0 0 312.38348551129411 -13.238461448455951 0 -13.238461448455951 31.155454830616236 0 0 0 0 157.2739122654657 -46.941365519135616 0 -46.941365519135616 91.931517499728216 0 0 0 0 144.80906838263809 -26.612831064811019 0 -26.612831064811019 70.828787232619561 0 0 0 0 89.906472424746426 -35.628963232398405 0 -35.628963232398405 78.708280548715493 0 0 0 0 97.983699107817301 6.1019811126379864 0 6.1019811126379864 41.504852424910723 0 0 0 0 182.09097278101171 -13.107374850463941 0 -13.107374850463941 41.191279732120165 0 0 0 0 102.99830793640649 -19.444518280624152 0 -19.444518280624152 50.363815879172762 0 0 0 0 46.668113897420881 -34.34053367275169 0 -34.34053367275169 72.254336662985679 0 0 0 0 38.417933689568599 -34.712297069737588 0 -34.712297069737588 81.595358830646944 0 0 0 0 82.8975268036952 -25.699992714392238 0 -25.699992714392238 67.836050960200964 0 0 0 0 39.339267803818984 -7.0723381934664644 0 -7.0723381934664644 72.732899360458759 0 0 0 0 27.757635343952643 -12.193730969029502 0 -12.193730969029502 55.186808124335357 0 0 0 0 42.262388378886499 -27.716659704067752 0 -27.716659704067752 65.618004181544507 0 0 0 0 25.146117321130987 -32.927205038050943 0 -32.927205038050943 69.380456500462287 0 0 0 0 14.316808257362027 -43.851270054619249 0 -43.851270054619249 38.709473375255072 0 0 0 0 54.042205396927329 -5.5045681386886258 0 -5.5045681386886258 40.942990016053955 0 0 0 0 22.401409847537252 -21.971016776687293 0 -21.971016776687293 43.128195040130763 0 0 0 0 74.719747877408736 -22.735258090740444 0 -22.735258090740444 51.081501071591333 0 0 0 0 77.228683189454273 27.357989895068926 0 27.357989895068926 43.126657632720026 0 0 0 0 73.781952735798768 1.4441933688672179 0 1.4441933688672179 44.339408470970184 0 0 0 0 112.32255782596621 52.408136179713779 0 52.408136179713779 60.817013545093687 0 0 0 0 123.89166485078749 7.6906962605561375 0 7.6906962605561375 39.408661492552312 0 0 0 0 72.926800624136376 30.842342415686062 0 30.842342415686062 33.996456681029372 0 0 0 0 33.830151768745054 -13.298318570951892 0 -13.298318570951892 11.485330522509457 0 0 0 0 91.93730630576556 50.704190999541197 0 50.704190999541197 52.245248077718088 0 0 0 0 60.717923526299273 16.573783902469131 0 16.573783902469131 27.421654273866352 0 0 0 0 24.923546928578162 -16.043095667434329 0 -16.043095667434329 25.251259811490627 0 0 0 0 24.61464611413885 5.6832927123649597 0 5.6832927123649597 -12.500083056571725 0 0 0 0 -2.9599528102680779 -35.648924842725421 0 -35.648924842725421 16.616734243987139 0 0 0 0 28.225370002850468 -15.518157811160449 0 -15.518157811160449 17.657964232277891 0 0 0 0 14.84398045060243 -28.832257522155828 0 -28.832257522155828 -34.427348282606545 0 0 0 0 3.7700684187693696 -41.013631073893634 0 -41.013631073893634 12.252498490807739 0 0 0 0 -7.1303099586348253 -25.833249587590331 0 -25.833249587590331 -34.523469571980783 0 0 0 0 11.842111437188578 -30.389160158073651 0 -30.389160158073651 -63.638295165854743 0 0 0 0 5.2167702933274995 6.9720338795307271 0 6.9720338795307271 -92.147502239626078 0 0 0 0 1.0731693375285261 -0.95948737457188127 0 -0.95948737457188127 -0.34984065874947778 0 0 0 0 -37.935606670322159 -53.831176957167372 0 -53.831176957167372 100.16825599541176 0 0 0 0 53.972213537261268 -51.151136712809034 0 -51.151136712809034 -4.3110583812574532 0 0 0 0 -23.305674097901829 -27.013714055559376 0 -27.013714055559376 159.44822425255529 0 0 0 0 0.23449244046890172 -0.28378952628319087 0 -0.28378952628319087 -0.099529339951610729 0 0 0 0 21.303204869592946 5.8956022896690286 0 5.8956022896690286 -162.51481096339285 0 0 0 0 7.7163948432571488 -58.777626345624981 0 -58.777626345624981 -35.253385397332949 0 0 0 0 17.89936494613471 -10.713185569521094 0 -10.713185569521094 -61.111109944503823 0 0 0 0 3.9094523323087742 -89.502992297736171 0 -89.502992297736171 3.8788507300192805 0 0 0 0 1.3686104248799893 -39.090895967072697 0 -39.090895967072697 -5.3907282056881058 0 0 0 0 29.976175405827234 -10.952629892591432 0 -10.952629892591432 10.223545950456128 0 0 0 0 17.419811402060986 -46.19310477190993 0 -46.19310477190993 14.836759141205448 0 0 0 0 26.208663398420867 -42.961854481144201 0 -42.961854481144201 5.7735615937767761 0 0 0 0 45.732179694627121 -41.268632974580498 0 -41.268632974580498 11.794518687697519 0 0 0 0 28.720787880301032 -52.548652540810394 0 -52.548652540810394 22.12281314984557 0 0 0 0 29.780055324394652 -42.574335708535642 0 -42.574335708535642 11.875409109022485 0 0 0 0 23.358259331844238 -47.662746269039758 0 -47.662746269039758 13.889890799564 0 0 0 0 17.871097271602594 -41.147895197342393 0 -41.147895197342393 23.628326051763906 0 0 0 0 14.220997111187899 -47.676181517087002 0 -47.676181517087002 15.046096092367179 0 0 0 0 12.773184352949102 -37.931604811854413 0 -37.931604811854413 12.096789675098989 0 0 0 0 13.288853223795741 -46.907757669541638 0 -46.907757669541638 24.115765175575689 0 0 0 0 14.343961716679587 -31.703680829975724 0 -31.703680829975724 14.57660199632096 0 0 0 0 10.995518775593155 -34.890649249955345 0 -34.890649249955345 -18.569850409515311 0 0 0 0 6.417694975840277 -43.257243866155193 0 -43.257243866155193 8.2742076377844569 0 0 0 0 18.652700312481556 -40.898169993391946 0 -40.898169993391946 4.7165572158810392 0 0 0 0 10.375269169592684 -31.914485088766469 0 -31.914485088766469 -15.380906530284165 0 0 0 0 9.1905983167653176 -41.331708385912862 0 -41.331708385912862 6.8529261633445913 0 0 0 0 12.050065689796611 -29.711505257427461 0 -29.711505257427461 -9.9625265154186309 0 0 0 0 4.8439319474400691 -16.459416610349621 0 -16.459416610349621 -31.498331512434106 0 0 0 0 8.3626606958823686 -29.61362031161292 0 -29.61362031161292 -8.1820142269962162 0 0 0 0 -5.3559685596628697 -20.118705904937769 0 -20.118705904937769 -20.209495213984638 0 0 0 0 6.355251687396958 -35.169773085868201 0 -35.169773085868201 -17.829631412038907 0 0 0 0 5.7131349555565976 -18.210879468205121 0 -18.210879468205121 -33.066200119152995 0 0 0 0 48.468451757640878 -39.060880956573442 0 -39.060880956573442 -15.377428622925208 0 0 0 0 31.67325193374927 13.190944903058153 0 13.190944903058153 17.453198012828807 0 0 0 0 2.3943241246123605 -1.0250348276321581 0 -1.0250348276321581 -0.45297662469085043 0 0 0 0 11.391635312990729 -6.1037257738357766 0 -6.1037257738357766 -48.968697506062199 0 0 0 0 -11.597656468053174 -28.779218906544884 0 -28.779218906544884 11.985081509735664 0 0 0 0 -2.6777184793445485 -2.8524210340374339 0 -2.8524210340374339 -19.956409371891823 0 0 0 0 42.739519681240097 -15.863926998942418 0 -15.863926998942418 8.3232057423372225 0 0 0 0 3.8902279591999367 -1.4942780786011265 0 -1.4942780786011265 -0.64781650970261995 0 0 0 0 182.70344350343657 -22.149192017383939 0 -22.149192017383939 -42.136938023136736 0 0 0 0 15.019712258243089 -2.546268370677808 0 -2.546268370677808 -17.17538251625956 0 0 0 0 4.9327863590460765 -19.600601269889012 0 -19.600601269889012 -4.67907182256954 0 0 0 0 12.22829552575169 -39.486919905601951 0 -39.486919905601951 14.76717281237552 0 0 0 0 7.0457440992831835 -14.048342715675062 0 -14.048342715675062 6.0009501648596597 0 0 0 0 19.059944169650407 -31.012470110920276 0 -31.012470110920276 -1.4143948560449644 0 0 0 0 29.94726677716244 -34.546578268646726 0 -34.546578268646726 16.889322715172909 0 0 0 0 9.0119425425764348 -20.057598627316111 0 -20.057598627316111 22.020725837248847 0 0 0 0 21.706616404599117 -41.064413250616155 0 -41.064413250616155 17.732825299841352 0 0 0 0 40.921102555525067 -52.81929600395415 0 -52.81929600395415 30.468851016095869 0 0 0 0 26.390816237777472 -29.310648816745584 0 -29.310648816745584 29.91893157143204 0 0 0 0 22.031617333024769 -33.932236725318489 0 -33.932236725318489 27.563813099481195 0 0 0 0 10.088432148463198 -22.326443368777689 0 -22.326443368777689 15.078482374284249 0 0 0 0 5.1879005636783404 6.1039628640457977 0 6.1039628640457977 1.5506092345179923 0 0 0 0 9.6055712734651024 -24.907260215539509 0 -24.907260215539509 55.612919219976447 0 0 0 0 1.5835989595210336 1.1750968691367882 0 1.1750968691367882 -0.62818144258817155 0 0 0 0 -4.8448744280576648 -3.8472265510845318 0 -3.8472265510845318 37.003062609620883 0 0 0 0 30.712755287904656 10.943187355817372 0 10.943187355817372 -6.3173890904963628 0 0 0 0 -5.3286435393351894 -48.991368215954481 0 -48.991368215954481 107.31398621963717 0 0 0 0 172.58452755713188 -107.44210524042728 0 -107.44210524042728 72.065194461818692 0 0 0 0 65.757148007081014 -40.287420056011342 0 -40.287420056011342 36.191457548564358 0 0 0 0 55.946253130094192 -52.32207239796935 0 -52.32207239796935 41.84354043541714 0 0 0 0 519.74187989513939 61.773124732237306 0 61.773124732237306 17.89145474700058 0 0 0 0 208.61240418224372 46.152004798016193 0 46.152004798016193 44.51213176017427 0 0 0 0 60.891222310316152 259.25545169440352 0 259.25545169440352 411.92471487169985 0 0 0 0 218.44349714671262 -137.21535235868691 0 -137.21535235868691 103.55555490417066 0 0 0 0 146.66948813923045 -14.051957509827957 0 -14.051957509827957 7.9003173078258442 0 0 0 0 101.72422669016169 9.0976006239237677 0 9.0976006239237677 32.204557494948631 0 0 0 0 82.338646892914767 -60.324647722731243 0 -60.324647722731243 34.823240077738944 0 0 0 0 53.618424636642885 -36.151988463528824 0 -36.151988463528824 27.792715845562725 0 0 0 0 59.636287378021734 -55.336896160736728 0 -55.336896160736728 17.629885428218472 0 0 0 0 71.976793575163356 -13.834429376541266 0 -13.834429376541266 13.347689048073789 0 0 0 0 59.164011423567445 -19.903460467650149 0 -19.903460467650149 11.151894287976802 0 0 0 0 28.617216634725992 -18.300848275525027 0 -18.300848275525027 12.233026753565468 0 0 0 0 16.173763927772598 12.029262769085562 0 12.029262769085562 25.88843840232272 0 0 0 0 0.092978852022206127 0.14164470269935237 0 0.14164470269935237 -0.23753749356506049 0 0 0 0 26.361958506715382 12.22248326550573 0 12.22248326550573 12.941311464478407 0 0 0 0 71.446133572692133 18.839604949429457 0 18.839604949429457 12.761130958106151 0 0 0 0 39.74706563354448 15.590979791863674 0 15.590979791863674 21.005521474860188 0 0 0 0 0.11980664067460722 0.042815279903413384 0 0.042815279903413384 -0.054722474950647637 0 0 0 0 34.001977473074476 56.296575593498005 0 56.296575593498005 49.728165555639634 0 0 0 0 26.965560228765753 46.041670983063 0 46.041670983063 34.793042987690313 0 0 0 0 7.9663480774925119 43.979436038608583 0 43.979436038608583 60.303618458587721 0 0 0 0 11.179701199287138 37.174568127735427 0 37.174568127735427 56.375428659255931 0 0 0 0 58.877429216454857 89.358361060948027 0 89.358361060948027 98.751597650499662 0 0 0 0 123.01568492345905 48.783560572857482 0 48.783560572857482 34.152480412312002 0 0 0 0 -24.900586630997168 28.313042863342616 0 28.313042863342616 128.56297684561491 0 0 0 0 -11.295529735911259 28.286773370507149 0 28.286773370507149 121.12913877878702 0 0 0 0 1.3289877526788132 9.0333156855874108 0 9.0333156855874108 43.33084487615929 0 0 0 0 -14.028596827047295 20.388735855903292 0 20.388735855903292 66.958679731181064 0 0 0 0 -9.5848777413566495 -5.163426594380212 0 -5.163426594380212 24.897054502614992 0 0 0 0 6.1680692814497888 10.916552227332545 0 10.916552227332545 49.439061330653544 0 0 0 0 -4.1678351188538727 14.485813297957975 0 14.485813297957975 48.213475907103884 0 0 0 0 9.549841637096506 34.175801374082084 0 34.175801374082084 52.485656414334017 0 0 0 0 -5.9439636342112863 -28.112043663041163 0 -28.112043663041163 19.811362550772571 0 0 0 0 0.090480041961257029 10.377608760760147 0 10.377608760760147 1.188711659242017 0 0 0 0 -0.40898169318279542 7.9444267056645685 0 7.9444267056645685 19.874925501064808 0 0 0 0 5.507411137516101 30.809972011079765 0 30.809972011079765 69.776087653716331 0 0 0 0 0.16191403024577511 -0.25097143957905743 0 -0.25097143957905743 0.4174605919295491 0 0 0 0 14.4983365223693 -23.215266978916532 0 -23.215266978916532 27.919842704622852 0 0 0 0 -1.3613268475673976 -8.2198509265139137 0 -8.2198509265139137 42.374867343775804 0 0 0 0 -12.609612355525314 -10.997857563055845 0 -10.997857563055845 75.25796863890946 0 0 0 0 -6.9883745981383072 -13.070309453952859 0 -13.070309453952859 41.12140095378254 0 0 0 0 9.0094532736241035 1.8194766643650837 0 1.8194766643650837 -14.845772855766199 0 0 0 0 1.5378316106864069 0.22719230875113139 0 0.22719230875113139 -0.055598191221762239 0 0 0 0 27.894884043280626 42.95054571932576 0 42.95054571932576 43.474620793042504 0 0 0 0 4.7345016881017727 2.8395102948561544 0 2.8395102948561544 41.315734940223592 0 0 0 0 59.922460670740293 13.214555501661607 0 13.214555501661607 24.937256291856556 0 0 0 0 0.64102157248960978 0.19181245378281453 0 0.19181245378281453 0.0088829967824204381 0 0 0 0 20.353007177685868 -16.572608415778404 0 -16.572608415778404 3.9557882513686309 0 0 0 0 42.58831743482915 51.167211197085749 0 51.167211197085749 41.724461491133752 0 0 0 0 16.50959772432816 25.52660044566403 0 25.52660044566403 69.236349764872671 0 0 0 0 63.769054589885855 20.649099929561885 0 20.649099929561885 6.2398813911822799 0 0 0 0 45.21427176835914 60.000186930636914 0 60.000186930636914 51.353777876752673 0 0 0 0 16.954224755118958 34.148178359792837 0 34.148178359792837 27.8416007194744 0 0 0 0 37.940397480004322 37.049211903976357 0 37.049211903976357 20.520962391489775 0 0 0 0 26.404724636021456 42.946905017057134 0 42.946905017057134 22.537285027802227 0 0 0 0 22.154416793568089 32.269086217992481 0 32.269086217992481 19.10594283306682 0 0 0 0 36.04093887116494 14.575080368674698 0 14.575080368674698 8.4717354581757718 0 0 0 0 0.086834441645052607 0.29290194215727716 0 0.29290194215727716 -0.55528588680757274 0 0 0 0 -15.426477948001775 61.974928852633184 0 61.974928852633184 2.0980305172688301 0 0 0 0 20.710391069198522 21.612172818737349 0 21.612172818737349 -16.23787308305684 0 0 0 0 -0.52195030431630585 11.48488609074326 0 11.48488609074326 6.7564510938473177 0 0 0 0 12.747184827470846 17.77346370886039 0 17.77346370886039 10.299946509716619 0 0 0 0 26.258793591146514 45.056675789289784 0 45.056675789289784 28.885422357862808 0 0 0 0 38.811565366730974 36.924693294573899 0 36.924693294573899 16.00814097620048 0 0 0 0 16.993326837686254 42.583253616575348 0 42.583253616575348 34.480557862813839 0 0 0 0 21.841811591649275 24.796184321611236 0 24.796184321611236 9.1883129026164738 0 0 0 0 21.534434260917351 16.066065833420907 0 16.066065833420907 31.60243363411746 0 0 0 0 32.998492310994152 35.42710132894706 0 35.42710132894706 40.780715654222149 0 0 0 0 37.903243528060557 29.720222154871863 0 29.720222154871863 30.559297690575931 0 0 0 0 20.711819722539985 23.521174547759244 0 23.521174547759244 33.718885314471663 0 0 0 0 58.969861527510147 43.0513355674168 0 43.0513355674168 28.738745643179755 0 0 0 0 39.862214376403699 28.502785100377992 0 28.502785100377992 18.094592039376039 0 0 0 0 1.2035581969394116 18.436348565539902 0 18.436348565539902 -8.0731783717228609 0 0 0 0 -0.0059518305405061867 -0.078028077573865318 0 -0.078028077573865318 0.30825751100134546 0 0 0 0 82.25629414718378 19.91390287246486 0 19.91390287246486 4.369691715382487 0 0 0 0 6.3055421479002689 34.773055640554389 0 34.773055640554389 33.672987516382364 0 0 0 0 13.763727754234878 -2.5885516093065917 0 -2.5885516093065917 -6.7122189905348932 0 0 0 0 2.1486461549357045 3.3244500563406518 0 3.3244500563406518 9.9282062986012534 0 0 0 0 2.5666425112999312 -0.29970429197359749 0 -0.29970429197359749 0.81727726235199327 0 0 0 0 -32.616763260346488 0.25976169943169225 0 0.25976169943169225 7.1644257269074387 0 0 0 0 22.586903209389675 1.1049923229179512 0 1.1049923229179512 4.3372303549813296 0 0 0 0 15.91185379018134 8.0539105423390538 0 8.0539105423390538 3.1832217625521935 0 0 0 0 27.963729814614453 8.9318016645265743 0 8.9318016645265743 8.5874857844701182 0 0 0 0 39.801444686123432 -0.84813114628832409 0 -0.84813114628832409 -5.7018787284996506 0 0 0 0 17.520354197673441 -8.4839684144158127 0 -8.4839684144158127 0.79028200898665091 0 0 0 0 42.377041561627266 27.257725701223535 0 27.257725701223535 18.50246936096994 0 0 0 0 50.509327903459052 10.860376562106467 0 10.860376562106467 -5.135872495276999 0 0 0 0 31.096716844846014 11.252634587470766 0 11.252634587470766 4.9303895072699788 0 0 0 0 29.139361315160386 11.491767988605147 0 11.491767988605147 16.017666112779807 0 0 0 0 41.064563804597128 22.810904314202617 0 22.810904314202617 10.457162103588416 0 0 0 0 -25.441947668001831 -10.914600291355327 0 -10.914600291355327 -0.69313132692923318 0 0 0 0 0.65136170006064553 -0.1666551994531158 0 -0.1666551994531158 -0.61653883100601448 0 0 0 0 -8.7706331102049262 15.820548250814909 0 15.820548250814909 -19.696079557633311 0 0 0 0 5.9297410792823939 -43.301071133162168 0 -43.301071133162168 2.0419905377183456 0 0 0 0 0.19576358203692479 0.16291372899714318 0 0.16291372899714318 -0.49830618611099275 0 0 0 0 33.399155699151379 -12.669072220618659 0 -12.669072220618659 -21.032697462055694 0 0 0 0 12.026097256011781 26.192649907993882 0 26.192649907993882 24.748340247839224 0 0 0 0 26.603411960286394 -2.4547790092196919 0 -2.4547790092196919 -23.495870260824631 0 0 0 0 18.794141022888653 3.0155458988838291 0 3.0155458988838291 -26.950384533902252 0 0 0 0 22.026412435348902 -9.0623279244045989 0 -9.0623279244045989 -21.027388544699591 0 0 0 0 13.000243743592364 0.28112136866093351 0 0.28112136866093351 -9.9331641659023262 0 0 0 0 6.2087024305910568 0.7778072555068376 0 0.7778072555068376 -2.2612854709723864 0 0 0 0 8.0578941964304249 -6.9585180473850414 0 -6.9585180473850414 -18.109093550008311 0 0 0 0 3.9465849251155305 7.781453503995067 0 7.781453503995067 -3.4080027774034534 0 0 0 0 8.4176782267095405 12.740982234971398 0 12.740982234971398 -26.445620623971934 0 0 0 0 4.6339190423132095 2.9642305457882685 0 2.9642305457882685 -1.3654397175009763 0 0 0 0 4.7636632384251243 0.55606542034382755 0 0.55606542034382755 -1.82078595099415 0 0 0 0 5.2231805797796369 -4.484890448216845 0 -4.484890448216845 -9.1484898993790011 0 0 0 0 4.4243147760682007 1.1971334391749795 0 1.1971334391749795 -1.5019436188320312 0 0 0 0 10.057050437034377 6.5007206874383314 0 6.5007206874383314 7.8897872565908074 0 0 0 0 4.4971576977307768 3.005172349236215 0 3.005172349236215 1.2980279592846644 0 0 0 0 7.9048839398619748 18.506448625309531 0 18.506448625309531 8.9756079255071199 0 0 0 0 11.48839321167361 1.8808221173269146 0 1.8808221173269146 -1.4723644975742936 0 0 0 0 6.9011877792817771 1.2504211791418269 0 1.2504211791418269 -3.1958451287498879 0 0 0 0 -0.34489995146623187 4.0273420844749808 0 4.0273420844749808 -9.7276733972921647 0 0 0 0 0.57847841057816751 0.39138280105230616 0 0.39138280105230616 -0.055252276649040866 0 0 0 0 20.44271979633595 -8.4754072732207533 0 -8.4754072732207533 -24.336723296142964 0 0 0 0 23.683225010145179 -2.9799383067377221 0 -2.9799383067377221 -29.952396829963618 0 0 0 0 1.1199424533324418 10.132042222028531 0 10.132042222028531 -33.849092469783955 0 0 0 0 1.346718242037257 0.092350452946755368 0 0.092350452946755368 -0.89610509644311342 0 0 0 0 21.409715766114459 -9.2138355274926198 0 -9.2138355274926198 -30.937085547458992 0 0 0 0 13.27323195457393 5.2912258330488839 0 5.2912258330488839 -3.5045543699302115 0 0 0 0 21.682739630490687 -7.3881156991765238 0 -7.3881156991765238 -3.4351134670903836 0 0 0 0 6.5223507464820756 1.5298178600127059 0 1.5298178600127059 -2.9635225780381642 0 0 0 0 7.3507686072734941 7.9567644500356209 0 7.9567644500356209 1.8120895874622533 0 0 0 0 11.162465555172389 6.1166799203446125 0 6.1166799203446125 -2.3486283735741154 0 0 0 0 15.938763218913664 5.4796118092898496 0 5.4796118092898496 -2.2905811861904795 0 0 0 0 3.9059870557970306 4.3883087673298462 0 4.3883087673298462 4.3307421045861165 0 0 0 0 6.5713102678548694 9.9115125647761246 0 9.9115125647761246 -1.6317143336808613 0 0 0 0 7.2583786326017616 6.1980810755704709 0 6.1980810755704709 -2.4297675529728622 0 0 0 0 -0.030179751003743149 5.8242267558937328 0 5.8242267558937328 4.6506100463113853 0 0 0 0 0.87983468936181453 4.8464230961856174 0 4.8464230961856174 4.1868975332679668 0 0 0 0 -3.4128676696309412 5.8293984846322928 0 5.8293984846322928 10.603918990834018 0 0 0 0 8.7260507406223979 8.2265936143664575 0 8.2265936143664575 5.2636826614509573 0 0 0 0 -1.1207731774175045 2.1368677588250193 0 2.1368677588250193 4.0268257485128913 0 0 0 0 7.834294760435796 -6.7990271943578193 0 -6.7990271943578193 -28.271724309882075 0 0 0 0 0.78577451750822291 0.52609559821763074 0 0.52609559821763074 0.39527083564084942 0 0 0 0 16.20889518774311 -4.6526206064859252 0 -4.6526206064859252 -27.827921956388536 0 0 0 0 3.2736617209739052 -40.458083441861163 0 -40.458083441861163 4.8125475369166679 0 0 0 0 0.050750437350195909 -0.15291443887037204 0 -0.15291443887037204 -0.028059837194398085 0 0 0 0 37.783054790482311 -38.286386653201021 0 -38.286386653201021 1.1136766217489367 0 0 0 0 34.236177002335353 -18.714589025219084 0 -18.714589025219084 2.3386149896969073 0 0 0 0 -0.149879067298059 -4.9970799123793483 0 -4.9970799123793483 -2.0038957671695243 0 0 0 0 17.527730314141081 2.7074769959499463 0 2.7074769959499463 2.6936062772972491 0 0 0 0 20.091522874117288 21.565121922052001 0 21.565121922052001 21.364666252111874 0 0 0 0 14.549439671003711 -7.8345564778069274 0 -7.8345564778069274 9.471906756596411 0 0 0 0 30.07522714265815 -3.857928714363652 0 -3.857928714363652 -31.054550419838051 0 0 0 0 14.501502280427303 13.064481085255466 0 13.064481085255466 -37.770579081698997 0 0 0 0 24.517091488098231 -4.1224871697542085 0 -4.1224871697542085 -37.570565888715919 0 0 0 0 13.614184608133655 9.1240135575708337 0 9.1240135575708337 -27.247899692888495 0 0 0 0 10.103863512994621 5.3693313712443285 0 5.3693313712443285 1.8950215194299744 0 0 0 0 11.707935938628907 -7.3719923786572963 0 -7.3719923786572963 -24.387666851715039 0 0 0 0 
</DataArray>
<DataArray type="Float64" Name="cross_section_updated" format="ascii">
0.010224874020961162 1 1 1 1 1 1 1 1 1 1 1 1 1 1 1 1 1 0.010081642949775205 1 1 1 0.010504318318400374 1 0.010080964156982579 1 1 1 1 1 0.010216050601692159 1 1 1 1 1 1 0.010558723656530076 1 1 0.0099983792206539412 0.010462255897324354 1 1 1 1 1 1 1 0.01065857552588397 1 1 1 1 0.010280856723988846 1 1 1 1 0.010852759476592462 1 1 1 1 1 1 1 1 1 1 1 1 1 1 1 1 1 0.010316622495854329 1 1 1 1 1 1 1 1 1 1 1 1 0.010000348904051442 1 1 1 1 1 0.0101928351683045 1 1 1 1 1 1 1 1 1 0.010213794730917707 1 1 1 1 1 1 1 1 1 1 1 1 1 1 1 0.0099218365025000865 1 1 1 1 1 1 1 0.0099798179074963491 1 1 1 1 1 1 1 0.010077699787544459 1 1 1 1 1 0.010042152706102899 1 1 0.010010002637518299 1 1 1 1 1 1 1 1 1 1 1 1 1 1 1 1 1 1 1 1 1 1 1 1 1 1 0.010234111244391889 1 1 1 0.010524033199957398 1 1 1 1 1 1 1 1 1 0.010475291858734963 1 1 1 1 1 1 1 1 0.010044234343785277 1 1 1 1 0.010132440143579129 1 1 1 0.010642470080318659 1 1 0.010025122261431939 1 1 1 1 1 0.010496346040693109 1 0.010148594287439781 1 1 1 1 0.010732515316456118 1 0.010222491383976413 1 1 1 0.009998791763699038 1 1 0.010310856506611912 0.010305508842059212 1 0.0099966233448325406 0.010002968715920168 1 1 0.010343462159178959 0.0098824043275994155 1 1 1 0.0099599440113931469 1 0.010731381134783217 1 0.010016774538676183 1 1 1 1 1 0.011045357303681891 0.0099993486914033841 1 1 1 1 1 1 1 1 1 1 0.010101402110753468 1 1 1 1 1 1 1 0.010452811577662351 0.010131438857235898 1 1 1 1 1 1 1 1 0.01001412748686133 1 1 1 1 0.01051461779778547 1 1 0.010011311327623671 1 1 1 0.010537779641445982 1 1 1 1 1 1 1 1 0.010044130721311557 1 0.010622653398978917 1 1 1 1 1 0.010568902567921847 1 1 1 1 1 1 1 1 1 1 1 1 1 1 1 0.010061573759531386 1 0.010692359340280783 0.010337232203923373 1 0.009973074496673175 1 1 0.010034397231619648 1 1 1 1 1 1 1 1 1 0.010135460256870715 1 1 0.010035069833904009 0.010078368351358866 1 1 1 1 0.010452319366620196 0.010554261293151641 1 0.010595982459530376 1 1 1 0.01004967646045094 1 1 1 1 0.010129863482944357 1 1 1 0.0099526189604717784 1 0.010429704648230828 0.010018406601048017 1 1 0.010938327323450989 1 1 0.011190938379554836 1 1 0.010006483379362097 1 1 1 1 1 1 1 1 1 1 1 1 1 1 0.010177710976559543 1 1 1 1 0.010065202080558399 1 1 1 1 1 1 0.010002987881171016 1 1 1 1 1 1 1 1 1 1 1 1 1 1 1 1 1 1 1 1 1 1 1 1 1 1 1 1 1 1 1 1 1 1 1 1 1 1 1 1 1 1 1 1 1 1 1 0.0099979066927172594 1 1 1 1 1 1 0.0098892189558512627 1 0.01003939316886066 1 1 0.0099060570029053021 1 1 1 0.0099879751447107118 1 1 1 1 0.0098476091519873639 1 1 1 1 1 1 1 1 1 1 1 1 1 1 0.010277367661436792 1 1 1 1 1 1 1 0.010516810664845919 1 1 1 0.010239443003409128 1 1 1 1 1 0.0099732072811696149 1 1 1 1 1 0.01053638740633641 1 1 1 1 1 1 1 0.01017246062753519 0.010506068067375876 1 1 1 1 1 1 0.010005504866743769 1 0.010079931187350528 1 0.01000072385570137 1 1 1 0.010711785565876 1 1 1 1 0.0099570022334087016 1 1 1 1 1 1 1 1 1 0.0099954906356241602 1 1 0.010654660945894696 1 1 0.0099799891052615823 1 0.010179604568680833 1 1 0.009994357125751108 1 1 1 1 1 1 1 1 0.0099982293364216015 1 1 1 1 1 1 1 0.0099962878363458029 1 1 1 0.010047550696560369 1 1 1 1 1 1 1 1 1 1 1 1 1 1 1 1 1 1 1 1 1 1 1 1 1 1 1 1 1 0.010308710351909606 1 1 1 1 0.010702973578945578 1 1 1 1 1 1 1 1 0.010827325103477413 1 1 0.011386403880484439 1 1 1 1 0.010574431758734029 1 1 1 1 1 0.010258553385688244 1 1 1 1 1 1 1 1 1 1 1 1 1 1 1 1 1 1 1 1 1 1 1 1 1 1 1 1 1 1 1 1 1 1 1 1 1 1 1 1 1 1 1 1 1 1 1 1 1 1 1 1 1 1 1 1 1 1 1 1 1 1 1 1 1 1 1 1 1 1 1 1 1 1 1 1 1 1 1 1 1 1 1 1 1 1 1 1 0.010539837281511434 1 1 1 0.010301671149412566 1 0.010048951027887717 0.010456241179982815 1 0.010294305755489301 1 1 1 1 1 1 1 1 1 1 1 1 1 1 1 1 1 1 1 1 1 1 1 1 1 1 1 1 1 1 1 1 1 1 1 1 1 1 0.0099883301722043134 0.010819639863457339 1 1 1 1 0.010420849618711663 1 1 1 1 1 1 1 1 1 1 1 1 1 1 1 1 0.010347526872966343 1 1 1 1 1 1 1 1 1 1 1 1 1 1 1 1 1 1 1 1 1 1 1 1 1 1 0.010185927277466167 1 1 1 0.0115096274510007 1 1 1 1 0.0098868289932215331 1 1 0.010348794209737649 1 1 0.0105102118285492 1 1 1 0.010130434686393809 1 1 1 1 1 1 1 1 1 1 1 1 1 1 1 1 1 0.0099343120902894242 1 1 1 1 1 1 1 1 1 0.0098093314089563212 1 1 1 1 1 1 1 1 1 0.0099256322274453666 1 1 1 1 0.010017803362288606 1 1 1 1 1 1 1 1 1 1 0.009995710892890192 1 1 1 1 1 1 1 1 1 0.010013328865721224 1 0.010269292899663907 1 1 1 0.0099285020885868432 1 1 0.010071532338607234 1 0.010455079787206174 1 1 0.010330013044225022 1 0.010354806364575385 1 1 1 1 1 0.010714627298016033 0.010259606802066978 1 1 1 1 1 1 1 1 1 1 1 1 1 1 1 1 1 1 1 1 1 1 1 1 1 1 1 1 1 0.0099892941987583545 1 0.010191768896046479 1 1 1 1 1 1 0.0097373782801919127 1 1 1 1 1 1 0.010237612422039698 0.010068163035295445 1 1 0.010100133989847937 1 1 0.010450544567156181 1 1 0.010165982833912802 1 1 1 1 0.0096909080305626165 1 1 1 1 0.010959804916078727 1 1 0.011255508787675421 1 0.009998658532707743 1 1 1 1 1 1 1 1 1 1 1 1 1 1 1 1 1 1 1 1 1 1 1 1 1 1 1 1 1 0.009971579899084787 1 1 1 1 1 1 1 1 1 1 1 0.0098731439723804965 1 1 1 0.010779655446749749 1 1 0.010649199597992721 0.010299783467612117 1 1 1 0.010677829842715328 1 1 0.010539800271914047 0.010193408345681425 1 1 1 1 1 1 1 0.010691201418208599 1 1 1 1 1 0.010780801670791578 1 0.0100059984446631 1 0.01013606699827368 1 1 1 1 1 1 0.0099233881429177627 1 1 0.009998784174136641 1 1 1 1 1 1 1 0.0098523422502332699 1 1 1 1 1 0.0099532057590648992 1 1 1 1 1 1 1 1 1 1 1 1 1 1 0.010822291252251743 1 1 1 1 1 1 0.010277912415030699 1 1 1 0.010101760301798331 0.010701407413288903 1 1 1 1 0.0098101944798229656 1 1 1 1 1 0.010008308301729857 0.0098492872772444236 1 1 1 0.010014306746392958 1 1 1 1 1 1 0.010195518686315861 1 0.010184053032575505 1 1 0.010031694425269086 1 0.010051626002071407 1 1 1 1 1 1 0.0099801753967400549 1 1 1 1 1 1 1 1 1 1 1 1 1 1 1 1 1 0.0099865410804518724 1 1 1 1 1 0.0099972019125213647 1 1 0.010001360069567412 1 1 1 1 1 1 1 1 1 1 1 1 1 1 1 1 1 1 1 1 1 1 1 1 0.010017567460563778 1 1 1 0.010504434632400791 1 1 1 0.010055676335475727 0.010051388437036509 1 0.010121119834403435 1 1 0.0099363102524986004 1 1 0.010102357801692273 1 1 0.010038198819553468 1 1 1 1 1 1 1 1 1 1 1 1 1 0.0099469671115201812 1 1 0.010148522060803408 1 1 0.010132703928641807 1 1 1 1 1 1 1 1 0.010315523665554568 0.0099516814131572207 1 1 0.010216376922922221 1 1 1 0.011417131460251816 1 1 1 0.0109716563929671 1 1 1 1 1 1 1 1 1 1 1 1 1 1 1 1 0.011442355778297183 1 1 0.010226635732341323 1 1 1 1 1 0.0099896831200275756 1 0.010118650774776998 1 0.010985073309187418 0.01055045021144705 1 0.010411822391812134 1 1 0.010235715754986517 1 0.010672666318097504 1 0.010135104978191116 1 1 1 1 1 1 0.0099844985281596459 1 1 1 1 1 1 1 1 1 0.0099982964966908346 1 0.010076128499635123 1 1 1 1 1 1 1 1 1 1 1 1 1 1 1 0.010146688414257296 1 1 1 0.010129172319116605 1 1 1 1 1 1 1 1 1 1 1 1 1 1 1 1 0.0099706577912053798 1 1 1 0.010245464068588565 1 0.010326467909554802 1 1 1 1 1 1 1 1 1 1 1 1 0.0099100463526732799 1 1 1 1 1 0.010077332844768387 1 0.010254528801312572 1 0.0099931652315490317 1 1 0.010282168945096964 1 1 1 0.01000669179141952 0.010135926354078673 1 1 0.010550023837770567 1 0.01001063008322646 0.010245279355022143 0.010445645569656279 1 0.0100193527297714 1 0.0099880539479738489 1 0.01050002846419368 0.01033721182697773 1 1 1 1 1 0.010201886008413397 0.011067396059816404 1 1 1 1 1 0.010571026530270457 1 1 1 0.011098297098651981 1 0.010364163790113302 1 0.010595058555255292 0.0097881107938337496 1 1 1 0.010004975053676649 1 0.010127324213990329 1 1 1 0.010251290337774409 1 1 1 0.010046819895550094 0.0098349972411255759 1 1 0.0099430426729712265 1 1 1 1 0.010043519696934558 1 0.010392776006628784 1 1 0.010008008272598474 1 0.01014329759786731 1 1 0.011120403438204807 1 1 1 1 1 0.0099461020970735108 1 1 1 0.0097567324045715331 1 1 1 0.011134947976892118 1 1 1 0.009980558887531547 1 0.011152871716625013 1 1 1 1 1 1 1 1 1 1 1 1 0.009990198453330365 1 1 1 0.010060685913153821 1 1 1 1 1 1 1 0.010183156785593778 1 1 1 1 1 1 1 1 1 1 1 1 1 1 1 1 1 1 1 1 1 1 1 1 1 1 1 1 1 1 1 1 1 1 1 1 1 1 1 0.010026104374514771 1 1 1 1 0.010068178224657987 1 1 1 1 1 1 1 1 1 0.010142766111227318 1 1 1 1 1 1 1 0.01010298787026128 1 1 1 0.010166623765625457 1 1 1 0.0099258595273005856 1 1 0.010143903222567958 1 1 1 0.01042978607437314 1 1 1 1 1 1 0.010055562317587734 1 0.0097883190882579948 1 1 0.010029018943833526 1 1 1 1 1 1 1 1 0.009974760371712646 1 1 1 0.01048756069768741 1 1 1 1 1 1 1 1 1 1 0.0096374315184426188 1 1 0.010008459274304103 1 1 1 1 1 1 1 0.010068900867331953 1 1 1 1 1 1 1 1 1 1 1 1 0.010083148270949324 1 1 1 1 0.010368964354558283 1 1 0.010047961611730837 1 1 1 0.010061433967858337 1 1 1 1 1 1 1 1 1 1 1 1 1 1 1 1 1 1 1 1 1 1 0.010016689662652125 1 1 1 1 1 1 1 1 1 1 1 1 1 1 1 1 0.0099962901977886497 1 1 1 1 1 1 1 1 1 0.0099634734231198816 1 1 1 1 1 1 1 1 1 1 1 1 1 1 1 1 1 0.010323316555594722 0.0099946111324134296 0.010114185470242752 0.010130691429154464 1 1 1 1 0.010135382293447459 1 0.010076404890492132 1 1 0.010923213031647097 0.010240085953296028 1 0.0097878315999049559 1 1 0.010010115902826111 1 1 0.01049276652704173 1 1 0.010353617141803445 1 1 0.0099920705343683087 1 1 1 1 1 1 1 0.010501606547848151 1 1 1 1 1 1 1 1 1 1 1 0.010020806774526747 1 1 1 0.010062945210127339 1 1 1 0.010161174444928573 1 1 1 1 1 0.009374975340091931 1 1 1 0.010559326499406281 0.0097040160101586267 1 1 1 0.010033015613322649 1 0.010001808929353408 1 1 1 1 1 0.011280627279117779 1 1 1 1 1 1 1 1 1 1 1 1 1 1 1 1 1 1 1 0.0096141200856433521 1 0.0096677295132850567 1 1 1 1 0.01139851068495497 1 1 1 1 0.0099424371047562125 1 1 1 0.010007174792052563 1 1 1 1 0.010073629737115206 1 1 0.009600340206108688 1 0.010021812025288851 1 1 1 1 1 0.011244028511284301 0.010416046796835107 1 0.011861629886174537 0.0099040263261953778 1 1 0.0099738967128550696 1 1 1 1 1 1 1 1 1 1 0.010150043503541768 1 1 1 1 1 1 1 1 0.01023282268498246 1 1 1 1 1 1 1 1 0.010018150896679255 1 1 1 1 0.0099969777438542757 1 1 1 0.010000616117297381 1 1 1 1 1 1 1 1 1 1 1 1 1 1 1 1 1 1 1 1 1 1 1 1 1 1 1 1 1 1 1 1 1 1 1 0.010027685563749599 1 0.010050662129517296 1 1 1 1 1 1 1 1 1 1 1 1 1 1 1 1 1 1 0.010150843475020767 1 1 1 1 1 0.010067060050726251 1 1 1 0.010083574311263449 1 1 0.010051432922905758 1 1 1 1 1 0.010049925142549609 1 0.010004067254614023 1 1 1 1 1 0.010218383315760022 1 1 1 0.0097905905432235339 1 1 0.0099459243309489159 1 0.010024974586820881 1 1 0.0098976105434620959 1 1 1 0.0099730022840168187 0.01029815960526086 1 1 1 0.010003737340372345 1 1 1 1 1 1 1 1 1 1 0.010096071571259219 0.0097240748409323854 1 1 0.010048639819059129 1 1 0.010293652030764822 1 1 1 1 1 0.009937150086540867 1 1 1 0.01009603366631313 0.01017216596929028 1 1 1 1 0.0096228992803231023 0.010195506064757581 0.010307673857730053 1 0.010639517037534867 1 1 1 1 1 1 1 0.011362922457673653 1 1 1 1 1 1 1 1 1 1 1 1 1 1 0.0099361841103171207 1 1 1 1 1 0.010000988644665827 1 1 1 1 0.010048681142089922 1 1 1 1 1 1 0.012065788723177567 1 1 1 1 1 1 1 1 0.012188577350117219 1 1 1 1 1 1 0.011774027324843504 1 1 1 1 0.010064518348311022 1 1 1 1 1 1 1 1 1 1 1 0.011106981461439548 1 1 1 1 1 0.010153178729476593 1 1 0.010088660381165569 1 1 1 0.010015385563328287 1 0.0099031594782757505 1 1 0.010259419150633966 0.010818227755293348 1 1 1 0.010649971697485789 1 1 1 1 0.011271839733145678 1 1 1 1 1 1 1 1 1 1 1 1 1 1 0.010059691183557443 0.010077320076960545 1 1 1 0.010062262728140637 1 0.010905023945842491 1 0.010261312148499544 1 0.010306981766834455 1 1 1 0.010328351446015523 1 1 1 0.010020480361537843 1 1 1 0.011317349505147341 0.010354264807733736 1 0.010006971045361916 1 1 1 1 0.011678558705819599 1 0.0099998078911222067 1 1 1 1 1 1 1 1 1 1 1 0.0099985337227019438 1 1 1 1 1 1 0.010008188689265132 1 0.01020267844337383 1 1 0.010845445172831742 1 1 0.010151397249791923 1 1 1 1 1 1 1 1 1 0.010017631846207901 1 1 1 1 1 1 1 1 1 1 1 1 1 1 1 0.010061173372007192 0.010028984116684377 1 1 1 1 0.010156379836408991 1 1 1 1 1 1 0.0099139433715709335 1 1 1 1 0.01003863161873569 1 1 1 1 1 1 0.010064415846204634 1 1 0.010167918431929395 1 1 1 1 1 0.010362851765104769 1 1 1 0.012180256751619883 1 1 1 1 1 0.010024185010651041 1 0.010477770423520256 1 0.010168962801508922 1 1 1 1 1 1 1 1 1 1 1 1 1 0.011522485162676805 1 1 1 0.011172432403675499 1 1 1 1 1 1 1 0.010743140530528966 1 1 1 1 1 1 1 1 0.01062911570458467 1 1 0.010132970748054391 1 1 0.010039693318610151 1 1 1 1 1 1 1 1 0.010893238815773403 1 1 1 1 1 1 0.011132648820174687 1 1 1 1 1 1 1 1 1 0.0099989456155959427 1 1 1 1 1 0.010257033139230487 1 1 1 1 1 1 1 1 1 0.0097655820988872821 1 1 1 1 1 1 0.0099627176146980818 1 1 1 1 1 1 1 1 0.010776232812277586 1 1 1 0.01005344055924896 1 1 1 1 1 1 1 1 1 1 1 1 1 1 1 1 1 1 1 1 1 1 1 1 1 1 1 1 1 1 1 1 1 1 1 1 1 1 1 0.010005286507887573 1 1 1 0.0099128075992763152 1 1 0.0099929977138560368 1 1 1 1 1 1 1 1 1 1 1 1 1 1 1 1 1 1 1 1 1 1 1 1 1 1 1 0.010066654013166107 1 0.01020825183474932 1 1 1 1 1 1 1 0.010347963866913059 1 1 0.010297170909157683 1 1 1 0.010181291598892106 1 1 1 1 1 0.010160891298704323 1 1 1 1 1 1 1 1 1 1 1 1 0.01000028305734303 1 1 1 0.010065373909915716 1 1 0.00979504511287475 1 1 1 1 1 1 1 1 1 1 1 1 0.0098065347108329867 1 0.0099960756297348165 1 1 1 1 1 1 1 1 1 0.010009081139310441 1 1 1 1 1 1 1 1 0.010104554171708828 1 1 1 1 1 0.0099300152676855911 1 1 1 1 1 1 1 1 1 1 1 1 1 0.0098443134978123126 1 0.010061306925988528 0.0099076685846230181 1 1 1 1 1 1 0.010095042627947672 1 1 1 1 0.0099199842701607234 1 1 1 0.0097418103226549098 1 1 1 1 1 1 1 1 1 1 0.010014911305028251 1 1 1 1 0.010007909018884289 1 1 0.0098886029682545961 1 0.010020827394446312 1 1 1 1 0.0099343573982320042 1 1 1 1 1 0.010100872060103747 0.01011087857508593 1 1 1 1 1 1 0.0099995402607626765 1 1 0.00993972839946132 1 1 0.0099658744838433174 1 1 1 1 1 0.010000669595389533 1 1 1 1 1 1 1 1 1 1 0.0099014529608264235 1 1 1 1 1 1 1 1 1 1 1 1 1 1 1 0.0099702129171243669 1 1 1 0.010058792357032444 1 1 0.010018218977845893 1 1 1 1 1 1 0.010002377556096335 1 0.010006664365829466 1 1 1 1 1 1 1 1 1 0.010103357739855733 0.010003057186816029 1 1 0.010020168395724024 1 0.010000843643512634 0.010002229561348198 1 1 1 1 1 1 1 1 1 0.010651135031754268 1 1 1 1 1 1 1 1 1 1 1 1 1 1 1 1 1 0.0099989374794771588 1 1 1 1 1 1 1 1 1 1 1 1 1 1 1 1 1 1 0.010013311945086619 1 1 1 0.010000305401735146 1 1 1 0.0099940787841731153 1 0.010000420121114455 1 1 0.010037667423612888 1 1 1 0.0099971646699130012 1 1 0.009964570836626923 1 0.010035200133616598 1 1 0.010145470932706169 1 0.0094547044572588432 1 1 0.0099680718471036305 1 1 1 1 1 1 0.010466322698003225 1 1 0.010251587573854 1 1 1 1 1 1 1 1 1 1 0.010114518147095899 1 0.010483002573477604 1 1 1 0.0095379488523490812 0.010057042833665255 1 1 1 1 0.01028834615259319 1 1 1 1 1 0.011331501306416719 1 1 1 1 1 0.011793611780569287 1 1 1 0.010093122108863845 1 1 0.010236080837489493 1 1 1 1 1 1 1 0.0098382275466766343 1 1 1 0.01047562596067559 1 1 1 0.0098074310317283267 1 1 1 1 1 1 0.011035922673062252 1 1 0.011067122614861858 1 1 1 1 0.010026169581729839 1 0.010737844070302411 1 1 0.010183818482763653 1 1 1 1 0.010469693927517664 1 1 1 1 1 1 1 1 1 1 1 1 1 1 1 1 1 1 1 1 1 1 1 1 1 1 1 1 1 1 1 1 1 1 1 1 0.010444919979095552 1 1 1 0.010689880472696051 1 1 1 1 1 1 1 1 1 1 1 1 1 1 1 0.010243164622220722 1 1 1 1 1 1 1 0.010013613796625003 1 1 1 1 1 1 1 1 1 1 1 1 0.011072650983587258 1 0.011353573416545915 1 1 1 1 1 0.010027530208581667 1 1 0.0099720939739984058 1 1 0.011385781520982323 0.010115804950410062 1 1 0.0099967228297436258 1 1 0.0098294686251924109 1 1 0.0099558333055030576 1 1 1 1 1 0.010154554168329093 1 1 1 1 1 1 1 1 0.011604038898335745 1 1 1 1 1 1 1 1 0.011543808992871217 1 1 1 1 1 0.010012053684661685 1 1 1 1 1 1 1 1 1 1 1 1 1 1 1 1 0.01001214216654904 1 1 0.010000088481887354 1 1 1 1 1 1 1 1 1 1 1 1 1 1 1 0.010005226905934956 1 1 1 1 1 1 1 0.010024224761769404 1 1 1 1 1 1 1 1 1 1 1 1 1 0.0099829823062145828 1 1 1 1 1 1 1 0.010216559384540816 0.010366360052686707 1 1 1 1 1 1 0.010869918458207093 1 1 1 1 1 1 1 1 1 1 1 1 1 1 1 0.010114799610970648 1 1 1 1 1 1 1 1 1 1 0.010544758842908388 1 1 1 1 1 1 1 1 1 1 0.010292998212084129 1 1 0.010403115757963252 1 1 1 1 1 1 1 1 1 1 0.010846644506256902 0.010252499492378345 1 1 0.010514644638724958 1 1 1 1 1 1 0.010589259739423148 1 0.010017192340681149 1 1 1 1 1 0.010804355100181524 1 1 1 1 1 1 1 1 1 1 0.01049949280806629 1 1 1 1 1 0.010361555542439289 1 1 1 1 1 1 1 1 1 1 1 1 1 1 1 1 1 1 1 1 1 1 1 1 1 1 1 1 1 1 0.010141363981305525 0.010250475326629207 1 1 1 1 0.010380564454066616 1 1 1 1 1 1 1 1 1 1 1 1 1 1 1 1 1 1 1 1 1 1 1 1 1 1 1 1 0.010022940672310545 1 1 1 1 1 1 1 1 1 1 1 1 1 1 1 1 1 1 1 1 1 1 0.011246882466883516 1 0.010012982909201053 1 1 1 1 1 1 1 1 1 1 1 1 1 1 1 1 1 1 0.011439238159724774 1 1 0.01159576033903347 1 1 1 1 1 1 1 0.011593868601775342 0.010032020026171486 0.0095700608875650892 1 1 1 1 1 0.0098660825751729301 1 1 1 1 1 1 1 1 1 1 1 1 1 1 1 1 1 1 1 1 1 1 1 1 1 1 1 0.010181783262198665 1 1 1 1 0.010638945273285582 1 1 0.010519863257785587 1 1 0.010336386816848954 1 1 0.010282374081464382 1 0.010178953881537105 1 1 1 1 1 1 1 1 1 1 1 1 0.011273736789324196 1 1 1 0.0099261153225851315 1 1 1 1 1 1 1 1 1 1 0.0097765558842698788 1 1 0.010000193796715072 0.010173950346926058 1 1 1 0.010291591838215226 0.010701249507742192 0.01124714095527434 1 1 1 1 1 0.010278269834894341 1 0.0098885331387080812 0.010112332844964531 1 1 0.0099526488990783861 0.010596587358343033 1 0.0098665701454258327 1 1 0.010095138315481434 1 1 1 0.0099984999401548265 0.010855249715940008 0.0098896383246832135 0.010257220845180296 1 1 1 1 1 1 1 1 1 1 1 1 1 1 1 1 1 1 1 1 1 1 0.010018168132972915 1 1 1 0.010037153725904817 1 1 1 1 1 1 1 1 1 1 1 1 1 1 1 1 1 1 1 1 1 1 1 1 1 0.010270068109700284 1 1 1 0.010496430911724215 1 1 1 1 0.010226362802023936 1 1 1 0.010319201080026041 1 1 1 1 1 1 1 1 1 1 1 1 1 0.010542957761619145 1 0.010309503577883048 1 1 1 1 1 1 1 1 1 1 1 1 1 1 1 1 1 1 1 1 1 1 1 1 0.010046733903385724 0.0099551455528570452 0.01117707871684764 1 1 1 1 1 1 0.010083656042679346 1 1 1 1 1 1 1 1 1 1 1 0.010233454183736095 1 1 1 1 1 1 1 1 1 1 1 1 1 1 1 0.0050357741544217191 1 1 0.010778872699120638 0.011128302277305597 1 1 0.010835636157930489 1 1 1 1 1 1 1 1 1 1 1 1 1 1 1 1 1 1 1 1 1 1 0.011382266877705721 1 1 0.011556703647196144 1 1 1 1 1 1 1 1 1 1 1 1 0.010373388638906104 1 1 1 1 1 1 1 1 1 1 0.010962666671840452 1 1 1 1 1 1 1 1 1 0.010071010577942985 1 1 0.010219059070183218 1 1 1 0.010097112605642031 1 1 1 0.010316644273645792 1 1 1 1 1 1 0.010211729767863546 1 1 1 1 1 1 1 1 1 0.0099705407680066496 1 1 0.01020612335526689 1 0.010002796408534066 1 1 0.010173955080615735 1 1 1 1 1 1 1 1 1 1 1 1 1 0.010220567542698546 1 1 1 1 1 1 1 1 1 1 1 0.010862980302691483 1 1 1 1 1 0.010072391776234115 0.0099884168683793996 0.010978344633308308 1 1 1 1 1 1 1 1 1 1 1 1 1 1 1 1 1 1 1 1 1 1 1 1 1 0.011037678660558443 1 0.0098227845205765621 1 1 0.010402088994781993 1 1 1 1 1 1 1 0.010569858152681025 1 1 1 1 1 1 1 1 1 0.010388988331959901 1 1 0.010188500052360812 1 1 1 1 1 1 1 1 0.011092111911788115 1 1 1 1 0.010007238906282401 1 1 1 1 1 1 1 1 1 1 1 1 1 1 1 1 1 1 1 1 1 1 1 1 1 1 1 1 0.010037121839183122 1 1 0.010094098891973262 1 1 1 1 1 1 1 0.010156871601206617 1 1 1 1 1 1 0.01007321555852727 1 1 1 1 1 1 1 1 1 1 0.010188325570799329 1 1 1 1 1 1 1 1 1 1 0.01044785452906101 1 1 1 1 1 0.010514553834560278 1 1 0.010135298744190065 1 1 1 1 1 1 1 1 1 1 1 1 1 1 1 1 0.0099744698432540826 1 1 1 1 1 1 1 1 1 1 1 1 1 1 1 1 1 1 1 0.010070234709102448 1 1 1 1 0.010170450064284596 1 1 1 0.010164831974955914 1 1 1 0.010100499915547045 1 1 1 0.010328153474870774 1 0.010163321499914864 1 1 1 1 1 1 1 1 1 1 1 1 1 1 1 1 1 1 1 1 1 0.010044430875580398 1 1 1 0.0100445395847969 1 1 1 1 1 0.010378468976053892 1 1 1 0.010185298521892511 1 1 1 1 1 1 1 1 1 1 1 0.010193509345014231 0.010018865794636131 1 1 1 1 1 0.010008998009501845 1 1 1 1 0.0099646020581197984 1 1 0.010200488279599091 1 1 1 1 1 1 1 1 1 1 1 1 1 1 1 1 1 1 1 1 1 1 1 1 1 1 1 1 1 1 1 1 1 1 1 1 1 0.010036005923709955 1 1 1 1 1 0.010097923297022181 1 0.010173366713030979 1 1 1 1 1 1 1 1 1 1 1 1 1 1 1 1 1 1 1 1 1 1 0.010094750881945187 1 1 1 0.010219898614687211 0.010166512719800281 1 1 0.010103790049737403 1 1 1 1 1 1 1 1 1 1 1 1 0.0098751718371926801 0.010654798343446624 1 1 1 1 1 1 0.010858082701387434 1 1 1 1 0.010013018355438863 1 1 1 1 0.010041435835345012 1 1 1 1 0.010060311018561103 1 1 1 1 1 1 0.009970994940629193 0.010021303349158423 1 1 1 1 0.0099480279715303023 1 1 1 1 1 1 1 1 1 1 0.010215958442037711 1 1 1 0.0099955023279933095 1 1 1 1 0.010273877180160868 0.0099740437759646781 1 1 1 1 1 1 1 1 1 1 1 0.010088333403739132 1 1 1 0.010007659289981347 1 1 1 1 1 1 1 1 0.010491357360428281 1 1 1 1 1 1 1 1 1 1 1 1 1 1 1 1 1 1 1 1 1 1 1 1 1 1 1 1 1 1 1 1 1 1 1 1 1 1 1 1 0.01020531932135519 1 1 1 1 1 1 1 1 1 1 1 1 1 1 1 1 1 1 1 1 1 1 1 1 1 1 1 1 1 1 1 1 1 0.0099019048092063681 1 1 1 0.010338297614599168 1 1 1 1 1 1 1 0.01019388910324464 1 0.0098344153098758914 1 1 1 1 1 1 1 1 1 1 0.010203164780100934 1 1 1 1 0.0099087189489170616 1 0.010489202819174023 1 1 1 1 1 1 1 1 1 1 1 1 1 1 1 1 1 1 1 1 1 1 1 1 1 1 1 1 1 1 1 1 1 1 1 1 1 1 1 1 1 1 1 1 1 1 1 1 1 1 1 0.010042281303183482 1 1 1 1 1 1 1 1 1 1 1 1 0.010132750369903571 1 1 1 0.010064508036542645 1 0.0099656963115809256 0.010378971526940528 1 1 1 1 1 1 1 1 0.010783424693258225 1 1 0.010529286674546987 1 1 1 0.010099389810534428 1 1 1 1 1 1 1 1 0.010267655868141273 1 1 0.009862785786098241 1 1 1 1 1 1 1 0.010100310174532749 0.0098281543547137831 1 1 1 1 1 0.010270019867060189 1 1 1 0.010235413320784217 1 1 1 1 1 1 1 1 0.010870980176661972 1 1 1 0.010351575882804559 1 1 1 1 1 0.0097326313361640309 1 1 1 0.0099375298809030801 1 1 1 1 1 1 1 1 1 1 1 1 1 1 1 1 1 1 1 1 1 1 1 1 1 1 1 1 1 1 1 1 1 1 1 1 1 1 1 1 1 1 1 1 1 1 1 1 1 0.010135025486880328 1 1 1 0.0099574745342840137 1 1 1 0.010140309617768333 1 1 1 1 1 1 1 1 0.0099513641878913456 1 1 0.010045795775726145 1 1 1 1 1 1 1 1 1 1 1 0.0099935958019014386 1 1 1 1 1 1 1 1 1 0.0099138819621171249 1 0.0099741131692547575 1 0.0099066612788555088 0.010006560228722722 1 1 1 1 1 1 1 1 1 1 1 1 1 1 1 1 1 1 1 1 1 1 1 1 1 1 1 1 1 1 1 1 1 1 1 1 1 1 1 1 1 1 1 1 1 1 1 1 1 1 1 1 1 1 1 1 1 1 1 1 1 1 1 1 1 1 1 1 1 1 1 1 1 1 1 1 1 1 1 1 1 1 1 1 1 1 1 1 1 1 1 1 1 1 1 1 1 1 1 1 1 1 0.011368496263663019 1 1 0.010014962951027287 1 1 0.011159434196410351 1 1 0.01089769248708561 1 1 1 1 1 1 1 1 1 1 1 1 1 1 1 1 1 1 1 1 1 1 1 1 1 1 0.010104050396791065 0.010104353390848737 1 1 1 1 1 1 1 1 1 1 1 1 0.010505273585253579 1 1 1 0.010025352884469162 1 0.010065714094232323 1 1 1 0.010043263978622784 1 1 1 1 1 1 0.010048649519351534 1 1 1 1 1 1 1 1 1 0.010031893538654951 1 1 1 1 1 1 0.010036412437686982 1 1 0.010102126531919305 1 1 1 1 1 1 0.0099841754653575455 1 1 1 1 1 1 1 1 1 1 1 1 1 1 1 1 1 1 1 1 1 0.010034332213219413 1 0.010071110762913553 1 1 1 1 1 1 1 1 1 1 1 1 1 1 0.010050702280319231 1 1 1 0.010013923730625089 1 1 1 1 1 1 1 1 1 0.0099681480669714818 1 1 1 1 1 1 1 1 1 0.0099839726016139364 1 1 1 1 1 1 1 1 1 1 1 1 1 1 1 1 1 1 1 1 1 1 1 1 1 0.01032890581635919 1 1 1 1 1 1 1 1 1 1 0.0099953041769889478 1 1 0.010317869216515832 1 1 1 1 1 1 1 1 1 1 1 1 1 1 1 1 1 1 1 0.010009872050348133 1 1 1 1 1 1 1 1 1 1 1 1 1 1 1 1 1 1 1 1 1 1 1 1 1 1 1 1 1 1 1 1 1 1 1 0.0098821860651757513 1 1 0.010454907031899271 1 1 1 1 0.0099348712678734383 1 1 1 0.0099792438650021225 1 1 1 1 1 1 1 1 1 1 1 0.01043756048177104 1 1 1 1 1 1 1 1 1 1 1 1 1 1 1 1 1 1 0.010061226361603519 1 0.01019836625044381 1 1 1 1 1 1 1 1 1 1 1 1 1 1 1 0.010355768837756006 1 1 0.0097205039610703398 1 1 1 0.01038339731561359 1 1 1 1 0.010100496897316248 1 1 0.010425124978030578 1 1 1 1 1 1 1 1 0.010015503546736955 1 1 1 0.01000073529904846 1 1 0.010009239157991977 1 1 1 1 1 1 1 1 1 1 1 1 1 1 1 1 0.01030123192520631 1 1 1 1 0.010013159126423709 1 1 1 1 1 1 1 1 1 1 0.01001549751180952 1 1 0.010028656638233231 1 1 1 1 1 1 0.010157897402563176 1 1 1 1 1 1 1 1 0.010129280779043476 0.009990342493651912 1 1 1 1 1 1 0.010113204546330277 1 1 1 1 1 1 1 1 1 1 1 1 1 1 0.010521717815233698 1 0.010569493563780471 1 1 1 1 1 1 1 1 1 1 1 1 0.010045685188633755 1 1 1 1 1 1 1 1 1 1 1 1 0.010048274159137663 1 1 1 1 1 1 1 0.01077672240970632 1 1 1 1 1 1 1 1 0.010492070225839523 1 1 0.010602636374518823 1 1 1 1 1 1 0.010165285310653221 1 1 1 1 1 1 1 1 1 1 0.010614873147798808 1 1 1 1 1 1 0.010426314778671545 1 1 1 1 1 1 0.010277688565918439 1 1 1 0.011065691235929967 1 1 1 1 1 1 1 1 1 1 1 0.010047486678737397 1 1 1 1 1 1 0.010189268692246151 1 1 1 1 1 0.010494595885444458 1 1 1 1 1 0.01000279168009822 1 1 1 1 1 1 1 1 0.010256777308994217 1 1 1 1 1 1 1 0.010574890280314015 1 1 0.010003132360678024 1 1 1 1 1 1 1 1 1 1 1 1 1 1 1 1 1 1 1 1 1 1 0.011325131742467246 1 1 0.010000527826161827 1 1 0.010000108942095029 1 1 1 1 1 1 1 1 1 1 1 1 1 1 1 1 1 1 1 1 1 1 1 1 1 1 1 1 1 1 1 1 1 1 1 1 1 1 1 1 1 1 1 1 1 1 1 1 1 1 1 1 1 1 1 1 1 1 1 1 1 1 1 1 1 1 0.010009822599034379 1 1 1 1 0.0099742732516938069 1 1 1 1 1 1 0.0099580716579833386 1 1 1 1 1 1 1 1 1 1 1 0.0099059964619512744 1 1 1 1 1 0.0099936210053239109 1 1 1 1 1 1 1 1 1 1 1 1 1 1 1 1 1 1 1 0.0099790907341812465 1 1 1 1 1 1 0.0097639970595525122 1 1 1 1 1 0.0099550469634172075 1 1 1 1 1 1 1 1 1 1 0.010177025307338515 1 1 1 1 1 1 1 1 1 1 1 0.01008430505907248 1 1 1 1 1 1 1 1 0.010153741336740652 1 1 1 0.010030117549272631 1 1 1 1 0.0099461421016108966 1 1 1 1 1 1 1 0.009998905784320793 1 0.0099567892746034743 1 0.010002878840926651 1 1 1 1 1 1 1 1 1 1 1 1 1 0.010007344061881761 1 1 1 1 1 1 1 1 1 0.01002460403022074 1 1 1 1 1 1 1 1 1 1 1 1 1 1 1 1 1 1 1 1 0.010477930241483149 1 1 1 0.010378386227002401 1 1 1 1 1 1 1 1 1 1 1 1 1 0.010158635332440475 1 1 1 0.0099998585289023806 1 1 0.0099007518672942808 1 1 1 0.010030214332465273 0.0099548896618352201 1 1 1 0.0098149046523783399 1 1 1 0.010013551994784212 1 0.0099009837905423715 0.010362591808574625 1 0.010741827618475508 0.0099998255133147036 0.011150461891358397 1 1 1 1 1 1 0.010097320008999209 1 1 0.010706099888074094 1 1 0.010640012183849286 1 1 1 1 1 1 1 1 1 0.010111279203476627 1 0.0099932408741253212 1 1 1 1 1 1 1 1 1 1 1 1 1 1 0.010025350388947162 1 1 1 1 0.0099971850801448617 1 1 1 1 0.010961056084242544 1 0.010735072771853472 1 1 1 1 1 0.011022254422930422 1 1 0.010678211322178282 1 1 1 0.010982083195038581 1 1 1 1 1 0.010821986153593883 1 0.010558127804805546 0.010849198958344398 1 1 1 0.010773949189556809 1 1 0.010462935064271619 0.010959044729555119 1 1 1 1 0.010074158323706731 1 0.011167178078652546 1 1 1 1 1 1 0.011196885460347642 1 1 1 1 1 1 1 1 1 1 1 1 1 1 1 0.010000779420221644 1 1 1 0.010296465414787253 1 0.01134285451253339 0.011289532346115842 1 0.011503286685025189 1 0.0098725122091033301 1 1 0.010005142452542679 1 1 1 0.0099744823558513204 1 1 1 1 0.011093811378631222 1 1 1 1 1 1 0.010197150892762553 0.010154888665416219 1 1 1 0.0099797189577342307 0.010021401636641426 1 1 0.009788448977987833 1 0.010009595696581197 1 0.010227144570465523 0.012247254841212314 1 1 1 1 1 1 1 1 1 1 1 1 1 0.010065964637040197 1 1 1 1 1 1 1 1 1 1 1 1 1 0.010272295854897749 1 1 1 0.010526490623081908 0.011405454956098989 1 1 1 1 1 1 1 1 1 1 1 1 1 0.011869175245395016 1 1 1 1 1 0.0099902341069848521 1 1 1 1 1 1 1 0.0099968686539985575 1 1 0.011279335979548652 1 1 1 1 1 1 1 1 1 1 0.010445830614092169 1 1 1 0.01067970675622542 1 0.0099958373986263598 1 1 1 1 1 1 1 1 1 1 1 1 1 1 1 1 1 0.0096555392719267028 0.010162439724556355 1 1 1 1 0.010014412759266924 1 1 1 1 1 1 0.0099997700948877988 1 1 1 1 0.0096299915630363789 0.0096146848919349166 1 1 1 0.0094834817669516309 1 1 0.010067908322228923 1 1 1 1 1 1 1 0.012152323802152608 1 1 0.0096787879130054953 1 0.0098095246812804175 0.0097904098113246428 1 1 0.0094170057034319177 0.01097797688561775 1 0.0094662033679050964 1 1 1 1 1 1 1 1 1 1 0.011807418930686157 1 1 1 0.010328883420178937 0.010455873149324184 1 0.010933296088449836 1 1 1 1 1 1 0.010038207154611361 1 0.0099611696723434333 1 1 1 1 1 1 1 1 1 1 1 0.010293048207146445 1 1 1 1 1 1 1 1 1 1 1 1 1 1 1 1 1 1 0.010241749468579409 1 1 1 1 0.010477486482880083 1 1 0.010508371894372346 0.010014364579296371 1 1 1 1 0.010083376640869552 1 1 1 1 1 1 1 0.010449637027417247 1 1 1 0.0099914058467835687 1 1 1 1 1 0.0099951411076671104 1 1 1 1 1 0.010152238216811542 1 1 1 1 1 0.0097429367255179866 1 1 1 1 1 1 1 1 1 0.010039092231578461 1 1 1 1 0.0096478024519052585 1 0.010402705611276878 1 0.0097051815484109454 1 1 1 0.011291480331868879 1 0.0099992392074537105 1 1 0.011180061770966861 1 1 1 1 1 1 0.0096807607036829765 1 1 0.01000704080348137 1 0.0099152761637818065 1 1 1 1 1 1 1 1 0.010010629318412829 1 1 1 1 1 1 1 1 1 0.01026809303303618 1 1 1 1 1 0.01019481509390706 1 0.010081358467992527 1 1 1 1 1 1 1 1 1 1 1 1 1 1 1 1 1 1 1 1 1 1 1 1 0.010963037489127749 1 1 1 0.010848455383677664 1 1 0.010243305812845988 1 1 1 1 1 1 0.010164637654661536 1 1 1 1 1 1 1 1 1 1 1 1 0.0099405524425853591 0.010565763856982506 1 1 1 0.011216988333930847 1 0.010103529593932334 1 1 1 0.011417042344531416 1 1 1 1 0.0099334764385339003 1 0.0097964174014592703 1 1 1 1 1 1 0.0098265038825332985 1 1 1 1 1 1 0.010033844532826436 1 0.0094926596938583914 1 1 1 1 0.010891506505026415 1 1 1 1 1 1 1 1 1 0.0098543584838145619 1 0.010936419209607423 1 1 1 1 1 1 1 1 1 1 1 1 1 1 1 1 1 1 1 1 1 1 1 1 1 1 0.011011468119229567 1 1 0.010066195622145505 1 1 1 1 1 1 1 1 1 1 1 1 1 1 1 1 1 1 1 1 1 1 1 1 1 1 1 1 1 1 0.010344716340362955 1 1 1 1 1 1 1 1 1 1 1 1 1 1 1 1 0.0099815366822446142 1 1 1 1 1 1 1 1 1 1 1 1 1 1 0.010036217371947107 1 1 1 1 1 1 1 1 1 1 1 1 1 1 1 1 1 1 1 1 1 1 1 1 1 1 0.010087956341195721 1 1 1 1 1 1 1 1 1 1 1 1 1 1 1 0.009965294160270614 1 1 1 0.010230490431180444 1 1 1 1 1 1 1 1 1 1 1 1 1 1 1 1 1 0.0098879057061297005 1 1 1 0.0097016713431710803 1 1 1 1 0.0099904631342693281 1 1 0.0099978887690107057 1 1 1 1 1 1 1 1 1 1 1 0.010870516726634794 1 1 1 0.011068083959636267 1 0.010380991561394723 1 1 1 1 1 1 1 0.0095964455496527906 1 1 1 1 1 0.0095665759385297876 1 1 1 1 1 0.0099990116935544972 1 1 1 1 1 0.010572123034738399 1 1 1 1 1 1 1 1 1 1 1 1 1 1 0.011459575185118254 1 1 1 1 0.010027500692259713 1 0.011263258744418738 1 1 1 1 1 0.010034183248483668 1 1 1 1 0.010133705207447602 1 1 1 1 1 1 0.010436648959903328 1 1 0.012696239661084458 1 1 1 1 1 1 0.011252985067892704 1 1 1 1 0.010005505364824949 1 1 1 0.011655738718366015 1 1 1 1 1 1 0.010107477410839331 1 1 1 1 1 1 1 1 1 1 1 1 1 1 1 1 1 1 1 1 1 1 0.010123060606506123 1 0.012506416373554419 1 1 1 1 1 1 1 1 1 1 1 1 1 1 1 1 1 1 1 0.010287597666476099 0.012688257573796444 1 1 1 1 1 1 1 1 0.010823426618512197 1 1 1 1 1 1 1 1 1 1 1 0.011550450302950396 1 1 1 0.011314909127183598 1 1 0.011060634946008162 1 1 1 1 1 1 1 1 1 1 1 1 1 1 1 0.0097650795402319124 1 1 1 1 0.010487035588387929 1 1 1 0.010232809087039791 1 1 1 1 1 1 1 1 1 0.010766210510564219 1 1 1 1 1 1 1 1 1 1 1 1 1 1 1 1 1 1 1 1 0.011996173284030348 1 1 1 0.0094805684931264182 1 1 1 0.010039754562610557 1 1 1 1 1 0.010009154130088705 1 1 0.0099620378404624566 1 1 0.010810498713369495 0.010058763219707443 1 1 0.010747759906324249 1 1 1 1 1 1 0.010003125941794033 1 1 0.010318703911165336 1 1 0.010000691689889263 1 1 1 1 1 1 0.010321606019341087 1 1 1 1 1 1 1 1 1 1 1 1 1 1 1 1 1 1 0.010108248096517067 1 1 1 1 0.010161492647651704 1 1 1 1 1 1 1 1 1 1 1 1 1 1 1 1 1 1 1 1 1 1 1 1 1 1 1 1 1 1 1 1 1 1 0.010076051999564817 1 1 0.010308861086604608 1 1 1 1 0.010234853337138762 1 1 1 1 1 1 0.010192800862767198 1 1 1 1 1 1 1 1 1 1 1 1 1 1 1 1 1 1 1 0.010033180635860615 1 1 0.01006354692955886 1 0.0098088403565897812 1 1 0.0099416253093115147 1 1 1 1 1 1 1 1 1 1 1 1 0.010000778846749133 1 1 1 1 1 0.010406564190962713 1 1 1 1 1 1 1 1 1 1 1 1 1 1 1 1 1 1 1 1 1 0.010179796544622276 0.011014722807234562 1 1 1 1 1 1 1 1 1 0.011306443811672335 1 0.010499457922446075 1 1 0.011461786235755826 1 0.010740921733056904 1 1 1 1 1 1 0.010910708968506769 0.011361165910482625 1 1 1 1 0.011411644073592089 1 1 1 1 1 0.010167023661432795 1 0.0097237894708371991 1 1 1 1 1 1 1 1 1 1 1 1 1 1 0.0098879333309457567 1 1 1 1 1 1 0.0099879872888594505 1 1 1 1 1 0.010174408405378501 1 1 1 1 1 1 1 1 1 1 1 1 1 1 1 1 1 1 1 1 1 1 1 1 1 0.010531409473086836 1 1 1 1 1 1 1 1 1 1 1 1 1 1 1 1 1 1 1 1 1 1 1 1 1 1 1 1 1 1 1 1 1 1 1 1 1 1 1 1 1 1 1 1 1 1 1 1 1 1 0.010052233226963352 1 1 1 1 0.010008748483130464 1 1 1 1 1 1 1 1 1 1 1 1 1 1 1 1 1 1 1 1 0.009960182255329849 1 1 0.0098161971886550296 1 1 1 1 0.010017447499053004 1 1 1 1 1 1 0.0095750765975893461 1 1 1 1 1 1 1 1 1 1 1 1 0.010060098312701963 1 0.011985816571114794 1 1 1 1 1 1 1 1 1 1 1 1 0.010008699015922539 1 1 1 1 1 0.010023666643817469 1 1 1 0.0098809230780310536 0.010147991170000892 1 1 1 1 0.010185294667335049 1 1 1 1 1 1 1 0.010122313339960581 1 1 1 1 1 1 1 1 1 1 0.01009131014074308 1 1 1 1 1 1 1 1 1 1 1 1 0.01012760538154263 0.010132809408456383 1 1 1 1 0.0098516019818682167 0.010142007245619178 1 1 1 1 1 1 1 0.009913058061493325 1 1 0.01004663766828499 1 1 1 1 0.010317039152304787 1 1 1 1 1 1 1 0.010072952275524818 1 1 0.010193364902582731 0.010078535952522597 1 1 1 1 1 1 1 1 0.010088553808087472 0.0099656350037383122 1 0.010061300080670313 0.0099999926514804452 1 1 1 0.00998306308326119 1 0.0099783013003102057 1 1 1 1 1 1 1 1 1 1 1 1 1 1 1 1 1 1 1 1 1 1 1 1 1 1 1 1 1 1 1 1 1 1 0.010007516467713648 0.010004486349335706 1 1 1 1 1 1 1 1 1 1 1 1 0.0099355982869020962 1 1 1 1 1 1 1 0.0099813639027472138 1 1 1 1 1 1 1 0.010026568205943259 1 1 1 1 1 1 1 1 1 0.010067220819050903 1 1 1 1 0.0098805606676493438 0.0100838946008846 1 1 1 1 1 1 1 1 1 1 1 1 1 0.010003677036333231 1 1 1 1 1 1 1 1 1 1 1 1 1 1 1 1 1 1 1 1 1 1 1 1 1 1 1 1 1 0.010844841841334239 1 0.010459360981454138 1 1 1 0.009612958222056444 1 0.010443689363104469 1 1 1 1 1 1 1 1 1 1 1 1 1 1 1 1 0.010330515975149574 1 1 1 1 1 1 1 1 1 1 1 1 1 1 1 1 1 1 1 1 1 0.010173984782736076 1 0.010068115672836338 1 1 1 1 1 1 1 1 1 0.010152695974177041 1 1 0.010491701033123035 1 1 0.0099896053195807442 1 1 0.010187409526726532 1 1 1 1 1 1 1 1 1 1 1 1 1 1 1 1 1 1 1 0.010021467601773155 1 1 1 0.010051966180239853 1 1 1 1 1 1 1 1 1 1 1 1 1 1 1 1 1 1 1 1 1 1 1 1 1 1 1 1 1 1 1 1 1 1 1 1 1 1 1 1 1 1 1 1 1 1 1 1 1 1 1 1 1 1 1 1 1 1 1 0.01003094814338093 1 1 1 1 1 1 1 1 1 1 1 1 1 1 1 1 1 1 1 1 1 1 0.010068063956785663 1 1 1 1 1 1 1 1 1 1 1 1 0.011828884772901817 1 1 1 1 0.011564665280346557 1 1 1 1 1 1 1 1 1 0.011083916890799808 1 1 1 1 1 1 1 1 1 1 1 1 1 1 1 1 1 1 1 1 0.010397895515639584 1 1 1 1 1 1 1 1 1 1 1 1 1 1 1 1 0.0099993860922934618 1 0.0099012522150321615 1 1 1 1 1 1 1 1 1 1 1 1 1 1 1 1 1 1 1 1 1 1 1 1 1 1 1 1 1 1 1 1 1 1 1 1 1 1 1 1 1 1 1 1 1 1 1 1 1 1 1 1 1 1 1 1 1 1 1 1 1 1 1 1 1 1 1 1 1 0.010020735960579608 1 1 1 1 1 0.010071514777604203 1 1 1 1 1 1 1 1 1 1 1 1 1 0.0102254711045466 1 1 1 1 1 1 1 1 0.010368130488899518 1 1 1 1 0.010084421515255414 0.0099990822796131532 1 1 0.010383448218014244 1 0.010035488777913342 1 1 1 1 1 1 0.0099946948850230446 1 1 0.010146745162190364 1 1 1 1 1 1 0.010146228356407501 1 1 1 1 1 1 1 1 1 1 1 1 1 1 1 1 1 1 0.01006927639349341 1 1 1 1 1 1 1 1 0.01011875540990869 1 1 1 1 0.009963320168090253 1 1 1 1 1 1 1 1 1 1 1 1 1 0.010060590485382432 1 1 1 1 0.010060800209559427 1 1 1 1 1 1 1 0.0099721741418400157 1 1 1 1 0.009986433915489857 1 1 1 1 1 1 0.0099985012150596731 1 1 1 1 0.01002520690473209 1 1 1 1 1 1 1 1 1 1 1 0.010128696148201275 1 1 1 1 1 1 1 1 1 0.010005708573001445 1 1 1 0.01002722093888705 1 1 1 0.010048298301920874 1 1 1 1 1 1 1 0.010118908345732024 1 1 1 0.010003030118377942 1 1 1 1 1 1 1 0.01004622450735731 1 1 0.01006128573260251 1 1 1 1 1 1 1 1 0.010040610969593503 1 1 1 1 1 1 1 0.010026785936035267 1 1 0.010021174616105886 1 1 1 1 1 1 1 1 1 0.0100207026993891 1 1 1 1 0.010443128173036581 1 1 0.010029925137636359 1 1 1 1 0.0099719240462253552 1 1 1 1 1 0.010021194892606378 1 1 1 1 1 1 1 1 1 1 1 1 1 1 0.010143431490386424 1 1 1 1 1 1 1 1 1 0.010386637452871736 1 1 1 1 1 1 0.010168923153141031 1 1 1 1 1 1 1 1 1 1 1 1 1 1 1 1 1 1 1 1 1 1 1 1 1 1 1 1 1 1 1 1 1 1 1 1 1 1 1 1 1 1 1 0.010038317294209674 1 1 1 1 1 0.01035485822187053 1 1 1 1 1 0.010325022591218787 1 1 1 1 1 1 1 1 1 1 1 1 1 1 1 1 1 1 1 1 1 0.009994837253995947 1 0.0099977906811633162 1 1 1 0.010277911153663482 1 0.010289033278025318 1 1 1 0.010038423021493449 1 1 1 1 1 1 1 1 1 1 1 0.010003512779532001 0.010295020772304594 1 1 1 1 1 1 1 1 1 0.010158842382557333 0.010127487389840248 1 1 1 1 1 1 1 1 1 1 0.010066942714177232 1 1 1 1 1 1 1 1 0.010310192309584826 0.010605393773879779 1 1 1 1 1 0.010209552916129341 1 1 1 1 1 0.0099541622251682095 1 0.010164329615214577 1 1 1 1 1 0.010431902503827663 1 1 1 1 1 1 0.010092517559631163 1 1 1 1 1 1 1 1 1 1 0.010110896095757866 1 0.010339995725580219 1 0.010489097657537763 1 1 1 1 1 1 1 1 1 1 1 1 0.010024838096199999 1 1 1 0.01005578623958093 1 1 0.010250880379744906 1 1 1 1 1 0.010085677315335039 1 1 1 1 1 1 1 1 1 1 1 1 1 1 1 1 1 1 1 1 0.010399264948142346 1 1 1 1 1 1 1 1 1 1 1 1 1 1 1 1 1 1 1 1 1 1 1 1 1 1 1 0.010169878468101436 1 1 1 1 1 1 1 1 1 0.0099489884262779528 1 1 1 1 1 0.0098228571398064519 1 1 1 1 1 1 1 1 1 1 1 1 1 1 1 1 1 1 1 1 1 1 1 0.010076810032874257 1 0.010678933665176185 1 1 1 1 1 1 1 1 0.010971288942940105 1 1 1 0.010084969806231789 1 1 0.010108422403231064 1 0.0096578697725845895 1 1 1 1 1 1 0.0096445447934656037 0.011025469477280968 0.0099950166573861358 1 1 1 0.011536556929733165 1 1 1 1 1 1 1 1 1 0.01178109697446506 1 1 1 0.01188362137593621 1 1 1 1 0.010153032493948241 1 1 1 1 1 1 1 1 1 1 1 1 1 1 1 1 1 0.010169938343394365 1 1 1 1 1 0.0099688517837359814 1 1 0.010249864374010114 0.010254964791692023 1 1 0.010359328123261855 1 1 1 1 1 1 1 1 1 0.010183265733284326 1 0.010000166449906448 1 0.010006876240974813 1 1 1 1 0.010534651349846528 1 1 0.010181189663720861 1 1 1 0.010136417940391274 1 1 1 1 1 0.0099501326835108143 1 1 1 0.0099825460800415655 1 1 1 1 1 0.01048735124381845 1 1 1 1 1 1 1 1 1 0.01040346009358278 1 1 1 0.010295816172480595 1 1 1 1 1 1 1 1 1 1 1 0.010165529472155078 1 1 1 1 0.010233603826685875 1 0.010277142125673574 1 1 1 1 1 0.010065032505003863 0.010083316690483773 1 1 1 1 1 1 1 1 1 0.010082212781671308 1 1 1 1 1 0.010443548788538856 1 1 1 1 1 1 1 1 0.010650927081679825 1 0.010841998666480321 1 1 0.0096771336017268273 1 1 1 1 1 1 1 1 0.0097868875731062736 1 1 0.0099831921272064538 1 1 1 1 0.0099234620401776018 1 1 1 1 1 1 1 1 1 1 1 1 1 1 1 1 1 0.010985862315174788 1 1 1 1 1 1 1 1 1 1 1 1 0.010930088799020125 1 1 0.0099823941535806728 0.010005735928893308 0.01049469335295519 1 0.010341865011150898 1 1 1 1 1 1 0.010007638680029969 1 0.010035157266662978 1 1 1 1 1 1 1 1 1 1 0.010318282716124933 1 1 1 1 1 1 0.010007700622250865 1 1 1 0.0098840586170362774 1 1 0.010002449613233513 0.010462835972910256 1 1 1 1 1 0.010347648102218211 1 1 1 0.010539828830134877 1 1 1 1 1 1 1 1 1 1 1 1 0.010012722291929364 1 1 1 1 1 1 1 0.010787717347918363 1 1 1 1 1 1 1 1 1 1 0.010726679925745733 1 1 1 1 0.010272260608089154 1 0.010067303594718247 1 1 1 0.010667477182038863 1 1 1 0.0099601339935954589 1 1 1 1 1 1 1 1 1 1 1 1 1 0.0099906578597295376 1 1 1 1 0.010025275840793959 1 1 1 1 1 1 1 1 1 1 1 1 0.0099068920590370951 1 1 0.010029750147344346 1 1 1 1 1 1 1 1 1 1 1 0.010018495123264911 0.01000666610025553 1 1 1 1 1 1 1 1 1 1 1 1 1 1 1 1 1 1 1 1 1 1 0.010011508394993856 1 1 1 1 1 1 1 1 1 1 1 1 1 1 1 1 1 1 1 1 1 1 1 1 1 0.012633504189417227 1 1 1 1 1 1 1 1 1 1 1 1 1 0.012528555356940196 0.0099901853325351613 1 1 1 1 1 1 0.012371950896416413 1 1 1 0.0099792387576656694 0.010659728511031284 1 1 1 1 1 1 0.0099976278305172195 1 1 1 1 0.0099987559268200719 1 1 1 0.010730904092979693 1 0.011132228788903735 1 1 1 1 1 1 1 1 1 1 1 1 0.010224223576505619 1 1 0.010079654887124196 1 1 1 1 1 1 1 1 1 0.0099923464397177301 1 1 1 0.010015707269065135 0.0099965453137890112 1 1 1 1 1 1 1 1 1 1 1 0.0099867595127439788 1 0.012684589789346957 1 1 1 1 1 1 0.010432788597795742 1 1 0.010582402854244916 1 1 1 1 1 1 1 0.010549922406834817 1 1 1 1 1 1 1 1 0.01022305437068784 1 1 1 1 1 1 1 1 1 1 1 1 0.0099615964886180675 0.0099052133644776073 1 1 1 1 0.0099842904605401094 1 1 0.0099279073363996492 1 1 1 1 1 1 1 1 1 0.010585547779597202 1 1 1 1 0.010641229984397016 1 1 1 1 1 1 1 1 1 1 0.010020863660601006 1 1 1 0.010054653920833196 1 1 1 1 1 0.010033790260232191 1 1 1 1 1 1 1 1 1 0.010052764149350999 1 1 1 1 1 1 1 1 1 1 1 1 1 1 1 1 1 1 1 1 1 1 1 1 1 1 1 1 1 0.010012513305811422 0.01153918912791836 1 1 1 1 1 1 1 1 1 1 1 1 0.01022949878488252 1 1 1 1 1 1 1 1 1 1 1 1 1 1 1 1 1 1 1 1 0.010343595256380204 1 1 1 1 1 1 1 1 1 1 1 1 1 1 1 0.010260090208233876 1 1 1 1 1 1 1 1 1 1 1 1 1 0.010013220408482584 0.010324394446365362 1 1 1 1 1 1 1 1 1 1 1 1 1 1 1 1 1 1 1 1 1 1 1 1 1 1 1 1 1 1 1 1 1 1 1 1 1 1 1 0.011141503005347008 1 1 1 1 0.01043892256993708 1 1 1 1 1 1 1 1 1 1 1 1 1 1 1 1 1 1 0.0099993687951895859 1 0.010610382553700717 1 0.0099913188326577907 1 1 1 1 1 1 1 1 1 1 1 1 1 1 0.0099811832985549406 1 1 1 1 1 1 1 1 1 1 1 0.0099858818749231533 0.009994883908903374 1 1 1 1 1 1 1 1 1 1 1 1 1 1 1 1 1 1 1 1 1 1 1 0.01014165787820194 1 1 1 1 1 1 0.010360242213145869 1 1 1 1 1 1 1 1 0.010507616489906484 1 1 1 1 0.010465758905513311 1 1 1 1 1 1 1 1 1 1 1 1 1 0.010165667285624121 1 1 0.010076795460888018 1 1 1 1 1 1 0.01011352338564279 1 1 1 1 1 1 1 1 1 1 0.0098897646862531781 1 1 1 1 0.0099719013511631281 1 1 1 1 1 1 1 1 1 1 1 1 1 1 0.010323800635750075 1 1 0.0099997157345255404 1 1 1 1 1 1 1 0.010053450226940045 1 1 1 0.010296226256349893 1 0.010345154238309314 1 1 1 1 0.0099422130723078508 1 1 1 0.010110286530641466 1 1 1 0.010146055218991744 1 1 1 1 1 1 1 1 1 1 0.010001274140790798 0.010050563839541794 1 1 0.01025393545686875 0.010282855308329113 1 1 1 1 1 0.010086869565849975 1 0.011423816918837823 0.010010894665670214 1 1 1 1 1 1 1 1 0.010515314576533987 1 0.011197689283937915 1 1 1 1 1 1 1 1 1 1 1 1 1 1 1 1 1 1 1 1 1 1 1 1 1 1 1 1 1 1 1 1 1 1 1 1 1 1 1 1 1 1 1 1 1 1 1 1 1 1 1 1 1 1 1 1 1 1 1 1 1 1 1 1 1 0.0099899558127707414 1 0.010045616568473154 1 1 1 1 1 1 1 0.010065332825513442 1 1 1 0.010295194096724816 1 1 1 1 1 1 1 1 1 1 1 1 0.010193602144211117 1 1 1 1 1 1 1 0.010619682745880672 0.010001744943459224 1 1 1 1 1 1 1 1 0.010276252635343553 1 1 1 1 1 0.010134672382032603 1 1 0.01019821376183562 1 1 1 1 1 1 1 1 1 1 1 1 1 1 1 1 1 1 1 1 1 1 1 1 0.0099928834167157688 0.01010598936833422 0.0099425718261897424 1 1 1 1 1 1 0.010480244917221116 1 0.010360723494128806 1 1 1 1 1 1 1 1 1 0.010002245471920836 1 1 0.010729233416328031 1 1 0.010171588078013494 0.010347305900163653 1 1 1 0.010209654144746358 1 0.010100000344723869 1 1 0.010489035289291656 0.010000008627509133 1 1 1 1 1 0.010140794107399161 1 0.010012191273988192 1 1 0.0099347144167154875 1 1 0.010201388050700222 1 0.010278092187204352 1 0.010346818878520367 0.00993489171850356 1 0.010158728703301154 1 0.010131793342163903 0.010091533327892683 1 1 1 1 1 0.010083286643641694 1 0.010401762021634557 0.010312148171153668 1 1 0.010351887012775106 1 0.010275988635083491 1 0.010005212168259853 1 0.010425947307931819 1 1 1 0.010384458685801071 1 1 1 1 0.010008652077982167 1 1 1 1 1 0.010023500712377438 1 1 1 0.0099999135498237707 0.01052938503148277 1 1 1 1 1 1 1 1 1 1 1 0.010228217263421411 1 0.010513453501586015 0.01018826990462968 0.010168505032161048 1 1 1 1 1 1 1 1 0.010113047610083284 1 1 1 0.010221828380610573 1 1 1 1 1 1 1 1 1 1 1 0.009984981218029992 0.010290867591450096 1 1 1 1 0.010268473354456631 0.010100913297433345 0.010233092843487161 1 0.010085027166449498 1 1 0.01021049538872717 1 1 1 1 1 1 1 0.010228967075709165 1 1 1 0.0099532126903761307 1 1 1 1 1 1 1 1 1 1 1 1 0.010008564039990672 1 1 1 0.010162347267509107 1 1 1 1 1 1 0.010089180492458967 1 1 1 1 1 1 0.009945419170310995 1 0.010003370367444354 1 1 1 1 1 1 1 1 1 1 1 1 1 1 1 1 1 1 1 1 1 1 1 1 1 1 1 1 1 1 1 1 1 1 1 1 1 1 1 1 1 0.0099343200846383033 0.010172144684756641 1 1 1 1 1 1 1 0.011099639186106033 1 1 0.0098272895512579259 1 1 1 1 1 0.010412260715970664 1 1 1 1 1 1 1 1 1 0.01015422032786226 1 0.010460399992633514 1 0.010426902448464071 1 1 1 1 1 1 1 1 1 1 1 1 1 1 1 1 1 1 1 1 0.010009156382059504 1 1 1 0.0099979197195197156 1 1 1 0.011325433875421979 0.010168981744447372 1 0.010025616430304345 0.010054759705265495 1 1 0.010201955725217801 1 0.010879236619745313 1 1 0.0099845146920101886 1 1 1 1 1 1 1 1 1 1 0.0099728706080994683 1 1 1 1 0.010451527549418351 1 1 1 1 1 1 1 1 1 1 1 1 1 1 0.0098412441029389081 1 1 1 1 1 1 0.011168979192137277 1 1 1 1 1 1 1 1 1 1 1 0.010004843261602466 1 0.01024720226138204 1 0.010433674982310685 1 1 0.01000020091789623 1 1 0.01005887847137983 0.0097715725485546315 1 0.010020490226360302 1 1 1 1 1 1 1 0.01015926524565631 0.010193221439353172 1 1 1 1 1 1 0.010530640022272294 1 0.010003282777142375 1 1 0.01000069500000309 1 1 1 1 0.010363791546411483 1 1 1 1 1 1 1 1 1 0.010926019808512415 1 1 1 1 0.0098707198451579437 1 1 1 1 0.010145315181321262 1 1 1 0.010582740194731507 1 1 1 1 1 0.010099378818781639 1 1 1 1 1 1 0.010523382010939513 1 1 1 1 1 0.010190504633403633 1 1 1 1 1 1 1 1 1 1 0.0099400636850993443 1 1 1 1 1 1 1 1 1 1 1 0.0096223989046170522 1 1 1 1 1 1 1 1 1 1 1 1 1 1 1 1 1 1 0.010168126160859207 1 1 1 1 1 1 1 1 1 1 1 1 1 1 1 0.010724239611369406 1 1 1 1 0.011357695359872327 1 1 0.009969646611401763 1 1 1 1 1 0.010001253162993223 1 1 1 1 0.0099989368622493222 0.0092648778283392751 1 1 1 1 1 1 1 0.010121097432730064 0.0099578572354883273 1 1 1 1 1 0.0096582278044290114 1 0.011126051677319646 1 1 0.010002134090590562 1 1 1 1 1 1 1 1 0.010513521517627217 1 1 1 1 1 1 1 0.010561844887733363 1 1 1 1 1 1 0.010696986697988549 1 1 1 1 0.010005913401866351 1 1 1 1 1 1 1 1 1 1 1 1 0.0099955505050007658 1 1 1 1 1 1 1 1 1 1 1 1 1 1 1 1 1 1 1 1 1 1 1 1 1 1 1 1 0.0099950748997378758 1 1 1 1 1 1 1 1 1 1 1 1 1 1 1 1 1 0.011460217326398377 1 1 1 1 1 1 1 1 0.010154740702320445 0.011470666397468115 1 1 1 1 1 1 1 1 1 1 1 1 0.010491962930767347 1 1 1 1 1 1 1 1 1 1 1 1 1 1 1 1 1 1 1 1 1 1 1 1 1 1 1 1 0.010636858996444317 0.011679418519986379 1 1 1 1 1 0.010001891044101712 1 1 1 0.010483175570407443 0.0099957662280542071 1 1 1 1 1 1 1 1 1 1 1 1 1 1 0.011138488456358663 0.01092590816446095 1 1 0.010298536600066219 1 1 1 0.010203887830346705 0.010492693799646732 0.011404172013372132 1 1 1 1 1 1 1 1 1 0.01147445119473247 1 1 0.011085842822360897 1 1 1 0.0099999403097912731 0.0098495199800636476 1 0.0094665968900534015 1 1 1 1 1 1 1 1 1 1 0.0096416869402578577 1 0.0099774864290360921 1 1 1 1 1 0.0099983823786098189 1 0.0096493998384183724 1 1 0.010019385891043347 1 1 1 1 1 1 1 1 1 1 1 1 0.010141301447592638 1 1 1 1 1 1 1 1 1 1 1 1 1 1 1 0.010032878088960265 1 1 1 1 1 1 1 1 1 1 1 1 1 1 1 1 1 1 0.010097652172186089 1 1 0.010277113158203319 0.0097322683477227469 1 0.010377770676383633 1 1 1 1 1 1 1 1 1 1 1 1 0.010247300827157819 1 1 1 1 0.010089197654860126 1 1 1 1 1 1 1 1 1 1 1 1 0.0098725009562835482 1 1 1 1 1 1 1 1 1 1 1 1 1 1 1 1 1 1 1 1 1 1 1 1 1 0.010392593940721517 1 1 1 1 1 1 1 1 1 1 1 1 1 1 1 1 1 1 1 1 1 1 1 1 1 1 1 1 1 0.010053474536082664 1 1 0.010043006751965605 1 1 1 1 1 1 1 1 1 1 0.01002895066259318 1 1 1 1 1 1 1 1 1 1 1 1 1 1 1 1 1 1 1 1 1 1 1 1 1 1 1 1 1 1 1 1 1 1 1 1 1 1 1 1 1 1 1 1 1 1 1 0.010070773644200448 1 1 1 0.010012895417331084 1 1 1 1 1 1 1 1 1 1 1 1 1 1 1 1 1 1 1 1 1 1 1 1 1 1 1 1 1 1 0.010196502152812623 1 1 1 1 0.010325304384878694 1 1 1 1 1 1 1 1 1 1 1 1 1 1 1 0.010010332454103191 1 1 1 1 1 1 1 1 1 1 1 1 1 1 1 1 1 1 1 0.0099772051699335996 1 1 1 0.0099982196641716405 1 1 1 1 1 1 1 1 1 1 1 1 1 1 1 1 1 1 0.010056165509468416 1 1 1 1 1 0.010150352742670121 1 1 1 0.010061480917934016 1 1 1 1 1 1 1 1 1 1 0.0099445695313692961 1 1 1 1 1 1 1 1 1 1 1 1 1 1 1 0.010025497722265166 1 1 1 1 0.010077723686469255 1 1 1 1 1 1 1 1 1 1 1 1 0.0099375411243431168 1 1 0.0099655840256073353 1 1 1 1 1 1 0.010423512947308235 1 1 1 1 1 1 0.010255891445651037 1 0.010279943771441825 1 1 0.010281188504512956 1 0.010018355402392279 1 1 1 0.0099866844881741079 1 1 1 0.010235755598491924 1 1 1 0.010823321278583667 1 1 1 1 1 1 1 1 0.010019303390355512 1 1 0.010016681386006171 1 1 1 1 1 1 1 1 1 1 1 1 
</DataArray>
</CellData>
</Piece>
</UnstructuredGrid>
</VTKFile>
