<?xml version="1.0"?>
<VTKFile type="UnstructuredGrid" version="0.1" byte_order="LittleEndian">
<UnstructuredGrid>
<Piece NumberOfPoints="29971" NumberOfCells="10479">
<Points>
<DataArray type="Float64" NumberOfComponents="3" format="ascii">
-0.5 -0.5 0 -0.47667180158318623 -0.47876425912729931 0 -0.5 -0.43989996773298412 0 -0.5 -0.5 0 -0.47667180158318623 -0.47876425912729931 0 -0.43864636010920588 -0.5 0 -0.43864636010920588 -0.5 0 -0.45195722144859801 -0.46240628238328918 0 -0.42374156665668811 -0.47628906042119951 0 -0.47667180158318623 -0.47876425912729931 0 -0.43864636010920588 -0.5 0 -0.45195722144859801 -0.46240628238328918 0 -0.455466881120904 -0.4372987202930797 0 -0.43643387444078008 -0.42883277673949832 0 -0.42909439399616212 -0.45145189942443342 0 -0.455466881120904 -0.4372987202930797 0 -0.42909439399616212 -0.45145189942443342 0 -0.45195722144859801 -0.46240628238328918 0 -0.455466881120904 -0.4372987202930797 0 -0.42909439399616212 -0.45145189942443342 0 -0.45195722144859801 -0.46240628238328918 0 -0.46504301389962249 -0.44624181677099528 0 -0.47578387885950962 -0.4537461564169889 0 -0.47667180158318623 -0.47876425912729931 0 -0.45195722144859801 -0.46240628238328918 0 -0.47578387885950962 -0.4537461564169889 0 -0.45195722144859801 -0.46240628238328918 0 -0.46504301389962249 -0.44624181677099528 0 -0.455466881120904 -0.4372987202930797 0 -0.46504301389962249 -0.44624181677099528 0 -0.47186959727027472 -0.43505794208050907 0 -0.455466881120904 -0.4372987202930797 0 -0.47578387885950962 -0.4537461564169889 0 -0.47186959727027472 -0.43505794208050907 0 -0.47489595613583302 -0.42872805370667832 0 -0.47578387885950962 -0.4537461564169889 0 -0.47489595613583302 -0.42872805370667832 0 -0.46504301389962249 -0.44624181677099528 0 -0.47578387885950962 -0.4537461564169889 0 -0.47186959727027472 -0.43505794208050907 0 -0.47578387885950962 -0.4537461564169889 0 -0.5 -0.43989996773298412 0 -0.47489595613583302 -0.42872805370667832 0 -0.47667180158318623 -0.47876425912729931 0 -0.47578387885950962 -0.4537461564169889 0 -0.5 -0.43989996773298412 0 -0.47667180158318623 -0.47876425912729931 0 -0.47578387885950962 -0.4537461564169889 0 -0.5 -0.43989996773298412 0 -0.48064230659439228 -0.4073306226760563 0 -0.5 -0.39390733961494329 0 -0.5 -0.43989996773298412 0 -0.48064230659439228 -0.4073306226760563 0 -0.47489595613583302 -0.42872805370667832 0 -0.47489595613583302 -0.42872805370667832 0 -0.4740080334121573 -0.40370995099636803 0 -0.46713457572653022 -0.41804402240115812 0 -0.48064230659439228 -0.4073306226760563 0 -0.47489595613583302 -0.42872805370667832 0 -0.4740080334121573 -0.40370995099636803 0 -0.47489595613583302 -0.42872805370667832 0 -0.4740080334121573 -0.40370995099636803 0 -0.47186959727027472 -0.43505794208050907 0 -0.47489595613583302 -0.42872805370667832 0 -0.46713457572653022 -0.41804402240115812 0 -0.5 -0.39390733961494329 0 -0.48285875928396249 -0.39412573429909697 0 -0.48484966662368628 -0.37174628441182828 0 -0.48064230659439228 -0.4073306226760563 0 -0.5 -0.39390733961494329 0 -0.48285875928396249 -0.39412573429909697 0 -0.4740080334121573 -0.40370995099636803 0 -0.48285875928396249 -0.39412573429909697 0 -0.47340223230036188 -0.38664090429583692 0 -0.4740080334121573 -0.40370995099636803 0 -0.47340223230036188 -0.38664090429583692 0 -0.46749092184770108 -0.39336959226261858 0 -0.4740080334121573 -0.40370995099636803 0 -0.47340223230036188 -0.38664090429583692 0 -0.48064230659439228 -0.4073306226760563 0 -0.4740080334121573 -0.40370995099636803 0 -0.48285875928396249 -0.39412573429909697 0 -0.48064230659439228 -0.4073306226760563 0 -0.4740080334121573 -0.40370995099636803 0 -0.48285875928396249 -0.39412573429909697 0 -0.47340223230036188 -0.38664090429583692 0 -0.48484966662368628 -0.37174628441182828 0 -0.47340223230036188 -0.38664090429583692 0 -0.46529352246112421 -0.37999909927047221 0 -0.47386166008738478 -0.37158949175162709 0 -0.47340223230036188 -0.38664090429583692 0 -0.48484966662368628 -0.37174628441182828 0 -0.47386166008738478 -0.37158949175162709 0 -0.45753405095905991 -0.38096334164819928 0 -0.46529352246112421 -0.37999909927047221 0 -0.45795069614082701 -0.37310317303709611 0 -0.45753405095905991 -0.38096334164819928 0 -0.45795069614082701 -0.37310317303709611 0 -0.45753405095905991 -0.38096334164819928 0 -0.46529352246112421 -0.37999909927047221 0 -0.46451103528570892 -0.38728037312315899 0 -0.47340223230036188 -0.38664090429583692 0 -0.46451103528570892 -0.38728037312315899 0 -0.46749092184770108 -0.39336959226261858 0 -0.47340223230036188 -0.38664090429583692 0 -0.46529352246112421 -0.37999909927047221 0 -0.46451103528570892 -0.38728037312315899 0 -0.45753405095905991 -0.38096334164819928 0 -0.45883444886029728 -0.39542892813866781 0 -0.44366086430843421 -0.38714790528097298 0 -0.45753405095905991 -0.38096334164819928 0 -0.46451103528570892 -0.38728037312315899 0 -0.45883444886029728 -0.39542892813866781 0 -0.4740080334121573 -0.40370995099636803 0 -0.45883444886029728 -0.39542892813866781 0 -0.46749092184770108 -0.39336959226261858 0 -0.46451103528570892 -0.38728037312315899 0 -0.45883444886029728 -0.39542892813866781 0 -0.46749092184770108 -0.39336959226261858 0 -0.4740080334121573 -0.40370995099636803 0 -0.45883444886029728 -0.39542892813866781 0 -0.46035402320962038 -0.40696370259726877 0 -0.4740080334121573 -0.40370995099636803 0 -0.45883444886029728 -0.39542892813866781 0 -0.45883444886029728 -0.39542892813866781 0 -0.44987301768729671 -0.40078775420880941 0 -0.46035402320962038 -0.40696370259726877 0 -0.44987301768729671 -0.40078775420880941 0 -0.45192004036182087 -0.41684785724134049 0 -0.43197048345336708 -0.39863777240217202 0 -0.44987301768729671 -0.40078775420880941 0 -0.44366086430843421 -0.38714790528097298 0 -0.43197048345336708 -0.39863777240217202 0 -0.44366086430843421 -0.38714790528097298 0 -0.43197048345336708 -0.39863777240217202 0 -0.45883444886029728 -0.39542892813866781 0 -0.44987301768729671 -0.40078775420880941 0 -0.44366086430843421 -0.38714790528097298 0 -0.45883444886029728 -0.39542892813866781 0 -0.44366086430843421 -0.38714790528097298 0 -0.44366086430843421 -0.38714790528097298 0 -0.45795069614082701 -0.37310317303709611 0 -0.44501193458412641 -0.37074697587283773 0 -0.44366086430843421 -0.38714790528097298 0 -0.42469924077602689 -0.37679955039130619 0 -0.44501193458412641 -0.37074697587283773 0 -0.45753405095905991 -0.38096334164819928 0 -0.44366086430843421 -0.38714790528097298 0 -0.45795069614082701 -0.37310317303709611 0 -0.44366086430843421 -0.38714790528097298 0 -0.45795069614082701 -0.37310317303709611 0 -0.47186959727027472 -0.43505794208050907 0 -0.45192004036182087 -0.41684785724134049 0 -0.47186959727027472 -0.43505794208050907 0 -0.46713457572653022 -0.41804402240115812 0 -0.45192004036182087 -0.41684785724134049 0 -0.47186959727027472 -0.43505794208050907 0 -0.455466881120904 -0.4372987202930797 0 -0.45192004036182087 -0.41684785724134049 0 -0.44987301768729671 -0.40078775420880941 0 -0.46035402320962038 -0.40696370259726877 0 -0.45192004036182087 -0.41684785724134049 0 -0.4740080334121573 -0.40370995099636803 0 -0.46713457572653022 -0.41804402240115812 0 -0.46035402320962038 -0.40696370259726877 0 -0.46713457572653022 -0.41804402240115812 0 -0.46035402320962038 -0.40696370259726877 0 -0.45192004036182087 -0.41684785724134049 0 -0.45192004036182087 -0.41684785724134049 0 -0.43197048345336708 -0.39863777240217202 0 -0.45192004036182087 -0.41684785724134049 0 -0.43731422920290858 -0.41519459776977108 0 -0.43197048345336708 -0.39863777240217202 0 -0.45192004036182087 -0.41684785724134049 0 -0.43643387444078008 -0.42883277673949832 0 -0.43731422920290858 -0.41519459776977108 0 -0.455466881120904 -0.4372987202930797 0 -0.45192004036182087 -0.41684785724134049 0 -0.43643387444078008 -0.42883277673949832 0 -0.43643387444078008 -0.42883277673949832 0 -0.42461896476434752 -0.41892498694635633 0 -0.41965842300677031 -0.43436847920785948 0 -0.43731422920290858 -0.41519459776977108 0 -0.429700854569394 -0.41112347190871978 0 -0.42461896476434752 -0.41892498694635633 0 -0.43643387444078008 -0.42883277673949832 0 -0.43731422920290858 -0.41519459776977108 0 -0.42461896476434752 -0.41892498694635633 0 -0.43731422920290858 -0.41519459776977108 0 -0.429700854569394 -0.41112347190871978 0 -0.43197048345336708 -0.39863777240217202 0 -0.42416835989533203 -0.40861819247217579 0 -0.42250065298528611 -0.40794517607767339 0 -0.42461896476434752 -0.41892498694635633 0 -0.429700854569394 -0.41112347190871978 0 -0.42416835989533203 -0.40861819247217579 0 -0.42461896476434752 -0.41892498694635633 0 -0.42416835989533203 -0.40861819247217579 0 -0.42250065298528611 -0.40794517607767339 0 -0.42250065298528611 -0.40794517607767339 0 -0.40376839194436898 -0.4263561408621383 0 -0.42250065298528611 -0.40794517607767339 0 -0.42461896476434752 -0.41892498694635633 0 -0.40376839194436898 -0.4263561408621383 0 -0.42250065298528611 -0.40794517607767339 0 -0.39683156878216991 -0.39758621288307699 0 -0.40376839194436898 -0.4263561408621383 0 -0.42461896476434752 -0.41892498694635633 0 -0.41965842300677031 -0.43436847920785948 0 -0.40376839194436898 -0.4263561408621383 0 -0.41965842300677031 -0.43436847920785948 0 -0.40376839194436898 -0.4263561408621383 0 -0.40437648988819258 -0.44627659206687159 0 -0.44366086430843421 -0.38714790528097298 0 -0.42469924077602689 -0.37679955039130619 0 -0.42017486831373091 -0.38787065845529872 0 -0.44366086430843421 -0.38714790528097298 0 -0.42469924077602689 -0.37679955039130619 0 -0.44366086430843421 -0.38714790528097298 0 -0.43197048345336708 -0.39863777240217202 0 -0.42017486831373091 -0.38787065845529872 0 -0.43197048345336708 -0.39863777240217202 0 -0.42017486831373091 -0.38787065845529872 0 -0.43197048345336708 -0.39863777240217202 0 -0.42108728173015347 -0.39632963666229371 0 -0.42017486831373091 -0.38787065845529872 0 -0.42250065298528611 -0.40794517607767339 0 -0.43197048345336708 -0.39863777240217202 0 -0.42250065298528611 -0.40794517607767339 0 -0.43197048345336708 -0.39863777240217202 0 -0.42108728173015347 -0.39632963666229371 0 -0.429700854569394 -0.41112347190871978 0 -0.42416835989533203 -0.40861819247217579 0 -0.43197048345336708 -0.39863777240217202 0 -0.42416835989533203 -0.40861819247217579 0 -0.42250065298528611 -0.40794517607767339 0 -0.43197048345336708 -0.39863777240217202 0 -0.42250065298528611 -0.40794517607767339 0 -0.40970312216823201 -0.39086493971403208 0 -0.39683156878216991 -0.39758621288307699 0 -0.42250065298528611 -0.40794517607767339 0 -0.40970312216823201 -0.39086493971403208 0 -0.42108728173015347 -0.39632963666229371 0 -0.42250065298528611 -0.40794517607767339 0 -0.39683156878216991 -0.39758621288307699 0 -0.40970312216823201 -0.39086493971403208 0 -0.42108728173015347 -0.39632963666229371 0 -0.42017486831373091 -0.38787065845529872 0 -0.42469924077602689 -0.37679955039130619 0 -0.42017486831373091 -0.38787065845529872 0 -0.40837925317409463 -0.37710354450842531 0 -0.40970312216823201 -0.39086493971403208 0 -0.42017486831373091 -0.38787065845529872 0 -0.40837925317409463 -0.37710354450842531 0 -0.42017486831373091 -0.38787065845529872 0 -0.40837925317409463 -0.37710354450842531 0 -0.40970312216823201 -0.39086493971403208 0 -0.39683156878216991 -0.39758621288307699 0 -0.38845005091133511 -0.37683922259506231 0 -0.40970312216823201 -0.39086493971403208 0 -0.40837925317409463 -0.37710354450842531 0 -0.38845005091133511 -0.37683922259506231 0 -0.39683156878216991 -0.39758621288307699 0 -0.37116248457905432 -0.3872272496884791 0 -0.39683156878216991 -0.39758621288307699 0 -0.37764736076372207 -0.4065023630234384 0 -0.37116248457905432 -0.3872272496884791 0 -0.39683156878216991 -0.39758621288307699 0 -0.38845005091133511 -0.37683922259506231 0 -0.37116248457905432 -0.3872272496884791 0 -0.38845005091133511 -0.37683922259506231 0 -0.37116248457905432 -0.3872272496884791 0 -0.38845005091133511 -0.37683922259506231 0 -0.37069722331415988 -0.37558964454462601 0 -0.37116248457905432 -0.3872272496884791 0 -0.40376839194436898 -0.4263561408621383 0 -0.38545604849505438 -0.42193706899003419 0 -0.3850361309034529 -0.44476710564660432 0 -0.40376839194436898 -0.4263561408621383 0 -0.3850361309034529 -0.44476710564660432 0 -0.39683156878216991 -0.39758621288307699 0 -0.40376839194436898 -0.4263561408621383 0 -0.38545604849505438 -0.42193706899003419 0 -0.39683156878216991 -0.39758621288307699 0 -0.37764736076372207 -0.4065023630234384 0 -0.38545604849505438 -0.42193706899003419 0 -0.37764736076372207 -0.4065023630234384 0 -0.38545604849505438 -0.42193706899003419 0 -0.37162571945022332 -0.41708236300134771 0 -0.38545604849505438 -0.42193706899003419 0 -0.37333362651542967 -0.43328798802013829 0 -0.37162571945022332 -0.41708236300134771 0 -0.38545604849505438 -0.42193706899003419 0 -0.3850361309034529 -0.44476710564660432 0 -0.37333362651542967 -0.43328798802013829 0 -0.3850361309034529 -0.44476710564660432 0 -0.36681793551075681 -0.4452856484890369 0 -0.37333362651542967 -0.43328798802013829 0 -0.3850361309034529 -0.44476710564660432 0 -0.40437648988819258 -0.44627659206687159 0 -0.3845762691973787 -0.46344052476118469 0 -0.40376839194436898 -0.4263561408621383 0 -0.3850361309034529 -0.44476710564660432 0 -0.40437648988819258 -0.44627659206687159 0 -0.40437648988819258 -0.44627659206687159 0 -0.4027219068714204 -0.46560507855578692 0 -0.3845762691973787 -0.46344052476118469 0 -0.3850361309034529 -0.44476710564660432 0 -0.3845762691973787 -0.46344052476118469 0 -0.36630386986253682 -0.46317807043107029 0 -0.3850361309034529 -0.44476710564660432 0 -0.36630386986253682 -0.46317807043107029 0 -0.4027219068714204 -0.46560507855578692 0 -0.37634941974667868 -0.47975825768714048 0 -0.4027219068714204 -0.46560507855578692 0 -0.39182815333544718 -0.5 0 -0.42374156665668811 -0.47628906042119951 0 -0.4027219068714204 -0.46560507855578692 0 -0.3845762691973787 -0.46344052476118469 0 -0.37634941974667868 -0.47975825768714048 0 -0.4027219068714204 -0.46560507855578692 0 -0.39182815333544718 -0.5 0 -0.37634941974667868 -0.47975825768714048 0 -0.3845762691973787 -0.46344052476118469 0 -0.37634941974667868 -0.47975825768714048 0 -0.36630386986253682 -0.46317807043107029 0 -0.43864636010920588 -0.5 0 -0.39182815333544718 -0.5 0 -0.42374156665668811 -0.47628906042119951 0 -0.45195722144859801 -0.46240628238328918 0 -0.42374156665668811 -0.47628906042119951 0 -0.42909439399616212 -0.45145189942443342 0 -0.43643387444078008 -0.42883277673949832 0 -0.41965842300677031 -0.43436847920785948 0 -0.42909439399616212 -0.45145189942443342 0 -0.41965842300677031 -0.43436847920785948 0 -0.40437648988819258 -0.44627659206687159 0 -0.42909439399616212 -0.45145189942443342 0 -0.4027219068714204 -0.46560507855578692 0 -0.42374156665668811 -0.47628906042119951 0 -0.42909439399616212 -0.45145189942443342 0 -0.40437648988819258 -0.44627659206687159 0 -0.4027219068714204 -0.46560507855578692 0 -0.42909439399616212 -0.45145189942443342 0 -0.4027219068714204 -0.46560507855578692 0 -0.42909439399616212 -0.45145189942443342 0 -0.43927487560907968 -0.26001155852888652 0 -0.45928936195740799 -0.25024220660635982 0 -0.44847237959020703 -0.24783071556647349 0 -0.43927487560907968 -0.26001155852888652 0 -0.45928936195740799 -0.25024220660635982 0 -0.43927487560907968 -0.26001155852888652 0 -0.45238663529941131 -0.26148711034155753 0 -0.45636783539527531 -0.27468448729351158 0 -0.43927487560907968 -0.26001155852888652 0 -0.45238663529941131 -0.26148711034155753 0 -0.45928936195740799 -0.25024220660635982 0 -0.43927487560907968 -0.26001155852888652 0 -0.4412750237182782 -0.28527479271171607 0 -0.43927487560907968 -0.26001155852888652 0 -0.45636783539527531 -0.27468448729351158 0 -0.4412750237182782 -0.28527479271171607 0 -0.46418071873126332 -0.25557144543121929 0 -0.4627973633742552 -0.28166896636983901 0 -0.46418071873126332 -0.25557144543121929 0 -0.47103876241964049 -0.26773140927651329 0 -0.4627973633742552 -0.28166896636983901 0 -0.45636783539527531 -0.27468448729351158 0 -0.46418071873126332 -0.25557144543121929 0 -0.4627973633742552 -0.28166896636983901 0 -0.45636783539527531 -0.27468448729351158 0 -0.4627973633742552 -0.28166896636983901 0 -0.45238663529941131 -0.26148711034155753 0 -0.45636783539527531 -0.27468448729351158 0 -0.46418071873126332 -0.25557144543121929 0 -0.45238663529941131 -0.26148711034155753 0 -0.45928936195740799 -0.25024220660635982 0 -0.46418071873126332 -0.25557144543121929 0 -0.46418071873126332 -0.25557144543121929 0 -0.47636771767237862 -0.25750304348753872 0 -0.47930384830573691 -0.24047285468383381 0 -0.47636771767237862 -0.25750304348753872 0 -0.48812836472625931 -0.25507586270891369 0 -0.47930384830573691 -0.24047285468383381 0 -0.46418071873126332 -0.25557144543121929 0 -0.47636771767237862 -0.25750304348753872 0 -0.47103876241964049 -0.26773140927651329 0 -0.47636771767237862 -0.25750304348753872 0 -0.48058127788397281 -0.26811908908600879 0 -0.47103876241964049 -0.26773140927651329 0 -0.47636771767237862 -0.25750304348753872 0 -0.48812836472625931 -0.25507586270891369 0 -0.48058127788397281 -0.26811908908600879 0 -0.48812836472625931 -0.25507586270891369 0 -0.5 -0.26891418859363608 0 -0.5 -0.24232994797814361 0 -0.48812836472625931 -0.25507586270891369 0 -0.5 -0.26891418859363608 0 -0.48058127788397281 -0.26811908908600879 0 -0.5 -0.26891418859363608 0 -0.48058127788397281 -0.26811908908600879 0 -0.47966597786422782 -0.2847905928202078 0 -0.47352084538552403 -0.27557751438814221 0 -0.47966597786422782 -0.2847905928202078 0 -0.4627973633742552 -0.28166896636983901 0 -0.48058127788397281 -0.26811908908600879 0 -0.47352084538552403 -0.27557751438814221 0 -0.47966597786422782 -0.2847905928202078 0 -0.48058127788397281 -0.26811908908600879 0 -0.47103876241964049 -0.26773140927651329 0 -0.47352084538552403 -0.27557751438814221 0 -0.47103876241964049 -0.26773140927651329 0 -0.47352084538552403 -0.27557751438814221 0 -0.4627973633742552 -0.28166896636983901 0 -0.47966597786422782 -0.2847905928202078 0 -0.48139868168712691 -0.30187581809723041 0 -0.4627973633742552 -0.28166896636983901 0 -0.48139868168712691 -0.30187581809723041 0 -0.4627973633742552 -0.28166896636983901 0 -0.47966597786422782 -0.2847905928202078 0 -0.5 -0.29549842920912878 0 -0.48139868168712691 -0.30187581809723041 0 -0.5 -0.26891418859363608 0 -0.47966597786422782 -0.2847905928202078 0 -0.5 -0.29549842920912878 0 -0.5 -0.29549842920912878 0 -0.48139868168712691 -0.30187581809723041 0 -0.49999999999999922 -0.32208266982462141 0 -0.48139868168712691 -0.30187581809723041 0 -0.49999999999999922 -0.32208266982462141 0 -0.48139868168712691 -0.30187581809723041 0 -0.47159827791867581 -0.31579524359900418 0 -0.48284725447601362 -0.31443650923023381 0 -0.48139868168712691 -0.30187581809723041 0 -0.46159315958706149 -0.30438672532559752 0 -0.47159827791867581 -0.31579524359900418 0 -0.48139868168712691 -0.30187581809723041 0 -0.46159315958706149 -0.30438672532559752 0 -0.4627973633742552 -0.28166896636983901 0 -0.46159315958706149 -0.30438672532559752 0 -0.4627973633742552 -0.28166896636983901 0 -0.46159315958706149 -0.30438672532559752 0 -0.45330601827889577 -0.29192751837732428 0 -0.4627973633742552 -0.28166896636983901 0 -0.45636783539527531 -0.27468448729351158 0 -0.45330601827889577 -0.29192751837732428 0 -0.4627973633742552 -0.28166896636983901 0 -0.45330601827889577 -0.29192751837732428 0 -0.4412750237182782 -0.28527479271171607 0 -0.44327517182747422 -0.3105380268945459 0 -0.45636783539527531 -0.27468448729351158 0 -0.45330601827889577 -0.29192751837732428 0 -0.4412750237182782 -0.28527479271171607 0 -0.4412750237182782 -0.28527479271171607 0 -0.44327517182747422 -0.3105380268945459 0 -0.46159315958706149 -0.30438672532559752 0 -0.45330601827889577 -0.29192751837732428 0 -0.44327517182747422 -0.3105380268945459 0 -0.44327517182747422 -0.3105380268945459 0 -0.44514405424661402 -0.33414328592397419 0 -0.460388955799865 -0.32710448428135608 0 -0.44327517182747422 -0.3105380268945459 0 -0.460388955799865 -0.32710448428135608 0 -0.44327517182747422 -0.3105380268945459 0 -0.44514405424661402 -0.33414328592397419 0 -0.44327517182747422 -0.3105380268945459 0 -0.44514405424661402 -0.33414328592397419 0 -0.43250118102544749 -0.32205518350037438 0 -0.44514405424661402 -0.33414328592397419 0 -0.460388955799865 -0.32710448428135608 0 -0.45916982597034739 -0.35010382865922612 0 -0.46502683035061038 -0.33601964253279409 0 -0.460388955799865 -0.32710448428135608 0 -0.45916982597034739 -0.35010382865922612 0 -0.460388955799865 -0.32710448428135608 0 -0.45916982597034739 -0.35010382865922612 0 -0.46502683035061038 -0.33601964253279409 0 -0.46993133536522053 -0.34057462691894153 0 -0.45916982597034739 -0.35010382865922612 0 -0.46502683035061038 -0.33601964253279409 0 -0.47011763534720941 -0.33362923826247121 0 -0.46993133536522053 -0.34057462691894153 0 -0.46502683035061038 -0.33601964253279409 0 -0.46607250436318692 -0.32932570123930133 0 -0.460388955799865 -0.32710448428135608 0 -0.46502683035061038 -0.33601964253279409 0 -0.46607250436318692 -0.32932570123930133 0 -0.47011763534720941 -0.33362923826247121 0 -0.46159315958706149 -0.30438672532559752 0 -0.44327517182747422 -0.3105380268945459 0 -0.460388955799865 -0.32710448428135608 0 -0.46607250436318692 -0.32932570123930133 0 -0.46776450486102489 -0.32536163094492082 0 -0.47227238337211669 -0.3284496912814221 0 -0.46159315958706149 -0.30438672532559752 0 -0.460388955799865 -0.32710448428135608 0 -0.46159315958706149 -0.30438672532559752 0 -0.460388955799865 -0.32710448428135608 0 -0.47159827791867581 -0.31579524359900418 0 -0.46776450486102489 -0.32536163094492082 0 -0.460388955799865 -0.32710448428135608 0 -0.47159827791867581 -0.31579524359900418 0 -0.46607250436318692 -0.32932570123930133 0 -0.46776450486102489 -0.32536163094492082 0 -0.460388955799865 -0.32710448428135608 0 -0.47159827791867581 -0.31579524359900418 0 -0.47507555701130311 -0.32219439199297301 0 -0.48284725447601362 -0.31443650923023381 0 -0.46776450486102489 -0.32536163094492082 0 -0.47159827791867581 -0.31579524359900418 0 -0.47507555701130311 -0.32219439199297301 0 -0.47507555701130311 -0.32219439199297301 0 -0.48089536442868419 -0.3269288849092839 0 -0.47227238337211669 -0.3284496912814221 0 -0.46776450486102489 -0.32536163094492082 0 -0.47507555701130311 -0.32219439199297301 0 -0.47227238337211669 -0.3284496912814221 0 -0.47507555701130311 -0.32219439199297301 0 -0.48089536442868419 -0.3269288849092839 0 -0.48284725447601362 -0.31443650923023381 0 -0.48284725447601362 -0.31443650923023381 0 -0.49069331420992901 -0.325485645626794 0 -0.49999999999999922 -0.32208266982462141 0 -0.48139868168712691 -0.30187581809723041 0 -0.48284725447601362 -0.31443650923023381 0 -0.49999999999999922 -0.32208266982462141 0 -0.48089536442868419 -0.3269288849092839 0 -0.48284725447601362 -0.31443650923023381 0 -0.49069331420992901 -0.325485645626794 0 -0.49069331420992901 -0.325485645626794 0 -0.49999999999999922 -0.32208266982462141 0 -0.49999999999999362 -0.3317750999939465 0 -0.49999999999999362 -0.3317750999939465 0 -0.47897534807040848 -0.3524391365155195 0 -0.49999999999999362 -0.3317750999939465 0 -0.48556982999878689 -0.3340810592770882 0 -0.47897534807040848 -0.3524391365155195 0 -0.49069331420992901 -0.325485645626794 0 -0.49999999999999362 -0.3317750999939465 0 -0.48556982999878689 -0.3340810592770882 0 -0.48089536442868419 -0.3269288849092839 0 -0.49069331420992901 -0.325485645626794 0 -0.48556982999878689 -0.3340810592770882 0 -0.48556982999878689 -0.3340810592770882 0 -0.47728512328491263 -0.3337765293398971 0 -0.47897534807040848 -0.3524391365155195 0 -0.47728512328491263 -0.3337765293398971 0 -0.46993133536522053 -0.34057462691894153 0 -0.47897534807040848 -0.3524391365155195 0 -0.48089536442868419 -0.3269288849092839 0 -0.48556982999878689 -0.3340810592770882 0 -0.47728512328491263 -0.3337765293398971 0 -0.48089536442868419 -0.3269288849092839 0 -0.47728512328491263 -0.3337765293398971 0 -0.47227238337211669 -0.3284496912814221 0 -0.47728512328491263 -0.3337765293398971 0 -0.47011763534720941 -0.33362923826247121 0 -0.47227238337211669 -0.3284496912814221 0 -0.46607250436318692 -0.32932570123930133 0 -0.47011763534720941 -0.33362923826247121 0 -0.47227238337211669 -0.3284496912814221 0 -0.47728512328491263 -0.3337765293398971 0 -0.47011763534720941 -0.33362923826247121 0 -0.46993133536522053 -0.34057462691894153 0 -0.46993133536522053 -0.34057462691894153 0 -0.47897534807040848 -0.3524391365155195 0 -0.45916982597034739 -0.35010382865922612 0 -0.5 -0.39390733961494329 0 -0.49999999999999362 -0.3317750999939465 0 -0.48484966662368628 -0.37174628441182828 0 -0.49999999999999362 -0.3317750999939465 0 -0.47897534807040848 -0.3524391365155195 0 -0.48484966662368628 -0.37174628441182828 0 -0.47897534807040848 -0.3524391365155195 0 -0.48484966662368628 -0.37174628441182828 0 -0.47386166008738478 -0.37158949175162709 0 -0.47897534807040848 -0.3524391365155195 0 -0.47386166008738478 -0.37158949175162709 0 -0.45795069614082701 -0.37310317303709611 0 -0.46529352246112421 -0.37999909927047221 0 -0.47386166008738478 -0.37158949175162709 0 -0.45795069614082701 -0.37310317303709611 0 -0.45795069614082701 -0.37310317303709611 0 -0.45916982597034739 -0.35010382865922612 0 -0.44701293666575148 -0.35774854495340258 0 -0.45795069614082701 -0.37310317303709611 0 -0.45916982597034739 -0.35010382865922612 0 -0.47897534807040848 -0.3524391365155195 0 -0.45795069614082701 -0.37310317303709611 0 -0.47897534807040848 -0.3524391365155195 0 -0.45795069614082701 -0.37310317303709611 0 -0.45916982597034739 -0.35010382865922612 0 -0.44514405424661402 -0.33414328592397419 0 -0.44701293666575148 -0.35774854495340258 0 -0.434206860758519 -0.34934414484584703 0 -0.44514405424661402 -0.33414328592397419 0 -0.45916982597034739 -0.35010382865922612 0 -0.44701293666575148 -0.35774854495340258 0 -0.44514405424661402 -0.33414328592397419 0 -0.44701293666575148 -0.35774854495340258 0 -0.44701293666575148 -0.35774854495340258 0 -0.4341806423570983 -0.3625073772474281 0 -0.434206860758519 -0.34934414484584703 0 -0.44701293666575148 -0.35774854495340258 0 -0.44501193458412641 -0.37074697587283773 0 -0.4341806423570983 -0.3625073772474281 0 -0.45795069614082701 -0.37310317303709611 0 -0.44701293666575148 -0.35774854495340258 0 -0.44501193458412641 -0.37074697587283773 0 -0.42469924077602689 -0.37679955039130619 0 -0.44501193458412641 -0.37074697587283773 0 -0.4341806423570983 -0.3625073772474281 0 -0.42469924077602689 -0.37679955039130619 0 -0.4341806423570983 -0.3625073772474281 0 -0.41997223900106789 -0.35789767017374702 0 -0.434206860758519 -0.34934414484584703 0 -0.41997223900106789 -0.35789767017374702 0 -0.42034485918496628 -0.34239651555076522 0 -0.434206860758519 -0.34934414484584703 0 -0.41997223900106789 -0.35789767017374702 0 -0.4341806423570983 -0.3625073772474281 0 -0.434206860758519 -0.34934414484584703 0 -0.41997223900106789 -0.35789767017374702 0 -0.41997223900106789 -0.35789767017374702 0 -0.40573761724361601 -0.36645119550164568 0 -0.40278202337371122 -0.34764542229893269 0 -0.41997223900106789 -0.35789767017374702 0 -0.40278202337371122 -0.34764542229893269 0 -0.42034485918496628 -0.34239651555076522 0 -0.42469924077602689 -0.37679955039130619 0 -0.40837925317409463 -0.37710354450842531 0 -0.40573761724361601 -0.36645119550164568 0 -0.42469924077602689 -0.37679955039130619 0 -0.40573761724361601 -0.36645119550164568 0 -0.42469924077602689 -0.37679955039130619 0 -0.41997223900106789 -0.35789767017374702 0 -0.40573761724361601 -0.36645119550164568 0 -0.41997223900106789 -0.35789767017374702 0 -0.40573761724361601 -0.36645119550164568 0 -0.38845005091133511 -0.37683922259506231 0 -0.40573761724361601 -0.36645119550164568 0 -0.40837925317409463 -0.37710354450842531 0 -0.38845005091133511 -0.37683922259506231 0 -0.40573761724361601 -0.36645119550164568 0 -0.38845005091133511 -0.37683922259506231 0 -0.40573761724361601 -0.36645119550164568 0 -0.38486567592344401 -0.35506027975815763 0 -0.40573761724361601 -0.36645119550164568 0 -0.38486567592344401 -0.35506027975815763 0 -0.38845005091133511 -0.37683922259506231 0 -0.38486567592344401 -0.35506027975815763 0 -0.37069722331415988 -0.37558964454462601 0 -0.38486567592344401 -0.35506027975815763 0 -0.38287160189221492 -0.33401499094792642 0 -0.36399373460327061 -0.34366936401467191 0 -0.38486567592344401 -0.35506027975815763 0 -0.40278202337371122 -0.34764542229893269 0 -0.38287160189221492 -0.33401499094792642 0 -0.40573761724361601 -0.36645119550164568 0 -0.38486567592344401 -0.35506027975815763 0 -0.40278202337371122 -0.34764542229893269 0 -0.40278202337371122 -0.34764542229893269 0 -0.40485892086553782 -0.32859378452624749 0 -0.38287160189221492 -0.33401499094792642 0 -0.38287160189221492 -0.33401499094792642 0 -0.37695315330109608 -0.31478984838188279 0 -0.3943768139811713 -0.31421223421636668 0 -0.38287160189221492 -0.33401499094792642 0 -0.37695315330109608 -0.31478984838188279 0 -0.365433851594133 -0.32433558934731438 0 -0.40485892086553782 -0.32859378452624749 0 -0.3943768139811713 -0.31421223421636668 0 -0.41832805907686188 -0.30931753913066468 0 -0.40485892086553782 -0.32859378452624749 0 -0.38287160189221492 -0.33401499094792642 0 -0.3943768139811713 -0.31421223421636668 0 -0.40485892086553782 -0.32859378452624749 0 -0.42096929073984052 -0.32740433653451367 0 -0.41832805907686188 -0.30931753913066468 0 -0.40485892086553782 -0.32859378452624749 0 -0.42096929073984052 -0.32740433653451367 0 -0.42034485918496628 -0.34239651555076522 0 -0.40278202337371122 -0.34764542229893269 0 -0.40485892086553782 -0.32859378452624749 0 -0.42034485918496628 -0.34239651555076522 0 -0.42096929073984052 -0.32740433653451367 0 -0.42034485918496628 -0.34239651555076522 0 -0.43072643484231898 -0.33492977030578269 0 -0.42096929073984052 -0.32740433653451367 0 -0.43072643484231898 -0.33492977030578269 0 -0.43250118102544749 -0.32205518350037438 0 -0.434206860758519 -0.34934414484584703 0 -0.42034485918496628 -0.34239651555076522 0 -0.43072643484231898 -0.33492977030578269 0 -0.44514405424661402 -0.33414328592397419 0 -0.434206860758519 -0.34934414484584703 0 -0.43072643484231898 -0.33492977030578269 0 -0.44514405424661402 -0.33414328592397419 0 -0.43072643484231898 -0.33492977030578269 0 -0.43250118102544749 -0.32205518350037438 0 -0.42096929073984052 -0.32740433653451367 0 -0.43250118102544749 -0.32205518350037438 0 -0.41832805907686188 -0.30931753913066468 0 -0.44327517182747422 -0.3105380268945459 0 -0.43250118102544749 -0.32205518350037438 0 -0.41832805907686188 -0.30931753913066468 0 -0.44327517182747422 -0.3105380268945459 0 -0.42525515239586509 -0.29309431692924848 0 -0.44327517182747422 -0.3105380268945459 0 -0.42525515239586509 -0.29309431692924848 0 -0.41832805907686188 -0.30931753913066468 0 -0.4412750237182782 -0.28527479271171607 0 -0.44327517182747422 -0.3105380268945459 0 -0.42525515239586509 -0.29309431692924848 0 -0.4412750237182782 -0.28527479271171607 0 -0.42525515239586509 -0.29309431692924848 0 -0.42842179903423921 -0.27913000023266449 0 -0.42525515239586509 -0.29309431692924848 0 -0.40723513296425812 -0.27565060696394877 0 -0.42842179903423921 -0.27913000023266449 0 -0.42525515239586509 -0.29309431692924848 0 -0.40321770671161639 -0.30021507727439573 0 -0.40723513296425812 -0.27565060696394877 0 -0.42525515239586509 -0.29309431692924848 0 -0.40723513296425812 -0.27565060696394877 0 -0.42525515239586509 -0.29309431692924848 0 -0.41832805907686188 -0.30931753913066468 0 -0.40321770671161639 -0.30021507727439573 0 -0.40321770671161639 -0.30021507727439573 0 -0.38535282425943601 -0.30076392483652747 0 -0.39312742664599759 -0.29442794546026307 0 -0.3943768139811713 -0.31421223421636668 0 -0.41832805907686188 -0.30931753913066468 0 -0.40321770671161639 -0.30021507727439573 0 -0.3943768139811713 -0.31421223421636668 0 -0.40321770671161639 -0.30021507727439573 0 -0.38535282425943601 -0.30076392483652747 0 -0.37695315330109608 -0.31478984838188279 0 -0.3943768139811713 -0.31421223421636668 0 -0.38535282425943601 -0.30076392483652747 0 -0.38535282425943601 -0.30076392483652747 0 -0.37506158653380478 -0.30432247760779529 0 -0.37190270743217529 -0.29268659975832467 0 -0.37695315330109608 -0.31478984838188279 0 -0.38535282425943601 -0.30076392483652747 0 -0.37506158653380478 -0.30432247760779529 0 -0.38431086697999961 -0.28684026319934408 0 -0.38704152449954449 -0.2720630422974446 0 -0.37190270743217529 -0.29268659975832467 0 -0.38704152449954449 -0.2720630422974446 0 -0.37190270743217529 -0.29268659975832467 0 -0.38535282425943601 -0.30076392483652747 0 -0.38431086697999961 -0.28684026319934408 0 -0.37190270743217529 -0.29268659975832467 0 -0.38535282425943601 -0.30076392483652747 0 -0.38431086697999961 -0.28684026319934408 0 -0.39312742664599759 -0.29442794546026307 0 -0.40321770671161639 -0.30021507727439573 0 -0.39312742664599759 -0.29442794546026307 0 -0.40723513296425812 -0.27565060696394877 0 -0.38431086697999961 -0.28684026319934408 0 -0.39312742664599759 -0.29442794546026307 0 -0.40723513296425812 -0.27565060696394877 0 -0.38431086697999961 -0.28684026319934408 0 -0.40723513296425812 -0.27565060696394877 0 -0.38431086697999961 -0.28684026319934408 0 -0.38704152449954449 -0.2720630422974446 0 -0.40723513296425812 -0.27565060696394877 0 -0.38735365256818771 -0.25640496857681327 0 -0.40723513296425812 -0.27565060696394877 0 -0.38704152449954449 -0.2720630422974446 0 -0.38735365256818771 -0.25640496857681327 0 -0.40723513296425812 -0.27565060696394877 0 -0.37715706516706071 -0.27537336479094388 0 -0.38735365256818771 -0.25640496857681327 0 -0.38704152449954449 -0.2720630422974446 0 -0.37715706516706071 -0.27537336479094388 0 -0.37190270743217529 -0.29268659975832467 0 -0.38704152449954449 -0.2720630422974446 0 -0.37715706516706071 -0.27537336479094388 0 -0.38735365256818771 -0.25640496857681327 0 -0.38735365256818771 -0.25640496857681327 0 -0.37166443823121459 -0.26078658698159662 0 -0.37176744018693869 -0.241317228562551 0 -0.37715706516706071 -0.27537336479094388 0 -0.38735365256818771 -0.25640496857681327 0 -0.37166443823121459 -0.26078658698159662 0 -0.38735365256818771 -0.25640496857681327 0 -0.40954989830364158 -0.25378595709655738 0 -0.40723513296425812 -0.27565060696394877 0 -0.40954989830364158 -0.25378595709655738 0 -0.42325500428666868 -0.2678310827464172 0 -0.42526550406559183 -0.25163026709429731 0 -0.40723513296425812 -0.27565060696394877 0 -0.42325500428666868 -0.2678310827464172 0 -0.42842179903423921 -0.27913000023266449 0 -0.40723513296425812 -0.27565060696394877 0 -0.42325500428666868 -0.2678310827464172 0 -0.40954989830364158 -0.25378595709655738 0 -0.40723513296425812 -0.27565060696394877 0 -0.42325500428666868 -0.2678310827464172 0 -0.43927487560907968 -0.26001155852888652 0 -0.42325500428666868 -0.2678310827464172 0 -0.42842179903423921 -0.27913000023266449 0 -0.43927487560907968 -0.26001155852888652 0 -0.4412750237182782 -0.28527479271171607 0 -0.42842179903423921 -0.27913000023266449 0 -0.43927487560907968 -0.26001155852888652 0 -0.42325500428666868 -0.2678310827464172 0 -0.43927487560907968 -0.26001155852888652 0 -0.42526550406559183 -0.25163026709429731 0 -0.43768109130161581 -0.23988097619288609 0 -0.43927487560907968 -0.26001155852888652 0 -0.42325500428666868 -0.2678310827464172 0 -0.42526550406559183 -0.25163026709429731 0 -0.32493017335586422 -0.25814995515877809 0 -0.31131109027894949 -0.27106912997921773 0 -0.30846408808500381 -0.2499303869099207 0 -0.33142833581300829 -0.2793816384384325 0 -0.31593129883307031 -0.28998736258969859 0 -0.31131109027894949 -0.27106912997921773 0 -0.32493017335586422 -0.25814995515877809 0 -0.33142833581300829 -0.2793816384384325 0 -0.31131109027894949 -0.27106912997921773 0 -0.33142833581300829 -0.2793816384384325 0 -0.34221528556533048 -0.26203858217678999 0 -0.35547604703642838 -0.2774300718106294 0 -0.32493017335586422 -0.25814995515877809 0 -0.33142833581300829 -0.2793816384384325 0 -0.34221528556533048 -0.26203858217678999 0 -0.32493017335586422 -0.25814995515877809 0 -0.34221528556533048 -0.26203858217678999 0 -0.34294106032841909 -0.24179406536881409 0 -0.34221528556533048 -0.26203858217678999 0 -0.3569482669838222 -0.25662797097489809 0 -0.34294106032841909 -0.24179406536881409 0 -0.34221528556533048 -0.26203858217678999 0 -0.3569482669838222 -0.25662797097489809 0 -0.35547604703642838 -0.2774300718106294 0 -0.3569482669838222 -0.25662797097489809 0 -0.37166443823121459 -0.26078658698159662 0 -0.37176744018693869 -0.241317228562551 0 -0.3569482669838222 -0.25662797097489809 0 -0.37166443823121459 -0.26078658698159662 0 -0.35547604703642838 -0.2774300718106294 0 -0.37715706516706071 -0.27537336479094388 0 -0.37166443823121459 -0.26078658698159662 0 -0.35547604703642838 -0.2774300718106294 0 -0.35547604703642838 -0.2774300718106294 0 -0.36696047776593338 -0.29434176100507442 0 -0.35429321618110732 -0.29975721014164303 0 -0.35547604703642838 -0.2774300718106294 0 -0.35429321618110732 -0.29975721014164303 0 -0.34215899644652809 -0.29323437970983501 0 -0.37715706516706071 -0.27537336479094388 0 -0.35547604703642838 -0.2774300718106294 0 -0.36696047776593338 -0.29434176100507442 0 -0.37715706516706071 -0.27537336479094388 0 -0.36696047776593338 -0.29434176100507442 0 -0.37190270743217529 -0.29268659975832467 0 -0.37715706516706071 -0.27537336479094388 0 -0.36696047776593338 -0.29434176100507442 0 -0.37190270743217529 -0.29268659975832467 0 -0.36831293021586281 -0.30964910674620211 0 -0.35676389036480621 -0.31331015721920491 0 -0.36696047776593338 -0.29434176100507442 0 -0.37190270743217529 -0.29268659975832467 0 -0.35676389036480621 -0.31331015721920491 0 -0.36696047776593338 -0.29434176100507442 0 -0.35676389036480621 -0.31331015721920491 0 -0.37190270743217529 -0.29268659975832467 0 -0.35676389036480621 -0.31331015721920491 0 -0.37506158653380478 -0.30432247760779529 0 -0.37190270743217529 -0.29268659975832467 0 -0.36831293021586281 -0.30964910674620211 0 -0.37695315330109608 -0.31478984838188279 0 -0.37506158653380478 -0.30432247760779529 0 -0.36831293021586281 -0.30964910674620211 0 -0.35429321618110732 -0.29975721014164303 0 -0.34233477210447188 -0.30891654215275788 0 -0.34215899644652809 -0.29323437970983501 0 -0.36696047776593338 -0.29434176100507442 0 -0.35429321618110732 -0.29975721014164303 0 -0.35676389036480621 -0.31331015721920491 0 -0.35429321618110732 -0.29975721014164303 0 -0.34233477210447188 -0.30891654215275788 0 -0.35676389036480621 -0.31331015721920491 0 -0.34233477210447188 -0.30891654215275788 0 -0.34215899644652809 -0.29323437970983501 0 -0.32755986325805603 -0.3001745311429781 0 -0.34233477210447188 -0.30891654215275788 0 -0.32755986325805603 -0.3001745311429781 0 -0.3250682681681018 -0.31721553642426509 0 -0.33142833581300829 -0.2793816384384325 0 -0.34215899644652809 -0.29323437970983501 0 -0.32755986325805603 -0.3001745311429781 0 -0.33142833581300829 -0.2793816384384325 0 -0.35547604703642838 -0.2774300718106294 0 -0.34215899644652809 -0.29323437970983501 0 -0.33142833581300829 -0.2793816384384325 0 -0.31593129883307031 -0.28998736258969859 0 -0.32755986325805603 -0.3001745311429781 0 -0.31593129883307031 -0.28998736258969859 0 -0.32755986325805603 -0.3001745311429781 0 -0.30740147543497592 -0.30418343910944579 0 -0.32755986325805603 -0.3001745311429781 0 -0.3250682681681018 -0.31721553642426509 0 -0.30740147543497592 -0.30418343910944579 0 -0.3250682681681018 -0.31721553642426509 0 -0.32606074280784092 -0.33063850505293407 0 -0.30758750583812522 -0.32177149715186698 0 -0.3250682681681018 -0.31721553642426509 0 -0.30758750583812522 -0.32177149715186698 0 -0.30740147543497592 -0.30418343910944579 0 -0.31371455494841111 -0.33819912596208601 0 -0.33722881094201951 -0.3399227274871317 0 -0.32179808897152901 -0.34576439227718408 0 -0.32606074280784092 -0.33063850505293407 0 -0.31371455494841111 -0.33819912596208601 0 -0.30758750583812522 -0.32177149715186698 0 -0.31371455494841111 -0.33819912596208601 0 -0.33722881094201951 -0.3399227274871317 0 -0.32606074280784092 -0.33063850505293407 0 -0.31371455494841111 -0.33819912596208601 0 -0.33722881094201951 -0.3399227274871317 0 -0.32606074280784092 -0.33063850505293407 0 -0.34293875620185899 -0.3321440890611097 0 -0.3469963506534135 -0.32661644235316872 0 -0.32606074280784092 -0.33063850505293407 0 -0.33722881094201951 -0.3399227274871317 0 -0.34293875620185899 -0.3321440890611097 0 -0.33722881094201951 -0.3399227274871317 0 -0.34293875620185899 -0.3321440890611097 0 -0.34382107920352561 -0.34040594259000528 0 -0.33722881094201951 -0.3399227274871317 0 -0.34293875620185899 -0.3321440890611097 0 -0.33722881094201951 -0.3399227274871317 0 -0.34382107920352561 -0.34040594259000528 0 -0.33722881094201951 -0.3399227274871317 0 -0.34382107920352561 -0.34040594259000528 0 -0.34031085794352911 -0.34586205026714001 0 -0.3250682681681018 -0.31721553642426509 0 -0.32606074280784092 -0.33063850505293407 0 -0.3469963506534135 -0.32661644235316872 0 -0.34233477210447188 -0.30891654215275788 0 -0.3250682681681018 -0.31721553642426509 0 -0.3469963506534135 -0.32661644235316872 0 -0.34233477210447188 -0.30891654215275788 0 -0.3469963506534135 -0.32661644235316872 0 -0.35676389036480621 -0.31331015721920491 0 -0.3469963506534135 -0.32661644235316872 0 -0.35676389036480621 -0.31331015721920491 0 -0.34794184212947887 -0.32972154073064902 0 -0.35676389036480621 -0.31331015721920491 0 -0.34794184212947887 -0.32972154073064902 0 -0.35676389036480621 -0.31331015721920491 0 -0.365433851594133 -0.32433558934731438 0 -0.34794184212947887 -0.32972154073064902 0 -0.3469963506534135 -0.32661644235316872 0 -0.35676389036480621 -0.31331015721920491 0 -0.36831293021586281 -0.30964910674620211 0 -0.35676389036480621 -0.31331015721920491 0 -0.365433851594133 -0.32433558934731438 0 -0.37695315330109608 -0.31478984838188279 0 -0.36831293021586281 -0.30964910674620211 0 -0.365433851594133 -0.32433558934731438 0 -0.38287160189221492 -0.33401499094792642 0 -0.365433851594133 -0.32433558934731438 0 -0.36399373460327061 -0.34366936401467191 0 -0.34293875620185899 -0.3321440890611097 0 -0.36399373460327061 -0.34366936401467191 0 -0.34794184212947887 -0.32972154073064902 0 -0.34293875620185899 -0.3321440890611097 0 -0.36399373460327061 -0.34366936401467191 0 -0.34382107920352561 -0.34040594259000528 0 -0.365433851594133 -0.32433558934731438 0 -0.36399373460327061 -0.34366936401467191 0 -0.34794184212947887 -0.32972154073064902 0 -0.34293875620185899 -0.3321440890611097 0 -0.36399373460327061 -0.34366936401467191 0 -0.34293875620185899 -0.3321440890611097 0 -0.3469963506534135 -0.32661644235316872 0 -0.34293875620185899 -0.3321440890611097 0 -0.3469963506534135 -0.32661644235316872 0 -0.34794184212947887 -0.32972154073064902 0 -0.34382107920352561 -0.34040594259000528 0 -0.35025194310668201 -0.34866196467044869 0 -0.34031085794352911 -0.34586205026714001 0 -0.36399373460327061 -0.34366936401467191 0 -0.34382107920352561 -0.34040594259000528 0 -0.35025194310668201 -0.34866196467044869 0 -0.35025194310668201 -0.34866196467044869 0 -0.34180825108357832 -0.35205323172875719 0 -0.34031085794352911 -0.34586205026714001 0 -0.35055180834032268 -0.35663127301696151 0 -0.34256732375781401 -0.36069290738691567 0 -0.34180825108357832 -0.35205323172875719 0 -0.35025194310668201 -0.34866196467044869 0 -0.35055180834032268 -0.35663127301696151 0 -0.34180825108357832 -0.35205323172875719 0 -0.35055180834032268 -0.35663127301696151 0 -0.36168243879706741 -0.35459356857072921 0 -0.35664214283280038 -0.36363243150507529 0 -0.35025194310668201 -0.34866196467044869 0 -0.35055180834032268 -0.35663127301696151 0 -0.36168243879706741 -0.35459356857072921 0 -0.36399373460327061 -0.34366936401467191 0 -0.35025194310668201 -0.34866196467044869 0 -0.36168243879706741 -0.35459356857072921 0 -0.38486567592344401 -0.35506027975815763 0 -0.36168243879706741 -0.35459356857072921 0 -0.36662236543272481 -0.36401327569629471 0 -0.38486567592344401 -0.35506027975815763 0 -0.36399373460327061 -0.34366936401467191 0 -0.38486567592344401 -0.35506027975815763 0 -0.36399373460327061 -0.34366936401467191 0 -0.36168243879706741 -0.35459356857072921 0 -0.38486567592344401 -0.35506027975815763 0 -0.36662236543272481 -0.36401327569629471 0 -0.37069722331415988 -0.37558964454462601 0 -0.36168243879706741 -0.35459356857072921 0 -0.36662236543272481 -0.36401327569629471 0 -0.35664214283280038 -0.36363243150507529 0 -0.36662236543272481 -0.36401327569629471 0 -0.36141861518884572 -0.37154795295654031 0 -0.35664214283280038 -0.36363243150507529 0 -0.36662236543272481 -0.36401327569629471 0 -0.36141861518884572 -0.37154795295654031 0 -0.37069722331415988 -0.37558964454462601 0 -0.36141861518884572 -0.37154795295654031 0 -0.35746491131048508 -0.3748980989445474 0 -0.3620666039186089 -0.37818891986422148 0 -0.35468339920293912 -0.37112389061674472 0 -0.35664214283280038 -0.36363243150507529 0 -0.34848647792219661 -0.36846283261539908 0 -0.36141861518884572 -0.37154795295654031 0 -0.35746491131048508 -0.3748980989445474 0 -0.35468339920293912 -0.37112389061674472 0 -0.36141861518884572 -0.37154795295654031 0 -0.35468339920293912 -0.37112389061674472 0 -0.35664214283280038 -0.36363243150507529 0 -0.3541296047652257 -0.37470374743249102 0 -0.35082123983483238 -0.37331921136450708 0 -0.35197246123060938 -0.3767000150573066 0 -0.3541296047652257 -0.37470374743249102 0 -0.35468339920293912 -0.37112389061674472 0 -0.35082123983483238 -0.37331921136450708 0 -0.35746491131048508 -0.3748980989445474 0 -0.3541296047652257 -0.37470374743249102 0 -0.35468339920293912 -0.37112389061674472 0 -0.35664214283280038 -0.36363243150507529 0 -0.34956193821328341 -0.36235486113108778 0 -0.34848647792219661 -0.36846283261539908 0 -0.35055180834032268 -0.35663127301696151 0 -0.35664214283280038 -0.36363243150507529 0 -0.34956193821328341 -0.36235486113108778 0 -0.35055180834032268 -0.35663127301696151 0 -0.34956193821328341 -0.36235486113108778 0 -0.34256732375781401 -0.36069290738691567 0 -0.34956193821328341 -0.36235486113108778 0 -0.34848647792219661 -0.36846283261539908 0 -0.34256732375781401 -0.36069290738691567 0 -0.35082123983483238 -0.37331921136450708 0 -0.34848647792219661 -0.36846283261539908 0 -0.34691100433335842 -0.37683972648634317 0 -0.34848647792219661 -0.36846283261539908 0 -0.33732074044514221 -0.37067880783893398 0 -0.34691100433335842 -0.37683972648634317 0 -0.35468339920293912 -0.37112389061674472 0 -0.35082123983483238 -0.37331921136450708 0 -0.34848647792219661 -0.36846283261539908 0 -0.33732074044514221 -0.37067880783893398 0 -0.34256732375781401 -0.36069290738691567 0 -0.32923459522423548 -0.35081321955641098 0 -0.33732074044514221 -0.37067880783893398 0 -0.32923459522423548 -0.35081321955641098 0 -0.32658902817312191 -0.37152764566808349 0 -0.33732074044514221 -0.37067880783893398 0 -0.32923459522423548 -0.35081321955641098 0 -0.34848647792219661 -0.36846283261539908 0 -0.33732074044514221 -0.37067880783893398 0 -0.34256732375781401 -0.36069290738691567 0 -0.34256732375781401 -0.36069290738691567 0 -0.34180825108357832 -0.35205323172875719 0 -0.32923459522423548 -0.35081321955641098 0 -0.34180825108357832 -0.35205323172875719 0 -0.34031085794352911 -0.34586205026714001 0 -0.32923459522423548 -0.35081321955641098 0 -0.33722881094201951 -0.3399227274871317 0 -0.32923459522423548 -0.35081321955641098 0 -0.33722881094201951 -0.3399227274871317 0 -0.32923459522423548 -0.35081321955641098 0 -0.32179808897152901 -0.34576439227718408 0 -0.33722881094201951 -0.3399227274871317 0 -0.34031085794352911 -0.34586205026714001 0 -0.32923459522423548 -0.35081321955641098 0 -0.32923459522423548 -0.35081321955641098 0 -0.31990001292329329 -0.35436816985057928 0 -0.31930587350118927 -0.36433908238024221 0 -0.32923459522423548 -0.35081321955641098 0 -0.32499911311870838 -0.35033482285718781 0 -0.31990001292329329 -0.35436816985057928 0 -0.32923459522423548 -0.35081321955641098 0 -0.31930587350118927 -0.36433908238024221 0 -0.32499911311870838 -0.35033482285718781 0 -0.32179808897152901 -0.34576439227718408 0 -0.31990001292329329 -0.35436816985057928 0 -0.32923459522423548 -0.35081321955641098 0 -0.32499911311870838 -0.35033482285718781 0 -0.32179808897152901 -0.34576439227718408 0 -0.31371455494841111 -0.33819912596208601 0 -0.32179808897152901 -0.34576439227718408 0 -0.30744456945950072 -0.34733091927718118 0 -0.32179808897152901 -0.34576439227718408 0 -0.31990001292329329 -0.35436816985057928 0 -0.30744456945950072 -0.34733091927718118 0 -0.31990001292329329 -0.35436816985057928 0 -0.31930587350118927 -0.36433908238024221 0 -0.30586051575675721 -0.35867185697741388 0 -0.32923459522423548 -0.35081321955641098 0 -0.31930587350118927 -0.36433908238024221 0 -0.32658902817312191 -0.37152764566808349 0 -0.31930587350118927 -0.36433908238024221 0 -0.30618533126596897 -0.3703619091993518 0 -0.3168504879237799 -0.37621688365847178 0 -0.31930587350118927 -0.36433908238024221 0 -0.32658902817312191 -0.37152764566808349 0 -0.3168504879237799 -0.37621688365847178 0 -0.30618533126596897 -0.3703619091993518 0 -0.29333178025471718 -0.36561230575091908 0 -0.30028841299509562 -0.3814691916340105 0 -0.30618533126596897 -0.3703619091993518 0 -0.30586051575675721 -0.35867185697741388 0 -0.29333178025471718 -0.36561230575091908 0 -0.31930587350118927 -0.36433908238024221 0 -0.30618533126596897 -0.3703619091993518 0 -0.30586051575675721 -0.35867185697741388 0 -0.30744456945950072 -0.34733091927718118 0 -0.29408136306095167 -0.35160064124560741 0 -0.29020029895480243 -0.33647552443704343 0 -0.31990001292329329 -0.35436816985057928 0 -0.30586051575675721 -0.35867185697741388 0 -0.30744456945950072 -0.34733091927718118 0 -0.30586051575675721 -0.35867185697741388 0 -0.29408136306095167 -0.35160064124560741 0 -0.29333178025471718 -0.36561230575091908 0 -0.30586051575675721 -0.35867185697741388 0 -0.30744456945950072 -0.34733091927718118 0 -0.29408136306095167 -0.35160064124560741 0 -0.29408136306095167 -0.35160064124560741 0 -0.29333178025471718 -0.36561230575091908 0 -0.27782925660093438 -0.35516473620224809 0 -0.29408136306095167 -0.35160064124560741 0 -0.27782925660093438 -0.35516473620224809 0 -0.29020029895480243 -0.33647552443704343 0 -0.29333178025471718 -0.36561230575091908 0 -0.27782925660093438 -0.35516473620224809 0 -0.28193934131677689 -0.37801630691914029 0 -0.26200821449927908 -0.37032744707501741 0 -0.27782925660093438 -0.35516473620224809 0 -0.28193934131677689 -0.37801630691914029 0 -0.26200821449927908 -0.37032744707501741 0 -0.24707346737064151 -0.37478657436052493 0 -0.24318533217749419 -0.36146883500207871 0 -0.26200821449927908 -0.37032744707501741 0 -0.25507332585313719 -0.35039505893935469 0 -0.24318533217749419 -0.36146883500207871 0 -0.26200821449927908 -0.37032744707501741 0 -0.25507332585313719 -0.35039505893935469 0 -0.27782925660093438 -0.35516473620224809 0 -0.25507332585313719 -0.35039505893935469 0 -0.27782925660093438 -0.35516473620224809 0 -0.26668604296119369 -0.33475192291200079 0 -0.26668604296119369 -0.33475192291200079 0 -0.27209831235491722 -0.31534752014298351 0 -0.29020029895480243 -0.33647552443704343 0 -0.26668604296119369 -0.33475192291200079 0 -0.29020029895480243 -0.33647552443704343 0 -0.27782925660093438 -0.35516473620224809 0 -0.26668604296119369 -0.33475192291200079 0 -0.29020029895480243 -0.33647552443704343 0 -0.25507332585313719 -0.35039505893935469 0 -0.26668604296119369 -0.33475192291200079 0 -0.2431717869675849 -0.3330283213869582 0 -0.26668604296119369 -0.33475192291200079 0 -0.2431717869675849 -0.3330283213869582 0 -0.26668604296119369 -0.33475192291200079 0 -0.2431717869675849 -0.3330283213869582 0 -0.24906769594763661 -0.31374181271971913 0 -0.26668604296119369 -0.33475192291200079 0 -0.27209831235491722 -0.31534752014298351 0 -0.24906769594763661 -0.31374181271971913 0 -0.29020029895480243 -0.33647552443704343 0 -0.30758750583812522 -0.32177149715186698 0 -0.29035517049190251 -0.306832202311072 0 -0.27209831235491722 -0.31534752014298351 0 -0.29020029895480243 -0.33647552443704343 0 -0.29035517049190251 -0.306832202311072 0 -0.31371455494841111 -0.33819912596208601 0 -0.29020029895480243 -0.33647552443704343 0 -0.31371455494841111 -0.33819912596208601 0 -0.30744456945950072 -0.34733091927718118 0 -0.29020029895480243 -0.33647552443704343 0 -0.31371455494841111 -0.33819912596208601 0 -0.29020029895480243 -0.33647552443704343 0 -0.30758750583812522 -0.32177149715186698 0 -0.30740147543497592 -0.30418343910944579 0 -0.29639957841636239 -0.28420249014279769 0 -0.29035517049190251 -0.306832202311072 0 -0.30758750583812522 -0.32177149715186698 0 -0.30740147543497592 -0.30418343910944579 0 -0.29035517049190251 -0.306832202311072 0 -0.31593129883307031 -0.28998736258969859 0 -0.30740147543497592 -0.30418343910944579 0 -0.29639957841636239 -0.28420249014279769 0 -0.31593129883307031 -0.28998736258969859 0 -0.29639957841636239 -0.28420249014279769 0 -0.31131109027894949 -0.27106912997921773 0 -0.29639957841636239 -0.28420249014279769 0 -0.27959808404326159 -0.29018948483269907 0 -0.28627585678245232 -0.27273279541404932 0 -0.29639957841636239 -0.28420249014279769 0 -0.29035517049190251 -0.306832202311072 0 -0.27959808404326159 -0.29018948483269907 0 -0.27209831235491722 -0.31534752014298351 0 -0.26089877128844191 -0.29197719091332591 0 -0.27959808404326159 -0.29018948483269907 0 -0.27209831235491722 -0.31534752014298351 0 -0.29035517049190251 -0.306832202311072 0 -0.27959808404326159 -0.29018948483269907 0 -0.27209831235491722 -0.31534752014298351 0 -0.26089877128844191 -0.29197719091332591 0 -0.24906769594763661 -0.31374181271971913 0 -0.26089877128844191 -0.29197719091332591 0 -0.27959808404326159 -0.29018948483269907 0 -0.27156081492549311 -0.27004471007196629 0 -0.27959808404326159 -0.29018948483269907 0 -0.27156081492549311 -0.27004471007196629 0 -0.28627585678245232 -0.27273279541404932 0 -0.27156081492549311 -0.27004471007196629 0 -0.26060555751895093 -0.25919251759619599 0 -0.24801855443892409 -0.27145379452393908 0 -0.26089877128844191 -0.29197719091332591 0 -0.27156081492549311 -0.27004471007196629 0 -0.24801855443892409 -0.27145379452393908 0 -0.26060555751895093 -0.25919251759619599 0 -0.27267174260738569 -0.24767498376580641 0 -0.25017111810400061 -0.2475965820230723 0 -0.26060555751895093 -0.25919251759619599 0 -0.24801855443892409 -0.27145379452393908 0 -0.25017111810400061 -0.2475965820230723 0 -0.27156081492549311 -0.27004471007196629 0 -0.26060555751895093 -0.25919251759619599 0 -0.27267174260738569 -0.24767498376580641 0 -0.27156081492549311 -0.27004471007196629 0 -0.29256211388443393 -0.25878551580333797 0 -0.27267174260738569 -0.24767498376580641 0 -0.29639957841636239 -0.28420249014279769 0 -0.29256211388443393 -0.25878551580333797 0 -0.28627585678245232 -0.27273279541404932 0 -0.27156081492549311 -0.27004471007196629 0 -0.29256211388443393 -0.25878551580333797 0 -0.28627585678245232 -0.27273279541404932 0 -0.29639957841636239 -0.28420249014279769 0 -0.29256211388443393 -0.25878551580333797 0 -0.31131109027894949 -0.27106912997921773 0 -0.29256211388443393 -0.25878551580333797 0 -0.31131109027894949 -0.27106912997921773 0 -0.30846408808500381 -0.2499303869099207 0 -0.39182815333544718 -0.5 0 -0.32883934778070378 -0.50000000000000155 0 -0.34757160882162069 -0.48158903521553631 0 -0.33379104289660089 -0.46018166051229409 0 -0.33526064117828552 -0.44191347614067339 0 -0.35249317808573372 -0.4465205281434057 0 -0.33526064117828552 -0.44191347614067339 0 -0.32192379385081049 -0.43177311905186527 0 -0.30897021848155398 -0.45451541270124268 0 -0.33379104289660089 -0.46018166051229409 0 -0.33526064117828552 -0.44191347614067339 0 -0.30897021848155398 -0.45451541270124268 0 -0.32192379385081049 -0.43177311905186527 0 -0.30897021848155398 -0.45451541270124268 0 -0.33379104289660089 -0.46018166051229409 0 -0.31937285725436693 -0.47860571515779893 0 -0.30897021848155398 -0.45451541270124268 0 -0.31937285725436693 -0.47860571515779893 0 -0.32883934778070378 -0.50000000000000155 0 -0.30595120776187268 -0.5 0 -0.32883934778070378 -0.50000000000000155 0 -0.34757160882162069 -0.48158903521553631 0 -0.31937285725436693 -0.47860571515779893 0 -0.32883934778070378 -0.50000000000000155 0 -0.34757160882162069 -0.48158903521553631 0 -0.33379104289660089 -0.46018166051229409 0 -0.31937285725436693 -0.47860571515779893 0 -0.34757160882162069 -0.48158903521553631 0 -0.34757160882162069 -0.48158903521553631 0 -0.36630386986253682 -0.46317807043107029 0 -0.39182815333544718 -0.5 0 -0.37634941974667868 -0.47975825768714048 0 -0.34757160882162069 -0.48158903521553631 0 -0.37634941974667868 -0.47975825768714048 0 -0.34757160882162069 -0.48158903521553631 0 -0.36630386986253682 -0.46317807043107029 0 -0.33379104289660089 -0.46018166051229409 0 -0.36630386986253682 -0.46317807043107029 0 -0.35249317808573372 -0.4465205281434057 0 -0.33379104289660089 -0.46018166051229409 0 -0.34757160882162069 -0.48158903521553631 0 -0.36630386986253682 -0.46317807043107029 0 -0.33526064117828552 -0.44191347614067339 0 -0.35249317808573372 -0.4465205281434057 0 -0.35392288104421632 -0.43348573385990791 0 -0.35249317808573372 -0.4465205281434057 0 -0.36681793551075681 -0.4452856484890369 0 -0.35392288104421632 -0.43348573385990791 0 -0.3850361309034529 -0.44476710564660432 0 -0.36630386986253682 -0.46317807043107029 0 -0.36681793551075681 -0.4452856484890369 0 -0.36630386986253682 -0.46317807043107029 0 -0.35249317808573372 -0.4465205281434057 0 -0.36681793551075681 -0.4452856484890369 0 -0.36681793551075681 -0.4452856484890369 0 -0.37333362651542967 -0.43328798802013829 0 -0.35392288104421632 -0.43348573385990791 0 -0.37333362651542967 -0.43328798802013829 0 -0.35814687914498589 -0.4218432979171281 0 -0.35392288104421632 -0.43348573385990791 0 -0.37333362651542967 -0.43328798802013829 0 -0.35545030701131269 -0.41521851066458337 0 -0.37333362651542967 -0.43328798802013829 0 -0.35814687914498589 -0.4218432979171281 0 -0.35545030701131269 -0.41521851066458337 0 -0.37162571945022332 -0.41708236300134771 0 -0.35545030701131269 -0.41521851066458337 0 -0.36436896587769763 -0.40594911743210221 0 -0.37333362651542967 -0.43328798802013829 0 -0.37162571945022332 -0.41708236300134771 0 -0.35545030701131269 -0.41521851066458337 0 -0.37764736076372207 -0.4065023630234384 0 -0.37162571945022332 -0.41708236300134771 0 -0.36436896587769763 -0.40594911743210221 0 -0.35814687914498589 -0.4218432979171281 0 -0.35545030701131269 -0.41521851066458337 0 -0.35814687914498589 -0.4218432979171281 0 -0.35545030701131269 -0.41521851066458337 0 -0.34986903894846638 -0.42159751246653221 0 -0.35545030701131269 -0.41521851066458337 0 -0.34938357591855562 -0.40031410580701721 0 -0.35545030701131269 -0.41521851066458337 0 -0.36436896587769763 -0.40594911743210221 0 -0.34938357591855562 -0.40031410580701721 0 -0.35545030701131269 -0.41521851066458337 0 -0.34393797795622122 -0.40358634309509078 0 -0.34938357591855562 -0.40031410580701721 0 -0.35545030701131269 -0.41521851066458337 0 -0.34466738766726007 -0.41455265660163798 0 -0.34393797795622122 -0.40358634309509078 0 -0.35545030701131269 -0.41521851066458337 0 -0.34393797795622122 -0.40358634309509078 0 -0.34466738766726007 -0.41455265660163798 0 -0.34986903894846638 -0.42159751246653221 0 -0.34046273271079802 -0.42500440257532462 0 -0.35545030701131269 -0.41521851066458337 0 -0.34466738766726007 -0.41455265660163798 0 -0.34986903894846638 -0.42159751246653221 0 -0.34986903894846638 -0.42159751246653221 0 -0.35392288104421632 -0.43348573385990791 0 -0.34046273271079802 -0.42500440257532462 0 -0.35814687914498589 -0.4218432979171281 0 -0.34986903894846638 -0.42159751246653221 0 -0.35392288104421632 -0.43348573385990791 0 -0.37116248457905432 -0.3872272496884791 0 -0.35201128748116822 -0.37894920010981359 0 -0.3620666039186089 -0.37818891986422148 0 -0.37116248457905432 -0.3872272496884791 0 -0.35201128748116822 -0.37894920010981359 0 -0.36141861518884572 -0.37154795295654031 0 -0.3620666039186089 -0.37818891986422148 0 -0.37069722331415988 -0.37558964454462601 0 -0.3620666039186089 -0.37818891986422148 0 -0.37069722331415988 -0.37558964454462601 0 -0.37116248457905432 -0.3872272496884791 0 -0.37764736076372207 -0.4065023630234384 0 -0.37116248457905432 -0.3872272496884791 0 -0.36436896587769763 -0.40594911743210221 0 -0.37116248457905432 -0.3872272496884791 0 -0.34938357591855562 -0.40031410580701721 0 -0.37116248457905432 -0.3872272496884791 0 -0.36436896587769763 -0.40594911743210221 0 -0.34938357591855562 -0.40031410580701721 0 -0.34393797795622122 -0.40358634309509078 0 -0.34938357591855562 -0.40031410580701721 0 -0.34393797795622122 -0.40358634309509078 0 -0.34483648936469657 -0.39891427815071417 0 -0.34938357591855562 -0.40031410580701721 0 -0.34938357591855562 -0.40031410580701721 0 -0.34540688566604222 -0.39054439612145969 0 -0.34483648936469657 -0.39891427815071417 0 -0.34938357591855562 -0.40031410580701721 0 -0.34540688566604222 -0.39054439612145969 0 -0.34938357591855562 -0.40031410580701721 0 -0.34540688566604222 -0.39054439612145969 0 -0.35201128748116822 -0.37894920010981359 0 -0.37116248457905432 -0.3872272496884791 0 -0.34938357591855562 -0.40031410580701721 0 -0.35201128748116822 -0.37894920010981359 0 -0.34540688566604222 -0.39054439612145969 0 -0.35201128748116822 -0.37894920010981359 0 -0.34540688566604222 -0.39054439612145969 0 -0.34691100433335842 -0.37683972648634317 0 -0.35201128748116822 -0.37894920010981359 0 -0.35082123983483238 -0.37331921136450708 0 -0.34691100433335842 -0.37683972648634317 0 -0.35197246123060938 -0.3767000150573066 0 -0.34691100433335842 -0.37683972648634317 0 -0.35197246123060938 -0.3767000150573066 0 -0.35201128748116822 -0.37894920010981359 0 -0.3620666039186089 -0.37818891986422148 0 -0.35544552120004758 -0.377386963334091 0 -0.35201128748116822 -0.37894920010981359 0 -0.3541296047652257 -0.37470374743249102 0 -0.35197246123060938 -0.3767000150573066 0 -0.35544552120004758 -0.377386963334091 0 -0.35197246123060938 -0.3767000150573066 0 -0.35544552120004758 -0.377386963334091 0 -0.35201128748116822 -0.37894920010981359 0 -0.35746491131048508 -0.3748980989445474 0 -0.3620666039186089 -0.37818891986422148 0 -0.35544552120004758 -0.377386963334091 0 -0.35746491131048508 -0.3748980989445474 0 -0.3541296047652257 -0.37470374743249102 0 -0.35544552120004758 -0.377386963334091 0 -0.33732074044514221 -0.37067880783893398 0 -0.32658902817312191 -0.37152764566808349 0 -0.32850292920278001 -0.38799062196132739 0 -0.33732074044514221 -0.37067880783893398 0 -0.34540688566604222 -0.39054439612145969 0 -0.32850292920278001 -0.38799062196132739 0 -0.33732074044514221 -0.37067880783893398 0 -0.34540688566604222 -0.39054439612145969 0 -0.33732074044514221 -0.37067880783893398 0 -0.34540688566604222 -0.39054439612145969 0 -0.34691100433335842 -0.37683972648634317 0 -0.34540688566604222 -0.39054439612145969 0 -0.32850292920278001 -0.38799062196132739 0 -0.3401553704817798 -0.39976436026418333 0 -0.32850292920278001 -0.38799062196132739 0 -0.3401553704817798 -0.39976436026418333 0 -0.32850292920278001 -0.38799062196132739 0 -0.3401553704817798 -0.39976436026418333 0 -0.3276040812624702 -0.3990334160392604 0 -0.34540688566604222 -0.39054439612145969 0 -0.3401553704817798 -0.39976436026418333 0 -0.34483648936469657 -0.39891427815071417 0 -0.34540688566604222 -0.39054439612145969 0 -0.3401553704817798 -0.39976436026418333 0 -0.34393797795622122 -0.40358634309509078 0 -0.3401553704817798 -0.39976436026418333 0 -0.33487736922006639 -0.4090308254024877 0 -0.3401553704817798 -0.39976436026418333 0 -0.33487736922006639 -0.4090308254024877 0 -0.34393797795622122 -0.40358634309509078 0 -0.34483648936469657 -0.39891427815071417 0 -0.3401553704817798 -0.39976436026418333 0 -0.34393797795622122 -0.40358634309509078 0 -0.3401553704817798 -0.39976436026418333 0 -0.3401553704817798 -0.39976436026418333 0 -0.3276040812624702 -0.3990334160392604 0 -0.33487736922006639 -0.4090308254024877 0 -0.3276040812624702 -0.3990334160392604 0 -0.33487736922006639 -0.4090308254024877 0 -0.31667357691096443 -0.40643440738142528 0 -0.3276040812624702 -0.3990334160392604 0 -0.3155260871865585 -0.39120867744477361 0 -0.31667357691096443 -0.40643440738142528 0 -0.32850292920278001 -0.38799062196132739 0 -0.3276040812624702 -0.3990334160392604 0 -0.3155260871865585 -0.39120867744477361 0 -0.32658902817312191 -0.37152764566808349 0 -0.32850292920278001 -0.38799062196132739 0 -0.3168504879237799 -0.37621688365847178 0 -0.32850292920278001 -0.38799062196132739 0 -0.3155260871865585 -0.39120867744477361 0 -0.3168504879237799 -0.37621688365847178 0 -0.32850292920278001 -0.38799062196132739 0 -0.3168504879237799 -0.37621688365847178 0 -0.33526064117828552 -0.44191347614067339 0 -0.34046273271079802 -0.42500440257532462 0 -0.32192379385081049 -0.43177311905186527 0 -0.34046273271079802 -0.42500440257532462 0 -0.33487736922006639 -0.4090308254024877 0 -0.32192379385081049 -0.43177311905186527 0 -0.33526064117828552 -0.44191347614067339 0 -0.35392288104421632 -0.43348573385990791 0 -0.34046273271079802 -0.42500440257532462 0 -0.34466738766726007 -0.41455265660163798 0 -0.34046273271079802 -0.42500440257532462 0 -0.33487736922006639 -0.4090308254024877 0 -0.33487736922006639 -0.4090308254024877 0 -0.32192379385081049 -0.43177311905186527 0 -0.34466738766726007 -0.41455265660163798 0 -0.34393797795622122 -0.40358634309509078 0 -0.33487736922006639 -0.4090308254024877 0 -0.34393797795622122 -0.40358634309509078 0 -0.33487736922006639 -0.4090308254024877 0 -0.33487736922006639 -0.4090308254024877 0 -0.30998799778974362 -0.4239867457319707 0 -0.33487736922006639 -0.4090308254024877 0 -0.31667357691096443 -0.40643440738142528 0 -0.30998799778974362 -0.4239867457319707 0 -0.33487736922006639 -0.4090308254024877 0 -0.32192379385081049 -0.43177311905186527 0 -0.30998799778974362 -0.4239867457319707 0 -0.30998799778974362 -0.4239867457319707 0 -0.28509862635942113 -0.43894266606145432 0 -0.30229223678807549 -0.44074858046860038 0 -0.30998799778974362 -0.4239867457319707 0 -0.28509862635942113 -0.43894266606145432 0 -0.32192379385081049 -0.43177311905186527 0 -0.30998799778974362 -0.4239867457319707 0 -0.30229223678807549 -0.44074858046860038 0 -0.30998799778974362 -0.4239867457319707 0 -0.30247486896049292 -0.40991898323585862 0 -0.28841878618687361 -0.41578815682058923 0 -0.31667357691096443 -0.40643440738142528 0 -0.30998799778974362 -0.4239867457319707 0 -0.30247486896049292 -0.40991898323585862 0 -0.30247486896049292 -0.40991898323585862 0 -0.28841878618687361 -0.41578815682058923 0 -0.29311305424019618 -0.40268875594313841 0 -0.30998799778974362 -0.4239867457319707 0 -0.28841878618687361 -0.41578815682058923 0 -0.28509862635942113 -0.43894266606145432 0 -0.3155260871865585 -0.39120867744477361 0 -0.3168504879237799 -0.37621688365847178 0 -0.30028841299509562 -0.3814691916340105 0 -0.3155260871865585 -0.39120867744477361 0 -0.30028841299509562 -0.3814691916340105 0 -0.30397444679890728 -0.3987450006507241 0 -0.30618533126596897 -0.3703619091993518 0 -0.3168504879237799 -0.37621688365847178 0 -0.30028841299509562 -0.3814691916340105 0 -0.30028841299509562 -0.3814691916340105 0 -0.30397444679890728 -0.3987450006507241 0 -0.29170315124691037 -0.39197712396782969 0 -0.3155260871865585 -0.39120867744477361 0 -0.31667357691096443 -0.40643440738142528 0 -0.30397444679890728 -0.3987450006507241 0 -0.31667357691096443 -0.40643440738142528 0 -0.30247486896049292 -0.40991898323585862 0 -0.30397444679890728 -0.3987450006507241 0 -0.30247486896049292 -0.40991898323585862 0 -0.30397444679890728 -0.3987450006507241 0 -0.29311305424019618 -0.40268875594313841 0 -0.28841878618687361 -0.41578815682058923 0 -0.29311305424019618 -0.40268875594313841 0 -0.27899401800779661 -0.39701451504069002 0 -0.29311305424019618 -0.40268875594313841 0 -0.29170315124691037 -0.39197712396782969 0 -0.27899401800779661 -0.39701451504069002 0 -0.30397444679890728 -0.3987450006507241 0 -0.29311305424019618 -0.40268875594313841 0 -0.29170315124691037 -0.39197712396782969 0 -0.30028841299509562 -0.3814691916340105 0 -0.29170315124691037 -0.39197712396782969 0 -0.28193934131677689 -0.37801630691914029 0 -0.29170315124691037 -0.39197712396782969 0 -0.28193934131677689 -0.37801630691914029 0 -0.27899401800779661 -0.39701451504069002 0 -0.29333178025471718 -0.36561230575091908 0 -0.30028841299509562 -0.3814691916340105 0 -0.28193934131677689 -0.37801630691914029 0 -0.26200821449927908 -0.37032744707501741 0 -0.28193934131677689 -0.37801630691914029 0 -0.26956254542349389 -0.3840491690653286 0 -0.28193934131677689 -0.37801630691914029 0 -0.26956254542349389 -0.3840491690653286 0 -0.27899401800779661 -0.39701451504069002 0 -0.26956254542349389 -0.3840491690653286 0 -0.27899401800779661 -0.39701451504069002 0 -0.25751260779811852 -0.3918329024446775 0 -0.27899401800779661 -0.39701451504069002 0 -0.25751260779811852 -0.3918329024446775 0 -0.26807412288140542 -0.41025927720633643 0 -0.25751260779811852 -0.3918329024446775 0 -0.25179637243917369 -0.41416551537572738 0 -0.24361613506946189 -0.39960694087372772 0 -0.25751260779811852 -0.3918329024446775 0 -0.26807412288140542 -0.41025927720633643 0 -0.25179637243917369 -0.41416551537572738 0 -0.26200821449927908 -0.37032744707501741 0 -0.25751260779811852 -0.3918329024446775 0 -0.24707346737064151 -0.37478657436052493 0 -0.26200821449927908 -0.37032744707501741 0 -0.26956254542349389 -0.3840491690653286 0 -0.25751260779811852 -0.3918329024446775 0 -0.28841878618687361 -0.41578815682058923 0 -0.26446271689813711 -0.4307931317455348 0 -0.28509862635942113 -0.43894266606145432 0 -0.28841878618687361 -0.41578815682058923 0 -0.26807412288140542 -0.41025927720633643 0 -0.26446271689813711 -0.4307931317455348 0 -0.28841878618687361 -0.41578815682058923 0 -0.27899401800779661 -0.39701451504069002 0 -0.26807412288140542 -0.41025927720633643 0 -0.26807412288140542 -0.41025927720633643 0 -0.25179637243917369 -0.41416551537572738 0 -0.26446271689813711 -0.4307931317455348 0 -0.25179637243917369 -0.41416551537572738 0 -0.26446271689813711 -0.4307931317455348 0 -0.24169565135587501 -0.4338931381970596 0 -0.26446271689813711 -0.4307931317455348 0 -0.26020925492909858 -0.45389858639093789 0 -0.24169565135587501 -0.4338931381970596 0 -0.26020925492909858 -0.45389858639093789 0 -0.28591749982203568 -0.45801372733961743 0 -0.27043360802681338 -0.47900361710981221 0 -0.26020925492909858 -0.45389858639093789 0 -0.28509862635942113 -0.43894266606145432 0 -0.28591749982203568 -0.45801372733961743 0 -0.26446271689813711 -0.4307931317455348 0 -0.26020925492909858 -0.45389858639093789 0 -0.28509862635942113 -0.43894266606145432 0 -0.26020925492909858 -0.45389858639093789 0 -0.28509862635942113 -0.43894266606145432 0 -0.28509862635942113 -0.43894266606145432 0 -0.28591749982203568 -0.45801372733961743 0 -0.30229223678807549 -0.44074858046860038 0 -0.28591749982203568 -0.45801372733961743 0 -0.30897021848155398 -0.45451541270124268 0 -0.29601664311229742 -0.47725770635062009 0 -0.30897021848155398 -0.45451541270124268 0 -0.29601664311229742 -0.47725770635062009 0 -0.32192379385081049 -0.43177311905186527 0 -0.30897021848155398 -0.45451541270124268 0 -0.30229223678807549 -0.44074858046860038 0 -0.28591749982203568 -0.45801372733961743 0 -0.30897021848155398 -0.45451541270124268 0 -0.30229223678807549 -0.44074858046860038 0 -0.31937285725436693 -0.47860571515779893 0 -0.30595120776187268 -0.5 0 -0.29601664311229742 -0.47725770635062009 0 -0.31937285725436693 -0.47860571515779893 0 -0.30897021848155398 -0.45451541270124268 0 -0.29601664311229742 -0.47725770635062009 0 -0.28591749982203568 -0.45801372733961743 0 -0.29601664311229742 -0.47725770635062009 0 -0.27043360802681338 -0.47900361710981221 0 -0.29601664311229742 -0.47725770635062009 0 -0.28306306774304169 -0.499999999999998 0 -0.30595120776187268 -0.5 0 -0.29601664311229742 -0.47725770635062009 0 -0.28306306774304169 -0.499999999999998 0 -0.29601664311229742 -0.47725770635062009 0 -0.28306306774304169 -0.499999999999998 0 -0.27043360802681338 -0.47900361710981221 0 -0.28306306774304169 -0.499999999999998 0 -0.27043360802681338 -0.47900361710981221 0 -0.25530983302933707 -0.5 0 -0.26020925492909858 -0.45389858639093789 0 -0.27043360802681338 -0.47900361710981221 0 -0.24512581310150799 -0.48257660789994311 0 -0.27043360802681338 -0.47900361710981221 0 -0.25530983302933707 -0.5 0 -0.24512581310150799 -0.48257660789994311 0 -0.25530983302933707 -0.5 0 -0.24512581310150799 -0.48257660789994311 0 -0.22755659831563249 -0.5 0 -0.24512581310150799 -0.48257660789994311 0 -0.22520051539337149 -0.47937171080255031 0 -0.24008521246545861 -0.463034827034561 0 -0.24512581310150799 -0.48257660789994311 0 -0.22520051539337149 -0.47937171080255031 0 -0.22755659831563249 -0.5 0 -0.22520051539337149 -0.47937171080255031 0 -0.22755659831563249 -0.5 0 -0.21088144049118129 -0.48769072827991178 0 -0.2410867521055792 -0.45016615395761189 0 -0.22235688967188461 -0.4498380642078893 0 -0.24169565135587501 -0.4338931381970596 0 -0.26020925492909858 -0.45389858639093789 0 -0.2410867521055792 -0.45016615395761189 0 -0.24169565135587501 -0.4338931381970596 0 -0.26020925492909858 -0.45389858639093789 0 -0.24512581310150799 -0.48257660789994311 0 -0.24008521246545861 -0.463034827034561 0 -0.2410867521055792 -0.45016615395761189 0 -0.24008521246545861 -0.463034827034561 0 -0.22235688967188461 -0.4498380642078893 0 -0.26020925492909858 -0.45389858639093789 0 -0.2410867521055792 -0.45016615395761189 0 -0.24008521246545861 -0.463034827034561 0 -0.22520051539337149 -0.47937171080255031 0 -0.24008521246545861 -0.463034827034561 0 -0.22235688967188461 -0.4498380642078893 0 -0.22520051539337149 -0.47937171080255031 0 -0.22235688967188461 -0.4498380642078893 0 -0.21515536840332139 -0.46311724762498507 0 -0.22520051539337149 -0.47937171080255031 0 -0.22235688967188461 -0.4498380642078893 0 -0.22235688967188461 -0.4498380642078893 0 -0.20648180454037821 -0.45156095541829971 0 -0.20830924904534939 -0.43470912143793933 0 -0.20648180454037821 -0.45156095541829971 0 -0.19774978761149051 -0.43987316595370679 0 -0.20830924904534939 -0.43470912143793933 0 -0.22235688967188461 -0.4498380642078893 0 -0.20648180454037821 -0.45156095541829971 0 -0.21515536840332139 -0.46311724762498507 0 -0.20648180454037821 -0.45156095541829971 0 -0.21515536840332139 -0.46311724762498507 0 -0.20658226400765101 -0.47169826007120069 0 -0.20648180454037821 -0.45156095541829971 0 -0.18944099251763161 -0.46048655380711601 0 -0.20658226400765101 -0.47169826007120069 0 -0.20648180454037821 -0.45156095541829971 0 -0.19774978761149051 -0.43987316595370679 0 -0.1806981763521886 -0.44441698280408543 0 -0.20648180454037821 -0.45156095541829971 0 -0.1806981763521886 -0.44441698280408543 0 -0.20648180454037821 -0.45156095541829971 0 -0.18944099251763161 -0.46048655380711601 0 -0.1806981763521886 -0.44441698280408543 0 -0.19774978761149051 -0.43987316595370679 0 -0.1806981763521886 -0.44441698280408543 0 -0.19550992050804569 -0.42880560415450281 0 -0.22755659831563249 -0.5 0 -0.21088144049118129 -0.48769072827991178 0 -0.19980336360192791 -0.5 0 -0.22520051539337149 -0.47937171080255031 0 -0.21515536840332139 -0.46311724762498507 0 -0.20658226400765101 -0.47169826007120069 0 -0.22520051539337149 -0.47937171080255031 0 -0.21088144049118129 -0.48769072827991178 0 -0.20658226400765101 -0.47169826007120069 0 -0.18944099251763161 -0.46048655380711601 0 -0.20658226400765101 -0.47169826007120069 0 -0.18591875969443639 -0.48054233442904049 0 -0.21088144049118129 -0.48769072827991178 0 -0.20658226400765101 -0.47169826007120069 0 -0.18591875969443639 -0.48054233442904049 0 -0.21088144049118129 -0.48769072827991178 0 -0.19980336360192791 -0.5 0 -0.18591875969443639 -0.48054233442904049 0 -0.19980336360192791 -0.5 0 -0.17205012888822321 -0.5 0 -0.18591875969443639 -0.48054233442904049 0 -0.17205012888822321 -0.5 0 -0.15940269094729781 -0.4832205288784619 0 -0.18591875969443639 -0.48054233442904049 0 -0.17205012888822321 -0.5 0 -0.15940269094729781 -0.4832205288784619 0 -0.14429689417451869 -0.5 0 -0.15940269094729781 -0.4832205288784619 0 -0.18591875969443639 -0.48054233442904049 0 -0.16448560325825451 -0.4602266018199504 0 -0.18944099251763161 -0.46048655380711601 0 -0.18591875969443639 -0.48054233442904049 0 -0.16448560325825451 -0.4602266018199504 0 -0.18944099251763161 -0.46048655380711601 0 -0.1806981763521886 -0.44441698280408543 0 -0.16448560325825451 -0.4602266018199504 0 -0.1806981763521886 -0.44441698280408543 0 -0.15491454816399911 -0.43727301018987119 0 -0.1806981763521886 -0.44441698280408543 0 -0.16448560325825451 -0.4602266018199504 0 -0.15491454816399911 -0.43727301018987119 0 -0.16448560325825451 -0.4602266018199504 0 -0.14146709798817381 -0.44914414569377442 0 -0.1409805132279385 -0.46993859018046391 0 -0.16448560325825451 -0.4602266018199504 0 -0.14146709798817381 -0.44914414569377442 0 -0.15491454816399911 -0.43727301018987119 0 -0.14146709798817381 -0.44914414569377442 0 -0.12913091997580931 -0.43012903757565679 0 -0.15491454816399911 -0.43727301018987119 0 -0.14146709798817381 -0.44914414569377442 0 -0.12913091997580931 -0.43012903757565679 0 -0.1212510133860321 -0.45025040205905559 0 -0.1409805132279385 -0.46993859018046391 0 -0.1208098881513872 -0.47815730621852143 0 -0.1212510133860321 -0.45025040205905559 0 -0.14146709798817381 -0.44914414569377442 0 -0.1409805132279385 -0.46993859018046391 0 -0.1212510133860321 -0.45025040205905559 0 -0.14429689417451869 -0.5 0 -0.1409805132279385 -0.46993859018046391 0 -0.1208098881513872 -0.47815730621852143 0 -0.14429689417451869 -0.5 0 -0.1208098881513872 -0.47815730621852143 0 -0.1165436594608141 -0.5 0 -0.15940269094729781 -0.4832205288784619 0 -0.14429689417451869 -0.5 0 -0.1409805132279385 -0.46993859018046391 0 -0.15940269094729781 -0.4832205288784619 0 -0.16448560325825451 -0.4602266018199504 0 -0.1409805132279385 -0.46993859018046391 0 -0.1479551311654648 -0.40146132563445308 0 -0.15497974042112109 -0.38481587900558262 0 -0.1629965457201567 -0.40548527930151712 0 -0.15497974042112109 -0.38481587900558262 0 -0.1301793422583436 -0.40009158803533729 0 -0.1479551311654648 -0.40146132563445308 0 -0.15497974042112109 -0.38481587900558262 0 -0.1301793422583436 -0.40009158803533729 0 -0.15497974042112109 -0.38481587900558262 0 -0.13920790074172401 -0.37762101241416052 0 -0.1301793422583436 -0.40009158803533729 0 -0.15497974042112109 -0.38481587900558262 0 -0.13920790074172401 -0.37762101241416052 0 -0.16211748784701871 -0.36863433620007791 0 -0.13920790074172401 -0.37762101241416052 0 -0.1301793422583436 -0.40009158803533729 0 -0.1239213866747315 -0.3857965564217859 0 -0.13920790074172401 -0.37762101241416052 0 -0.1265082028076453 -0.36423324733017087 0 -0.1239213866747315 -0.3857965564217859 0 -0.1479551311654648 -0.40146132563445308 0 -0.1301793422583436 -0.40009158803533729 0 -0.14366489626223769 -0.41545255619537541 0 -0.1301793422583436 -0.40009158803533729 0 -0.14366489626223769 -0.41545255619537541 0 -0.1244403968609379 -0.41785413351448453 0 -0.12913091997580931 -0.43012903757565679 0 -0.14366489626223769 -0.41545255619537541 0 -0.1244403968609379 -0.41785413351448453 0 -0.12913091997580931 -0.43012903757565679 0 -0.15491454816399911 -0.43727301018987119 0 -0.14366489626223769 -0.41545255619537541 0 -0.15491454816399911 -0.43727301018987119 0 -0.14366489626223769 -0.41545255619537541 0 -0.16036747759824441 -0.42061698202865971 0 -0.12913091997580931 -0.43012903757565679 0 -0.15491454816399911 -0.43727301018987119 0 -0.1479551311654648 -0.40146132563445308 0 -0.14366489626223769 -0.41545255619537541 0 -0.1629965457201567 -0.40548527930151712 0 -0.14366489626223769 -0.41545255619537541 0 -0.16036747759824441 -0.42061698202865971 0 -0.1629965457201567 -0.40548527930151712 0 -0.16036747759824441 -0.42061698202865971 0 -0.17627850726840161 -0.41259045630271268 0 -0.1629965457201567 -0.40548527930151712 0 -0.16036747759824441 -0.42061698202865971 0 -0.17584373378947521 -0.42487491780773912 0 -0.17627850726840161 -0.41259045630271268 0 -0.1806981763521886 -0.44441698280408543 0 -0.15491454816399911 -0.43727301018987119 0 -0.17584373378947521 -0.42487491780773912 0 -0.15491454816399911 -0.43727301018987119 0 -0.16036747759824441 -0.42061698202865971 0 -0.17584373378947521 -0.42487491780773912 0 -0.1806981763521886 -0.44441698280408543 0 -0.17584373378947521 -0.42487491780773912 0 -0.19550992050804569 -0.42880560415450281 0 -0.17627850726840161 -0.41259045630271268 0 -0.1901764128792435 -0.39803390354230173 0 -0.19284316669364421 -0.41341975384840229 0 -0.17584373378947521 -0.42487491780773912 0 -0.17627850726840161 -0.41259045630271268 0 -0.19284316669364421 -0.41341975384840229 0 -0.17908687730960171 -0.3909411238993562 0 -0.1629965457201567 -0.40548527930151712 0 -0.1901764128792435 -0.39803390354230173 0 -0.17627850726840161 -0.41259045630271268 0 -0.1629965457201567 -0.40548527930151712 0 -0.1901764128792435 -0.39803390354230173 0 -0.1629965457201567 -0.40548527930151712 0 -0.1901764128792435 -0.39803390354230173 0 -0.17908687730960171 -0.3909411238993562 0 -0.1875661947953127 -0.38297423643364709 0 -0.1901764128792435 -0.39803390354230173 0 -0.17908687730960171 -0.3909411238993562 0 -0.1629965457201567 -0.40548527930151712 0 -0.17124828733887479 -0.38345835926188349 0 -0.15497974042112109 -0.38481587900558262 0 -0.1629965457201567 -0.40548527930151712 0 -0.17124828733887479 -0.38345835926188349 0 -0.15497974042112109 -0.38481587900558262 0 -0.17124828733887479 -0.38345835926188349 0 -0.1797801385838988 -0.36954016997582778 0 -0.15497974042112109 -0.38481587900558262 0 -0.1797801385838988 -0.36954016997582778 0 -0.17124828733887479 -0.38345835926188349 0 -0.1806442729824782 -0.37919721774627302 0 -0.1797801385838988 -0.36954016997582778 0 -0.17908687730960171 -0.3909411238993562 0 -0.17124828733887479 -0.38345835926188349 0 -0.1806442729824782 -0.37919721774627302 0 -0.17908687730960171 -0.3909411238993562 0 -0.1806442729824782 -0.37919721774627302 0 -0.1875661947953127 -0.38297423643364709 0 -0.1806442729824782 -0.37919721774627302 0 -0.1875661947953127 -0.38297423643364709 0 -0.18495597671138189 -0.36791456932499272 0 -0.1875661947953127 -0.38297423643364709 0 -0.18495597671138189 -0.36791456932499272 0 -0.19663680540933731 -0.38198214798725483 0 -0.1875661947953127 -0.38297423643364709 0 -0.19242208372952371 -0.37308829202369398 0 -0.19663680540933731 -0.38198214798725483 0 -0.19242208372952371 -0.37308829202369398 0 -0.2000509148929657 -0.37493544438748672 0 -0.19663680540933731 -0.38198214798725483 0 -0.20466171853642179 -0.38238060007590252 0 -0.2000509148929657 -0.37493544438748672 0 -0.19663680540933731 -0.38198214798725483 0 -0.19420252026315599 -0.38844321780640972 0 -0.20243066796873049 -0.39078258326243531 0 -0.19663680540933731 -0.38198214798725483 0 -0.20243066796873049 -0.39078258326243531 0 -0.20466171853642179 -0.38238060007590252 0 -0.19420252026315599 -0.38844321780640972 0 -0.1875661947953127 -0.38297423643364709 0 -0.1901764128792435 -0.39803390354230173 0 -0.19663680540933731 -0.38198214798725483 0 -0.19420252026315599 -0.38844321780640972 0 -0.1875661947953127 -0.38297423643364709 0 -0.1875661947953127 -0.38297423643364709 0 -0.1901764128792435 -0.39803390354230173 0 -0.1901764128792435 -0.39803390354230173 0 -0.20243066796873049 -0.39078258326243531 0 -0.21666963822891119 -0.39077077101856722 0 -0.1901764128792435 -0.39803390354230173 0 -0.19284316669364421 -0.41341975384840229 0 -0.1901764128792435 -0.39803390354230173 0 -0.20564388613547169 -0.40445658620747749 0 -0.19284316669364421 -0.41341975384840229 0 -0.19420252026315599 -0.38844321780640972 0 -0.1901764128792435 -0.39803390354230173 0 -0.20243066796873049 -0.39078258326243531 0 -0.1901764128792435 -0.39803390354230173 0 -0.21666963822891119 -0.39077077101856722 0 -0.1901764128792435 -0.39803390354230173 0 -0.20564388613547169 -0.40445658620747749 0 -0.21666963822891119 -0.39077077101856722 0 -0.21666963822891119 -0.39077077101856722 0 -0.2195132639503978 -0.42030441761322829 0 -0.20564388613547169 -0.40445658620747749 0 -0.21666963822891119 -0.39077077101856722 0 -0.2195132639503978 -0.42030441761322829 0 -0.21666963822891119 -0.39077077101856722 0 -0.2164103077163439 -0.38807738712788997 0 -0.2125958065391288 -0.38739428752859312 0 -0.21666963822891119 -0.39077077101856722 0 -0.2125958065391288 -0.38739428752859312 0 -0.20854938477767659 -0.3878614930723453 0 -0.21666963822891119 -0.39077077101856722 0 -0.2164103077163439 -0.38807738712788997 0 -0.2164103077163439 -0.38807738712788997 0 -0.2125958065391288 -0.38739428752859312 0 -0.2135098912444236 -0.38393176795482048 0 -0.2125958065391288 -0.38739428752859312 0 -0.2135098912444236 -0.38393176795482048 0 -0.2092905288413876 -0.38468081346245597 0 -0.2164103077163439 -0.38807738712788997 0 -0.2135098912444236 -0.38393176795482048 0 -0.21871645181359831 -0.3824392564511726 0 -0.2135098912444236 -0.38393176795482048 0 -0.21871645181359831 -0.3824392564511726 0 -0.21521475543234209 -0.37739606013350618 0 -0.21521475543234209 -0.37739606013350618 0 -0.21158053666561311 -0.37519120831267633 0 -0.2102583005512573 -0.37971498660352809 0 -0.2135098912444236 -0.38393176795482048 0 -0.2102583005512573 -0.37971498660352809 0 -0.2092905288413876 -0.38468081346245597 0 -0.2135098912444236 -0.38393176795482048 0 -0.21521475543234209 -0.37739606013350618 0 -0.2102583005512573 -0.37971498660352809 0 -0.2102583005512573 -0.37971498660352809 0 -0.20466171853642179 -0.38238060007590252 0 -0.2092905288413876 -0.38468081346245597 0 -0.20466171853642179 -0.38238060007590252 0 -0.2000509148929657 -0.37493544438748672 0 -0.20690450713657119 -0.37452671776419177 0 -0.2102583005512573 -0.37971498660352809 0 -0.20466171853642179 -0.38238060007590252 0 -0.20690450713657119 -0.37452671776419177 0 -0.21158053666561311 -0.37519120831267633 0 -0.2102583005512573 -0.37971498660352809 0 -0.20690450713657119 -0.37452671776419177 0 -0.20243066796873049 -0.39078258326243531 0 -0.20466171853642179 -0.38238060007590252 0 -0.20854938477767659 -0.3878614930723453 0 -0.20243066796873049 -0.39078258326243531 0 -0.21666963822891119 -0.39077077101856722 0 -0.20854938477767659 -0.3878614930723453 0 -0.2125958065391288 -0.38739428752859312 0 -0.20854938477767659 -0.3878614930723453 0 -0.2092905288413876 -0.38468081346245597 0 -0.20466171853642179 -0.38238060007590252 0 -0.20854938477767659 -0.3878614930723453 0 -0.2092905288413876 -0.38468081346245597 0 -0.17584373378947521 -0.42487491780773912 0 -0.19550992050804569 -0.42880560415450281 0 -0.19284316669364421 -0.41341975384840229 0 -0.19774978761149051 -0.43987316595370679 0 -0.19550992050804569 -0.42880560415450281 0 -0.20830924904534939 -0.43470912143793933 0 -0.19550992050804569 -0.42880560415450281 0 -0.2043638972665818 -0.42033909665231012 0 -0.20830924904534939 -0.43470912143793933 0 -0.20564388613547169 -0.40445658620747749 0 -0.19284316669364421 -0.41341975384840229 0 -0.2043638972665818 -0.42033909665231012 0 -0.19550992050804569 -0.42880560415450281 0 -0.19284316669364421 -0.41341975384840229 0 -0.2043638972665818 -0.42033909665231012 0 -0.19550992050804569 -0.42880560415450281 0 -0.19284316669364421 -0.41341975384840229 0 -0.20564388613547169 -0.40445658620747749 0 -0.2043638972665818 -0.42033909665231012 0 -0.2195132639503978 -0.42030441761322829 0 -0.22235688967188461 -0.4498380642078893 0 -0.20830924904534939 -0.43470912143793933 0 -0.2195132639503978 -0.42030441761322829 0 -0.2043638972665818 -0.42033909665231012 0 -0.20830924904534939 -0.43470912143793933 0 -0.2195132639503978 -0.42030441761322829 0 -0.22235688967188461 -0.4498380642078893 0 -0.2195132639503978 -0.42030441761322829 0 -0.24169565135587501 -0.4338931381970596 0 -0.2195132639503978 -0.42030441761322829 0 -0.23723907817852291 -0.41686196444837931 0 -0.24169565135587501 -0.4338931381970596 0 -0.22235688967188461 -0.4498380642078893 0 -0.2195132639503978 -0.42030441761322829 0 -0.2195132639503978 -0.42030441761322829 0 -0.23723907817852291 -0.41686196444837931 0 -0.2310306082665983 -0.40429175696070407 0 -0.25179637243917369 -0.41416551537572738 0 -0.23723907817852291 -0.41686196444837931 0 -0.24361613506946189 -0.39960694087372772 0 -0.23723907817852291 -0.41686196444837931 0 -0.2310306082665983 -0.40429175696070407 0 -0.24361613506946189 -0.39960694087372772 0 -0.25179637243917369 -0.41416551537572738 0 -0.23723907817852291 -0.41686196444837931 0 -0.24169565135587501 -0.4338931381970596 0 -0.21666963822891119 -0.39077077101856722 0 -0.22505287398713589 -0.38262243893107678 0 -0.23648845360766729 -0.38533743171542589 0 -0.21666963822891119 -0.39077077101856722 0 -0.23648845360766729 -0.38533743171542589 0 -0.22505287398713589 -0.38262243893107678 0 -0.23648845360766729 -0.38533743171542589 0 -0.23484969618742721 -0.37306427711963702 0 -0.22505287398713589 -0.38262243893107678 0 -0.23484969618742721 -0.37306427711963702 0 -0.22286901041786369 -0.3723634190444261 0 -0.21871645181359831 -0.3824392564511726 0 -0.21521475543234209 -0.37739606013350618 0 -0.22286901041786369 -0.3723634190444261 0 -0.21871645181359831 -0.3824392564511726 0 -0.22505287398713589 -0.38262243893107678 0 -0.22286901041786369 -0.3723634190444261 0 -0.21666963822891119 -0.39077077101856722 0 -0.2164103077163439 -0.38807738712788997 0 -0.22505287398713589 -0.38262243893107678 0 -0.2164103077163439 -0.38807738712788997 0 -0.21871645181359831 -0.3824392564511726 0 -0.22505287398713589 -0.38262243893107678 0 -0.21666963822891119 -0.39077077101856722 0 -0.2310306082665983 -0.40429175696070407 0 -0.23648845360766729 -0.38533743171542589 0 -0.21666963822891119 -0.39077077101856722 0 -0.2195132639503978 -0.42030441761322829 0 -0.2310306082665983 -0.40429175696070407 0 -0.2310306082665983 -0.40429175696070407 0 -0.24361613506946189 -0.39960694087372772 0 -0.23648845360766729 -0.38533743171542589 0 -0.25751260779811852 -0.3918329024446775 0 -0.24361613506946189 -0.39960694087372772 0 -0.23648845360766729 -0.38533743171542589 0 -0.25751260779811852 -0.3918329024446775 0 -0.23648845360766729 -0.38533743171542589 0 -0.24707346737064151 -0.37478657436052493 0 -0.23648845360766729 -0.38533743171542589 0 -0.24707346737064151 -0.37478657436052493 0 -0.23484969618742721 -0.37306427711963702 0 -0.24318533217749419 -0.36146883500207871 0 -0.23484969618742721 -0.37306427711963702 0 -0.23129988656837769 -0.36274492203802677 0 -0.24707346737064151 -0.37478657436052493 0 -0.24318533217749419 -0.36146883500207871 0 -0.23484969618742721 -0.37306427711963702 0 -0.23484969618742721 -0.37306427711963702 0 -0.23129988656837769 -0.36274492203802677 0 -0.22286901041786369 -0.3723634190444261 0 -0.22286901041786369 -0.3723634190444261 0 -0.22128344557614149 -0.35703449148015798 0 -0.21394458354228149 -0.36912706874947931 0 -0.23129988656837769 -0.36274492203802677 0 -0.22286901041786369 -0.3723634190444261 0 -0.22128344557614149 -0.35703449148015798 0 -0.22128344557614149 -0.35703449148015798 0 -0.23376869275459691 -0.34995642753927481 0 -0.22389214302998031 -0.33762274139857279 0 -0.23129988656837769 -0.36274492203802677 0 -0.22128344557614149 -0.35703449148015798 0 -0.23376869275459691 -0.34995642753927481 0 -0.25507332585313719 -0.35039505893935469 0 -0.23376869275459691 -0.34995642753927481 0 -0.2431717869675849 -0.3330283213869582 0 -0.25507332585313719 -0.35039505893935469 0 -0.24318533217749419 -0.36146883500207871 0 -0.23376869275459691 -0.34995642753927481 0 -0.24318533217749419 -0.36146883500207871 0 -0.23129988656837769 -0.36274492203802677 0 -0.23376869275459691 -0.34995642753927481 0 -0.24906769594763661 -0.31374181271971913 0 -0.23162299404356559 -0.32280299186834333 0 -0.2292631324061904 -0.30755953311323841 0 -0.2431717869675849 -0.3330283213869582 0 -0.24906769594763661 -0.31374181271971913 0 -0.23162299404356559 -0.32280299186834333 0 -0.23162299404356559 -0.32280299186834333 0 -0.22389214302998031 -0.33762274139857279 0 -0.2156458073876111 -0.3195513412047522 0 -0.23162299404356559 -0.32280299186834333 0 -0.2156458073876111 -0.3195513412047522 0 -0.2292631324061904 -0.30755953311323841 0 -0.23376869275459691 -0.34995642753927481 0 -0.2431717869675849 -0.3330283213869582 0 -0.22389214302998031 -0.33762274139857279 0 -0.2431717869675849 -0.3330283213869582 0 -0.23162299404356559 -0.32280299186834333 0 -0.22389214302998031 -0.33762274139857279 0 -0.22389214302998031 -0.33762274139857279 0 -0.20945365952840109 -0.33451298996310208 0 -0.21049494000082469 -0.3469956294446177 0 -0.22389214302998031 -0.33762274139857279 0 -0.20945365952840109 -0.33451298996310208 0 -0.2156458073876111 -0.3195513412047522 0 -0.20945365952840109 -0.33451298996310208 0 -0.1956330974763143 -0.34014663377583781 0 -0.21049494000082469 -0.3469956294446177 0 -0.20945365952840109 -0.33451298996310208 0 -0.2156458073876111 -0.3195513412047522 0 -0.19780059309328579 -0.32667735520685809 0 -0.2156458073876111 -0.3195513412047522 0 -0.19780059309328579 -0.32667735520685809 0 -0.1999382669225373 -0.31216219160805808 0 -0.1999382669225373 -0.31216219160805808 0 -0.18614704883012681 -0.30590953753255712 0 -0.1822548083021184 -0.3253823718231853 0 -0.19780059309328579 -0.32667735520685809 0 -0.1999382669225373 -0.31216219160805808 0 -0.1822548083021184 -0.3253823718231853 0 -0.20945365952840109 -0.33451298996310208 0 -0.19780059309328579 -0.32667735520685809 0 -0.1956330974763143 -0.34014663377583781 0 -0.19780059309328579 -0.32667735520685809 0 -0.1956330974763143 -0.34014663377583781 0 -0.1822548083021184 -0.3253823718231853 0 -0.19869191122576019 -0.35438816508278492 0 -0.19187405106740171 -0.36218895572666199 0 -0.18166402938296319 -0.34892166171683509 0 -0.1956330974763143 -0.34014663377583781 0 -0.19869191122576019 -0.35438816508278492 0 -0.18166402938296319 -0.34892166171683509 0 -0.1956330974763143 -0.34014663377583781 0 -0.19869191122576019 -0.35438816508278492 0 -0.21049494000082469 -0.3469956294446177 0 -0.1875661947953127 -0.38297423643364709 0 -0.19242208372952371 -0.37308829202369398 0 -0.18495597671138189 -0.36791456932499272 0 -0.19187405106740171 -0.36218895572666199 0 -0.19242208372952371 -0.37308829202369398 0 -0.2016362542873795 -0.36663209048500328 0 -0.19187405106740171 -0.36218895572666199 0 -0.19242208372952371 -0.37308829202369398 0 -0.18495597671138189 -0.36791456932499272 0 -0.19242208372952371 -0.37308829202369398 0 -0.18495597671138189 -0.36791456932499272 0 -0.2000509148929657 -0.37493544438748672 0 -0.2016362542873795 -0.36663209048500328 0 -0.20690450713657119 -0.37452671776419177 0 -0.19242208372952371 -0.37308829202369398 0 -0.2000509148929657 -0.37493544438748672 0 -0.2016362542873795 -0.36663209048500328 0 -0.19869191122576019 -0.35438816508278492 0 -0.19187405106740171 -0.36218895572666199 0 -0.2016362542873795 -0.36663209048500328 0 -0.19869191122576019 -0.35438816508278492 0 -0.2016362542873795 -0.36663209048500328 0 -0.2093714737802316 -0.35881647112622211 0 -0.2016362542873795 -0.36663209048500328 0 -0.21394458354228149 -0.36912706874947931 0 -0.2093714737802316 -0.35881647112622211 0 -0.2016362542873795 -0.36663209048500328 0 -0.20690450713657119 -0.37452671776419177 0 -0.21394458354228149 -0.36912706874947931 0 -0.21158053666561311 -0.37519120831267633 0 -0.20690450713657119 -0.37452671776419177 0 -0.21394458354228149 -0.36912706874947931 0 -0.21521475543234209 -0.37739606013350618 0 -0.22286901041786369 -0.3723634190444261 0 -0.21394458354228149 -0.36912706874947931 0 -0.21521475543234209 -0.37739606013350618 0 -0.21158053666561311 -0.37519120831267633 0 -0.21394458354228149 -0.36912706874947931 0 -0.22128344557614149 -0.35703449148015798 0 -0.21394458354228149 -0.36912706874947931 0 -0.2093714737802316 -0.35881647112622211 0 -0.22128344557614149 -0.35703449148015798 0 -0.21049494000082469 -0.3469956294446177 0 -0.2093714737802316 -0.35881647112622211 0 -0.22128344557614149 -0.35703449148015798 0 -0.22389214302998031 -0.33762274139857279 0 -0.21049494000082469 -0.3469956294446177 0 -0.19869191122576019 -0.35438816508278492 0 -0.21049494000082469 -0.3469956294446177 0 -0.2093714737802316 -0.35881647112622211 0 -0.22947204493107151 -0.26093378227803937 0 -0.21170975670029729 -0.25701645892309 0 -0.2281935186227517 -0.24047850070613719 0 -0.22947204493107151 -0.26093378227803937 0 -0.24801855443892409 -0.27145379452393908 0 -0.25017111810400061 -0.2475965820230723 0 -0.24801855443892409 -0.27145379452393908 0 -0.2245348223534506 -0.27911143417555961 0 -0.23872458463400831 -0.29210380192187352 0 -0.22947204493107151 -0.26093378227803937 0 -0.2245348223534506 -0.27911143417555961 0 -0.21420449936700489 -0.26994592331643857 0 -0.22947204493107151 -0.26093378227803937 0 -0.24801855443892409 -0.27145379452393908 0 -0.2245348223534506 -0.27911143417555961 0 -0.2245348223534506 -0.27911143417555961 0 -0.23872458463400831 -0.29210380192187352 0 -0.21475702877869221 -0.29671974303663129 0 -0.26089877128844191 -0.29197719091332591 0 -0.24801855443892409 -0.27145379452393908 0 -0.23872458463400831 -0.29210380192187352 0 -0.24906769594763661 -0.31374181271971913 0 -0.23872458463400831 -0.29210380192187352 0 -0.2292631324061904 -0.30755953311323841 0 -0.26089877128844191 -0.29197719091332591 0 -0.24906769594763661 -0.31374181271971913 0 -0.23872458463400831 -0.29210380192187352 0 -0.23872458463400831 -0.29210380192187352 0 -0.2292631324061904 -0.30755953311323841 0 -0.21475702877869221 -0.29671974303663129 0 -0.2156458073876111 -0.3195513412047522 0 -0.2292631324061904 -0.30755953311323841 0 -0.21475702877869221 -0.29671974303663129 0 -0.1999382669225373 -0.31216219160805808 0 -0.19612833038233529 -0.29543054966505972 0 -0.21475702877869221 -0.29671974303663129 0 -0.2156458073876111 -0.3195513412047522 0 -0.1999382669225373 -0.31216219160805808 0 -0.21475702877869221 -0.29671974303663129 0 -0.1999382669225373 -0.31216219160805808 0 -0.19612833038233529 -0.29543054966505972 0 -0.18614704883012681 -0.30590953753255712 0 -0.19612833038233529 -0.29543054966505972 0 -0.18293151172469749 -0.29107274458264121 0 -0.18614704883012681 -0.30590953753255712 0 -0.19612833038233529 -0.29543054966505972 0 -0.1930614749433115 -0.28173885362949702 0 -0.18293151172469749 -0.29107274458264121 0 -0.19612833038233529 -0.29543054966505972 0 -0.1930614749433115 -0.28173885362949702 0 -0.20734717477365211 -0.28265863994239171 0 -0.19612833038233529 -0.29543054966505972 0 -0.21475702877869221 -0.29671974303663129 0 -0.20734717477365211 -0.28265863994239171 0 -0.2245348223534506 -0.27911143417555961 0 -0.21475702877869221 -0.29671974303663129 0 -0.20734717477365211 -0.28265863994239171 0 -0.2245348223534506 -0.27911143417555961 0 -0.20734717477365211 -0.28265863994239171 0 -0.21420449936700489 -0.26994592331643857 0 -0.21420449936700489 -0.26994592331643857 0 -0.2013968928171179 -0.27300533583116399 0 -0.19946059924174489 -0.26094368791496142 0 -0.20734717477365211 -0.28265863994239171 0 -0.21420449936700489 -0.26994592331643857 0 -0.2013968928171179 -0.27300533583116399 0 -0.1930614749433115 -0.28173885362949702 0 -0.20734717477365211 -0.28265863994239171 0 -0.2013968928171179 -0.27300533583116399 0 -0.1930614749433115 -0.28173885362949702 0 -0.19058211144209439 -0.26976144453013329 0 -0.1826462498689071 -0.27623221284822652 0 -0.1930614749433115 -0.28173885362949702 0 -0.19058211144209439 -0.26976144453013329 0 -0.2013968928171179 -0.27300533583116399 0 -0.19058211144209439 -0.26976144453013329 0 -0.2013968928171179 -0.27300533583116399 0 -0.19946059924174489 -0.26094368791496142 0 -0.19058211144209439 -0.26976144453013329 0 -0.19946059924174489 -0.26094368791496142 0 -0.1868766369730889 -0.2607105598479072 0 -0.19946059924174489 -0.26094368791496142 0 -0.19242827817645169 -0.25401505885545728 0 -0.1868766369730889 -0.2607105598479072 0 -0.19242827817645169 -0.25401505885545728 0 -0.1868766369730889 -0.2607105598479072 0 -0.18480226679196021 -0.24826169229616421 0 -0.19946059924174489 -0.26094368791496142 0 -0.19242827817645169 -0.25401505885545728 0 -0.1985736096990128 -0.24614429536279631 0 -0.19946059924174489 -0.26094368791496142 0 -0.21170975670029729 -0.25701645892309 0 -0.1985736096990128 -0.24614429536279631 0 -0.22947204493107151 -0.26093378227803937 0 -0.21420449936700489 -0.26994592331643857 0 -0.21170975670029729 -0.25701645892309 0 -0.21420449936700489 -0.26994592331643857 0 -0.19946059924174489 -0.26094368791496142 0 -0.21170975670029729 -0.25701645892309 0 -0.1567973963075309 -0.25298911689451542 0 -0.17869563695923621 -0.26490919421270348 0 -0.15798475735700129 -0.2755383851032952 0 -0.1567973963075309 -0.25298911689451542 0 -0.17869563695923621 -0.26490919421270348 0 -0.1693280777529208 -0.23806043684576109 0 -0.17869563695923621 -0.26490919421270348 0 -0.1693280777529208 -0.23806043684576109 0 -0.1868766369730889 -0.2607105598479072 0 -0.17869563695923621 -0.26490919421270348 0 -0.18480226679196021 -0.24826169229616421 0 -0.17869563695923621 -0.26490919421270348 0 -0.18480226679196021 -0.24826169229616421 0 -0.1693280777529208 -0.23806043684576109 0 -0.19058211144209439 -0.26976144453013329 0 -0.1868766369730889 -0.2607105598479072 0 -0.17869563695923621 -0.26490919421270348 0 -0.1868766369730889 -0.2607105598479072 0 -0.17869563695923621 -0.26490919421270348 0 -0.17869563695923621 -0.26490919421270348 0 -0.1826462498689071 -0.27623221284822652 0 -0.1703101496428317 -0.2824147036141943 0 -0.17869563695923621 -0.26490919421270348 0 -0.1826462498689071 -0.27623221284822652 0 -0.19058211144209439 -0.26976144453013329 0 -0.17869563695923621 -0.26490919421270348 0 -0.1826462498689071 -0.27623221284822652 0 -0.17869563695923621 -0.26490919421270348 0 -0.15798475735700129 -0.2755383851032952 0 -0.17869563695923621 -0.26490919421270348 0 -0.15798475735700129 -0.2755383851032952 0 -0.1703101496428317 -0.2824147036141943 0 -0.15798475735700129 -0.2755383851032952 0 -0.1703101496428317 -0.2824147036141943 0 -0.15278624183639691 -0.29456056856022189 0 -0.1703101496428317 -0.2824147036141943 0 -0.16948232681894551 -0.3054998299838414 0 -0.15278624183639691 -0.29456056856022189 0 -0.1826462498689071 -0.27623221284822652 0 -0.1703101496428317 -0.2824147036141943 0 -0.18293151172469749 -0.29107274458264121 0 -0.1703101496428317 -0.2824147036141943 0 -0.18293151172469749 -0.29107274458264121 0 -0.16948232681894551 -0.3054998299838414 0 -0.1930614749433115 -0.28173885362949702 0 -0.1826462498689071 -0.27623221284822652 0 -0.18293151172469749 -0.29107274458264121 0 -0.18614704883012681 -0.30590953753255712 0 -0.16948232681894551 -0.3054998299838414 0 -0.1822548083021184 -0.3253823718231853 0 -0.18293151172469749 -0.29107274458264121 0 -0.18614704883012681 -0.30590953753255712 0 -0.16948232681894551 -0.3054998299838414 0 -0.16948232681894551 -0.3054998299838414 0 -0.15278624183639691 -0.29456056856022189 0 -0.1494054011437152 -0.31314610863996728 0 -0.1341982600626612 -0.30495182381126562 0 -0.15278624183639691 -0.29456056856022189 0 -0.1494054011437152 -0.31314610863996728 0 -0.13727387775476541 -0.28616757599388498 0 -0.1165629981525295 -0.29679676688447482 0 -0.13727387775476541 -0.28616757599388498 0 -0.1214766773690947 -0.28087895154681292 0 -0.1165629981525295 -0.29679676688447482 0 -0.1341982600626612 -0.30495182381126562 0 -0.13727387775476541 -0.28616757599388498 0 -0.1165629981525295 -0.29679676688447482 0 -0.15798475735700129 -0.2755383851032952 0 -0.13727387775476541 -0.28616757599388498 0 -0.15278624183639691 -0.29456056856022189 0 -0.1341982600626612 -0.30495182381126562 0 -0.13727387775476541 -0.28616757599388498 0 -0.15278624183639691 -0.29456056856022189 0 -0.15798475735700129 -0.2755383851032952 0 -0.13727387775476541 -0.28616757599388498 0 -0.15798475735700129 -0.2755383851032952 0 -0.13727387775476541 -0.28616757599388498 0 -0.1386588652530972 -0.26215428687439962 0 -0.13727387775476541 -0.28616757599388498 0 -0.12586415454684111 -0.26927170171100517 0 -0.1386588652530972 -0.26215428687439962 0 -0.13727387775476541 -0.28616757599388498 0 -0.12586415454684111 -0.26927170171100517 0 -0.1214766773690947 -0.28087895154681292 0 -0.1386588652530972 -0.26215428687439962 0 -0.11765268213748201 -0.25191647056228322 0 -0.13395336741499961 -0.23830992118788569 0 -0.12586415454684111 -0.26927170171100517 0 -0.1386588652530972 -0.26215428687439962 0 -0.11765268213748201 -0.25191647056228322 0 -0.1567973963075309 -0.25298911689451542 0 -0.15798475735700129 -0.2755383851032952 0 -0.1386588652530972 -0.26215428687439962 0 -0.1567973963075309 -0.25298911689451542 0 -0.1386588652530972 -0.26215428687439962 0 -0.13395336741499961 -0.23830992118788569 0 -0.16057034759971939 -0.35101627379419797 0 -0.18166402938296319 -0.34892166171683509 0 -0.17060664325968669 -0.33776690713923829 0 -0.15497974042112109 -0.38481587900558262 0 -0.16211748784701871 -0.36863433620007791 0 -0.1797801385838988 -0.36954016997582778 0 -0.16057034759971939 -0.35101627379419797 0 -0.16211748784701871 -0.36863433620007791 0 -0.1797801385838988 -0.36954016997582778 0 -0.16057034759971939 -0.35101627379419797 0 -0.18495597671138189 -0.36791456932499272 0 -0.16057034759971939 -0.35101627379419797 0 -0.1797801385838988 -0.36954016997582778 0 -0.18495597671138189 -0.36791456932499272 0 -0.19187405106740171 -0.36218895572666199 0 -0.18495597671138189 -0.36791456932499272 0 -0.18166402938296319 -0.34892166171683509 0 -0.1806442729824782 -0.37919721774627302 0 -0.1797801385838988 -0.36954016997582778 0 -0.18495597671138189 -0.36791456932499272 0 -0.16057034759971939 -0.35101627379419797 0 -0.18495597671138189 -0.36791456932499272 0 -0.18166402938296319 -0.34892166171683509 0 -0.18495597671138189 -0.36791456932499272 0 -0.18166402938296319 -0.34892166171683509 0 -0.1956330974763143 -0.34014663377583781 0 -0.18166402938296319 -0.34892166171683509 0 -0.1822548083021184 -0.3253823718231853 0 -0.18166402938296319 -0.34892166171683509 0 -0.1822548083021184 -0.3253823718231853 0 -0.17060664325968669 -0.33776690713923829 0 -0.16948232681894551 -0.3054998299838414 0 -0.1579373877539457 -0.32574732122273481 0 -0.1494054011437152 -0.31314610863996728 0 -0.16948232681894551 -0.3054998299838414 0 -0.1822548083021184 -0.3253823718231853 0 -0.1579373877539457 -0.32574732122273481 0 -0.1822548083021184 -0.3253823718231853 0 -0.1579373877539457 -0.32574732122273481 0 -0.17060664325968669 -0.33776690713923829 0 -0.16057034759971939 -0.35101627379419797 0 -0.1579373877539457 -0.32574732122273481 0 -0.17060664325968669 -0.33776690713923829 0 -0.16057034759971939 -0.35101627379419797 0 -0.1579373877539457 -0.32574732122273481 0 -0.13618471848805699 -0.33411797826340278 0 -0.16057034759971939 -0.35101627379419797 0 -0.13618471848805699 -0.33411797826340278 0 -0.1579373877539457 -0.32574732122273481 0 -0.1494054011437152 -0.31314610863996728 0 -0.13618471848805699 -0.33411797826340278 0 -0.1341982600626612 -0.30495182381126562 0 -0.13618471848805699 -0.33411797826340278 0 -0.1117990893763947 -0.3172196827326077 0 -0.1341982600626612 -0.30495182381126562 0 -0.1494054011437152 -0.31314610863996728 0 -0.13618471848805699 -0.33411797826340278 0 -0.13618471848805699 -0.33411797826340278 0 -0.1265082028076453 -0.36423324733017087 0 -0.11681336504703529 -0.34339819847400921 0 -0.13618471848805699 -0.33411797826340278 0 -0.14492743716657089 -0.35973606310695649 0 -0.1265082028076453 -0.36423324733017087 0 -0.16057034759971939 -0.35101627379419797 0 -0.13618471848805699 -0.33411797826340278 0 -0.14492743716657089 -0.35973606310695649 0 -0.13920790074172401 -0.37762101241416052 0 -0.16211748784701871 -0.36863433620007791 0 -0.14492743716657089 -0.35973606310695649 0 -0.16057034759971939 -0.35101627379419797 0 -0.16211748784701871 -0.36863433620007791 0 -0.14492743716657089 -0.35973606310695649 0 -0.13920790074172401 -0.37762101241416052 0 -0.14492743716657089 -0.35973606310695649 0 -0.1265082028076453 -0.36423324733017087 0 -0.1265082028076453 -0.36423324733017087 0 -0.11435598566653971 -0.37462961811838419 0 -0.10013581131988281 -0.36712989507114269 0 -0.1265082028076453 -0.36423324733017087 0 -0.11435598566653971 -0.37462961811838419 0 -0.1239213866747315 -0.3857965564217859 0 -0.1265082028076453 -0.36423324733017087 0 -0.10013581131988281 -0.36712989507114269 0 -0.11435598566653971 -0.37462961811838419 0 -0.10013581131988281 -0.36712989507114269 0 -0.1068585418638992 -0.38135877365043741 0 -0.10013581131988281 -0.36712989507114269 0 -0.098421055324457662 -0.3460419827929116 0 -0.11681336504703529 -0.34339819847400921 0 -0.10013581131988281 -0.36712989507114269 0 -0.098421055324457662 -0.3460419827929116 0 -0.085874200168133616 -0.35828861711283583 0 -0.1265082028076453 -0.36423324733017087 0 -0.10013581131988281 -0.36712989507114269 0 -0.11681336504703529 -0.34339819847400921 0 -0.13618471848805699 -0.33411797826340278 0 -0.11681336504703529 -0.34339819847400921 0 -0.1117990893763947 -0.3172196827326077 0 -0.11681336504703529 -0.34339819847400921 0 -0.1117990893763947 -0.3172196827326077 0 -0.1016919992760935 -0.33186924135275458 0 -0.13618471848805699 -0.33411797826340278 0 -0.1117990893763947 -0.3172196827326077 0 -0.1117990893763947 -0.3172196827326077 0 -0.1016919992760935 -0.33186924135275458 0 -0.090797283383851513 -0.31964692942686079 0 -0.098421055324457662 -0.3460419827929116 0 -0.1016919992760935 -0.33186924135275458 0 -0.084956874603136168 -0.33472597413566879 0 -0.098421055324457662 -0.3460419827929116 0 -0.11681336504703529 -0.34339819847400921 0 -0.1016919992760935 -0.33186924135275458 0 -0.098421055324457662 -0.3460419827929116 0 -0.084956874603136168 -0.33472597413566879 0 -0.07117651419607364 -0.34995604777517447 0 -0.1016919992760935 -0.33186924135275458 0 -0.084956874603136168 -0.33472597413566879 0 -0.090797283383851513 -0.31964692942686079 0 -0.090797283383851513 -0.31964692942686079 0 -0.077601873677376199 -0.32456537301921551 0 -0.075131256454960979 -0.31152214101092018 0 -0.084956874603136168 -0.33472597413566879 0 -0.090797283383851513 -0.31964692942686079 0 -0.077601873677376199 -0.32456537301921551 0 -0.077601873677376199 -0.32456537301921551 0 -0.06794909715345121 -0.32094839743039982 0 -0.075131256454960979 -0.31152214101092018 0 -0.077601873677376199 -0.32456537301921551 0 -0.06794909715345121 -0.32094839743039982 0 -0.069249978074459775 -0.33328711742070111 0 -0.06794909715345121 -0.32094839743039982 0 -0.069249978074459775 -0.33328711742070111 0 -0.056059153538566282 -0.32509371252920782 0 -0.06794909715345121 -0.32094839743039982 0 -0.075131256454960979 -0.31152214101092018 0 -0.061703224021892843 -0.31027364317195461 0 -0.084956874603136168 -0.33472597413566879 0 -0.077601873677376199 -0.32456537301921551 0 -0.069249978074459775 -0.33328711742070111 0 -0.084956874603136168 -0.33472597413566879 0 -0.069249978074459775 -0.33328711742070111 0 -0.07117651419607364 -0.34995604777517447 0 -0.069249978074459775 -0.33328711742070111 0 -0.07117651419607364 -0.34995604777517447 0 -0.056181201566886073 -0.33913556924087079 0 -0.07117651419607364 -0.34995604777517447 0 -0.073763419832120397 -0.37002654281211428 0 -0.085874200168133616 -0.35828861711283583 0 -0.07117651419607364 -0.34995604777517447 0 -0.073763419832120397 -0.37002654281211428 0 -0.059065733860060088 -0.36169397347445309 0 -0.10013581131988281 -0.36712989507114269 0 -0.073763419832120397 -0.37002654281211428 0 -0.10013581131988281 -0.36712989507114269 0 -0.073763419832120397 -0.37002654281211428 0 -0.085874200168133616 -0.35828861711283583 0 -0.10013581131988281 -0.36712989507114269 0 -0.073763419832120397 -0.37002654281211428 0 -0.092678062415584239 -0.38192682791690408 0 -0.098421055324457662 -0.3460419827929116 0 -0.07117651419607364 -0.34995604777517447 0 -0.085874200168133616 -0.35828861711283583 0 -0.098421055324457662 -0.3460419827929116 0 -0.07117651419607364 -0.34995604777517447 0 -0.09865999631541493 -0.25546331446216519 0 -0.11185304549970131 -0.26650885756602127 0 -0.096700620228791112 -0.27111331706831038 0 -0.12586415454684111 -0.26927170171100517 0 -0.11765268213748201 -0.25191647056228322 0 -0.11185304549970131 -0.26650885756602127 0 -0.09865999631541493 -0.25546331446216519 0 -0.11765268213748201 -0.25191647056228322 0 -0.11185304549970131 -0.26650885756602127 0 -0.12586415454684111 -0.26927170171100517 0 -0.11185304549970131 -0.26650885756602127 0 -0.1214766773690947 -0.28087895154681292 0 -0.11185304549970131 -0.26650885756602127 0 -0.1214766773690947 -0.28087895154681292 0 -0.10817377586514131 -0.27760133639453272 0 -0.10817377586514131 -0.27760133639453272 0 -0.096700620228791112 -0.27111331706831038 0 -0.1001272584040783 -0.28550139311930989 0 -0.11185304549970131 -0.26650885756602127 0 -0.10817377586514131 -0.27760133639453272 0 -0.096700620228791112 -0.27111331706831038 0 -0.096700620228791112 -0.27111331706831038 0 -0.1001272584040783 -0.28550139311930989 0 -0.088075224118705442 -0.28383635712483019 0 -0.1001272584040783 -0.28550139311930989 0 -0.1074492499981116 -0.29356980626742019 0 -0.087413460264733123 -0.30032138720181151 0 -0.10817377586514131 -0.27760133639453272 0 -0.1001272584040783 -0.28550139311930989 0 -0.11075612339244111 -0.28675503131569802 0 -0.1001272584040783 -0.28550139311930989 0 -0.1074492499981116 -0.29356980626742019 0 -0.11075612339244111 -0.28675503131569802 0 -0.1214766773690947 -0.28087895154681292 0 -0.10817377586514131 -0.27760133639453272 0 -0.11075612339244111 -0.28675503131569802 0 -0.1214766773690947 -0.28087895154681292 0 -0.11075612339244111 -0.28675503131569802 0 -0.1165629981525295 -0.29679676688447482 0 -0.1074492499981116 -0.29356980626742019 0 -0.11075612339244111 -0.28675503131569802 0 -0.1165629981525295 -0.29679676688447482 0 -0.1341982600626612 -0.30495182381126562 0 -0.1117990893763947 -0.3172196827326077 0 -0.1108058601636972 -0.3026366055065377 0 -0.1341982600626612 -0.30495182381126562 0 -0.1108058601636972 -0.3026366055065377 0 -0.1341982600626612 -0.30495182381126562 0 -0.1165629981525295 -0.29679676688447482 0 -0.1108058601636972 -0.3026366055065377 0 -0.1074492499981116 -0.29356980626742019 0 -0.1165629981525295 -0.29679676688447482 0 -0.1108058601636972 -0.3026366055065377 0 -0.1074492499981116 -0.29356980626742019 0 -0.1108058601636972 -0.3026366055065377 0 -0.087413460264733123 -0.30032138720181151 0 -0.1108058601636972 -0.3026366055065377 0 -0.087413460264733123 -0.30032138720181151 0 -0.1117990893763947 -0.3172196827326077 0 -0.090797283383851513 -0.31964692942686079 0 -0.087413460264733123 -0.30032138720181151 0 -0.1117990893763947 -0.3172196827326077 0 -0.1108058601636972 -0.3026366055065377 0 -0.087413460264733123 -0.30032138720181151 0 -0.1117990893763947 -0.3172196827326077 0 -0.087413460264733123 -0.30032138720181151 0 -0.087413460264733123 -0.30032138720181151 0 -0.071089873714781981 -0.29870579125857671 0 -0.090797283383851513 -0.31964692942686079 0 -0.087413460264733123 -0.30032138720181151 0 -0.075131256454960979 -0.31152214101092018 0 -0.071089873714781981 -0.29870579125857671 0 -0.054766287164830701 -0.2970901953153432 0 -0.087413460264733123 -0.30032138720181151 0 -0.075131256454960979 -0.31152214101092018 0 -0.071089873714781981 -0.29870579125857671 0 -0.071089873714781981 -0.29870579125857671 0 -0.054766287164830701 -0.2970901953153432 0 -0.061703224021892843 -0.31027364317195461 0 -0.075131256454960979 -0.31152214101092018 0 -0.071089873714781981 -0.29870579125857671 0 -0.061703224021892843 -0.31027364317195461 0 -0.071089873714781981 -0.29870579125857671 0 -0.064057535371581625 -0.29192744740333249 0 -0.054766287164830701 -0.2970901953153432 0 -0.087413460264733123 -0.30032138720181151 0 -0.071089873714781981 -0.29870579125857671 0 -0.073638933814140009 -0.29077617441714237 0 -0.071089873714781981 -0.29870579125857671 0 -0.073638933814140009 -0.29077617441714237 0 -0.064057535371581625 -0.29192744740333249 0 -0.073638933814140009 -0.29077617441714237 0 -0.059864407363547638 -0.28123096163247219 0 -0.073638933814140009 -0.29077617441714237 0 -0.064057535371581625 -0.29192744740333249 0 -0.059864407363547638 -0.28123096163247219 0 -0.073638933814140009 -0.29077617441714237 0 -0.070211260813913268 -0.28105574601116512 0 -0.059864407363547638 -0.28123096163247219 0 -0.073638933814140009 -0.29077617441714237 0 -0.078398946519334878 -0.28238776216520312 0 -0.070211260813913268 -0.28105574601116512 0 -0.073638933814140009 -0.29077617441714237 0 -0.078398946519334878 -0.28238776216520312 0 -0.081881641179228359 -0.28933042022724681 0 -0.087413460264733123 -0.30032138720181151 0 -0.081881641179228359 -0.28933042022724681 0 -0.088075224118705442 -0.28383635712483019 0 -0.1001272584040783 -0.28550139311930989 0 -0.087413460264733123 -0.30032138720181151 0 -0.088075224118705442 -0.28383635712483019 0 -0.078398946519334878 -0.28238776216520312 0 -0.081881641179228359 -0.28933042022724681 0 -0.088075224118705442 -0.28383635712483019 0 -0.087413460264733123 -0.30032138720181151 0 -0.073638933814140009 -0.29077617441714237 0 -0.087413460264733123 -0.30032138720181151 0 -0.073638933814140009 -0.29077617441714237 0 -0.081881641179228359 -0.28933042022724681 0 -0.096700620228791112 -0.27111331706831038 0 -0.088075224118705442 -0.28383635712483019 0 -0.082434156539434617 -0.27342697255046061 0 -0.096700620228791112 -0.27111331706831038 0 -0.082434156539434617 -0.27342697255046061 0 -0.083739471129903001 -0.26200833101358217 0 -0.082434156539434617 -0.27342697255046061 0 -0.073569090798229736 -0.26678452193449043 0 -0.083739471129903001 -0.26200833101358217 0 -0.078398946519334878 -0.28238776216520312 0 -0.082434156539434617 -0.27342697255046061 0 -0.074314777939514645 -0.27508938260006749 0 -0.078398946519334878 -0.28238776216520312 0 -0.088075224118705442 -0.28383635712483019 0 -0.082434156539434617 -0.27342697255046061 0 -0.078398946519334878 -0.28238776216520312 0 -0.074314777939514645 -0.27508938260006749 0 -0.070211260813913268 -0.28105574601116512 0 -0.070211260813913268 -0.28105574601116512 0 -0.065989138694367816 -0.27362653875755749 0 -0.059864407363547638 -0.28123096163247219 0 -0.074314777939514645 -0.27508938260006749 0 -0.070211260813913268 -0.28105574601116512 0 -0.065989138694367816 -0.27362653875755749 0 -0.065989138694367816 -0.27362653875755749 0 -0.073569090798229736 -0.26678452193449043 0 -0.062579433468963969 -0.2644884905666775 0 -0.082434156539434617 -0.27342697255046061 0 -0.074314777939514645 -0.27508938260006749 0 -0.073569090798229736 -0.26678452193449043 0 -0.074314777939514645 -0.27508938260006749 0 -0.065989138694367816 -0.27362653875755749 0 -0.073569090798229736 -0.26678452193449043 0 -0.073569090798229736 -0.26678452193449043 0 -0.07106942269358435 -0.25540659721464293 0 -0.083739471129903001 -0.26200833101358217 0 -0.062579433468963969 -0.2644884905666775 0 -0.07106942269358435 -0.25540659721464293 0 -0.057188324854627742 -0.25405492496477711 0 -0.073569090798229736 -0.26678452193449043 0 -0.062579433468963969 -0.2644884905666775 0 -0.07106942269358435 -0.25540659721464293 0 -0.07106942269358435 -0.25540659721464293 0 -0.057188324854627742 -0.25405492496477711 0 -0.062202585045066157 -0.24295494536855569 0 -0.09865999631541493 -0.25546331446216519 0 -0.096700620228791112 -0.27111331706831038 0 -0.083739471129903001 -0.26200833101358217 0 -0.07106942269358435 -0.25540659721464293 0 -0.083739471129903001 -0.26200833101358217 0 -0.085875630078168175 -0.24846762001429371 0 -0.09865999631541493 -0.25546331446216519 0 -0.083739471129903001 -0.26200833101358217 0 -0.085875630078168175 -0.24846762001429371 0 -0.043870198698508688 -0.25934992769697929 0 -0.034703355262308708 -0.26605344928897928 0 -0.03006799296123144 -0.25724647389131572 0 -0.043870198698508688 -0.25934992769697929 0 -0.043875337793668603 -0.27019462670472177 0 -0.034703355262308708 -0.26605344928897928 0 -0.043870198698508688 -0.25934992769697929 0 -0.03006799296123144 -0.25724647389131572 0 -0.043874421176183821 -0.24537707732808131 0 -0.043870198698508688 -0.25934992769697929 0 -0.057188324854627742 -0.25405492496477711 0 -0.043874421176183821 -0.24537707732808131 0 -0.062579433468963969 -0.2644884905666775 0 -0.057188324854627742 -0.25405492496477711 0 -0.053241749162250038 -0.26352309496871928 0 -0.043870198698508688 -0.25934992769697929 0 -0.057188324854627742 -0.25405492496477711 0 -0.053241749162250038 -0.26352309496871928 0 -0.043870198698508688 -0.25934992769697929 0 -0.053241749162250038 -0.26352309496871928 0 -0.043875337793668603 -0.27019462670472177 0 -0.053241749162250038 -0.26352309496871928 0 -0.054859134980533499 -0.27450145525715791 0 -0.043875337793668603 -0.27019462670472177 0 -0.065989138694367816 -0.27362653875755749 0 -0.062579433468963969 -0.2644884905666775 0 -0.054859134980533499 -0.27450145525715791 0 -0.062579433468963969 -0.2644884905666775 0 -0.053241749162250038 -0.26352309496871928 0 -0.054859134980533499 -0.27450145525715791 0 -0.059864407363547638 -0.28123096163247219 0 -0.054859134980533499 -0.27450145525715791 0 -0.053887001812838731 -0.2849157772209775 0 -0.065989138694367816 -0.27362653875755749 0 -0.059864407363547638 -0.28123096163247219 0 -0.054859134980533499 -0.27450145525715791 0 -0.054859134980533499 -0.27450145525715791 0 -0.045388668573971197 -0.28276497393449979 0 -0.053887001812838731 -0.2849157772209775 0 -0.054859134980533499 -0.27450145525715791 0 -0.043875337793668603 -0.27019462670472177 0 -0.045388668573971197 -0.28276497393449979 0 -0.043875337793668603 -0.27019462670472177 0 -0.032088775198751987 -0.27669330884931298 0 -0.045388668573971197 -0.28276497393449979 0 -0.043875337793668603 -0.27019462670472177 0 -0.034703355262308708 -0.26605344928897928 0 -0.032088775198751987 -0.27669330884931298 0 -0.034072645087516493 -0.2950420814349457 0 -0.054766287164830701 -0.2970901953153432 0 -0.034072645087516493 -0.2950420814349457 0 -0.045388668573971197 -0.28276497393449979 0 -0.054766287164830701 -0.2970901953153432 0 -0.032088775198751987 -0.27669330884931298 0 -0.034072645087516493 -0.2950420814349457 0 -0.045388668573971197 -0.28276497393449979 0 -0.045388668573971197 -0.28276497393449979 0 -0.053887001812838731 -0.2849157772209775 0 -0.054766287164830701 -0.2970901953153432 0 -0.064057535371581625 -0.29192744740333249 0 -0.059864407363547638 -0.28123096163247219 0 -0.057733251899831639 -0.29052066469126392 0 -0.059864407363547638 -0.28123096163247219 0 -0.053887001812838731 -0.2849157772209775 0 -0.057733251899831639 -0.29052066469126392 0 -0.064057535371581625 -0.29192744740333249 0 -0.057733251899831639 -0.29052066469126392 0 -0.054766287164830701 -0.2970901953153432 0 -0.053887001812838731 -0.2849157772209775 0 -0.057733251899831639 -0.29052066469126392 0 -0.054766287164830701 -0.2970901953153432 0 -0.057733251899831639 -0.29052066469126392 0 -0.054766287164830701 -0.2970901953153432 0 -0.054766287164830701 -0.2970901953153432 0 -0.061703224021892843 -0.31027364317195461 0 -0.047226066217984093 -0.31378594900539031 0 -0.054766287164830701 -0.2970901953153432 0 -0.047226066217984093 -0.31378594900539031 0 -0.054766287164830701 -0.2970901953153432 0 -0.044962221231473282 -0.30697117968593329 0 -0.047226066217984093 -0.31378594900539031 0 -0.044962221231473282 -0.30697117968593329 0 -0.047226066217984093 -0.31378594900539031 0 -0.036899830302637118 -0.31513584792037003 0 -0.044962221231473282 -0.30697117968593329 0 -0.040381163282351293 -0.3020265021087622 0 -0.035705589121205812 -0.30855775988283929 0 -0.044962221231473282 -0.30697117968593329 0 -0.036899830302637118 -0.31513584792037003 0 -0.044962221231473282 -0.30697117968593329 0 -0.035705589121205812 -0.30855775988283929 0 -0.036899830302637118 -0.31513584792037003 0 -0.034072645087516493 -0.2950420814349457 0 -0.054766287164830701 -0.2970901953153432 0 -0.040381163282351293 -0.3020265021087622 0 -0.054766287164830701 -0.2970901953153432 0 -0.044962221231473282 -0.30697117968593329 0 -0.040381163282351293 -0.3020265021087622 0 -0.034072645087516493 -0.2950420814349457 0 -0.034263445503813293 -0.3022340226030088 0 -0.026894384524179572 -0.30330974698548802 0 -0.040381163282351293 -0.3020265021087622 0 -0.034263445503813293 -0.3022340226030088 0 -0.035705589121205812 -0.30855775988283929 0 -0.034072645087516493 -0.2950420814349457 0 -0.040381163282351293 -0.3020265021087622 0 -0.034263445503813293 -0.3022340226030088 0 -0.035705589121205812 -0.30855775988283929 0 -0.026894384524179572 -0.30330974698548802 0 -0.035036407421103449 -0.31602991565839422 0 -0.034263445503813293 -0.3022340226030088 0 -0.035705589121205812 -0.30855775988283929 0 -0.026894384524179572 -0.30330974698548802 0 -0.035705589121205812 -0.30855775988283929 0 -0.036899830302637118 -0.31513584792037003 0 -0.034072645087516493 -0.2950420814349457 0 -0.026894384524179572 -0.30330974698548802 0 -0.013379003010202299 -0.29299396755454787 0 -0.026894384524179572 -0.30330974698548802 0 -0.014148816450731169 -0.30566106848931518 0 -0.035036407421103449 -0.31602991565839422 0 -0.014148816450731169 -0.30566106848931518 0 -0.035036407421103449 -0.31602991565839422 0 -0.026894384524179572 -0.30330974698548802 0 -0.014148816450731169 -0.30566106848931518 0 -0.013379003010202299 -0.29299396755454787 0 -0.014148816450731169 -0.30566106848931518 0 -0.013379003010202299 -0.29299396755454787 0 0.0067387745196430242 -0.29529222132023969 0 -0.014148816450731169 -0.30566106848931518 0 0.0067387745196430242 -0.29529222132023969 0 -0.014148816450731169 -0.30566106848931518 0 -0.0082219535966022404 -0.31630686611013298 0 0.0067387745196430242 -0.29529222132023969 0 -0.013379003010202299 -0.29299396755454787 0 0.0073146390671123794 -0.29094585367415521 0 -0.013379003010202299 -0.29299396755454787 0 -0.016985527209809569 -0.27482102052092872 0 -0.0053310229688179646 -0.2794973200367471 0 -0.013379003010202299 -0.29299396755454787 0 -0.0053310229688179646 -0.2794973200367471 0 0.0073146390671123794 -0.29094585367415521 0 -0.034072645087516493 -0.2950420814349457 0 -0.013379003010202299 -0.29299396755454787 0 -0.034072645087516493 -0.2950420814349457 0 -0.013379003010202299 -0.29299396755454787 0 -0.023901470414865941 -0.28506935303227943 0 -0.013379003010202299 -0.29299396755454787 0 -0.023901470414865941 -0.28506935303227943 0 -0.016985527209809569 -0.27482102052092872 0 -0.032088775198751987 -0.27669330884931298 0 -0.034072645087516493 -0.2950420814349457 0 -0.023901470414865941 -0.28506935303227943 0 -0.032088775198751987 -0.27669330884931298 0 -0.023901470414865941 -0.28506935303227943 0 -0.016985527209809569 -0.27482102052092872 0 -0.034703355262308708 -0.26605344928897928 0 -0.032088775198751987 -0.27669330884931298 0 -0.025542824377521509 -0.26813223987501039 0 -0.032088775198751987 -0.27669330884931298 0 -0.025542824377521509 -0.26813223987501039 0 -0.016985527209809569 -0.27482102052092872 0 -0.025542824377521509 -0.26813223987501039 0 -0.016985527209809569 -0.27482102052092872 0 -0.013135790141680811 -0.26450473202623692 0 -0.0053310229688179646 -0.2794973200367471 0 -0.013135790141680811 -0.26450473202623692 0 0.009530566450491015 -0.27422102640786272 0 -0.013135790141680811 -0.26450473202623692 0 0.009530566450491015 -0.27422102640786272 0 -0.016985527209809569 -0.27482102052092872 0 -0.0053310229688179646 -0.2794973200367471 0 -0.013135790141680811 -0.26450473202623692 0 -0.016985527209809569 -0.27482102052092872 0 -0.013135790141680811 -0.26450473202623692 0 -0.013135790141680811 -0.26450473202623692 0 -0.0041270044632565851 -0.24036354253699119 0 -0.013135790141680811 -0.26450473202623692 0 -0.0041270044632565851 -0.24036354253699119 0 0.012734451938935651 -0.25003953391982359 0 -0.013135790141680811 -0.26450473202623692 0 -0.01839886132560872 -0.25019989862372383 0 -0.0041270044632565851 -0.24036354253699119 0 -0.025542824377521509 -0.26813223987501039 0 -0.013135790141680811 -0.26450473202623692 0 -0.03006799296123144 -0.25724647389131572 0 -0.013135790141680811 -0.26450473202623692 0 -0.03006799296123144 -0.25724647389131572 0 -0.013135790141680811 -0.26450473202623692 0 -0.01839886132560872 -0.25019989862372383 0 -0.03006799296123144 -0.25724647389131572 0 -0.034703355262308708 -0.26605344928897928 0 -0.025542824377521509 -0.26813223987501039 0 -0.03006799296123144 -0.25724647389131572 0 -0.043931973067689541 -0.35387011275743752 0 -0.034633539225944511 -0.36474185084795069 0 -0.02809554845712741 -0.35614523990016778 0 -0.043931973067689541 -0.35387011275743752 0 -0.02809554845712741 -0.35614523990016778 0 -0.043931973067689541 -0.35387011275743752 0 -0.039685845271139088 -0.33048170269543808 0 -0.02809554845712741 -0.35614523990016778 0 -0.047391028344357933 -0.37292319055308532 0 -0.0191156070346028 -0.37602886018110959 0 -0.043931973067689541 -0.35387011275743752 0 -0.034633539225944511 -0.36474185084795069 0 -0.047391028344357933 -0.37292319055308532 0 -0.034633539225944511 -0.36474185084795069 0 -0.047391028344357933 -0.37292319055308532 0 -0.0191156070346028 -0.37602886018110959 0 -0.043931973067689541 -0.35387011275743752 0 -0.047391028344357933 -0.37292319055308532 0 -0.073763419832120397 -0.37002654281211428 0 -0.047391028344357933 -0.37292319055308532 0 -0.073763419832120397 -0.37002654281211428 0 -0.059065733860060088 -0.36169397347445309 0 -0.047391028344357933 -0.37292319055308532 0 -0.043931973067689541 -0.35387011275743752 0 -0.059065733860060088 -0.36169397347445309 0 -0.047391028344357933 -0.37292319055308532 0 -0.07117651419607364 -0.34995604777517447 0 -0.043931973067689541 -0.35387011275743752 0 -0.07117651419607364 -0.34995604777517447 0 -0.043931973067689541 -0.35387011275743752 0 -0.059065733860060088 -0.36169397347445309 0 -0.07117651419607364 -0.34995604777517447 0 -0.043931973067689541 -0.35387011275743752 0 -0.056181201566886073 -0.33913556924087079 0 -0.056181201566886073 -0.33913556924087079 0 -0.056059153538566282 -0.32509371252920782 0 -0.039685845271139088 -0.33048170269543808 0 -0.069249978074459775 -0.33328711742070111 0 -0.056181201566886073 -0.33913556924087079 0 -0.056059153538566282 -0.32509371252920782 0 -0.056059153538566282 -0.32509371252920782 0 -0.047226066217984093 -0.31378594900539031 0 -0.039685845271139088 -0.33048170269543808 0 -0.06794909715345121 -0.32094839743039982 0 -0.061703224021892843 -0.31027364317195461 0 -0.056059153538566282 -0.32509371252920782 0 -0.061703224021892843 -0.31027364317195461 0 -0.056059153538566282 -0.32509371252920782 0 -0.047226066217984093 -0.31378594900539031 0 -0.047226066217984093 -0.31378594900539031 0 -0.039685845271139088 -0.33048170269543808 0 -0.047226066217984093 -0.31378594900539031 0 -0.036899830302637118 -0.31513584792037003 0 -0.039685845271139088 -0.33048170269543808 0 -0.036899830302637118 -0.31513584792037003 0 -0.039685845271139088 -0.33048170269543808 0 -0.029622396561453129 -0.33633373574744269 0 -0.036899830302637118 -0.31513584792037003 0 -0.039685845271139088 -0.33048170269543808 0 -0.035705589121205812 -0.30855775988283929 0 -0.035036407421103449 -0.31602991565839422 0 -0.036899830302637118 -0.31513584792037003 0 -0.043931973067689541 -0.35387011275743752 0 -0.039685845271139088 -0.33048170269543808 0 -0.043931973067689541 -0.35387011275743752 0 -0.056181201566886073 -0.33913556924087079 0 -0.039685845271139088 -0.33048170269543808 0 -0.039685845271139088 -0.33048170269543808 0 -0.029622396561453129 -0.33633373574744269 0 -0.02809554845712741 -0.35614523990016778 0 -0.039685845271139088 -0.33048170269543808 0 -0.02809554845712741 -0.35614523990016778 0 -0.036899830302637118 -0.31513584792037003 0 -0.029622396561453129 -0.33633373574744269 0 -0.018820833977762831 -0.33344418949138088 0 -0.029622396561453129 -0.33633373574744269 0 -0.018820833977762831 -0.33344418949138088 0 -0.024609924798603359 -0.34646169872985949 0 -0.035036407421103449 -0.31602991565839422 0 -0.018820833977762831 -0.33344418949138088 0 -0.02019221314916984 -0.31863556666723891 0 -0.014148816450731169 -0.30566106848931518 0 -0.035036407421103449 -0.31602991565839422 0 -0.02019221314916984 -0.31863556666723891 0 -0.018820833977762831 -0.33344418949138088 0 -0.02019221314916984 -0.31863556666723891 0 -0.0082219535966022404 -0.31630686611013298 0 -0.036899830302637118 -0.31513584792037003 0 -0.018820833977762831 -0.33344418949138088 0 -0.035036407421103449 -0.31602991565839422 0 -0.036899830302637118 -0.31513584792037003 0 -0.018820833977762831 -0.33344418949138088 0 -0.018820833977762831 -0.33344418949138088 0 -0.0082219535966022404 -0.31630686611013298 0 0.0029984684333813618 -0.3235223761913148 0 -0.014148816450731169 -0.30566106848931518 0 -0.02019221314916984 -0.31863556666723891 0 -0.0082219535966022404 -0.31630686611013298 0 -0.018820833977762831 -0.33344418949138088 0 -0.00074183765288565566 -0.35175253106238907 0 0.0029984684333813618 -0.3235223761913148 0 -0.018820833977762831 -0.33344418949138088 0 -0.00074183765288565566 -0.35175253106238907 0 -0.018820833977762831 -0.33344418949138088 0 -0.00074183765288565566 -0.35175253106238907 0 -0.0064186499760666097 -0.35629006750430381 0 -0.0064186499760666097 -0.35629006750430381 0 -0.024609924798603359 -0.34646169872985949 0 -0.0064186499760666097 -0.35629006750430381 0 -0.011731167534443251 -0.35849621545978883 0 -0.024609924798603359 -0.34646169872985949 0 -0.001478254409315928 -0.35731067486246981 0 -0.00074183765288565566 -0.35175253106238907 0 -0.0064186499760666097 -0.35629006750430381 0 -0.001478254409315928 -0.35731067486246981 0 -0.00074183765288565566 -0.35175253106238907 0 -0.011731167534443251 -0.35849621545978883 0 -0.02809554845712741 -0.35614523990016778 0 -0.029622396561453129 -0.33633373574744269 0 -0.02809554845712741 -0.35614523990016778 0 -0.024609924798603359 -0.34646169872985949 0 -0.018820833977762831 -0.33344418949138088 0 -0.0064186499760666097 -0.35629006750430381 0 -0.024609924798603359 -0.34646169872985949 0 -0.011731167534443251 -0.35849621545978883 0 -0.02809554845712741 -0.35614523990016778 0 -0.024609924798603359 -0.34646169872985949 0 -0.011731167534443251 -0.35849621545978883 0 -0.02809554845712741 -0.35614523990016778 0 -0.014052108101716721 -0.36666868166756672 0 -0.02809554845712741 -0.35614523990016778 0 -0.014052108101716721 -0.36666868166756672 0 -0.0191156070346028 -0.37602886018110959 0 -0.02809554845712741 -0.35614523990016778 0 -0.0191156070346028 -0.37602886018110959 0 -0.034633539225944511 -0.36474185084795069 0 -0.02809554845712741 -0.35614523990016778 0 -0.0191156070346028 -0.37602886018110959 0 -0.004500284718328351 -0.36977183894340099 0 -0.0191156070346028 -0.37602886018110959 0 0.0092917282261142653 -0.3791490187586205 0 -0.014052108101716721 -0.36666868166756672 0 -0.004500284718328351 -0.36977183894340099 0 -0.0191156070346028 -0.37602886018110959 0 -0.014052108101716721 -0.36666868166756672 0 -0.0057463793438692753 -0.36405249157359848 0 -0.004500284718328351 -0.36977183894340099 0 -0.011731167534443251 -0.35849621545978883 0 -0.014052108101716721 -0.36666868166756672 0 -0.0057463793438692753 -0.36405249157359848 0 -0.0064186499760666097 -0.35629006750430381 0 -0.011731167534443251 -0.35849621545978883 0 -0.0057463793438692753 -0.36405249157359848 0 -0.0064186499760666097 -0.35629006750430381 0 -0.0057463793438692753 -0.36405249157359848 0 0.0079703136112085557 -0.36903565429293261 0 -0.0057463793438692753 -0.36405249157359848 0 -0.004500284718328351 -0.36977183894340099 0 0.0079703136112085557 -0.36903565429293261 0 -0.0079209576991021331 -0.38208384091849129 0 -0.0191156070346028 -0.37602886018110959 0 0.0092917282261142653 -0.3791490187586205 0 -0.0191156070346028 -0.37602886018110959 0 0.0092917282261142653 -0.3791490187586205 0 -0.0079209576991021331 -0.38208384091849129 0 -0.007060478936782748 -0.39124467573747351 0 0.003337738236402286 -0.38678809717290258 0 -0.01363180035116242 -0.38429899690717539 0 -0.0079209576991021331 -0.38208384091849129 0 -0.007060478936782748 -0.39124467573747351 0 -0.01363180035116242 -0.38429899690717539 0 -0.007060478936782748 -0.39124467573747351 0 -0.01766664478497882 -0.38898784702048012 0 -0.01363180035116242 -0.38429899690717539 0 -0.0079209576991021331 -0.38208384091849129 0 -0.0191156070346028 -0.37602886018110959 0 -0.0048861065808698178 -0.40542465587961452 0 -0.007060478936782748 -0.39124467573747351 0 0.0068076755599869899 -0.3945460342361608 0 -0.007060478936782748 -0.39124467573747351 0 -0.016803169238540291 -0.39974791039234819 0 -0.01766664478497882 -0.38898784702048012 0 -0.0048861065808698178 -0.40542465587961452 0 -0.016803169238540291 -0.39974791039234819 0 -0.016790356212619859 -0.41259516980238742 0 -0.0048861065808698178 -0.40542465587961452 0 -0.007060478936782748 -0.39124467573747351 0 -0.016803169238540291 -0.39974791039234819 0 -0.016803169238540291 -0.39974791039234819 0 -0.028267195079938291 -0.39410818347186027 0 -0.01766664478497882 -0.38898784702048012 0 -0.016803169238540291 -0.39974791039234819 0 -0.028267195079938291 -0.39410818347186027 0 -0.02880068363776446 -0.40768829132817852 0 -0.01363180035116242 -0.38429899690717539 0 -0.0191156070346028 -0.37602886018110959 0 -0.018399885167198021 -0.38319007003078193 0 -0.0191156070346028 -0.37602886018110959 0 -0.018399885167198021 -0.38319007003078193 0 -0.023726343216251208 -0.38318010236544248 0 -0.028267195079938291 -0.39410818347186027 0 -0.01766664478497882 -0.38898784702048012 0 -0.023726343216251208 -0.38318010236544248 0 -0.01363180035116242 -0.38429899690717539 0 -0.018399885167198021 -0.38319007003078193 0 -0.01766664478497882 -0.38898784702048012 0 -0.018399885167198021 -0.38319007003078193 0 -0.01766664478497882 -0.38898784702048012 0 -0.023726343216251208 -0.38318010236544248 0 -0.028267195079938291 -0.39410818347186027 0 -0.023726343216251208 -0.38318010236544248 0 -0.031792755786060667 -0.38339417805054887 0 -0.0191156070346028 -0.37602886018110959 0 -0.023726343216251208 -0.38318010236544248 0 -0.031792755786060667 -0.38339417805054887 0 -0.047391028344357933 -0.37292319055308532 0 -0.0191156070346028 -0.37602886018110959 0 -0.031792755786060667 -0.38339417805054887 0 -0.047391028344357933 -0.37292319055308532 0 -0.040092595057056403 -0.39124957442182812 0 -0.052368325376152873 -0.40033900787131488 0 -0.047391028344357933 -0.37292319055308532 0 -0.031792755786060667 -0.38339417805054887 0 -0.040092595057056403 -0.39124957442182812 0 -0.028267195079938291 -0.39410818347186027 0 -0.031792755786060667 -0.38339417805054887 0 -0.040092595057056403 -0.39124957442182812 0 -0.028267195079938291 -0.39410818347186027 0 -0.040226756189419531 -0.40543647998966592 0 -0.040092595057056403 -0.39124957442182812 0 -0.028267195079938291 -0.39410818347186027 0 -0.040226756189419531 -0.40543647998966592 0 -0.02880068363776446 -0.40768829132817852 0 -0.040226756189419531 -0.40543647998966592 0 -0.040092595057056403 -0.39124957442182812 0 -0.052368325376152873 -0.40033900787131488 0 -0.052368325376152873 -0.40033900787131488 0 -0.068095112897977303 -0.40051058905645692 0 -0.064332889439668084 -0.41173708432475142 0 -0.052368325376152873 -0.40033900787131488 0 -0.063333732034307033 -0.38537183544613812 0 -0.068095112897977303 -0.40051058905645692 0 -0.047391028344357933 -0.37292319055308532 0 -0.052368325376152873 -0.40033900787131488 0 -0.063333732034307033 -0.38537183544613812 0 -0.047391028344357933 -0.37292319055308532 0 -0.052368325376152873 -0.40033900787131488 0 -0.073763419832120397 -0.37002654281211428 0 -0.047391028344357933 -0.37292319055308532 0 -0.063333732034307033 -0.38537183544613812 0 -0.057345622407949083 -0.42775482518954411 0 -0.055526583284724762 -0.42890124435982602 0 -0.061519325166891257 -0.45074430555385442 0 -0.051998150756492202 -0.42715788550980299 0 -0.057345622407949083 -0.42775482518954411 0 -0.047554028522122087 -0.42025266908301168 0 -0.051998150756492202 -0.42715788550980299 0 -0.050497049799060653 -0.43068004263561549 0 -0.055526583284724762 -0.42890124435982602 0 -0.051998150756492202 -0.42715788550980299 0 -0.048002697653298759 -0.42741823399037832 0 -0.047554028522122087 -0.42025266908301168 0 -0.051998150756492202 -0.42715788550980299 0 -0.048002697653298759 -0.42741823399037832 0 -0.050497049799060653 -0.43068004263561549 0 -0.050497049799060653 -0.43068004263561549 0 -0.051903505710664342 -0.43700221043851473 0 -0.044521925532470322 -0.43252943273423577 0 -0.048002697653298759 -0.42741823399037832 0 -0.050497049799060653 -0.43068004263561549 0 -0.044521925532470322 -0.43252943273423577 0 -0.051903505710664342 -0.43700221043851473 0 -0.044521925532470322 -0.43252943273423577 0 -0.046026957097666049 -0.44205662321088313 0 -0.050497049799060653 -0.43068004263561549 0 -0.051903505710664342 -0.43700221043851473 0 -0.055526583284724762 -0.42890124435982602 0 -0.051998150756492202 -0.42715788550980299 0 -0.057345622407949083 -0.42775482518954411 0 -0.055526583284724762 -0.42890124435982602 0 -0.057345622407949083 -0.42775482518954411 0 -0.055526583284724762 -0.42890124435982602 0 -0.052368325376152873 -0.40033900787131488 0 -0.057345622407949083 -0.42775482518954411 0 -0.047554028522122087 -0.42025266908301168 0 -0.052368325376152873 -0.40033900787131488 0 -0.057345622407949083 -0.42775482518954411 0 -0.052368325376152873 -0.40033900787131488 0 -0.057345622407949083 -0.42775482518954411 0 -0.064332889439668084 -0.41173708432475142 0 -0.040226756189419531 -0.40543647998966592 0 -0.052368325376152873 -0.40033900787131488 0 -0.047554028522122087 -0.42025266908301168 0 -0.047554028522122087 -0.42025266908301168 0 -0.03716948384482438 -0.41818268395074598 0 -0.042629481865219553 -0.42532028499465241 0 -0.040226756189419531 -0.40543647998966592 0 -0.047554028522122087 -0.42025266908301168 0 -0.03716948384482438 -0.41818268395074598 0 -0.040226756189419531 -0.40543647998966592 0 -0.03716948384482438 -0.41818268395074598 0 -0.02880068363776446 -0.40768829132817852 0 -0.03716948384482438 -0.41818268395074598 0 -0.035899273773382173 -0.4282184052148903 0 -0.042629481865219553 -0.42532028499465241 0 -0.03716948384482438 -0.41818268395074598 0 -0.035899273773382173 -0.4282184052148903 0 -0.02424810871736003 -0.42687662501771889 0 -0.035899273773382173 -0.4282184052148903 0 -0.042629481865219553 -0.42532028499465241 0 -0.044521925532470322 -0.43252943273423577 0 -0.048002697653298759 -0.42741823399037832 0 -0.042629481865219553 -0.42532028499465241 0 -0.044521925532470322 -0.43252943273423577 0 -0.048002697653298759 -0.42741823399037832 0 -0.047554028522122087 -0.42025266908301168 0 -0.042629481865219553 -0.42532028499465241 0 -0.035899273773382173 -0.4282184052148903 0 -0.044521925532470322 -0.43252943273423577 0 -0.034908502576409539 -0.43835023938364592 0 -0.035899273773382173 -0.4282184052148903 0 -0.02424810871736003 -0.42687662501771889 0 -0.034908502576409539 -0.43835023938364592 0 -0.02424810871736003 -0.42687662501771889 0 -0.024876996291570651 -0.44438765293220123 0 -0.034908502576409539 -0.43835023938364592 0 -0.02424810871736003 -0.42687662501771889 0 -0.02880068363776446 -0.40768829132817852 0 -0.016790356212619859 -0.41259516980238742 0 -0.03716948384482438 -0.41818268395074598 0 -0.02424810871736003 -0.42687662501771889 0 -0.02880068363776446 -0.40768829132817852 0 -0.016803169238540291 -0.39974791039234819 0 -0.02880068363776446 -0.40768829132817852 0 -0.016790356212619859 -0.41259516980238742 0 -0.0048861065808698178 -0.40542465587961452 0 -0.016790356212619859 -0.41259516980238742 0 -0.003055687984291951 -0.42596979278454739 0 -0.0048861065808698178 -0.40542465587961452 0 -0.003055687984291951 -0.42596979278454739 0 0.0075853773270290192 -0.40844435232476972 0 -0.02424810871736003 -0.42687662501771889 0 -0.016790356212619859 -0.41259516980238742 0 -0.003055687984291951 -0.42596979278454739 0 -0.016790356212619859 -0.41259516980238742 0 -0.003055687984291951 -0.42596979278454739 0 -0.02424810871736003 -0.42687662501771889 0 -0.003055687984291951 -0.42596979278454739 0 -0.012437171173092929 -0.44142074813906568 0 -0.003055687984291951 -0.42596979278454739 0 -0.012437171173092929 -0.44142074813906568 0 -0.003055687984291951 -0.42596979278454739 0 -0.001755183903042279 -0.43806820660387241 0 -0.012437171173092929 -0.44142074813906568 0 -0.0051002028656366404 -0.44856538267358542 0 -0.0218186543618944 -0.45687170349358369 0 -0.012437171173092929 -0.44142074813906568 0 -0.0051002028656366404 -0.44856538267358542 0 -0.0218186543618944 -0.45687170349358369 0 -0.001755183903042279 -0.43806820660387241 0 -0.012437171173092929 -0.44142074813906568 0 -0.0051002028656366404 -0.44856538267358542 0 -0.0061478359479250812 -0.46818095550108468 0 -0.0218186543618944 -0.45687170349358369 0 -0.018459505999747321 -0.47300087970245502 0 -0.0051002028656366404 -0.44856538267358542 0 -0.0061478359479250812 -0.46818095550108468 0 -0.0218186543618944 -0.45687170349358369 0 -0.0051002028656366404 -0.44856538267358542 0 -0.0061478359479250812 -0.46818095550108468 0 0.0045859136501480262 -0.46508154695711162 0 -0.0218186543618944 -0.45687170349358369 0 -0.034148857745689057 -0.47717909179894008 0 -0.02424810871736003 -0.42687662501771889 0 -0.012437171173092929 -0.44142074813906568 0 -0.024876996291570651 -0.44438765293220123 0 -0.0218186543618944 -0.45687170349358369 0 -0.024876996291570651 -0.44438765293220123 0 -0.038603770458478182 -0.45302533036643688 0 -0.012437171173092929 -0.44142074813906568 0 -0.0218186543618944 -0.45687170349358369 0 -0.012437171173092929 -0.44142074813906568 0 -0.0218186543618944 -0.45687170349358369 0 -0.024876996291570651 -0.44438765293220123 0 -0.0055307206059959091 -0.5 0 -0.017859931064021971 -0.48610674151403482 0 0.00069633285143837903 -0.4869416854498389 0 -0.0061478359479250812 -0.46818095550108468 0 -0.010442735040064001 -0.4785575655418533 0 0.00069633285143837903 -0.4869416854498389 0 -0.0061478359479250812 -0.46818095550108468 0 0.0045859136501480262 -0.46508154695711162 0 0.00069633285143837903 -0.4869416854498389 0 -0.010442735040064001 -0.4785575655418533 0 -0.017859931064021971 -0.48610674151403482 0 0.00069633285143837903 -0.4869416854498389 0 -0.010442735040064001 -0.4785575655418533 0 -0.018459505999747321 -0.47300087970245502 0 -0.017859931064021971 -0.48610674151403482 0 -0.0061478359479250812 -0.46818095550108468 0 -0.010442735040064001 -0.4785575655418533 0 -0.018459505999747321 -0.47300087970245502 0 -0.018459505999747321 -0.47300087970245502 0 -0.017859931064021971 -0.48610674151403482 0 -0.034148857745689057 -0.47717909179894008 0 -0.017859931064021971 -0.48610674151403482 0 -0.029728880262484571 -0.48843842040023883 0 -0.034148857745689057 -0.47717909179894008 0 -0.0218186543618944 -0.45687170349358369 0 -0.018459505999747321 -0.47300087970245502 0 -0.034148857745689057 -0.47717909179894008 0 -0.0055307206059959091 -0.5 0 -0.017859931064021971 -0.48610674151403482 0 -0.033283955319700298 -0.5 0 -0.017859931064021971 -0.48610674151403482 0 -0.029728880262484571 -0.48843842040023883 0 -0.033283955319700298 -0.5 0 -0.046479061129484189 -0.49748648010429608 0 -0.046254210406812678 -0.48281104828443799 0 -0.034148857745689057 -0.47717909179894008 0 -0.029728880262484571 -0.48843842040023883 0 -0.046479061129484189 -0.49748648010429608 0 -0.034148857745689057 -0.47717909179894008 0 -0.046479061129484189 -0.49748648010429608 0 -0.034148857745689057 -0.47717909179894008 0 -0.029728880262484571 -0.48843842040023883 0 -0.046479061129484189 -0.49748648010429608 0 -0.033283955319700298 -0.5 0 -0.046254210406812678 -0.48281104828443799 0 -0.034148857745689057 -0.47717909179894008 0 -0.048305920782063347 -0.4700315187180919 0 -0.046254210406812678 -0.48281104828443799 0 -0.048305920782063347 -0.4700315187180919 0 -0.056083001970014153 -0.48654710251642441 0 -0.048305920782063347 -0.4700315187180919 0 -0.056083001970014153 -0.48654710251642441 0 -0.065693027925834799 -0.47373378591816429 0 -0.046479061129484189 -0.49748648010429608 0 -0.033283955319700298 -0.5 0 -0.061037190033404853 -0.5 0 -0.046479061129484189 -0.49748648010429608 0 -0.046254210406812678 -0.48281104828443799 0 -0.056083001970014153 -0.48654710251642441 0 -0.056083001970014153 -0.48654710251642441 0 -0.061037190033404853 -0.5 0 -0.069866730684778333 -0.49672326628247432 0 -0.046479061129484189 -0.49748648010429608 0 -0.056083001970014153 -0.48654710251642441 0 -0.061037190033404853 -0.5 0 -0.046026957097666049 -0.44205662321088313 0 -0.034908502576409539 -0.43835023938364592 0 -0.038603770458478182 -0.45302533036643688 0 -0.044521925532470322 -0.43252943273423577 0 -0.046026957097666049 -0.44205662321088313 0 -0.034908502576409539 -0.43835023938364592 0 -0.024876996291570651 -0.44438765293220123 0 -0.034908502576409539 -0.43835023938364592 0 -0.038603770458478182 -0.45302533036643688 0 -0.0218186543618944 -0.45687170349358369 0 -0.048305920782063347 -0.4700315187180919 0 -0.0218186543618944 -0.45687170349358369 0 -0.048305920782063347 -0.4700315187180919 0 -0.038603770458478182 -0.45302533036643688 0 -0.0218186543618944 -0.45687170349358369 0 -0.034148857745689057 -0.47717909179894008 0 -0.048305920782063347 -0.4700315187180919 0 -0.048305920782063347 -0.4700315187180919 0 -0.038603770458478182 -0.45302533036643688 0 -0.061519325166891257 -0.45074430555385442 0 -0.048305920782063347 -0.4700315187180919 0 -0.061519325166891257 -0.45074430555385442 0 -0.065693027925834799 -0.47373378591816429 0 -0.057345622407949083 -0.42775482518954411 0 -0.061519325166891257 -0.45074430555385442 0 -0.051903505710664342 -0.43700221043851473 0 -0.055526583284724762 -0.42890124435982602 0 -0.061519325166891257 -0.45074430555385442 0 -0.046026957097666049 -0.44205662321088313 0 -0.038603770458478182 -0.45302533036643688 0 -0.061519325166891257 -0.45074430555385442 0 -0.051903505710664342 -0.43700221043851473 0 -0.046026957097666049 -0.44205662321088313 0 -0.061519325166891257 -0.45074430555385442 0 -0.082015978345885726 -0.44814037298892451 0 -0.07017554786410661 -0.43656236488652622 0 -0.080578545932788431 -0.43064300609484668 0 -0.061519325166891257 -0.45074430555385442 0 -0.082015978345885726 -0.44814037298892451 0 -0.07017554786410661 -0.43656236488652622 0 -0.057345622407949083 -0.42775482518954411 0 -0.061519325166891257 -0.45074430555385442 0 -0.07017554786410661 -0.43656236488652622 0 -0.061519325166891257 -0.45074430555385442 0 -0.065693027925834799 -0.47373378591816429 0 -0.061519325166891257 -0.45074430555385442 0 -0.079006729103595102 -0.46442825241637531 0 -0.082015978345885726 -0.44814037298892451 0 -0.061519325166891257 -0.45074430555385442 0 -0.079006729103595102 -0.46442825241637531 0 -0.065693027925834799 -0.47373378591816429 0 -0.079006729103595102 -0.46442825241637531 0 -0.082015978345885726 -0.44814037298892451 0 -0.099120206555057877 -0.46413008841704401 0 -0.082015978345885726 -0.44814037298892451 0 -0.1028159585778739 -0.43897605104635451 0 -0.080578545932788431 -0.43064300609484668 0 -0.056083001970014153 -0.48654710251642441 0 -0.069866730684778333 -0.49672326628247432 0 -0.065693027925834799 -0.47373378591816429 0 -0.061037190033404853 -0.5 0 -0.069866730684778333 -0.49672326628247432 0 -0.088790424747109464 -0.5 0 -0.069866730684778333 -0.49672326628247432 0 -0.065693027925834799 -0.47373378591816429 0 -0.079006729103595102 -0.46442825241637531 0 -0.065693027925834799 -0.47373378591816429 0 -0.084382571520383101 -0.48097484681393349 0 -0.069866730684778333 -0.49672326628247432 0 -0.065693027925834799 -0.47373378591816429 0 -0.084382571520383101 -0.48097484681393349 0 -0.079006729103595102 -0.46442825241637531 0 -0.084382571520383101 -0.48097484681393349 0 -0.099120206555057877 -0.46413008841704401 0 -0.084382571520383101 -0.48097484681393349 0 -0.088790424747109464 -0.5 0 -0.1026670421039618 -0.4846247566545655 0 -0.069866730684778333 -0.49672326628247432 0 -0.084382571520383101 -0.48097484681393349 0 -0.088790424747109464 -0.5 0 -0.088790424747109464 -0.5 0 -0.1026670421039618 -0.4846247566545655 0 -0.1165436594608141 -0.5 0 -0.084382571520383101 -0.48097484681393349 0 -0.1026670421039618 -0.4846247566545655 0 -0.099120206555057877 -0.46413008841704401 0 -0.1026670421039618 -0.4846247566545655 0 -0.1208098881513872 -0.47815730621852143 0 -0.099120206555057877 -0.46413008841704401 0 -0.1026670421039618 -0.4846247566545655 0 -0.1208098881513872 -0.47815730621852143 0 -0.1165436594608141 -0.5 0 -0.082015978345885726 -0.44814037298892451 0 -0.1028159585778739 -0.43897605104635451 0 -0.099120206555057877 -0.46413008841704401 0 -0.1028159585778739 -0.43897605104635451 0 -0.099120206555057877 -0.46413008841704401 0 -0.1212510133860321 -0.45025040205905559 0 -0.1208098881513872 -0.47815730621852143 0 -0.099120206555057877 -0.46413008841704401 0 -0.1212510133860321 -0.45025040205905559 0 -0.1028159585778739 -0.43897605104635451 0 -0.1212510133860321 -0.45025040205905559 0 -0.1138478817127332 -0.42823018870096158 0 -0.12913091997580931 -0.43012903757565679 0 -0.1212510133860321 -0.45025040205905559 0 -0.1138478817127332 -0.42823018870096158 0 -0.12913091997580931 -0.43012903757565679 0 -0.1138478817127332 -0.42823018870096158 0 -0.1244403968609379 -0.41785413351448453 0 -0.1028159585778739 -0.43897605104635451 0 -0.105378944095566 -0.41536729706509201 0 -0.080578545932788431 -0.43064300609484668 0 -0.1028159585778739 -0.43897605104635451 0 -0.1138478817127332 -0.42823018870096158 0 -0.105378944095566 -0.41536729706509201 0 -0.105378944095566 -0.41536729706509201 0 -0.1017294652524713 -0.39978264601103958 0 -0.079537543830211166 -0.41376873560029348 0 -0.1301793422583436 -0.40009158803533729 0 -0.105378944095566 -0.41536729706509201 0 -0.1244403968609379 -0.41785413351448453 0 -0.1301793422583436 -0.40009158803533729 0 -0.105378944095566 -0.41536729706509201 0 -0.1138478817127332 -0.42823018870096158 0 -0.105378944095566 -0.41536729706509201 0 -0.1244403968609379 -0.41785413351448453 0 -0.1301793422583436 -0.40009158803533729 0 -0.1239213866747315 -0.3857965564217859 0 -0.1017294652524713 -0.39978264601103958 0 -0.1301793422583436 -0.40009158803533729 0 -0.105378944095566 -0.41536729706509201 0 -0.1017294652524713 -0.39978264601103958 0 -0.1239213866747315 -0.3857965564217859 0 -0.1017294652524713 -0.39978264601103958 0 -0.11435598566653971 -0.37462961811838419 0 -0.1239213866747315 -0.3857965564217859 0 -0.1068585418638992 -0.38135877365043741 0 -0.1239213866747315 -0.3857965564217859 0 -0.1068585418638992 -0.38135877365043741 0 -0.1017294652524713 -0.39978264601103958 0 -0.1068585418638992 -0.38135877365043741 0 -0.1017294652524713 -0.39978264601103958 0 -0.092678062415584239 -0.38192682791690408 0 -0.10013581131988281 -0.36712989507114269 0 -0.1068585418638992 -0.38135877365043741 0 -0.092678062415584239 -0.38192682791690408 0 -0.1017294652524713 -0.39978264601103958 0 -0.080903073809547393 -0.39133628203978649 0 -0.092678062415584239 -0.38192682791690408 0 -0.1017294652524713 -0.39978264601103958 0 -0.080903073809547393 -0.39133628203978649 0 -0.079537543830211166 -0.41376873560029348 0 -0.073763419832120397 -0.37002654281211428 0 -0.080903073809547393 -0.39133628203978649 0 -0.092678062415584239 -0.38192682791690408 0 -0.073763419832120397 -0.37002654281211428 0 -0.080903073809547393 -0.39133628203978649 0 -0.063333732034307033 -0.38537183544613812 0 -0.080903073809547393 -0.39133628203978649 0 -0.063333732034307033 -0.38537183544613812 0 -0.068095112897977303 -0.40051058905645692 0 -0.080903073809547393 -0.39133628203978649 0 -0.068095112897977303 -0.40051058905645692 0 -0.079537543830211166 -0.41376873560029348 0 -0.057345622407949083 -0.42775482518954411 0 -0.079537543830211166 -0.41376873560029348 0 -0.057345622407949083 -0.42775482518954411 0 -0.064332889439668084 -0.41173708432475142 0 -0.079537543830211166 -0.41376873560029348 0 -0.068095112897977303 -0.40051058905645692 0 -0.064332889439668084 -0.41173708432475142 0 -0.079537543830211166 -0.41376873560029348 0 -0.071909315008763824 -0.42718223294280261 0 -0.080578545932788431 -0.43064300609484668 0 -0.079537543830211166 -0.41376873560029348 0 -0.057345622407949083 -0.42775482518954411 0 -0.071909315008763824 -0.42718223294280261 0 -0.079537543830211166 -0.41376873560029348 0 -0.057345622407949083 -0.42775482518954411 0 -0.07017554786410661 -0.43656236488652622 0 -0.071909315008763824 -0.42718223294280261 0 -0.07017554786410661 -0.43656236488652622 0 -0.071909315008763824 -0.42718223294280261 0 -0.080578545932788431 -0.43064300609484668 0 -0.105378944095566 -0.41536729706509201 0 -0.080578545932788431 -0.43064300609484668 0 -0.1017294652524713 -0.39978264601103958 0 -0.079537543830211166 -0.41376873560029348 0 -0.105378944095566 -0.41536729706509201 0 -0.080578545932788431 -0.43064300609484668 0 -0.079537543830211166 -0.41376873560029348 0 -0.080477978940472567 -0.0872445375478616 0 -0.090760719121338262 -0.082546263834110969 0 -0.083370814207337468 -0.076580459398932224 0 -0.080477978940472567 -0.0872445375478616 0 -0.091717872188146227 -0.093208548821597861 0 -0.081341009611255344 -0.099140016388994001 0 -0.080477978940472567 -0.0872445375478616 0 -0.091717872188146227 -0.093208548821597861 0 -0.090760719121338262 -0.082546263834110969 0 -0.080477978940472567 -0.0872445375478616 0 -0.083370814207337468 -0.076580459398932224 0 -0.072958403535949207 -0.069113362370813003 0 -0.090760719121338262 -0.082546263834110969 0 -0.090598781593882322 -0.073386454554821262 0 -0.099043164252073407 -0.078319548330645153 0 -0.090760719121338262 -0.082546263834110969 0 -0.090598781593882322 -0.073386454554821262 0 -0.083370814207337468 -0.076580459398932224 0 -0.090598781593882322 -0.073386454554821262 0 -0.089294531887962839 -0.064944775316390785 0 -0.08322438274124605 -0.068166807502789306 0 -0.090598781593882322 -0.073386454554821262 0 -0.089294531887962839 -0.064944775316390785 0 -0.096753719942633085 -0.069858419171881514 0 -0.089294531887962839 -0.064944775316390785 0 -0.08322438274124605 -0.068166807502789306 0 -0.084006350731239035 -0.058330545374601243 0 -0.08322438274124605 -0.068166807502789306 0 -0.072958403535949207 -0.069113362370813003 0 -0.084006350731239035 -0.058330545374601243 0 -0.08322438274124605 -0.068166807502789306 0 -0.083370814207337468 -0.076580459398932224 0 -0.072958403535949207 -0.069113362370813003 0 -0.090598781593882322 -0.073386454554821262 0 -0.08322438274124605 -0.068166807502789306 0 -0.083370814207337468 -0.076580459398932224 0 -0.072958403535949207 -0.069113362370813003 0 -0.068898019160179541 -0.066534685844938518 0 -0.059867155803332461 -0.079483933276066843 0 -0.080477978940472567 -0.0872445375478616 0 -0.072958403535949207 -0.069113362370813003 0 -0.06692943455767672 -0.098509159914828726 0 -0.072958403535949207 -0.069113362370813003 0 -0.06692943455767672 -0.098509159914828726 0 -0.059867155803332461 -0.079483933276066843 0 -0.072958403535949207 -0.069113362370813003 0 -0.06692943455767672 -0.098509159914828726 0 -0.06692943455767672 -0.098509159914828726 0 -0.075768464350862305 -0.11095984549309119 0 -0.081341009611255344 -0.099140016388994001 0 -0.080477978940472567 -0.0872445375478616 0 -0.06692943455767672 -0.098509159914828726 0 -0.081341009611255344 -0.099140016388994001 0 -0.06692943455767672 -0.098509159914828726 0 -0.060900465579404449 -0.12790495745884439 0 -0.075768464350862305 -0.11095984549309119 0 -0.075870784320717977 -0.1239439361399271 0 -0.060900465579404449 -0.12790495745884439 0 -0.06692943455767672 -0.098509159914828726 0 -0.075768464350862305 -0.11095984549309119 0 -0.060900465579404449 -0.12790495745884439 0 -0.075870784320717977 -0.1239439361399271 0 -0.088907882466195909 -0.1204944288459702 0 -0.091811298019118914 -0.10577799016759069 0 -0.075768464350862305 -0.11095984549309119 0 -0.075870784320717977 -0.1239439361399271 0 -0.091811298019118914 -0.10577799016759069 0 -0.075870784320717977 -0.1239439361399271 0 -0.091811298019118914 -0.10577799016759069 0 -0.075870784320717977 -0.1239439361399271 0 -0.088907882466195909 -0.1204944288459702 0 -0.075768464350862305 -0.11095984549309119 0 -0.081341009611255344 -0.099140016388994001 0 -0.091811298019118914 -0.10577799016759069 0 -0.091717872188146227 -0.093208548821597861 0 -0.081341009611255344 -0.099140016388994001 0 -0.091811298019118914 -0.10577799016759069 0 -0.091717872188146227 -0.093208548821597861 0 -0.091811298019118914 -0.10577799016759069 0 -0.10591384432465729 -0.095233749679613025 0 -0.091811298019118914 -0.10577799016759069 0 -0.1034849218479069 -0.10706467133414881 0 -0.10591384432465729 -0.095233749679613025 0 -0.088907882466195909 -0.1204944288459702 0 -0.1034849218479069 -0.10706467133414881 0 -0.1099118235296565 -0.1183137480131316 0 -0.088907882466195909 -0.1204944288459702 0 -0.1099118235296565 -0.1183137480131316 0 -0.09968586899277182 -0.13257032295410351 0 -0.088907882466195909 -0.1204944288459702 0 -0.091811298019118914 -0.10577799016759069 0 -0.1034849218479069 -0.10706467133414881 0 -0.1099118235296565 -0.1183137480131316 0 -0.12324286592688111 -0.1170046728761252 0 -0.1194254808735583 -0.13284424025105751 0 -0.1099118235296565 -0.1183137480131316 0 -0.12324286592688111 -0.1170046728761252 0 -0.12268903751391649 -0.1021807817981453 0 -0.10591384432465729 -0.095233749679613025 0 -0.12268903751391649 -0.1021807817981453 0 -0.1184269485961866 -0.088662068908680225 0 -0.1034849218479069 -0.10706467133414881 0 -0.1099118235296565 -0.1183137480131316 0 -0.12268903751391649 -0.1021807817981453 0 -0.1034849218479069 -0.10706467133414881 0 -0.10591384432465729 -0.095233749679613025 0 -0.12268903751391649 -0.1021807817981453 0 -0.12268903751391649 -0.1021807817981453 0 -0.1184269485961866 -0.088662068908680225 0 -0.131322671588327 -0.085291974254262937 0 -0.1184269485961866 -0.088662068908680225 0 -0.1172447628219281 -0.077353942002316434 0 -0.131322671588327 -0.085291974254262937 0 -0.1184269485961866 -0.088662068908680225 0 -0.10819756043366981 -0.083479607313894436 0 -0.1172447628219281 -0.077353942002316434 0 -0.10591384432465729 -0.095233749679613025 0 -0.1184269485961866 -0.088662068908680225 0 -0.10819756043366981 -0.083479607313894436 0 -0.10591384432465729 -0.095233749679613025 0 -0.10819756043366981 -0.083479607313894436 0 -0.099355703546117571 -0.086538034350807813 0 -0.10819756043366981 -0.083479607313894436 0 -0.099043164252073407 -0.078319548330645153 0 -0.1072187383199265 -0.073532991087167418 0 -0.10819756043366981 -0.083479607313894436 0 -0.099043164252073407 -0.078319548330645153 0 -0.099355703546117571 -0.086538034350807813 0 -0.090760719121338262 -0.082546263834110969 0 -0.099043164252073407 -0.078319548330645153 0 -0.099355703546117571 -0.086538034350807813 0 -0.091717872188146227 -0.093208548821597861 0 -0.090760719121338262 -0.082546263834110969 0 -0.099355703546117571 -0.086538034350807813 0 -0.091717872188146227 -0.093208548821597861 0 -0.10591384432465729 -0.095233749679613025 0 -0.099355703546117571 -0.086538034350807813 0 -0.095853538378801978 -0.063665943450479934 0 -0.096753719942633085 -0.069858419171881514 0 -0.1038843546443466 -0.064781701633401551 0 -0.089294531887962839 -0.064944775316390785 0 -0.095853538378801978 -0.063665943450479934 0 -0.096753719942633085 -0.069858419171881514 0 -0.090598781593882322 -0.073386454554821262 0 -0.099043164252073407 -0.078319548330645153 0 -0.096753719942633085 -0.069858419171881514 0 -0.099043164252073407 -0.078319548330645153 0 -0.096753719942633085 -0.069858419171881514 0 -0.1072187383199265 -0.073532991087167418 0 -0.096753719942633085 -0.069858419171881514 0 -0.1072187383199265 -0.073532991087167418 0 -0.1038843546443466 -0.064781701633401551 0 -0.1072187383199265 -0.073532991087167418 0 -0.1038843546443466 -0.064781701633401551 0 -0.1144372843009855 -0.064614548826819537 0 -0.1072187383199265 -0.073532991087167418 0 -0.1144372843009855 -0.064614548826819537 0 -0.1172447628219281 -0.077353942002316434 0 -0.10819756043366981 -0.083479607313894436 0 -0.1072187383199265 -0.073532991087167418 0 -0.1172447628219281 -0.077353942002316434 0 -0.1144372843009855 -0.064614548826819537 0 -0.1172447628219281 -0.077353942002316434 0 -0.12801180811942919 -0.071157444604673631 0 -0.1144372843009855 -0.064614548826819537 0 -0.1243502320977292 -0.060636460033492101 0 -0.12801180811942919 -0.071157444604673631 0 -0.1243502320977292 -0.060636460033492101 0 -0.11460284185450061 -0.054708406053343622 0 -0.1229241828287016 -0.052135901670169682 0 -0.1144372843009855 -0.064614548826819537 0 -0.1243502320977292 -0.060636460033492101 0 -0.11460284185450061 -0.054708406053343622 0 -0.1144372843009855 -0.064614548826819537 0 -0.11460284185450061 -0.054708406053343622 0 -0.1068515562081649 -0.057194216872080442 0 -0.11460284185450061 -0.054708406053343622 0 -0.1163151691605069 -0.046310739400192633 0 -0.1089924353744338 -0.05066024961688026 0 -0.1163151691605069 -0.046310739400192633 0 -0.10557045364483519 -0.044606155116072597 0 -0.1089924353744338 -0.05066024961688026 0 -0.11460284185450061 -0.054708406053343622 0 -0.1068515562081649 -0.057194216872080442 0 -0.1089924353744338 -0.05066024961688026 0 -0.1229241828287016 -0.052135901670169682 0 -0.1163151691605069 -0.046310739400192633 0 -0.12789404872439519 -0.044416086127217272 0 -0.11460284185450061 -0.054708406053343622 0 -0.1229241828287016 -0.052135901670169682 0 -0.1163151691605069 -0.046310739400192633 0 -0.1163151691605069 -0.046310739400192633 0 -0.11969346943964521 -0.030675893289626451 0 -0.12789404872439519 -0.044416086127217272 0 -0.1163151691605069 -0.046310739400192633 0 -0.10557045364483519 -0.044606155116072597 0 -0.11969346943964521 -0.030675893289626451 0 -0.10557045364483519 -0.044606155116072597 0 -0.11969346943964521 -0.030675893289626451 0 -0.10557045364483519 -0.044606155116072597 0 -0.1009981547773724 -0.025846239672520741 0 -0.093097801653344511 -0.037708923622375642 0 -0.10557045364483519 -0.044606155116072597 0 -0.11969346943964521 -0.030675893289626451 0 -0.1009981547773724 -0.025846239672520741 0 -0.10557045364483519 -0.044606155116072597 0 -0.1016221560041613 -0.050481730642711997 0 -0.093097801653344511 -0.037708923622375642 0 -0.09521718649964403 -0.054527079019672998 0 -0.1016221560041613 -0.050481730642711997 0 -0.088840629046846267 -0.051387554552533597 0 -0.09521718649964403 -0.054527079019672998 0 -0.098425585912227179 -0.057983615942060432 0 -0.1016221560041613 -0.050481730642711997 0 -0.095853538378801978 -0.063665943450479934 0 -0.1038843546443466 -0.064781701633401551 0 -0.098425585912227179 -0.057983615942060432 0 -0.09521718649964403 -0.054527079019672998 0 -0.098425585912227179 -0.057983615942060432 0 -0.091980375035341344 -0.058255414941385981 0 -0.095853538378801978 -0.063665943450479934 0 -0.098425585912227179 -0.057983615942060432 0 -0.091980375035341344 -0.058255414941385981 0 -0.1038843546443466 -0.064781701633401551 0 -0.1144372843009855 -0.064614548826819537 0 -0.1068515562081649 -0.057194216872080442 0 -0.1038843546443466 -0.064781701633401551 0 -0.098425585912227179 -0.057983615942060432 0 -0.1068515562081649 -0.057194216872080442 0 -0.098425585912227179 -0.057983615942060432 0 -0.1068515562081649 -0.057194216872080442 0 -0.1016221560041613 -0.050481730642711997 0 -0.1068515562081649 -0.057194216872080442 0 -0.1089924353744338 -0.05066024961688026 0 -0.1016221560041613 -0.050481730642711997 0 -0.10557045364483519 -0.044606155116072597 0 -0.1089924353744338 -0.05066024961688026 0 -0.1016221560041613 -0.050481730642711997 0 -0.10870783169930651 -0.00026522707265157561 0 -0.13381648523445761 -0.01674563146318268 0 -0.10870783169930651 -0.00026522707265157561 0 -0.13381648523445761 -0.01674563146318268 0 -0.12871323843160851 0.013123773824541321 0 -0.11969346943964521 -0.030675893289626451 0 -0.1009981547773724 -0.025846239672520741 0 -0.10870783169930651 -0.00026522707265157561 0 -0.11969346943964521 -0.030675893289626451 0 -0.10870783169930651 -0.00026522707265157561 0 -0.13381648523445761 -0.01674563146318268 0 -0.1009981547773724 -0.025846239672520741 0 -0.10870783169930651 -0.00026522707265157561 0 -0.083512091335987165 -0.017656127969590828 0 -0.083512091335987165 -0.017656127969590828 0 -0.063004941211177848 -0.0061621375804896154 0 -0.08359917816415588 0.016215177317880108 0 -0.10870783169930651 -0.00026522707265157561 0 -0.083512091335987165 -0.017656127969590828 0 -0.08359917816415588 0.016215177317880108 0 -0.1009981547773724 -0.025846239672520741 0 -0.083512091335987165 -0.017656127969590828 0 -0.093097801653344511 -0.037708923622375642 0 -0.083512091335987165 -0.017656127969590828 0 -0.078987372514215254 -0.039717564826795948 0 -0.083512091335987165 -0.017656127969590828 0 -0.063004941211177848 -0.0061621375804896154 0 -0.054567003058480758 -0.02810424825921598 0 -0.083512091335987165 -0.017656127969590828 0 -0.078987372514215254 -0.039717564826795948 0 -0.054567003058480758 -0.02810424825921598 0 -0.084006350731239035 -0.058330545374601243 0 -0.088840629046846267 -0.051387554552533597 0 -0.078987372514215254 -0.039717564826795948 0 -0.1016221560041613 -0.050481730642711997 0 -0.088840629046846267 -0.051387554552533597 0 -0.078987372514215254 -0.039717564826795948 0 -0.072958403535949207 -0.069113362370813003 0 -0.084006350731239035 -0.058330545374601243 0 -0.078987372514215254 -0.039717564826795948 0 -0.089294531887962839 -0.064944775316390785 0 -0.084006350731239035 -0.058330545374601243 0 -0.091980375035341344 -0.058255414941385981 0 -0.084006350731239035 -0.058330545374601243 0 -0.091980375035341344 -0.058255414941385981 0 -0.088840629046846267 -0.051387554552533597 0 -0.089294531887962839 -0.064944775316390785 0 -0.095853538378801978 -0.063665943450479934 0 -0.091980375035341344 -0.058255414941385981 0 -0.09521718649964403 -0.054527079019672998 0 -0.091980375035341344 -0.058255414941385981 0 -0.088840629046846267 -0.051387554552533597 0 -0.083512091335987165 -0.017656127969590828 0 -0.078987372514215254 -0.039717564826795948 0 -0.093097801653344511 -0.037708923622375642 0 -0.1016221560041613 -0.050481730642711997 0 -0.078987372514215254 -0.039717564826795948 0 -0.1016221560041613 -0.050481730642711997 0 -0.078987372514215254 -0.039717564826795948 0 -0.093097801653344511 -0.037708923622375642 0 -0.078987372514215254 -0.039717564826795948 0 -0.059238092891469203 -0.048249655462365267 0 -0.054567003058480758 -0.02810424825921598 0 -0.078987372514215254 -0.039717564826795948 0 -0.054567003058480758 -0.02810424825921598 0 -0.068898019160179541 -0.066534685844938518 0 -0.078987372514215254 -0.039717564826795948 0 -0.059238092891469203 -0.048249655462365267 0 -0.072958403535949207 -0.069113362370813003 0 -0.068898019160179541 -0.066534685844938518 0 -0.078987372514215254 -0.039717564826795948 0 -0.072958403535949207 -0.069113362370813003 0 -0.078987372514215254 -0.039717564826795948 0 -0.059238092891469203 -0.048249655462365267 0 -0.041026015734841548 -0.044223741549828763 0 -0.040629803552433959 -0.066031836856752624 0 -0.068898019160179541 -0.066534685844938518 0 -0.059238092891469203 -0.048249655462365267 0 -0.040629803552433959 -0.066031836856752624 0 -0.059238092891469203 -0.048249655462365267 0 -0.041026015734841548 -0.044223741549828763 0 -0.054567003058480758 -0.02810424825921598 0 -0.041026015734841548 -0.044223741549828763 0 -0.035392856958750912 -0.031643137321570612 0 -0.054567003058480758 -0.02810424825921598 0 -0.041026015734841548 -0.044223741549828763 0 -0.035392856958750912 -0.031643137321570612 0 -0.029283440047811651 -0.038666537696970163 0 -0.041026015734841548 -0.044223741549828763 0 -0.027101210064577091 -0.053947830086904527 0 -0.029283440047811651 -0.038666537696970163 0 -0.041026015734841548 -0.044223741549828763 0 -0.027101210064577091 -0.053947830086904527 0 -0.040629803552433959 -0.066031836856752624 0 -0.063004941211177848 -0.0061621375804896154 0 -0.048009289247070243 -0.010663748130738461 0 -0.044318579115875903 0.008102325008387725 0 -0.063004941211177848 -0.0061621375804896154 0 -0.048009289247070243 -0.010663748130738461 0 -0.054567003058480758 -0.02810424825921598 0 -0.035392856958750912 -0.031643137321570612 0 -0.054567003058480758 -0.02810424825921598 0 -0.030146633602746439 -0.016490931691635971 0 -0.048009289247070243 -0.010663748130738461 0 -0.054567003058480758 -0.02810424825921598 0 -0.030146633602746439 -0.016490931691635971 0 -0.054567003058480758 -0.02810424825921598 0 -0.030146633602746439 -0.016490931691635971 0 -0.026021923604767402 -0.00073962999182732459 0 -0.030146633602746439 -0.016490931691635971 0 -0.044318579115875903 0.008102325008387725 0 -0.030146633602746439 -0.016490931691635971 0 -0.044318579115875903 0.008102325008387725 0 -0.048009289247070243 -0.010663748130738461 0 -0.030146633602746439 -0.016490931691635971 0 -0.044318579115875903 0.008102325008387725 0 -0.030146633602746439 -0.016490931691635971 0 -0.0091135872956926781 -0.0064884857586527227 0 -0.030146633602746439 -0.016490931691635971 0 -0.01401441701786765 -0.020050039090343721 0 -0.0091135872956926781 -0.0064884857586527227 0 -0.026021923604767402 -0.00073962999182732459 0 -0.030146633602746439 -0.016490931691635971 0 -0.0091135872956926781 -0.0064884857586527227 0 -0.030146633602746439 -0.016490931691635971 0 -0.021941192349874131 -0.030730227410202159 0 -0.01401441701786765 -0.020050039090343721 0 -0.030146633602746439 -0.016490931691635971 0 -0.021941192349874131 -0.030730227410202159 0 -0.035392856958750912 -0.031643137321570612 0 -0.030146633602746439 -0.016490931691635971 0 -0.021941192349874131 -0.030730227410202159 0 -0.007540626864187619 -0.02996866905717829 0 -0.01401441701786765 -0.020050039090343721 0 0.0051143707887136552 -0.023054387327477829 0 -0.01401441701786765 -0.020050039090343721 0 -0.0091135872956926781 -0.0064884857586527227 0 0.0051143707887136552 -0.023054387327477829 0 -0.021941192349874131 -0.030730227410202159 0 -0.007540626864187619 -0.02996866905717829 0 -0.01401441701786765 -0.020050039090343721 0 -0.027101210064577091 -0.053947830086904527 0 -0.012361587944688231 -0.065528987868567479 0 -0.040629803552433959 -0.066031836856752624 0 -0.027101210064577091 -0.053947830086904527 0 -0.01849328228872062 -0.039349265871030492 0 -0.012361587944688231 -0.065528987868567479 0 -0.027101210064577091 -0.053947830086904527 0 -0.029283440047811651 -0.038666537696970163 0 -0.01849328228872062 -0.039349265871030492 0 -0.035392856958750912 -0.031643137321570612 0 -0.021941192349874131 -0.030730227410202159 0 -0.029283440047811651 -0.038666537696970163 0 -0.021941192349874131 -0.030730227410202159 0 -0.029283440047811651 -0.038666537696970163 0 -0.01849328228872062 -0.039349265871030492 0 -0.021941192349874131 -0.030730227410202159 0 -0.007540626864187619 -0.02996866905717829 0 -0.01849328228872062 -0.039349265871030492 0 -0.01849328228872062 -0.039349265871030492 0 -0.0062391720725704864 -0.041057791744862487 0 -0.0056097205319509333 -0.050804953611167721 0 -0.007540626864187619 -0.02996866905717829 0 -0.01849328228872062 -0.039349265871030492 0 -0.0062391720725704864 -0.041057791744862487 0 -0.007540626864187619 -0.02996866905717829 0 -0.0062391720725704864 -0.041057791744862487 0 0.0066869413945772234 -0.044108278440073492 0 -0.0062391720725704864 -0.041057791744862487 0 -0.0056097205319509333 -0.050804953611167721 0 0.0066869413945772234 -0.044108278440073492 0 -0.01849328228872062 -0.039349265871030492 0 -0.0056097205319509333 -0.050804953611167721 0 -0.012361587944688231 -0.065528987868567479 0 -0.01849328228872062 -0.039349265871030492 0 -0.012361587944688231 -0.065528987868567479 0 -0.0056097205319509333 -0.050804953611167721 0 -0.012361587944688231 -0.065528987868567479 0 0.0082595120004408315 -0.065162169552669041 0 -0.012361587944688231 -0.065528987868567479 0 0.0082595120004408315 -0.065162169552669041 0 -0.00024021725394687791 -0.076670899322077657 0 -0.012361587944688231 -0.065528987868567479 0 0.0082595120004408315 -0.065162169552669041 0 -0.00024021725394687791 -0.076670899322077657 0 -0.012361587944688231 -0.065528987868567479 0 -0.0066948089860832194 -0.089723719281127878 0 -0.012361587944688231 -0.065528987868567479 0 -0.0066948089860832194 -0.089723719281127878 0 -0.012361587944688231 -0.065528987868567479 0 -0.0066948089860832194 -0.089723719281127878 0 -0.02429762151303709 -0.08781055317713285 0 -0.012361587944688231 -0.065528987868567479 0 -0.02429762151303709 -0.08781055317713285 0 -0.040629803552433959 -0.066031836856752624 0 -0.012361587944688231 -0.065528987868567479 0 -0.040629803552433959 -0.066031836856752624 0 -0.02429762151303709 -0.08781055317713285 0 -0.040629803552433959 -0.066031836856752624 0 -0.045067000030077527 -0.092048380976838373 0 -0.06692943455767672 -0.098509159914828726 0 -0.045067000030077527 -0.092048380976838373 0 -0.059867155803332461 -0.079483933276066843 0 -0.040629803552433959 -0.066031836856752624 0 -0.045067000030077527 -0.092048380976838373 0 -0.059867155803332461 -0.079483933276066843 0 -0.068898019160179541 -0.066534685844938518 0 -0.040629803552433959 -0.066031836856752624 0 -0.059867155803332461 -0.079483933276066843 0 -0.068898019160179541 -0.066534685844938518 0 -0.040629803552433959 -0.066031836856752624 0 -0.06692943455767672 -0.098509159914828726 0 -0.049303136398696143 -0.1102102299326628 0 -0.060900465579404449 -0.12790495745884439 0 -0.049303136398696143 -0.1102102299326628 0 -0.060900465579404449 -0.12790495745884439 0 -0.036034807727018232 -0.13448420286865501 0 -0.06692943455767672 -0.098509159914828726 0 -0.045067000030077527 -0.092048380976838373 0 -0.049303136398696143 -0.1102102299326628 0 -0.02429762151303709 -0.08781055317713285 0 -0.045067000030077527 -0.092048380976838373 0 -0.029374848355288859 -0.1102445727035864 0 -0.045067000030077527 -0.092048380976838373 0 -0.049303136398696143 -0.1102102299326628 0 -0.029374848355288859 -0.1102445727035864 0 -0.049303136398696143 -0.1102102299326628 0 -0.029374848355288859 -0.1102445727035864 0 -0.036034807727018232 -0.13448420286865501 0 -0.029374848355288859 -0.1102445727035864 0 -0.01489624148850436 -0.1037488871815999 0 -0.01308589856063455 -0.1170471400524641 0 -0.029374848355288859 -0.1102445727035864 0 -0.01308589856063455 -0.1170471400524641 0 -0.018967285969590651 -0.12720018707368069 0 -0.029374848355288859 -0.1102445727035864 0 -0.018967285969590651 -0.12720018707368069 0 -0.036034807727018232 -0.13448420286865501 0 -0.02429762151303709 -0.08781055317713285 0 -0.029374848355288859 -0.1102445727035864 0 -0.01489624148850436 -0.1037488871815999 0 -0.0066948089860832194 -0.089723719281127878 0 -0.001028030027478062 -0.11391845069368831 0 -0.0066948089860832194 -0.089723719281127878 0 -0.02429762151303709 -0.08781055317713285 0 -0.01489624148850436 -0.1037488871815999 0 -0.0066948089860832194 -0.089723719281127878 0 -0.001028030027478062 -0.11391845069368831 0 0.0033814241824068128 -0.099321540544996478 0 -0.0066948089860832194 -0.089723719281127878 0 -0.01489624148850436 -0.1037488871815999 0 -0.001028030027478062 -0.11391845069368831 0 -0.01308589856063455 -0.1170471400524641 0 -0.0054798175551773127 -0.12772211712590081 0 -0.018967285969590651 -0.12720018707368069 0 -0.01489624148850436 -0.1037488871815999 0 -0.01308589856063455 -0.1170471400524641 0 -0.001028030027478062 -0.11391845069368831 0 -0.01308589856063455 -0.1170471400524641 0 -0.001028030027478062 -0.11391845069368831 0 -0.0054798175551773127 -0.12772211712590081 0 -0.001028030027478062 -0.11391845069368831 0 -0.0054798175551773127 -0.12772211712590081 0 0.0046387489311270954 -0.13811318210624859 0 -0.0036158818517000781 -0.13706280464972481 0 -0.003295276397832322 -0.14382612380074011 0 0.0046387489311270954 -0.13811318210624859 0 -0.0054798175551773127 -0.12772211712590081 0 -0.0036158818517000781 -0.13706280464972481 0 -0.01116914987463186 -0.14106344827846509 0 -0.0054798175551773127 -0.12772211712590081 0 -0.0036158818517000781 -0.13706280464972481 0 0.0046387489311270954 -0.13811318210624859 0 -0.0054798175551773127 -0.12772211712590081 0 -0.018967285969590651 -0.12720018707368069 0 -0.01116914987463186 -0.14106344827846509 0 -0.018967285969590651 -0.12720018707368069 0 -0.01116914987463186 -0.14106344827846509 0 -0.036034807727018232 -0.13448420286865501 0 -0.01116914987463186 -0.14106344827846509 0 -0.036034807727018232 -0.13448420286865501 0 -0.02280104140391195 -0.1524408248260819 0 -0.01116914987463186 -0.14106344827846509 0 -0.036034807727018232 -0.13448420286865501 0 -0.02280104140391195 -0.1524408248260819 0 -0.0082131548097218246 -0.15069717752268461 0 -0.01022825524514424 -0.15992950905631739 0 -0.02280104140391195 -0.1524408248260819 0 -0.0082131548097218246 -0.15069717752268461 0 -0.01116914987463186 -0.14106344827846509 0 -0.0082131548097218246 -0.15069717752268461 0 -0.01116914987463186 -0.14106344827846509 0 -0.003295276397832322 -0.14382612380074011 0 -0.0036158818517000781 -0.13706280464972481 0 -0.01116914987463186 -0.14106344827846509 0 -0.003295276397832322 -0.14382612380074011 0 -0.0082131548097218246 -0.15069717752268461 0 -0.01022825524514424 -0.15992950905631739 0 2.2319898320726539e-05 -0.15308584406029441 0 -0.0082131548097218246 -0.15069717752268461 0 -0.003295276397832322 -0.14382612380074011 0 2.2319898320726539e-05 -0.15308584406029441 0 -0.001887691363514975 -0.164656958179625 0 -0.01022825524514424 -0.15992950905631739 0 2.2319898320726539e-05 -0.15308584406029441 0 -0.001887691363514975 -0.164656958179625 0 -0.0096010492412291308 -0.16978935979713911 0 -0.01022825524514424 -0.15992950905631739 0 -0.001887691363514975 -0.164656958179625 0 -0.0096010492412291308 -0.16978935979713911 0 -5.3544461884005358e-06 -0.1771938024683295 0 -0.0096010492412291308 -0.16978935979713911 0 -0.01522369258016886 -0.17891243177687 0 -0.02079696122499701 -0.16629737351008211 0 -0.0096010492412291308 -0.16978935979713911 0 -0.01022825524514424 -0.15992950905631739 0 -0.02079696122499701 -0.16629737351008211 0 -0.0033692767582445778 -0.1865352550921229 0 -5.3544461884005358e-06 -0.1771938024683295 0 -0.01522369258016886 -0.17891243177687 0 -0.0096010492412291308 -0.16978935979713911 0 -5.3544461884005358e-06 -0.1771938024683295 0 -0.01522369258016886 -0.17891243177687 0 -0.0033692767582445778 -0.1865352550921229 0 -0.01522369258016886 -0.17891243177687 0 -0.015463538665675659 -0.19278455079446541 0 -0.029440483966022619 -0.17685630419035281 0 -0.015463538665675659 -0.19278455079446541 0 -0.029440483966022619 -0.17685630419035281 0 -0.015463538665675659 -0.19278455079446541 0 -0.031710431977209422 -0.1918985681319374 0 -0.01522369258016886 -0.17891243177687 0 -0.029440483966022619 -0.17685630419035281 0 -0.015463538665675659 -0.19278455079446541 0 -0.01522369258016886 -0.17891243177687 0 -0.029440483966022619 -0.17685630419035281 0 -0.02079696122499701 -0.16629737351008211 0 -0.029440483966022619 -0.17685630419035281 0 -0.02079696122499701 -0.16629737351008211 0 -0.043417429266369052 -0.16092805758623979 0 -0.02280104140391195 -0.1524408248260819 0 -0.02079696122499701 -0.16629737351008211 0 -0.043417429266369052 -0.16092805758623979 0 -0.02280104140391195 -0.1524408248260819 0 -0.01022825524514424 -0.15992950905631739 0 -0.02079696122499701 -0.16629737351008211 0 -0.029440483966022619 -0.17685630419035281 0 -0.043417429266369052 -0.16092805758623979 0 -0.042584260815373212 -0.17617129341340329 0 -0.029440483966022619 -0.17685630419035281 0 -0.043417429266369052 -0.16092805758623979 0 -0.043417429266369052 -0.16092805758623979 0 -0.042584260815373212 -0.17617129341340329 0 -0.052675849927727947 -0.16800619822576801 0 -0.029440483966022619 -0.17685630419035281 0 -0.037923125511837123 -0.183984687801276 0 -0.031710431977209422 -0.1918985681319374 0 -0.029440483966022619 -0.17685630419035281 0 -0.037923125511837123 -0.183984687801276 0 -0.042584260815373212 -0.17617129341340329 0 -0.037923125511837123 -0.183984687801276 0 -0.042584260815373212 -0.17617129341340329 0 -0.047957325288743219 -0.1910125854694105 0 -0.052675849927727947 -0.16800619822576801 0 -0.047957325288743219 -0.1910125854694105 0 -0.063881161707650583 -0.19014421988606189 0 -0.052675849927727947 -0.16800619822576801 0 -0.063881161707650583 -0.19014421988606189 0 -0.070429569832432606 -0.17557815348171571 0 -0.052675849927727947 -0.16800619822576801 0 -0.047957325288743219 -0.1910125854694105 0 -0.042584260815373212 -0.17617129341340329 0 -0.052675849927727947 -0.16800619822576801 0 -0.047957325288743219 -0.1910125854694105 0 -0.043417429266369052 -0.16092805758623979 0 -0.052675849927727947 -0.16800619822576801 0 -0.057394374566714347 -0.14499981098212589 0 -0.052675849927727947 -0.16800619822576801 0 -0.057394374566714347 -0.14499981098212589 0 -0.075051408387513882 -0.15999808833271911 0 -0.052675849927727947 -0.16800619822576801 0 -0.057394374566714347 -0.14499981098212589 0 -0.043417429266369052 -0.16092805758623979 0 -0.057394374566714347 -0.14499981098212589 0 -0.060900465579404449 -0.12790495745884439 0 -0.036034807727018232 -0.13448420286865501 0 -0.057394374566714347 -0.14499981098212589 0 -0.060900465579404449 -0.12790495745884439 0 -0.057394374566714347 -0.14499981098212589 0 -0.060900465579404449 -0.12790495745884439 0 -0.036034807727018232 -0.13448420286865501 0 -0.043417429266369052 -0.16092805758623979 0 -0.057394374566714347 -0.14499981098212589 0 -0.036034807727018232 -0.13448420286865501 0 -0.02280104140391195 -0.1524408248260819 0 -0.043417429266369052 -0.16092805758623979 0 -0.036034807727018232 -0.13448420286865501 0 -0.01839886132560872 -0.25019989862372383 0 -0.03006799296123144 -0.25724647389131572 0 -0.026264657736265611 -0.23868484604035009 0 -0.01839886132560872 -0.25019989862372383 0 -0.026264657736265611 -0.23868484604035009 0 -0.0041270044632565851 -0.24036354253699119 0 -0.0041270044632565851 -0.24036354253699119 0 -0.018393644026480221 -0.22339731725932849 0 -0.0078620552027435422 -0.2186815975286423 0 -0.0041270044632565851 -0.24036354253699119 0 -0.0078620552027435422 -0.2186815975286423 0 0.0048817812151679806 -0.21622235304774551 0 -0.026264657736265611 -0.23868484604035009 0 -0.018393644026480221 -0.22339731725932849 0 -0.031132699369712542 -0.22106330520034731 0 -0.026264657736265611 -0.23868484604035009 0 -0.0041270044632565851 -0.24036354253699119 0 -0.018393644026480221 -0.22339731725932849 0 -0.018393644026480221 -0.22339731725932849 0 -0.031132699369712542 -0.22106330520034731 0 -0.02566283050708907 -0.20875326072612049 0 -0.02566283050708907 -0.20875326072612049 0 -0.01854721707837844 -0.20482930036085309 0 -0.016569562640660972 -0.21124518278790769 0 -0.02566283050708907 -0.20875326072612049 0 -0.01854721707837844 -0.20482930036085309 0 -0.019550086272696669 -0.19802620230824891 0 -0.01854721707837844 -0.20482930036085309 0 -0.016569562640660972 -0.21124518278790769 0 -0.013325100104951131 -0.2003552212321274 0 -0.018393644026480221 -0.22339731725932849 0 -0.02566283050708907 -0.20875326072612049 0 -0.016569562640660972 -0.21124518278790769 0 -0.018393644026480221 -0.22339731725932849 0 -0.016569562640660972 -0.21124518278790769 0 -0.0078620552027435422 -0.2186815975286423 0 -0.0078620552027435422 -0.2186815975286423 0 -0.013325100104951131 -0.2003552212321274 0 0.0048817812151679806 -0.21622235304774551 0 -0.013325100104951131 -0.2003552212321274 0 0.0048817812151679806 -0.21622235304774551 0 -0.013325100104951131 -0.2003552212321274 0 -0.0013623835559313359 -0.20165386277560371 0 0.0048817812151679806 -0.21622235304774551 0 -0.016569562640660972 -0.21124518278790769 0 -0.0078620552027435422 -0.2186815975286423 0 -0.013325100104951131 -0.2003552212321274 0 -0.015463538665675659 -0.19278455079446541 0 -0.013821848097821721 -0.1946554354298792 0 0.01304787858981893 -0.19433934781861331 0 -0.0033692767582445778 -0.1865352550921229 0 -0.015463538665675659 -0.19278455079446541 0 0.01304787858981893 -0.19433934781861331 0 -0.013325100104951131 -0.2003552212321274 0 -0.0013623835559313359 -0.20165386277560371 0 -0.013821848097821721 -0.1946554354298792 0 -0.0013623835559313359 -0.20165386277560371 0 -0.013821848097821721 -0.1946554354298792 0 0.01304787858981893 -0.19433934781861331 0 -0.015463538665675659 -0.19278455079446541 0 0.01304787858981893 -0.19433934781861331 0 -0.013325100104951131 -0.2003552212321274 0 -0.013821848097821721 -0.1946554354298792 0 -0.019550086272696669 -0.19802620230824891 0 -0.015463538665675659 -0.19278455079446541 0 -0.013821848097821721 -0.1946554354298792 0 -0.015463538665675659 -0.19278455079446541 0 -0.019550086272696669 -0.19802620230824891 0 -0.031710431977209422 -0.1918985681319374 0 -0.02566283050708907 -0.20875326072612049 0 -0.019550086272696669 -0.19802620230824891 0 -0.031710431977209422 -0.1918985681319374 0 -0.015463538665675659 -0.19278455079446541 0 -0.031710431977209422 -0.1918985681319374 0 -0.015463538665675659 -0.19278455079446541 0 -0.013821848097821721 -0.1946554354298792 0 -0.019550086272696669 -0.19802620230824891 0 -0.01854721707837844 -0.20482930036085309 0 -0.013325100104951131 -0.2003552212321274 0 -0.019550086272696669 -0.19802620230824891 0 -0.037923125511837123 -0.183984687801276 0 -0.031710431977209422 -0.1918985681319374 0 -0.047957325288743219 -0.1910125854694105 0 -0.047957325288743219 -0.1910125854694105 0 -0.043919397310069122 -0.21070054767093971 0 -0.031710431977209422 -0.1918985681319374 0 -0.047957325288743219 -0.1910125854694105 0 -0.031710431977209422 -0.1918985681319374 0 -0.047957325288743219 -0.1910125854694105 0 -0.043919397310069122 -0.21070054767093971 0 -0.047957325288743219 -0.1910125854694105 0 -0.061648440844240537 -0.20739909046133681 0 -0.043919397310069122 -0.21070054767093971 0 -0.047957325288743219 -0.1910125854694105 0 -0.061648440844240537 -0.20739909046133681 0 -0.063881161707650583 -0.19014421988606189 0 -0.047957325288743219 -0.1910125854694105 0 -0.063881161707650583 -0.19014421988606189 0 -0.061648440844240537 -0.20739909046133681 0 -0.043919397310069122 -0.21070054767093971 0 -0.057945406063864953 -0.2287591622754977 0 -0.02566283050708907 -0.20875326072612049 0 -0.031710431977209422 -0.1918985681319374 0 -0.043919397310069122 -0.21070054767093971 0 -0.031132699369712542 -0.22106330520034731 0 -0.02566283050708907 -0.20875326072612049 0 -0.043919397310069122 -0.21070054767093971 0 -0.026264657736265611 -0.23868484604035009 0 -0.031132699369712542 -0.22106330520034731 0 -0.039881469331394998 -0.23038850987246889 0 -0.043919397310069122 -0.21070054767093971 0 -0.039881469331394998 -0.23038850987246889 0 -0.031132699369712542 -0.22106330520034731 0 -0.043919397310069122 -0.21070054767093971 0 -0.039881469331394998 -0.23038850987246889 0 -0.043919397310069122 -0.21070054767093971 0 -0.039881469331394998 -0.23038850987246889 0 -0.057945406063864953 -0.2287591622754977 0 -0.057945406063864953 -0.2287591622754977 0 -0.062202585045066157 -0.24295494536855569 0 -0.043874421176183821 -0.24537707732808131 0 -0.057188324854627742 -0.25405492496477711 0 -0.062202585045066157 -0.24295494536855569 0 -0.043874421176183821 -0.24537707732808131 0 -0.039881469331394998 -0.23038850987246889 0 -0.057945406063864953 -0.2287591622754977 0 -0.043874421176183821 -0.24537707732808131 0 -0.026264657736265611 -0.23868484604035009 0 -0.039881469331394998 -0.23038850987246889 0 -0.043874421176183821 -0.24537707732808131 0 -0.03006799296123144 -0.25724647389131572 0 -0.026264657736265611 -0.23868484604035009 0 -0.043874421176183821 -0.24537707732808131 0 -0.085875630078168175 -0.24846762001429371 0 -0.074554072948678857 -0.2396844793767644 0 -0.086752500261642107 -0.2316778106835144 0 -0.085875630078168175 -0.24846762001429371 0 -0.086752500261642107 -0.2316778106835144 0 -0.099362734858958093 -0.23901197359000009 0 -0.07106942269358435 -0.25540659721464293 0 -0.085875630078168175 -0.24846762001429371 0 -0.074554072948678857 -0.2396844793767644 0 -0.057945406063864953 -0.2287591622754977 0 -0.062202585045066157 -0.24295494536855569 0 -0.074554072948678857 -0.2396844793767644 0 -0.07106942269358435 -0.25540659721464293 0 -0.062202585045066157 -0.24295494536855569 0 -0.074554072948678857 -0.2396844793767644 0 -0.057945406063864953 -0.2287591622754977 0 -0.074554072948678857 -0.2396844793767644 0 -0.076162408196520343 -0.2207222048564168 0 -0.061648440844240537 -0.20739909046133681 0 -0.057945406063864953 -0.2287591622754977 0 -0.076162408196520343 -0.2207222048564168 0 -0.076162408196520343 -0.2207222048564168 0 -0.086752500261642107 -0.2316778106835144 0 -0.098013666629585175 -0.21836609525371339 0 -0.074554072948678857 -0.2396844793767644 0 -0.076162408196520343 -0.2207222048564168 0 -0.086752500261642107 -0.2316778106835144 0 -0.076162408196520343 -0.2207222048564168 0 -0.080024946498595095 -0.20305582260969429 0 -0.098013666629585175 -0.21836609525371339 0 -0.080024946498595095 -0.20305582260969429 0 -0.098020805029704089 -0.19848541066210271 0 -0.098013666629585175 -0.21836609525371339 0 -0.061648440844240537 -0.20739909046133681 0 -0.076162408196520343 -0.2207222048564168 0 -0.080024946498595095 -0.20305582260969429 0 -0.063881161707650583 -0.19014421988606189 0 -0.080024946498595095 -0.20305582260969429 0 -0.085361815110627987 -0.18248981304153741 0 -0.061648440844240537 -0.20739909046133681 0 -0.063881161707650583 -0.19014421988606189 0 -0.080024946498595095 -0.20305582260969429 0 -0.080024946498595095 -0.20305582260969429 0 -0.098020805029704089 -0.19848541066210271 0 -0.085361815110627987 -0.18248981304153741 0 -0.098020805029704089 -0.19848541066210271 0 -0.085361815110627987 -0.18248981304153741 0 -0.1037183230137889 -0.18515200527891831 0 -0.098020805029704089 -0.19848541066210271 0 -0.1149770818323876 -0.20146953528956929 0 -0.1037183230137889 -0.18515200527891831 0 -0.1149770818323876 -0.20146953528956929 0 -0.1037183230137889 -0.18515200527891831 0 -0.1208012885048174 -0.17875980632979011 0 -0.1149770818323876 -0.20146953528956929 0 -0.1208012885048174 -0.17875980632979011 0 -0.13356069254961089 -0.20086708604821721 0 -0.1149770818323876 -0.20146953528956929 0 -0.12188465469419731 -0.2183875310632272 0 -0.13356069254961089 -0.20086708604821721 0 -0.1149770818323876 -0.20146953528956929 0 -0.12188465469419731 -0.2183875310632272 0 -0.098013666629585175 -0.21836609525371339 0 -0.098020805029704089 -0.19848541066210271 0 -0.1149770818323876 -0.20146953528956929 0 -0.098013666629585175 -0.21836609525371339 0 -0.086752500261642107 -0.2316778106835144 0 -0.098013666629585175 -0.21836609525371339 0 -0.099362734858958093 -0.23901197359000009 0 -0.098013666629585175 -0.21836609525371339 0 -0.1141734211470444 -0.23319839833142189 0 -0.099362734858958093 -0.23901197359000009 0 -0.12188465469419731 -0.2183875310632272 0 -0.098013666629585175 -0.21836609525371339 0 -0.1141734211470444 -0.23319839833142189 0 -0.12188465469419731 -0.2183875310632272 0 -0.1141734211470444 -0.23319839833142189 0 -0.13395336741499961 -0.23830992118788569 0 -0.11765268213748201 -0.25191647056228322 0 -0.1141734211470444 -0.23319839833142189 0 -0.099362734858958093 -0.23901197359000009 0 -0.11765268213748201 -0.25191647056228322 0 -0.1141734211470444 -0.23319839833142189 0 -0.13395336741499961 -0.23830992118788569 0 -0.09865999631541493 -0.25546331446216519 0 -0.085875630078168175 -0.24846762001429371 0 -0.099362734858958093 -0.23901197359000009 0 -0.09865999631541493 -0.25546331446216519 0 -0.11765268213748201 -0.25191647056228322 0 -0.099362734858958093 -0.23901197359000009 0 -0.088804685303321321 -0.1457198194052742 0 -0.076378239030831352 -0.14117562651866319 0 -0.075051408387513882 -0.15999808833271911 0 -0.088804685303321321 -0.1457198194052742 0 -0.085598192180802044 -0.13233386990435361 0 -0.09968586899277182 -0.13257032295410351 0 -0.075870784320717977 -0.1239439361399271 0 -0.085598192180802044 -0.13233386990435361 0 -0.076378239030831352 -0.14117562651866319 0 -0.088907882466195909 -0.1204944288459702 0 -0.085598192180802044 -0.13233386990435361 0 -0.09968586899277182 -0.13257032295410351 0 -0.075870784320717977 -0.1239439361399271 0 -0.088907882466195909 -0.1204944288459702 0 -0.085598192180802044 -0.13233386990435361 0 -0.088804685303321321 -0.1457198194052742 0 -0.085598192180802044 -0.13233386990435361 0 -0.076378239030831352 -0.14117562651866319 0 -0.075870784320717977 -0.1239439361399271 0 -0.057394374566714347 -0.14499981098212589 0 -0.060900465579404449 -0.12790495745884439 0 -0.075870784320717977 -0.1239439361399271 0 -0.057394374566714347 -0.14499981098212589 0 -0.075870784320717977 -0.1239439361399271 0 -0.057394374566714347 -0.14499981098212589 0 -0.076378239030831352 -0.14117562651866319 0 -0.075870784320717977 -0.1239439361399271 0 -0.060900465579404449 -0.12790495745884439 0 -0.057394374566714347 -0.14499981098212589 0 -0.076378239030831352 -0.14117562651866319 0 -0.075051408387513882 -0.15999808833271911 0 -0.052675849927727947 -0.16800619822576801 0 -0.075051408387513882 -0.15999808833271911 0 -0.070429569832432606 -0.17557815348171571 0 -0.063881161707650583 -0.19014421988606189 0 -0.070429569832432606 -0.17557815348171571 0 -0.085361815110627987 -0.18248981304153741 0 -0.075051408387513882 -0.15999808833271911 0 -0.070429569832432606 -0.17557815348171571 0 -0.085361815110627987 -0.18248981304153741 0 -0.088804685303321321 -0.1457198194052742 0 -0.075051408387513882 -0.15999808833271911 0 -0.098105790821087807 -0.16371455156266149 0 -0.075051408387513882 -0.15999808833271911 0 -0.085361815110627987 -0.18248981304153741 0 -0.098105790821087807 -0.16371455156266149 0 -0.098105790821087807 -0.16371455156266149 0 -0.1037183230137889 -0.18515200527891831 0 -0.1208012885048174 -0.17875980632979011 0 -0.085361815110627987 -0.18248981304153741 0 -0.098105790821087807 -0.16371455156266149 0 -0.1037183230137889 -0.18515200527891831 0 -0.098105790821087807 -0.16371455156266149 0 -0.1208012885048174 -0.17875980632979011 0 -0.11873561051789409 -0.15513452414708001 0 -0.11873561051789409 -0.15513452414708001 0 -0.1049514873017267 -0.14599669166403531 0 -0.1194254808735583 -0.13284424025105751 0 -0.088804685303321321 -0.1457198194052742 0 -0.098105790821087807 -0.16371455156266149 0 -0.1049514873017267 -0.14599669166403531 0 -0.088804685303321321 -0.1457198194052742 0 -0.1049514873017267 -0.14599669166403531 0 -0.09968586899277182 -0.13257032295410351 0 -0.098105790821087807 -0.16371455156266149 0 -0.11873561051789409 -0.15513452414708001 0 -0.1049514873017267 -0.14599669166403531 0 -0.1049514873017267 -0.14599669166403531 0 -0.09968586899277182 -0.13257032295410351 0 -0.1194254808735583 -0.13284424025105751 0 -0.1099118235296565 -0.1183137480131316 0 -0.09968586899277182 -0.13257032295410351 0 -0.1194254808735583 -0.13284424025105751 0 -0.1194254808735583 -0.13284424025105751 0 -0.13806283859120019 -0.13834194389051091 0 -0.13835085655392121 -0.1187565731663435 0 -0.13806283859120019 -0.13834194389051091 0 -0.159421934376267 -0.13459952323704791 0 -0.13835085655392121 -0.1187565731663435 0 -0.13806283859120019 -0.13834194389051091 0 -0.14122540013397539 -0.15751416474493379 0 -0.159421934376267 -0.13459952323704791 0 -0.11873561051789409 -0.15513452414708001 0 -0.1194254808735583 -0.13284424025105751 0 -0.13806283859120019 -0.13834194389051091 0 -0.11873561051789409 -0.15513452414708001 0 -0.13806283859120019 -0.13834194389051091 0 -0.14122540013397539 -0.15751416474493379 0 -0.1208012885048174 -0.17875980632979011 0 -0.11873561051789409 -0.15513452414708001 0 -0.14122540013397539 -0.15751416474493379 0 -0.1208012885048174 -0.17875980632979011 0 -0.15059295934029049 -0.1843629221118761 0 -0.14122540013397539 -0.15751416474493379 0 -0.15059295934029049 -0.1843629221118761 0 -0.14122540013397539 -0.15751416474493379 0 -0.15059295934029049 -0.1843629221118761 0 -0.14122540013397539 -0.15751416474493379 0 -0.17166052667872481 -0.1602653036291963 0 -0.15059295934029049 -0.1843629221118761 0 -0.17166052667872481 -0.1602653036291963 0 -0.17628609215219321 -0.18932381135475701 0 -0.17166052667872481 -0.1602653036291963 0 -0.17628609215219321 -0.18932381135475701 0 -0.1987684896006916 -0.1696508880431459 0 -0.17166052667872481 -0.1602653036291963 0 -0.18911718191495261 -0.15400678809043339 0 -0.1987684896006916 -0.1696508880431459 0 -0.17166052667872481 -0.1602653036291963 0 -0.18734028105635239 -0.13571120865948949 0 -0.159421934376267 -0.13459952323704791 0 -0.17166052667872481 -0.1602653036291963 0 -0.18734028105635239 -0.13571120865948949 0 -0.18911718191495261 -0.15400678809043339 0 -0.18734028105635239 -0.13571120865948949 0 -0.159421934376267 -0.13459952323704791 0 -0.18130817615218101 -0.1172727498833388 0 -0.14122540013397539 -0.15751416474493379 0 -0.17166052667872481 -0.1602653036291963 0 -0.159421934376267 -0.13459952323704791 0 -0.1567973963075309 -0.25298911689451542 0 -0.13395336741499961 -0.23830992118788569 0 -0.15196963356534091 -0.23171476753448039 0 -0.12188465469419731 -0.2183875310632272 0 -0.13395336741499961 -0.23830992118788569 0 -0.14026577335415091 -0.22009819706252581 0 -0.14026577335415091 -0.22009819706252581 0 -0.15196963356534091 -0.23171476753448039 0 -0.15996051854660559 -0.2112116794788185 0 -0.13395336741499961 -0.23830992118788569 0 -0.14026577335415091 -0.22009819706252581 0 -0.15196963356534091 -0.23171476753448039 0 -0.14026577335415091 -0.22009819706252581 0 -0.13356069254961089 -0.20086708604821721 0 -0.15996051854660559 -0.2112116794788185 0 -0.12188465469419731 -0.2183875310632272 0 -0.14026577335415091 -0.22009819706252581 0 -0.13356069254961089 -0.20086708604821721 0 -0.1208012885048174 -0.17875980632979011 0 -0.15059295934029049 -0.1843629221118761 0 -0.13356069254961089 -0.20086708604821721 0 -0.15059295934029049 -0.1843629221118761 0 -0.15996051854660559 -0.2112116794788185 0 -0.15059295934029049 -0.1843629221118761 0 -0.13356069254961089 -0.20086708604821721 0 -0.15996051854660559 -0.2112116794788185 0 -0.15059295934029049 -0.1843629221118761 0 -0.17628609215219321 -0.18932381135475701 0 -0.15996051854660559 -0.2112116794788185 0 -0.17628609215219321 -0.18932381135475701 0 -0.18085683274130529 -0.21303075994626189 0 -0.1972616124858276 -0.19843301921288001 0 -0.17628609215219321 -0.18932381135475701 0 -0.18085683274130529 -0.21303075994626189 0 -0.15996051854660559 -0.2112116794788185 0 -0.18085683274130529 -0.21303075994626189 0 -0.15996051854660559 -0.2112116794788185 0 -0.1693280777529208 -0.23806043684576109 0 -0.15996051854660559 -0.2112116794788185 0 -0.1693280777529208 -0.23806043684576109 0 -0.15196963356534091 -0.23171476753448039 0 -0.15996051854660559 -0.2112116794788185 0 -0.1693280777529208 -0.23806043684576109 0 -0.18085683274130529 -0.21303075994626189 0 -0.1693280777529208 -0.23806043684576109 0 -0.18895518764589911 -0.23077775184403501 0 -0.18480226679196021 -0.24826169229616421 0 -0.1693280777529208 -0.23806043684576109 0 -0.18895518764589911 -0.23077775184403501 0 -0.1567973963075309 -0.25298911689451542 0 -0.15196963356534091 -0.23171476753448039 0 -0.1693280777529208 -0.23806043684576109 0 -0.21170975670029729 -0.25701645892309 0 -0.21288912416354849 -0.2418157285043038 0 -0.2281935186227517 -0.24047850070613719 0 -0.21288912416354849 -0.2418157285043038 0 -0.2069607795870736 -0.2320111014246771 0 -0.21790824447425999 -0.2338496705622419 0 -0.21288912416354849 -0.2418157285043038 0 -0.1985736096990128 -0.24614429536279631 0 -0.2069607795870736 -0.2320111014246771 0 -0.21170975670029729 -0.25701645892309 0 -0.21288912416354849 -0.2418157285043038 0 -0.1985736096990128 -0.24614429536279631 0 -0.18480226679196021 -0.24826169229616421 0 -0.1985736096990128 -0.24614429536279631 0 -0.18895518764589911 -0.23077775184403501 0 -0.1985736096990128 -0.24614429536279631 0 -0.18895518764589911 -0.23077775184403501 0 -0.2069607795870736 -0.2320111014246771 0 -0.19242827817645169 -0.25401505885545728 0 -0.18480226679196021 -0.24826169229616421 0 -0.1985736096990128 -0.24614429536279631 0 -0.18895518764589911 -0.23077775184403501 0 -0.2069607795870736 -0.2320111014246771 0 -0.20132357399083389 -0.21620527767266801 0 -0.18085683274130529 -0.21303075994626189 0 -0.18895518764589911 -0.23077775184403501 0 -0.20132357399083389 -0.21620527767266801 0 -0.2069607795870736 -0.2320111014246771 0 -0.20132357399083389 -0.21620527767266801 0 -0.22183001674871111 -0.22176756674572709 0 -0.2069607795870736 -0.2320111014246771 0 -0.21790824447425999 -0.2338496705622419 0 -0.22183001674871111 -0.22176756674572709 0 -0.20132357399083389 -0.21620527767266801 0 -0.213461401216473 -0.20222317115606361 0 -0.22183001674871111 -0.22176756674572709 0 -0.20132357399083389 -0.21620527767266801 0 -0.1972616124858276 -0.19843301921288001 0 -0.213461401216473 -0.20222317115606361 0 -0.18085683274130529 -0.21303075994626189 0 -0.20132357399083389 -0.21620527767266801 0 -0.1972616124858276 -0.19843301921288001 0 -0.1972616124858276 -0.19843301921288001 0 -0.213461401216473 -0.20222317115606361 0 -0.21234727214081309 -0.1841717075511875 0 -0.213461401216473 -0.20222317115606361 0 -0.22959262142825529 -0.18892450323897711 0 -0.21234727214081309 -0.1841717075511875 0 -0.213461401216473 -0.20222317115606361 0 -0.22959262142825529 -0.18892450323897711 0 -0.22837899623642649 -0.20482220624890121 0 -0.22959262142825529 -0.18892450323897711 0 -0.22837899623642649 -0.20482220624890121 0 -0.24546323405784759 -0.1873969228452104 0 -0.22837899623642649 -0.20482220624890121 0 -0.24546323405784759 -0.1873969228452104 0 -0.25382424359427908 -0.2090843665154222 0 -0.22837899623642649 -0.20482220624890121 0 -0.2399816839331487 -0.22102503518187169 0 -0.25382424359427908 -0.2090843665154222 0 -0.22837899623642649 -0.20482220624890121 0 -0.25382424359427908 -0.2090843665154222 0 -0.2399816839331487 -0.22102503518187169 0 -0.25382424359427908 -0.2090843665154222 0 -0.22837899623642649 -0.20482220624890121 0 -0.22183001674871111 -0.22176756674572709 0 -0.2399816839331487 -0.22102503518187169 0 -0.213461401216473 -0.20222317115606361 0 -0.22837899623642649 -0.20482220624890121 0 -0.22183001674871111 -0.22176756674572709 0 -0.22183001674871111 -0.22176756674572709 0 -0.2399816839331487 -0.22102503518187169 0 -0.2281935186227517 -0.24047850070613719 0 -0.21790824447425999 -0.2338496705622419 0 -0.22183001674871111 -0.22176756674572709 0 -0.2281935186227517 -0.24047850070613719 0 -0.2399816839331487 -0.22102503518187169 0 -0.2454241612416064 -0.23483554906185769 0 -0.2281935186227517 -0.24047850070613719 0 -0.2399816839331487 -0.22102503518187169 0 -0.2454241612416064 -0.23483554906185769 0 -0.26335032430652477 -0.2302420783363496 0 -0.2454241612416064 -0.23483554906185769 0 -0.2281935186227517 -0.24047850070613719 0 -0.25017111810400061 -0.2475965820230723 0 -0.22947204493107151 -0.26093378227803937 0 -0.2281935186227517 -0.24047850070613719 0 -0.25017111810400061 -0.2475965820230723 0 -0.21288912416354849 -0.2418157285043038 0 -0.21790824447425999 -0.2338496705622419 0 -0.2281935186227517 -0.24047850070613719 0 -0.20656102769407531 -0.14683469886441081 0 -0.23137392879517579 -0.13648869622126139 0 -0.21011404882446161 -0.12352365606726411 0 -0.18734028105635239 -0.13571120865948949 0 -0.21011404882446161 -0.12352365606726411 0 -0.18130817615218101 -0.1172727498833388 0 -0.18734028105635239 -0.13571120865948949 0 -0.20656102769407531 -0.14683469886441081 0 -0.21011404882446161 -0.12352365606726411 0 -0.18734028105635239 -0.13571120865948949 0 -0.20656102769407531 -0.14683469886441081 0 -0.18911718191495261 -0.15400678809043339 0 -0.20656102769407531 -0.14683469886441081 0 -0.18911718191495261 -0.15400678809043339 0 -0.1987684896006916 -0.1696508880431459 0 -0.1972616124858276 -0.19843301921288001 0 -0.1987684896006916 -0.1696508880431459 0 -0.21234727214081309 -0.1841717075511875 0 -0.17628609215219321 -0.18932381135475701 0 -0.1972616124858276 -0.19843301921288001 0 -0.1987684896006916 -0.1696508880431459 0 -0.1987684896006916 -0.1696508880431459 0 -0.21234727214081309 -0.1841717075511875 0 -0.222652235972818 -0.16162695610487099 0 -0.1987684896006916 -0.1696508880431459 0 -0.222652235972818 -0.16162695610487099 0 -0.20656102769407531 -0.14683469886441081 0 -0.1987684896006916 -0.1696508880431459 0 -0.222652235972818 -0.16162695610487099 0 -0.22959262142825529 -0.18892450323897711 0 -0.222652235972818 -0.16162695610487099 0 -0.2397253455137616 -0.17109622240950709 0 -0.22959262142825529 -0.18892450323897711 0 -0.21234727214081309 -0.1841717075511875 0 -0.222652235972818 -0.16162695610487099 0 -0.22959262142825529 -0.18892450323897711 0 -0.24546323405784759 -0.1873969228452104 0 -0.2397253455137616 -0.17109622240950709 0 -0.24546323405784759 -0.1873969228452104 0 -0.2397253455137616 -0.17109622240950709 0 -0.26204499323935981 -0.1711089838760475 0 -0.222652235972818 -0.16162695610487099 0 -0.2397253455137616 -0.17109622240950709 0 -0.2465359823449445 -0.15360302416659621 0 -0.2397253455137616 -0.17109622240950709 0 -0.2465359823449445 -0.15360302416659621 0 -0.26204499323935981 -0.1711089838760475 0 -0.222652235972818 -0.16162695610487099 0 -0.2465359823449445 -0.15360302416659621 0 -0.2465359823449445 -0.15360302416659621 0 -0.23137392879517579 -0.13648869622126139 0 -0.2465359823449445 -0.15360302416659621 0 -0.23137392879517579 -0.13648869622126139 0 -0.25128146793851153 -0.13889427779402669 0 -0.20656102769407531 -0.14683469886441081 0 -0.222652235972818 -0.16162695610487099 0 -0.23137392879517579 -0.13648869622126139 0 -0.222652235972818 -0.16162695610487099 0 -0.2465359823449445 -0.15360302416659621 0 -0.23137392879517579 -0.13648869622126139 0 -0.23137392879517579 -0.13648869622126139 0 -0.23779570572734579 -0.12185445691633071 0 -0.21011404882446161 -0.12352365606726411 0 -0.23137392879517579 -0.13648869622126139 0 -0.23779570572734579 -0.12185445691633071 0 -0.25128146793851153 -0.13889427779402669 0 -0.23779570572734579 -0.12185445691633071 0 -0.25465345436680559 -0.12492069913035431 0 -0.25128146793851153 -0.13889427779402669 0 -0.23779570572734579 -0.12185445691633071 0 -0.24918361072656139 -0.1085219300649528 0 -0.25465345436680559 -0.12492069913035431 0 -0.23779570572734579 -0.12185445691633071 0 -0.24918361072656139 -0.1085219300649528 0 -0.22698141926195381 -0.1036580492513853 0 -0.24918361072656139 -0.1085219300649528 0 -0.22698141926195381 -0.1036580492513853 0 -0.241723347685984 -0.084910617152829965 0 -0.24918361072656139 -0.1085219300649528 0 -0.241723347685984 -0.084910617152829965 0 -0.25759158754623951 -0.094656400403218779 0 -0.23779570572734579 -0.12185445691633071 0 -0.22698141926195381 -0.1036580492513853 0 -0.21011404882446161 -0.12352365606726411 0 -0.241723347685984 -0.084910617152829965 0 -0.2336665964102719 -0.06076578682553832 0 -0.25964348400844273 -0.070887320676290319 0 -0.22698141926195381 -0.1036580492513853 0 -0.241723347685984 -0.084910617152829965 0 -0.22109806988892591 -0.082410796599508285 0 -0.241723347685984 -0.084910617152829965 0 -0.22109806988892591 -0.082410796599508285 0 -0.2336665964102719 -0.06076578682553832 0 -0.22109806988892591 -0.082410796599508285 0 -0.2119624984241387 -0.064115171541652957 0 -0.2336665964102719 -0.06076578682553832 0 -0.22109806988892591 -0.082410796599508285 0 -0.2119624984241387 -0.064115171541652957 0 -0.1983066653070244 -0.079159690931856624 0 -0.22109806988892591 -0.082410796599508285 0 -0.1983066653070244 -0.079159690931856624 0 -0.20075951310777651 -0.1025083473618796 0 -0.1983066653070244 -0.079159690931856624 0 -0.20075951310777651 -0.1025083473618796 0 -0.17964480322546311 -0.097731214871272371 0 -0.1983066653070244 -0.079159690931856624 0 -0.20075951310777651 -0.1025083473618796 0 -0.1983066653070244 -0.079159690931856624 0 -0.1958538175062722 -0.055811034501833751 0 -0.1983066653070244 -0.079159690931856624 0 -0.17971465881571669 -0.061220838220201947 0 -0.1958538175062722 -0.055811034501833751 0 -0.2119624984241387 -0.064115171541652957 0 -0.1983066653070244 -0.079159690931856624 0 -0.1958538175062722 -0.055811034501833751 0 -0.22698141926195381 -0.1036580492513853 0 -0.21011404882446161 -0.12352365606726411 0 -0.20075951310777651 -0.1025083473618796 0 -0.22698141926195381 -0.1036580492513853 0 -0.22109806988892591 -0.082410796599508285 0 -0.20075951310777651 -0.1025083473618796 0 -0.21011404882446161 -0.12352365606726411 0 -0.20075951310777651 -0.1025083473618796 0 -0.18130817615218101 -0.1172727498833388 0 -0.159421934376267 -0.13459952323704791 0 -0.18130817615218101 -0.1172727498833388 0 -0.16010259964901341 -0.1087707371960993 0 -0.16010259964901341 -0.1087707371960993 0 -0.17964480322546311 -0.097731214871272371 0 -0.15999308135823631 -0.08338611883635505 0 -0.20075951310777651 -0.1025083473618796 0 -0.18130817615218101 -0.1172727498833388 0 -0.17964480322546311 -0.097731214871272371 0 -0.18130817615218101 -0.1172727498833388 0 -0.16010259964901341 -0.1087707371960993 0 -0.17964480322546311 -0.097731214871272371 0 -0.1983066653070244 -0.079159690931856624 0 -0.17964480322546311 -0.097731214871272371 0 -0.17482830041070571 -0.077540998714540246 0 -0.1983066653070244 -0.079159690931856624 0 -0.17482830041070571 -0.077540998714540246 0 -0.17971465881571669 -0.061220838220201947 0 -0.17482830041070571 -0.077540998714540246 0 -0.16621444975611441 -0.067080828284134239 0 -0.17971465881571669 -0.061220838220201947 0 -0.16621444975611441 -0.067080828284134239 0 -0.15999308135823631 -0.08338611883635505 0 -0.15205024400189129 -0.062711658979563725 0 -0.17482830041070571 -0.077540998714540246 0 -0.16621444975611441 -0.067080828284134239 0 -0.15999308135823631 -0.08338611883635505 0 -0.17964480322546311 -0.097731214871272371 0 -0.17482830041070571 -0.077540998714540246 0 -0.15999308135823631 -0.08338611883635505 0 -0.15999308135823631 -0.08338611883635505 0 -0.1434271704348683 -0.0762509433513055 0 -0.1430340207864545 -0.096262032628036925 0 -0.15999308135823631 -0.08338611883635505 0 -0.15205024400189129 -0.062711658979563725 0 -0.1434271704348683 -0.0762509433513055 0 -0.15205024400189129 -0.062711658979563725 0 -0.1434271704348683 -0.0762509433513055 0 -0.13728872747273721 -0.062796799159845235 0 -0.1434271704348683 -0.0762509433513055 0 -0.13728872747273721 -0.062796799159845235 0 -0.12801180811942919 -0.071157444604673631 0 -0.1434271704348683 -0.0762509433513055 0 -0.12801180811942919 -0.071157444604673631 0 -0.131322671588327 -0.085291974254262937 0 -0.1172447628219281 -0.077353942002316434 0 -0.12801180811942919 -0.071157444604673631 0 -0.131322671588327 -0.085291974254262937 0 -0.1243502320977292 -0.060636460033492101 0 -0.13728872747273721 -0.062796799159845235 0 -0.12801180811942919 -0.071157444604673631 0 -0.1434271704348683 -0.0762509433513055 0 -0.131322671588327 -0.085291974254262937 0 -0.1430340207864545 -0.096262032628036925 0 -0.12268903751391649 -0.1021807817981453 0 -0.13835085655392121 -0.1187565731663435 0 -0.1430340207864545 -0.096262032628036925 0 -0.12268903751391649 -0.1021807817981453 0 -0.131322671588327 -0.085291974254262937 0 -0.1430340207864545 -0.096262032628036925 0 -0.12324286592688111 -0.1170046728761252 0 -0.12268903751391649 -0.1021807817981453 0 -0.13835085655392121 -0.1187565731663435 0 -0.12324286592688111 -0.1170046728761252 0 -0.1194254808735583 -0.13284424025105751 0 -0.13835085655392121 -0.1187565731663435 0 -0.159421934376267 -0.13459952323704791 0 -0.16010259964901341 -0.1087707371960993 0 -0.13835085655392121 -0.1187565731663435 0 -0.16010259964901341 -0.1087707371960993 0 -0.13835085655392121 -0.1187565731663435 0 -0.1430340207864545 -0.096262032628036925 0 -0.16010259964901341 -0.1087707371960993 0 -0.15999308135823631 -0.08338611883635505 0 -0.1430340207864545 -0.096262032628036925 0 -0.14752429440892509 -0.025742937439276699 0 -0.13381648523445761 -0.01674563146318268 0 -0.14752429440892509 -0.025742937439276699 0 -0.1491730936568573 -0.0015986133476244249 0 -0.13381648523445761 -0.01674563146318268 0 -0.14752429440892509 -0.025742937439276699 0 -0.1491730936568573 -0.0015986133476244249 0 -0.16309967522413571 -0.017121468967705181 0 -0.1491730936568573 -0.0015986133476244249 0 -0.13381648523445761 -0.01674563146318268 0 -0.1491730936568573 -0.0015986133476244249 0 -0.13381648523445761 -0.01674563146318268 0 -0.12871323843160851 0.013123773824541321 0 -0.14752429440892509 -0.025742937439276699 0 -0.13381648523445761 -0.01674563146318268 0 -0.1368953288792609 -0.034434868716429118 0 -0.11969346943964521 -0.030675893289626451 0 -0.13381648523445761 -0.01674563146318268 0 -0.1368953288792609 -0.034434868716429118 0 -0.11969346943964521 -0.030675893289626451 0 -0.13381648523445761 -0.01674563146318268 0 -0.11969346943964521 -0.030675893289626451 0 -0.12789404872439519 -0.044416086127217272 0 -0.1368953288792609 -0.034434868716429118 0 -0.12789404872439519 -0.044416086127217272 0 -0.1368953288792609 -0.034434868716429118 0 -0.1417999943804244 -0.049718663064908512 0 -0.1243502320977292 -0.060636460033492101 0 -0.13728872747273721 -0.062796799159845235 0 -0.13145862230637631 -0.054607816736602741 0 -0.1243502320977292 -0.060636460033492101 0 -0.1229241828287016 -0.052135901670169682 0 -0.13145862230637631 -0.054607816736602741 0 -0.1229241828287016 -0.052135901670169682 0 -0.12789404872439519 -0.044416086127217272 0 -0.13145862230637631 -0.054607816736602741 0 -0.12789404872439519 -0.044416086127217272 0 -0.13145862230637631 -0.054607816736602741 0 -0.1417999943804244 -0.049718663064908512 0 -0.13728872747273721 -0.062796799159845235 0 -0.13145862230637631 -0.054607816736602741 0 -0.1417999943804244 -0.049718663064908512 0 -0.15205024400189129 -0.062711658979563725 0 -0.13728872747273721 -0.062796799159845235 0 -0.1417999943804244 -0.049718663064908512 0 -0.15205024400189129 -0.062711658979563725 0 -0.1417999943804244 -0.049718663064908512 0 -0.1529141550042874 -0.050232464470051648 0 -0.14752429440892509 -0.025742937439276699 0 -0.15236048469133709 -0.038552741748750521 0 -0.16448813086253181 -0.033266824370473208 0 -0.14752429440892509 -0.025742937439276699 0 -0.1368953288792609 -0.034434868716429118 0 -0.15236048469133709 -0.038552741748750521 0 -0.1368953288792609 -0.034434868716429118 0 -0.1417999943804244 -0.049718663064908512 0 -0.15236048469133709 -0.038552741748750521 0 -0.1417999943804244 -0.049718663064908512 0 -0.1529141550042874 -0.050232464470051648 0 -0.15236048469133709 -0.038552741748750521 0 -0.16448813086253181 -0.033266824370473208 0 -0.16448596419402231 -0.050544526670010248 0 -0.18002835199792791 -0.043429627763627382 0 -0.15236048469133709 -0.038552741748750521 0 -0.16448813086253181 -0.033266824370473208 0 -0.16448596419402231 -0.050544526670010248 0 -0.1529141550042874 -0.050232464470051648 0 -0.15236048469133709 -0.038552741748750521 0 -0.16448596419402231 -0.050544526670010248 0 -0.16621444975611441 -0.067080828284134239 0 -0.16448596419402231 -0.050544526670010248 0 -0.17971465881571669 -0.061220838220201947 0 -0.16621444975611441 -0.067080828284134239 0 -0.15205024400189129 -0.062711658979563725 0 -0.16448596419402231 -0.050544526670010248 0 -0.15205024400189129 -0.062711658979563725 0 -0.1529141550042874 -0.050232464470051648 0 -0.16448596419402231 -0.050544526670010248 0 -0.16448596419402231 -0.050544526670010248 0 -0.17971465881571669 -0.061220838220201947 0 -0.18002835199792791 -0.043429627763627382 0 -0.17971465881571669 -0.061220838220201947 0 -0.18002835199792791 -0.043429627763627382 0 -0.1958538175062722 -0.055811034501833751 0 -0.18002835199792791 -0.043429627763627382 0 -0.1794300146588429 -0.024209643633469221 0 -0.19340096970552001 -0.032462378071810891 0 -0.16448813086253181 -0.033266824370473208 0 -0.18002835199792791 -0.043429627763627382 0 -0.1794300146588429 -0.024209643633469221 0 -0.1794300146588429 -0.024209643633469221 0 -0.16309967522413571 -0.017121468967705181 0 -0.1783461590462426 -0.0079308793670667191 0 -0.1794300146588429 -0.024209643633469221 0 -0.19094812190476801 -0.0091137216417880203 0 -0.16448813086253181 -0.033266824370473208 0 -0.1794300146588429 -0.024209643633469221 0 -0.16309967522413571 -0.017121468967705181 0 -0.14752429440892509 -0.025742937439276699 0 -0.16448813086253181 -0.033266824370473208 0 -0.16309967522413571 -0.017121468967705181 0 -0.1491730936568573 -0.0015986133476244249 0 -0.16309967522413571 -0.017121468967705181 0 -0.165628603269176 -0.0020946546525552911 0 -0.16309967522413571 -0.017121468967705181 0 -0.165628603269176 -0.0020946546525552911 0 -0.1783461590462426 -0.0079308793670667191 0 -0.1794300146588429 -0.024209643633469221 0 -0.1783461590462426 -0.0079308793670667191 0 -0.19094812190476801 -0.0091137216417880203 0 -0.165628603269176 -0.0020946546525552911 0 -0.1783461590462426 -0.0079308793670667191 0 -0.17747844821372899 0.0046966960789819739 0 -0.1783461590462426 -0.0079308793670667191 0 -0.19042719434819899 -0.0041550126099663444 0 -0.19094812190476801 -0.0091137216417880203 0 -0.1783461590462426 -0.0079308793670667191 0 -0.19042719434819899 -0.0041550126099663444 0 -0.17747844821372899 0.0046966960789819739 0 -0.1932560932975623 -0.006088836097596145 0 -0.19094812190476801 -0.0091137216417880203 0 -0.20700316117600401 -0.01548627419109903 0 -0.19042719434819899 -0.0041550126099663444 0 -0.19094812190476801 -0.0091137216417880203 0 -0.19042719434819899 -0.0041550126099663444 0 -0.1932560932975623 -0.006088836097596145 0 -0.19094812190476801 -0.0091137216417880203 0 -0.1932560932975623 -0.006088836097596145 0 -0.19094812190476801 -0.0091137216417880203 0 -0.19042719434819899 -0.0041550126099663444 0 -0.1932560932975623 -0.006088836097596145 0 -0.1932560932975623 -0.006088836097596145 0 -0.20700316117600401 -0.01548627419109903 0 -0.1794300146588429 -0.024209643633469221 0 -0.19094812190476801 -0.0091137216417880203 0 -0.19340096970552001 -0.032462378071810891 0 -0.20680606097950641 -0.029265811882215859 0 -0.20700316117600401 -0.01548627419109903 0 -0.19340096970552001 -0.032462378071810891 0 -0.19094812190476801 -0.0091137216417880203 0 -0.20700316117600401 -0.01548627419109903 0 -0.19340096970552001 -0.032462378071810891 0 -0.19094812190476801 -0.0091137216417880203 0 -0.19340096970552001 -0.032462378071810891 0 -0.20680606097950641 -0.029265811882215859 0 -0.20700316117600401 -0.01548627419109903 0 -0.2207502290544465 -0.024883712284600869 0 -0.20700316117600401 -0.01548627419109903 0 -0.2207502290544465 -0.024883712284600869 0 -0.1932560932975623 -0.006088836097596145 0 -0.20979008560441481 -0.00036056365726287249 0 -0.20700316117600401 -0.01548627419109903 0 -0.20700316117600401 -0.01548627419109903 0 -0.2246056469087612 -0.0044901169212649451 0 -0.2207502290544465 -0.024883712284600869 0 -0.20979008560441481 -0.00036056365726287249 0 -0.20700316117600401 -0.01548627419109903 0 -0.2246056469087612 -0.0044901169212649451 0 -0.18002835199792791 -0.043429627763627382 0 -0.1958538175062722 -0.055811034501833751 0 -0.19340096970552001 -0.032462378071810891 0 -0.1958538175062722 -0.055811034501833751 0 -0.19340096970552001 -0.032462378071810891 0 -0.1958538175062722 -0.055811034501833751 0 -0.19340096970552001 -0.032462378071810891 0 -0.210887343008199 -0.042428548849527757 0 -0.20680606097950641 -0.029265811882215859 0 -0.210887343008199 -0.042428548849527757 0 -0.2207502290544465 -0.024883712284600869 0 -0.20680606097950641 -0.029265811882215859 0 -0.19340096970552001 -0.032462378071810891 0 -0.210887343008199 -0.042428548849527757 0 -0.2119624984241387 -0.064115171541652957 0 -0.1958538175062722 -0.055811034501833751 0 -0.210887343008199 -0.042428548849527757 0 -0.2119624984241387 -0.064115171541652957 0 -0.210887343008199 -0.042428548849527757 0 -0.2336665964102719 -0.06076578682553832 0 -0.210887343008199 -0.042428548849527757 0 -0.23713308371646541 -0.036471494581239952 0 -0.2207502290544465 -0.024883712284600869 0 -0.210887343008199 -0.042428548849527757 0 -0.2336665964102719 -0.06076578682553832 0 -0.23713308371646541 -0.036471494581239952 0 -0.23713308371646541 -0.036471494581239952 0 -0.24807508195064351 -0.02219970295958875 0 -0.26387643956261758 -0.037490881976265843 0 -0.2336665964102719 -0.06076578682553832 0 -0.23713308371646541 -0.036471494581239952 0 -0.25393929354785638 -0.051353431686489523 0 -0.2336665964102719 -0.06076578682553832 0 -0.25393929354785638 -0.051353431686489523 0 -0.25964348400844273 -0.070887320676290319 0 -0.2246056469087612 -0.0044901169212649451 0 -0.23402021637086509 -0.016081859855410299 0 -0.24064278425173949 0.0039350805849091954 0 -0.2246056469087612 -0.0044901169212649451 0 -0.23402021637086509 -0.016081859855410299 0 -0.2207502290544465 -0.024883712284600869 0 -0.23713308371646541 -0.036471494581239952 0 -0.23402021637086509 -0.016081859855410299 0 -0.2207502290544465 -0.024883712284600869 0 -0.23713308371646541 -0.036471494581239952 0 -0.23402021637086509 -0.016081859855410299 0 -0.24807508195064351 -0.02219970295958875 0 -0.23402021637086509 -0.016081859855410299 0 -0.24807508195064351 -0.02219970295958875 0 -0.25183928942381151 -0.0075624078338361357 0 -0.23402021637086509 -0.016081859855410299 0 -0.25183928942381151 -0.0075624078338361357 0 -0.24064278425173949 0.0039350805849091954 0 -0.25183928942381151 -0.0075624078338361357 0 -0.26984196325799531 -0.012984777539566179 0 -0.26231918469715187 0.011442998676570891 0 -0.24807508195064351 -0.02219970295958875 0 -0.25183928942381151 -0.0075624078338361357 0 -0.26984196325799531 -0.012984777539566179 0 -0.24807508195064351 -0.02219970295958875 0 -0.26984196325799531 -0.012984777539566179 0 -0.26387643956261758 -0.037490881976265843 0 -0.26984196325799531 -0.012984777539566179 0 -0.28344678981801807 -0.03042565258789167 0 -0.26387643956261758 -0.037490881976265843 0 -0.26984196325799531 -0.012984777539566179 0 -0.29701101476603092 -0.014621766165129181 0 -0.28183843873369202 0.0091895247227355304 0 -0.26984196325799531 -0.012984777539566179 0 -0.28344678981801807 -0.03042565258789167 0 -0.29701101476603092 -0.014621766165129181 0 -0.28344678981801807 -0.03042565258789167 0 -0.29701101476603092 -0.014621766165129181 0 -0.3045882350527101 -0.035335059994461543 0 -0.29701101476603092 -0.014621766165129181 0 -0.3045882350527101 -0.035335059994461543 0 -0.31546801871320929 -0.01043582355740966 0 -0.29701101476603092 -0.014621766165129181 0 -0.3102633006888777 0.0077601655750476131 0 -0.29701101476603092 -0.014621766165129181 0 -0.31546801871320929 -0.01043582355740966 0 -0.3102633006888777 0.0077601655750476131 0 -0.3045882350527101 -0.035335059994461543 0 -0.29995615333885622 -0.065900672551805456 0 -0.32406497704694259 -0.051251785682920027 0 -0.28344678981801807 -0.03042565258789167 0 -0.3045882350527101 -0.035335059994461543 0 -0.28191629645073679 -0.051695777264035611 0 -0.3045882350527101 -0.035335059994461543 0 -0.28191629645073679 -0.051695777264035611 0 -0.29995615333885622 -0.065900672551805456 0 -0.28191629645073679 -0.051695777264035611 0 -0.29995615333885622 -0.065900672551805456 0 -0.28344678981801807 -0.03042565258789167 0 -0.28191629645073679 -0.051695777264035611 0 -0.26387643956261758 -0.037490881976265843 0 -0.28191629645073679 -0.051695777264035611 0 -0.26387643956261758 -0.037490881976265843 0 -0.28191629645073679 -0.051695777264035611 0 -0.26387643956261758 -0.037490881976265843 0 -0.25393929354785638 -0.051353431686489523 0 -0.23713308371646541 -0.036471494581239952 0 -0.26387643956261758 -0.037490881976265843 0 -0.25393929354785638 -0.051353431686489523 0 -0.28191629645073679 -0.051695777264035611 0 -0.25393929354785638 -0.051353431686489523 0 -0.25964348400844273 -0.070887320676290319 0 -0.241723347685984 -0.084910617152829965 0 -0.25964348400844273 -0.070887320676290319 0 -0.25759158754623951 -0.094656400403218779 0 -0.25964348400844273 -0.070887320676290319 0 -0.27023368930441938 -0.085220438557273889 0 -0.25759158754623951 -0.094656400403218779 0 -0.27023368930441938 -0.085220438557273889 0 -0.27067799325515751 -0.1020470431727941 0 -0.28603641937581542 -0.093427946617376745 0 -0.27023368930441938 -0.085220438557273889 0 -0.28134122134199763 -0.073942909196766313 0 -0.28603641937581542 -0.093427946617376745 0 -0.28191629645073679 -0.051695777264035611 0 -0.25964348400844273 -0.070887320676290319 0 -0.28134122134199763 -0.073942909196766313 0 -0.25964348400844273 -0.070887320676290319 0 -0.27023368930441938 -0.085220438557273889 0 -0.28134122134199763 -0.073942909196766313 0 -0.24918361072656139 -0.1085219300649528 0 -0.27067799325515751 -0.1020470431727941 0 -0.27034822741168751 -0.1183985089124647 0 -0.24918361072656139 -0.1085219300649528 0 -0.25465345436680559 -0.12492069913035431 0 -0.27034822741168751 -0.1183985089124647 0 -0.24918361072656139 -0.1085219300649528 0 -0.25759158754623951 -0.094656400403218779 0 -0.27067799325515751 -0.1020470431727941 0 -0.27067799325515751 -0.1020470431727941 0 -0.28664816286220679 -0.1149242258092255 0 -0.28603641937581542 -0.093427946617376745 0 -0.27023368930441938 -0.085220438557273889 0 -0.25759158754623951 -0.094656400403218779 0 -0.27067799325515751 -0.1020470431727941 0 -0.27067799325515751 -0.1020470431727941 0 -0.27034822741168751 -0.1183985089124647 0 -0.28664816286220679 -0.1149242258092255 0 -0.27034822741168751 -0.1183985089124647 0 -0.28664816286220679 -0.1149242258092255 0 -0.27996170543250909 -0.1281760260983853 0 -0.28664816286220679 -0.1149242258092255 0 -0.30124628125525937 -0.11771229598259519 0 -0.29376981663003748 -0.13261708134941921 0 -0.28664816286220679 -0.1149242258092255 0 -0.29810396710799619 -0.103988159945457 0 -0.30124628125525937 -0.11771229598259519 0 -0.28664816286220679 -0.1149242258092255 0 -0.29810396710799619 -0.103988159945457 0 -0.28603641937581542 -0.093427946617376745 0 -0.29810396710799619 -0.103988159945457 0 -0.28603641937581542 -0.093427946617376745 0 -0.30138681417699847 -0.086518174213324278 0 -0.29810396710799619 -0.103988159945457 0 -0.30138681417699847 -0.086518174213324278 0 -0.31294961939159971 -0.10409770128838269 0 -0.29810396710799619 -0.103988159945457 0 -0.30124628125525937 -0.11771229598259519 0 -0.31294961939159971 -0.10409770128838269 0 -0.31294961939159971 -0.10409770128838269 0 -0.30790322855622859 -0.12808983473718649 0 -0.30124628125525937 -0.11771229598259519 0 -0.31294961939159971 -0.10409770128838269 0 -0.30790322855622859 -0.12808983473718649 0 -0.30124628125525937 -0.11771229598259519 0 -0.30790322855622859 -0.12808983473718649 0 -0.28134122134199763 -0.073942909196766313 0 -0.30138681417699847 -0.086518174213324278 0 -0.29995615333885622 -0.065900672551805456 0 -0.28191629645073679 -0.051695777264035611 0 -0.28134122134199763 -0.073942909196766313 0 -0.29995615333885622 -0.065900672551805456 0 -0.28134122134199763 -0.073942909196766313 0 -0.28603641937581542 -0.093427946617376745 0 -0.30138681417699847 -0.086518174213324278 0 -0.30138681417699847 -0.086518174213324278 0 -0.31799601022697233 -0.080105567839579228 0 -0.31294961939159971 -0.10409770128838269 0 -0.30138681417699847 -0.086518174213324278 0 -0.29995615333885622 -0.065900672551805456 0 -0.31799601022697233 -0.080105567839579228 0 -0.29995615333885622 -0.065900672551805456 0 -0.31799601022697233 -0.080105567839579228 0 -0.31799601022697233 -0.080105567839579228 0 -0.32406497704694259 -0.051251785682920027 0 -0.31799601022697233 -0.080105567839579228 0 -0.33197924103617737 -0.072521052104412093 0 -0.32406497704694259 -0.051251785682920027 0 -0.29995615333885622 -0.065900672551805456 0 -0.31799601022697233 -0.080105567839579228 0 -0.32406497704694259 -0.051251785682920027 0 -0.31799601022697233 -0.080105567839579228 0 -0.33093826498265622 -0.090296523052371999 0 -0.33197924103617737 -0.072521052104412093 0 -0.31799601022697233 -0.080105567839579228 0 -0.31294961939159971 -0.10409770128838269 0 -0.31799601022697233 -0.080105567839579228 0 -0.33093826498265622 -0.090296523052371999 0 -0.31294961939159971 -0.10409770128838269 0 -0.31799601022697233 -0.080105567839579228 0 -0.33093826498265622 -0.090296523052371999 0 -0.33093826498265622 -0.090296523052371999 0 -0.342574229506733 -0.078749503627582276 0 -0.33197924103617737 -0.072521052104412093 0 -0.33093826498265622 -0.090296523052371999 0 -0.342574229506733 -0.078749503627582276 0 -0.34233728463332158 -0.09503152101986298 0 -0.342574229506733 -0.078749503627582276 0 -0.33197924103617737 -0.072521052104412093 0 -0.3443227234175848 -0.062201880319607397 0 -0.32500274828009817 -0.118332520156467 0 -0.31294961939159971 -0.10409770128838269 0 -0.30790322855622859 -0.12808983473718649 0 -0.33093826498265622 -0.090296523052371999 0 -0.31294961939159971 -0.10409770128838269 0 -0.32935792468231251 -0.104681720290523 0 -0.32500274828009817 -0.118332520156467 0 -0.31294961939159971 -0.10409770128838269 0 -0.32935792468231251 -0.104681720290523 0 -0.34233728463332158 -0.09503152101986298 0 -0.32935792468231251 -0.104681720290523 0 -0.33997859856850587 -0.11261235215114949 0 -0.33093826498265622 -0.090296523052371999 0 -0.34233728463332158 -0.09503152101986298 0 -0.32935792468231251 -0.104681720290523 0 -0.32500274828009817 -0.118332520156467 0 -0.32935792468231251 -0.104681720290523 0 -0.33997859856850587 -0.11261235215114949 0 -0.33997859856850587 -0.11261235215114949 0 -0.33490070474143713 -0.1253959329129388 0 -0.34552997967133392 -0.1277330043593963 0 -0.32500274828009817 -0.118332520156467 0 -0.33997859856850587 -0.11261235215114949 0 -0.33490070474143713 -0.1253959329129388 0 -0.35648823783285721 -0.12052583621559609 0 -0.35334023872046239 -0.10382594975085491 0 -0.36215551269868029 -0.1122089888755871 0 -0.35334023872046239 -0.10382594975085491 0 -0.34552997967133392 -0.1277330043593963 0 -0.35648823783285721 -0.12052583621559609 0 -0.35334023872046239 -0.10382594975085491 0 -0.34552997967133392 -0.1277330043593963 0 -0.33997859856850587 -0.11261235215114949 0 -0.35334023872046239 -0.10382594975085491 0 -0.34552997967133392 -0.1277330043593963 0 -0.34233728463332158 -0.09503152101986298 0 -0.33997859856850587 -0.11261235215114949 0 -0.35334023872046239 -0.10382594975085491 0 -0.34233728463332158 -0.09503152101986298 0 -0.35334023872046239 -0.10382594975085491 0 -0.35030904944108487 -0.086228803425593095 0 -0.35334023872046239 -0.10382594975085491 0 -0.37045024837029322 -0.100793899218989 0 -0.36215551269868029 -0.1122089888755871 0 -0.35334023872046239 -0.10382594975085491 0 -0.37045024837029322 -0.100793899218989 0 -0.36115049776959102 -0.079918895142313401 0 -0.37045024837029322 -0.100793899218989 0 -0.36215551269868029 -0.1122089888755871 0 -0.36834332587110852 -0.1236902703169086 0 -0.37045024837029322 -0.100793899218989 0 -0.36834332587110852 -0.1236902703169086 0 -0.37045024837029322 -0.100793899218989 0 -0.36834332587110852 -0.1236902703169086 0 -0.38020522973052651 -0.10912133061679551 0 -0.35648823783285721 -0.12052583621559609 0 -0.36215551269868029 -0.1122089888755871 0 -0.36834332587110852 -0.1236902703169086 0 -0.342574229506733 -0.078749503627582276 0 -0.35214299657531628 -0.073618147587351968 0 -0.3443227234175848 -0.062201880319607397 0 -0.35214299657531628 -0.073618147587351968 0 -0.3568146951551186 -0.064443685813365223 0 -0.36115049776959102 -0.079918895142313401 0 -0.35214299657531628 -0.073618147587351968 0 -0.3568146951551186 -0.064443685813365223 0 -0.3443227234175848 -0.062201880319607397 0 -0.35334023872046239 -0.10382594975085491 0 -0.36115049776959102 -0.079918895142313401 0 -0.342574229506733 -0.078749503627582276 0 -0.34233728463332158 -0.09503152101986298 0 -0.35030904944108487 -0.086228803425593095 0 -0.342574229506733 -0.078749503627582276 0 -0.35214299657531628 -0.073618147587351968 0 -0.35030904944108487 -0.086228803425593095 0 -0.35334023872046239 -0.10382594975085491 0 -0.35030904944108487 -0.086228803425593095 0 -0.36115049776959102 -0.079918895142313401 0 -0.35214299657531628 -0.073618147587351968 0 -0.35030904944108487 -0.086228803425593095 0 -0.36115049776959102 -0.079918895142313401 0 -0.37045024837029322 -0.100793899218989 0 -0.37255717086947798 -0.077897528121069384 0 -0.37045024837029322 -0.100793899218989 0 -0.36115049776959102 -0.079918895142313401 0 -0.37255717086947798 -0.077897528121069384 0 -0.36115049776959102 -0.079918895142313401 0 -0.37255717086947798 -0.077897528121069384 0 -0.36896075681871948 -0.056011840533771937 0 -0.37255717086947798 -0.077897528121069384 0 -0.37466409336866269 -0.055001157023149803 0 -0.3568146951551186 -0.064443685813365223 0 -0.36115049776959102 -0.079918895142313401 0 -0.36896075681871948 -0.056011840533771937 0 -0.37255717086947798 -0.077897528121069384 0 -0.37466409336866269 -0.055001157023149803 0 -0.36896075681871948 -0.056011840533771937 0 -0.36115049776959102 -0.079918895142313401 0 -0.36896075681871948 -0.056011840533771937 0 -0.37466409336866269 -0.055001157023149803 0 -0.36896075681871948 -0.056011840533771937 0 -0.37677101586784778 -0.032104785925230361 0 -0.36896075681871948 -0.056011840533771937 0 -0.35672381273887088 -0.051006059584340957 0 -0.36392723538242261 -0.04134604078312893 0 -0.3568146951551186 -0.064443685813365223 0 -0.36896075681871948 -0.056011840533771937 0 -0.35672381273887088 -0.051006059584340957 0 -0.3568146951551186 -0.064443685813365223 0 -0.35672381273887088 -0.051006059584340957 0 -0.3443227234175848 -0.062201880319607397 0 -0.35672381273887088 -0.051006059584340957 0 -0.3443227234175848 -0.062201880319607397 0 -0.34324286662509401 -0.043917988594564458 0 -0.35498902337592358 -0.038877131099637752 0 -0.34814733027739481 -0.026756934563104941 0 -0.34324286662509401 -0.043917988594564458 0 -0.35672381273887088 -0.051006059584340957 0 -0.35498902337592358 -0.038877131099637752 0 -0.34324286662509401 -0.043917988594564458 0 -0.35672381273887088 -0.051006059584340957 0 -0.35498902337592358 -0.038877131099637752 0 -0.36392723538242261 -0.04134604078312893 0 -0.36896075681871948 -0.056011840533771937 0 -0.36392723538242261 -0.04134604078312893 0 -0.37677101586784778 -0.032104785925230361 0 -0.36896075681871948 -0.056011840533771937 0 -0.37677101586784778 -0.032104785925230361 0 -0.35498902337592358 -0.038877131099637752 0 -0.36392723538242261 -0.04134604078312893 0 -0.36109176174978708 -0.02748828526722857 0 -0.36392723538242261 -0.04134604078312893 0 -0.36109176174978708 -0.02748828526722857 0 -0.37677101586784778 -0.032104785925230361 0 -0.36590378191011091 -0.01025690750480699 0 -0.37912460818950078 -0.0065278018498123114 0 -0.37677101586784778 -0.032104785925230361 0 -0.36109176174978708 -0.02748828526722857 0 -0.36590378191011091 -0.01025690750480699 0 -0.37677101586784778 -0.032104785925230361 0 -0.36109176174978708 -0.02748828526722857 0 -0.36590378191011091 -0.01025690750480699 0 -0.35417264841870882 -0.01260686811441827 0 -0.36590378191011091 -0.01025690750480699 0 -0.37912460818950078 -0.0065278018498123114 0 -0.36782225349506198 0.0048657833312758091 0 -0.36590378191011091 -0.01025690750480699 0 -0.35417264841870882 -0.01260686811441827 0 -0.35201258209097508 0.0056607809808327421 0 -0.35417264841870882 -0.01260686811441827 0 -0.34370585250575481 -0.0094211722746199381 0 -0.35201258209097508 0.0056607809808327421 0 -0.35417264841870882 -0.01260686811441827 0 -0.34814733027739481 -0.026756934563104941 0 -0.34370585250575481 -0.0094211722746199381 0 -0.35498902337592358 -0.038877131099637752 0 -0.36109176174978708 -0.02748828526722857 0 -0.34814733027739481 -0.026756934563104941 0 -0.36109176174978708 -0.02748828526722857 0 -0.35417264841870882 -0.01260686811441827 0 -0.34814733027739481 -0.026756934563104941 0 -0.34814733027739481 -0.026756934563104941 0 -0.33013394386691503 -0.022398003526261239 0 -0.34324286662509401 -0.043917988594564458 0 -0.34814733027739481 -0.026756934563104941 0 -0.33013394386691503 -0.022398003526261239 0 -0.34370585250575481 -0.0094211722746199381 0 -0.33013394386691503 -0.022398003526261239 0 -0.33620291068688851 0.0064557786303970676 0 -0.33013394386691503 -0.022398003526261239 0 -0.34370585250575481 -0.0094211722746199381 0 -0.33620291068688851 0.0064557786303970676 0 -0.33013394386691503 -0.022398003526261239 0 -0.31546801871320929 -0.01043582355740966 0 -0.33620291068688851 0.0064557786303970676 0 -0.3045882350527101 -0.035335059994461543 0 -0.33013394386691503 -0.022398003526261239 0 -0.31546801871320929 -0.01043582355740966 0 -0.33013394386691503 -0.022398003526261239 0 -0.32406497704694259 -0.051251785682920027 0 -0.3045882350527101 -0.035335059994461543 0 -0.33013394386691503 -0.022398003526261239 0 -0.32406497704694259 -0.051251785682920027 0 -0.3443227234175848 -0.062201880319607397 0 -0.32406497704694259 -0.051251785682920027 0 -0.34324286662509401 -0.043917988594564458 0 -0.33197924103617737 -0.072521052104412093 0 -0.3443227234175848 -0.062201880319607397 0 -0.32406497704694259 -0.051251785682920027 0 -0.33013394386691503 -0.022398003526261239 0 -0.32406497704694259 -0.051251785682920027 0 -0.34324286662509401 -0.043917988594564458 0 -0.29256211388443393 -0.25878551580333797 0 -0.30846408808500381 -0.2499303869099207 0 -0.2933430961925218 -0.23731011674068911 0 -0.30846408808500381 -0.2499303869099207 0 -0.30829567243185491 -0.2333337785859399 0 -0.2933430961925218 -0.23731011674068911 0 -0.30829567243185491 -0.2333337785859399 0 -0.29412407850061079 -0.21583471767804041 0 -0.31480979493563688 -0.2192996413014571 0 -0.30829567243185491 -0.2333337785859399 0 -0.2933430961925218 -0.23731011674068911 0 -0.29412407850061079 -0.21583471767804041 0 -0.2933430961925218 -0.23731011674068911 0 -0.29412407850061079 -0.21583471767804041 0 -0.27951145989547571 -0.22883355642076189 0 -0.27652953050904788 -0.21288757464962599 0 -0.29412407850061079 -0.21583471767804041 0 -0.2933430961925218 -0.23731011674068911 0 -0.27951145989547571 -0.22883355642076189 0 -0.29412407850061079 -0.21583471767804041 0 -0.29256211388443393 -0.25878551580333797 0 -0.2933430961925218 -0.23731011674068911 0 -0.2933430961925218 -0.23731011674068911 0 -0.27267174260738569 -0.24767498376580641 0 -0.27951145989547571 -0.22883355642076189 0 -0.29256211388443393 -0.25878551580333797 0 -0.2933430961925218 -0.23731011674068911 0 -0.27267174260738569 -0.24767498376580641 0 -0.27267174260738569 -0.24767498376580641 0 -0.26335032430652477 -0.2302420783363496 0 -0.27951145989547571 -0.22883355642076189 0 -0.2454241612416064 -0.23483554906185769 0 -0.25017111810400061 -0.2475965820230723 0 -0.26335032430652477 -0.2302420783363496 0 -0.27267174260738569 -0.24767498376580641 0 -0.25017111810400061 -0.2475965820230723 0 -0.26335032430652477 -0.2302420783363496 0 -0.25017111810400061 -0.2475965820230723 0 -0.26335032430652477 -0.2302420783363496 0 -0.2399816839331487 -0.22102503518187169 0 -0.26335032430652477 -0.2302420783363496 0 -0.25382424359427908 -0.2090843665154222 0 -0.26335032430652477 -0.2302420783363496 0 -0.27951145989547571 -0.22883355642076189 0 -0.27652953050904788 -0.21288757464962599 0 -0.26335032430652477 -0.2302420783363496 0 -0.27652953050904788 -0.21288757464962599 0 -0.27652953050904788 -0.21288757464962599 0 -0.27730886412498562 -0.2000916961106857 0 -0.28582555718022751 -0.20064647858832249 0 -0.27652953050904788 -0.21288757464962599 0 -0.28582555718022751 -0.20064647858832249 0 -0.27652953050904788 -0.21288757464962599 0 -0.26568912386402649 -0.19884965505045979 0 -0.27730886412498562 -0.2000916961106857 0 -0.27652953050904788 -0.21288757464962599 0 -0.25382424359427908 -0.2090843665154222 0 -0.27652953050904788 -0.21288757464962599 0 -0.25382424359427908 -0.2090843665154222 0 -0.26568912386402649 -0.19884965505045979 0 -0.26335032430652477 -0.2302420783363496 0 -0.27652953050904788 -0.21288757464962599 0 -0.25382424359427908 -0.2090843665154222 0 -0.25382424359427908 -0.2090843665154222 0 -0.26568912386402649 -0.19884965505045979 0 -0.24546323405784759 -0.1873969228452104 0 -0.26568912386402649 -0.19884965505045979 0 -0.2598919460214828 -0.18550150687597891 0 -0.24546323405784759 -0.1873969228452104 0 -0.25382424359427908 -0.2090843665154222 0 -0.26568912386402649 -0.19884965505045979 0 -0.26568912386402649 -0.19884965505045979 0 -0.27755400413377512 -0.18861494358549891 0 -0.26568912386402649 -0.19884965505045979 0 -0.27755400413377512 -0.18861494358549891 0 -0.2598919460214828 -0.18550150687597891 0 -0.26568912386402649 -0.19884965505045979 0 -0.27730886412498562 -0.2000916961106857 0 -0.27755400413377512 -0.18861494358549891 0 -0.27730886412498562 -0.2000916961106857 0 -0.27755400413377512 -0.18861494358549891 0 -0.28438968927244412 -0.1963307953209005 0 -0.27755400413377512 -0.18861494358549891 0 -0.28438968927244412 -0.1963307953209005 0 -0.27755400413377512 -0.18861494358549891 0 -0.29512158385140752 -0.18840538252701919 0 -0.28438968927244412 -0.1963307953209005 0 -0.29512158385140752 -0.18840538252701919 0 -0.28582555718022751 -0.20064647858832249 0 -0.29412407850061079 -0.21583471767804041 0 -0.29512158385140752 -0.18840538252701919 0 -0.28582555718022751 -0.20064647858832249 0 -0.28438968927244412 -0.1963307953209005 0 -0.29512158385140752 -0.18840538252701919 0 -0.29412407850061079 -0.21583471767804041 0 -0.29512158385140752 -0.18840538252701919 0 -0.28582555718022751 -0.20064647858832249 0 -0.27730886412498562 -0.2000916961106857 0 -0.28582555718022751 -0.20064647858832249 0 -0.28438968927244412 -0.1963307953209005 0 -0.27652953050904788 -0.21288757464962599 0 -0.29412407850061079 -0.21583471767804041 0 -0.27652953050904788 -0.21288757464962599 0 -0.28582555718022751 -0.20064647858832249 0 -0.29412407850061079 -0.21583471767804041 0 -0.29412407850061079 -0.21583471767804041 0 -0.30900192321030401 -0.20129939946549319 0 -0.31480979493563688 -0.2192996413014571 0 -0.29412407850061079 -0.21583471767804041 0 -0.31480979493563688 -0.2192996413014571 0 -0.29512158385140752 -0.18840538252701919 0 -0.29412407850061079 -0.21583471767804041 0 -0.30900192321030401 -0.20129939946549319 0 -0.29512158385140752 -0.18840538252701919 0 -0.30900192321030401 -0.20129939946549319 0 -0.3098006823865857 -0.18629728256625869 0 -0.29512158385140752 -0.18840538252701919 0 -0.30697889816600338 -0.17279155861189491 0 -0.2956826556331692 -0.17297706834977189 0 -0.29512158385140752 -0.18840538252701919 0 -0.30697889816600338 -0.17279155861189491 0 -0.29512158385140752 -0.18840538252701919 0 -0.3098006823865857 -0.18629728256625869 0 -0.30697889816600338 -0.17279155861189491 0 -0.30697889816600338 -0.17279155861189491 0 -0.30888473866771649 -0.16158887837034619 0 -0.3188362124806009 -0.15717773469677179 0 -0.30107496931584521 -0.16055353250907939 0 -0.29827083257776432 -0.16498986190817169 0 -0.2922233500798429 -0.1629507287400466 0 -0.30888473866771649 -0.16158887837034619 0 -0.30107496931584521 -0.16055353250907939 0 -0.29827083257776432 -0.16498986190817169 0 -0.30888473866771649 -0.16158887837034619 0 -0.29827083257776432 -0.16498986190817169 0 -0.2956826556331692 -0.17297706834977189 0 -0.30697889816600338 -0.17279155861189491 0 -0.30888473866771649 -0.16158887837034619 0 -0.2956826556331692 -0.17297706834977189 0 -0.30888473866771649 -0.16158887837034619 0 -0.2956826556331692 -0.17297706834977189 0 -0.29827083257776432 -0.16498986190817169 0 -0.29345322223804482 -0.16784776999271511 0 -0.2956826556331692 -0.17297706834977189 0 -0.29345322223804482 -0.16784776999271511 0 -0.28774709328231268 -0.1671985553178362 0 -0.2956826556331692 -0.17297706834977189 0 -0.29827083257776432 -0.16498986190817169 0 -0.29345322223804482 -0.16784776999271511 0 -0.2922233500798429 -0.1629507287400466 0 -0.29345322223804482 -0.16784776999271511 0 -0.2922233500798429 -0.1629507287400466 0 -0.28774709328231268 -0.1671985553178362 0 -0.30107496931584521 -0.16055353250907939 0 -0.2922233500798429 -0.1629507287400466 0 -0.29268744299784483 -0.1500698012154531 0 -0.2922233500798429 -0.1629507287400466 0 -0.28352461510350541 -0.1593258808735426 0 -0.29268744299784483 -0.1500698012154531 0 -0.2922233500798429 -0.1629507287400466 0 -0.28352461510350541 -0.1593258808735426 0 -0.28774709328231268 -0.1671985553178362 0 -0.28204278107809372 -0.171473099909497 0 -0.28774709328231268 -0.1671985553178362 0 -0.2956826556331692 -0.17297706834977189 0 -0.28352461510350541 -0.1593258808735426 0 -0.28204278107809372 -0.171473099909497 0 -0.28774709328231268 -0.1671985553178362 0 -0.27755400413377512 -0.18861494358549891 0 -0.2956826556331692 -0.17297706834977189 0 -0.27755400413377512 -0.18861494358549891 0 -0.29512158385140752 -0.18840538252701919 0 -0.2956826556331692 -0.17297706834977189 0 -0.27755400413377512 -0.18861494358549891 0 -0.28204278107809372 -0.171473099909497 0 -0.2956826556331692 -0.17297706834977189 0 -0.29512158385140752 -0.18840538252701919 0 -0.2956826556331692 -0.17297706834977189 0 -0.27755400413377512 -0.18861494358549891 0 -0.2598919460214828 -0.18550150687597891 0 -0.26204499323935981 -0.1711089838760475 0 -0.27755400413377512 -0.18861494358549891 0 -0.28204278107809372 -0.171473099909497 0 -0.26204499323935981 -0.1711089838760475 0 -0.27755400413377512 -0.18861494358549891 0 -0.26204499323935981 -0.1711089838760475 0 -0.24546323405784759 -0.1873969228452104 0 -0.2598919460214828 -0.18550150687597891 0 -0.26204499323935981 -0.1711089838760475 0 -0.2465359823449445 -0.15360302416659621 0 -0.26204499323935981 -0.1711089838760475 0 -0.2465359823449445 -0.15360302416659621 0 -0.26204499323935981 -0.1711089838760475 0 -0.26992391461010518 -0.16000226740854401 0 -0.28204278107809372 -0.171473099909497 0 -0.26204499323935981 -0.1711089838760475 0 -0.26992391461010518 -0.16000226740854401 0 -0.28352461510350541 -0.1593258808735426 0 -0.28204278107809372 -0.171473099909497 0 -0.26992391461010518 -0.16000226740854401 0 -0.28352461510350541 -0.1593258808735426 0 -0.26992391461010518 -0.16000226740854401 0 -0.28153195246450718 -0.14184585349587631 0 -0.26403396740472579 -0.14772443883123609 0 -0.26751036779410692 -0.13309446092494079 0 -0.28153195246450718 -0.14184585349587631 0 -0.26992391461010518 -0.16000226740854401 0 -0.26403396740472579 -0.14772443883123609 0 -0.28153195246450718 -0.14184585349587631 0 -0.26403396740472579 -0.14772443883123609 0 -0.28153195246450718 -0.14184585349587631 0 -0.2465359823449445 -0.15360302416659621 0 -0.26403396740472579 -0.14772443883123609 0 -0.2465359823449445 -0.15360302416659621 0 -0.26992391461010518 -0.16000226740854401 0 -0.26403396740472579 -0.14772443883123609 0 -0.2465359823449445 -0.15360302416659621 0 -0.26403396740472579 -0.14772443883123609 0 -0.25128146793851153 -0.13889427779402669 0 -0.26403396740472579 -0.14772443883123609 0 -0.25128146793851153 -0.13889427779402669 0 -0.26751036779410692 -0.13309446092494079 0 -0.25465345436680559 -0.12492069913035431 0 -0.25128146793851153 -0.13889427779402669 0 -0.26751036779410692 -0.13309446092494079 0 -0.25465345436680559 -0.12492069913035431 0 -0.27034822741168751 -0.1183985089124647 0 -0.26751036779410692 -0.13309446092494079 0 -0.27034822741168751 -0.1183985089124647 0 -0.26751036779410692 -0.13309446092494079 0 -0.27996170543250909 -0.1281760260983853 0 -0.26751036779410692 -0.13309446092494079 0 -0.27996170543250909 -0.1281760260983853 0 -0.28153195246450718 -0.14184585349587631 0 -0.28664816286220679 -0.1149242258092255 0 -0.27996170543250909 -0.1281760260983853 0 -0.29376981663003748 -0.13261708134941921 0 -0.27996170543250909 -0.1281760260983853 0 -0.29376981663003748 -0.13261708134941921 0 -0.28153195246450718 -0.14184585349587631 0 -0.29376981663003748 -0.13261708134941921 0 -0.28153195246450718 -0.14184585349587631 0 -0.29268744299784483 -0.1500698012154531 0 -0.28352461510350541 -0.1593258808735426 0 -0.28153195246450718 -0.14184585349587631 0 -0.29268744299784483 -0.1500698012154531 0 -0.30107496931584521 -0.16055353250907939 0 -0.29268744299784483 -0.1500698012154531 0 -0.30448909893603721 -0.144321683623133 0 -0.30107496931584521 -0.16055353250907939 0 -0.30448909893603721 -0.144321683623133 0 -0.30888473866771649 -0.16158887837034619 0 -0.30448909893603721 -0.144321683623133 0 -0.32208682170226222 -0.15020068839091871 0 -0.30888473866771649 -0.16158887837034619 0 -0.30107496931584521 -0.16055353250907939 0 -0.30448909893603721 -0.144321683623133 0 -0.29376981663003748 -0.13261708134941921 0 -0.29268744299784483 -0.1500698012154531 0 -0.30448909893603721 -0.144321683623133 0 -0.30448909893603721 -0.144321683623133 0 -0.30790322855622859 -0.12808983473718649 0 -0.32208682170226222 -0.15020068839091871 0 -0.29376981663003748 -0.13261708134941921 0 -0.30448909893603721 -0.144321683623133 0 -0.30790322855622859 -0.12808983473718649 0 -0.30448909893603721 -0.144321683623133 0 -0.30790322855622859 -0.12808983473718649 0 -0.30124628125525937 -0.11771229598259519 0 -0.29376981663003748 -0.13261708134941921 0 -0.30790322855622859 -0.12808983473718649 0 -0.30790322855622859 -0.12808983473718649 0 -0.32470466741968712 -0.13293852559442321 0 -0.32208682170226222 -0.15020068839091871 0 -0.32500274828009817 -0.118332520156467 0 -0.30790322855622859 -0.12808983473718649 0 -0.32470466741968712 -0.13293852559442321 0 -0.30790322855622859 -0.12808983473718649 0 -0.32208682170226222 -0.15020068839091871 0 -0.30888473866771649 -0.16158887837034619 0 -0.32208682170226222 -0.15020068839091871 0 -0.32208682170226222 -0.15020068839091871 0 -0.3392875297675601 -0.1353632623032579 0 -0.32208682170226222 -0.15020068839091871 0 -0.3392875297675601 -0.1353632623032579 0 -0.34494893328384768 -0.1521357449154053 0 -0.32470466741968712 -0.13293852559442321 0 -0.32208682170226222 -0.15020068839091871 0 -0.3392875297675601 -0.1353632623032579 0 -0.32500274828009817 -0.118332520156467 0 -0.32470466741968712 -0.13293852559442321 0 -0.33490070474143713 -0.1253959329129388 0 -0.32470466741968712 -0.13293852559442321 0 -0.3392875297675601 -0.1353632623032579 0 -0.33490070474143713 -0.1253959329129388 0 -0.3392875297675601 -0.1353632623032579 0 -0.33490070474143713 -0.1253959329129388 0 -0.34552997967133392 -0.1277330043593963 0 -0.35648823783285721 -0.12052583621559609 0 -0.3392875297675601 -0.1353632623032579 0 -0.34552997967133392 -0.1277330043593963 0 -0.35648823783285721 -0.12052583621559609 0 -0.3392875297675601 -0.1353632623032579 0 -0.35436068798744041 -0.13736628306084131 0 -0.35648823783285721 -0.12052583621559609 0 -0.35436068798744041 -0.13736628306084131 0 -0.3656984313398951 -0.13398409145171669 0 -0.35648823783285721 -0.12052583621559609 0 -0.3392875297675601 -0.1353632623032579 0 -0.35648823783285721 -0.12052583621559609 0 -0.36834332587110852 -0.1236902703169086 0 -0.3656984313398951 -0.13398409145171669 0 -0.35436068798744041 -0.13736628306084131 0 -0.3656984313398951 -0.13398409145171669 0 -0.3620168597719105 -0.14816445891879271 0 -0.3656984313398951 -0.13398409145171669 0 -0.37606326436239101 -0.1417057825119187 0 -0.37660811984927961 -0.13008761310785 0 -0.36834332587110852 -0.1236902703169086 0 -0.3656984313398951 -0.13398409145171669 0 -0.37660811984927961 -0.13008761310785 0 -0.3620168597719105 -0.14816445891879271 0 -0.37622771002777472 -0.16028897214742749 0 -0.37606326436239101 -0.1417057825119187 0 -0.3656984313398951 -0.13398409145171669 0 -0.3620168597719105 -0.14816445891879271 0 -0.37606326436239101 -0.1417057825119187 0 -0.3392875297675601 -0.1353632623032579 0 -0.35436068798744041 -0.13736628306084131 0 -0.34494893328384768 -0.1521357449154053 0 -0.35436068798744041 -0.13736628306084131 0 -0.3620168597719105 -0.14816445891879271 0 -0.34494893328384768 -0.1521357449154053 0 -0.3620168597719105 -0.14816445891879271 0 -0.34494893328384768 -0.1521357449154053 0 -0.35925526417339543 -0.17106106321107989 0 -0.34494893328384768 -0.1521357449154053 0 -0.35925526417339543 -0.17106106321107989 0 -0.33701337849806567 -0.1734697507130018 0 -0.35925526417339543 -0.17106106321107989 0 -0.37540161455022469 -0.17567077419270491 0 -0.37622771002777472 -0.16028897214742749 0 -0.3620168597719105 -0.14816445891879271 0 -0.35925526417339543 -0.17106106321107989 0 -0.37622771002777472 -0.16028897214742749 0 -0.35925526417339543 -0.17106106321107989 0 -0.35193993529386941 -0.19673881303508481 0 -0.37011137104458081 -0.18992026118201349 0 -0.35925526417339543 -0.17106106321107989 0 -0.37011137104458081 -0.18992026118201349 0 -0.37540161455022469 -0.17567077419270491 0 -0.35925526417339543 -0.17106106321107989 0 -0.33701337849806567 -0.1734697507130018 0 -0.35193993529386941 -0.19673881303508481 0 -0.33701337849806567 -0.1734697507130018 0 -0.35193993529386941 -0.19673881303508481 0 -0.33701337849806567 -0.1734697507130018 0 -0.32113527030988698 -0.17831482757554501 0 -0.33497505704075498 -0.19187862102050021 0 -0.33701337849806567 -0.1734697507130018 0 -0.33497505704075498 -0.19187862102050021 0 -0.35193993529386941 -0.19673881303508481 0 -0.32208682170226222 -0.15020068839091871 0 -0.33701337849806567 -0.1734697507130018 0 -0.32208682170226222 -0.15020068839091871 0 -0.34494893328384768 -0.1521357449154053 0 -0.33701337849806567 -0.1734697507130018 0 -0.30697889816600338 -0.17279155861189491 0 -0.3188362124806009 -0.15717773469677179 0 -0.32113527030988698 -0.17831482757554501 0 -0.33701337849806567 -0.1734697507130018 0 -0.3188362124806009 -0.15717773469677179 0 -0.32113527030988698 -0.17831482757554501 0 -0.32208682170226222 -0.15020068839091871 0 -0.33701337849806567 -0.1734697507130018 0 -0.3188362124806009 -0.15717773469677179 0 -0.30888473866771649 -0.16158887837034619 0 -0.32208682170226222 -0.15020068839091871 0 -0.3188362124806009 -0.15717773469677179 0 -0.30697889816600338 -0.17279155861189491 0 -0.3188362124806009 -0.15717773469677179 0 -0.3098006823865857 -0.18629728256625869 0 -0.30697889816600338 -0.17279155861189491 0 -0.32113527030988698 -0.17831482757554501 0 -0.3098006823865857 -0.18629728256625869 0 -0.32113527030988698 -0.17831482757554501 0 -0.32015935089569159 -0.19135964972216499 0 -0.32113527030988698 -0.17831482757554501 0 -0.32015935089569159 -0.19135964972216499 0 -0.33497505704075498 -0.19187862102050021 0 -0.32015935089569159 -0.19135964972216499 0 -0.32169285594207381 -0.2069419255334306 0 -0.33400222870001678 -0.2047598098285516 0 -0.32015935089569159 -0.19135964972216499 0 -0.33400222870001678 -0.2047598098285516 0 -0.30900192321030401 -0.20129939946549319 0 -0.3098006823865857 -0.18629728256625869 0 -0.32015935089569159 -0.19135964972216499 0 -0.30900192321030401 -0.20129939946549319 0 -0.32015935089569159 -0.19135964972216499 0 -0.32169285594207381 -0.2069419255334306 0 -0.32169285594207381 -0.2069419255334306 0 -0.33334582434030802 -0.2167513815853086 0 -0.31480979493563688 -0.2192996413014571 0 -0.30900192321030401 -0.20129939946549319 0 -0.32169285594207381 -0.2069419255334306 0 -0.31480979493563688 -0.2192996413014571 0 -0.32169285594207381 -0.2069419255334306 0 -0.33400222870001678 -0.2047598098285516 0 -0.33334582434030802 -0.2167513815853086 0 -0.33334582434030802 -0.2167513815853086 0 -0.34784510650434158 -0.2181599699349385 0 -0.33400222870001678 -0.2047598098285516 0 -0.34784510650434158 -0.2181599699349385 0 -0.33400222870001678 -0.2047598098285516 0 -0.33334582434030802 -0.2167513815853086 0 -0.34784510650434158 -0.2181599699349385 0 -0.33400222870001678 -0.2047598098285516 0 -0.34560017854699943 -0.20662887524865339 0 -0.34784510650434158 -0.2181599699349385 0 -0.33400222870001678 -0.2047598098285516 0 -0.33497505704075498 -0.19187862102050021 0 -0.34560017854699943 -0.20662887524865339 0 -0.32015935089569159 -0.19135964972216499 0 -0.33400222870001678 -0.2047598098285516 0 -0.33497505704075498 -0.19187862102050021 0 -0.33497505704075498 -0.19187862102050021 0 -0.35193993529386941 -0.19673881303508481 0 -0.34560017854699943 -0.20662887524865339 0 -0.35193993529386941 -0.19673881303508481 0 -0.37011137104458081 -0.18992026118201349 0 -0.36959938077861743 -0.20417117896095241 0 -0.37011137104458081 -0.18992026118201349 0 -0.36959938077861743 -0.20417117896095241 0 -0.38148461719747062 -0.2013399835281644 0 -0.35193993529386941 -0.19673881303508481 0 -0.36959938077861743 -0.20417117896095241 0 -0.36686649208967392 -0.22000787535716729 0 -0.36959938077861743 -0.20417117896095241 0 -0.36686649208967392 -0.22000787535716729 0 -0.3792727839211969 -0.21198518199970681 0 -0.35193993529386941 -0.19673881303508481 0 -0.36686649208967392 -0.22000787535716729 0 -0.34560017854699943 -0.20662887524865339 0 -0.34784510650434158 -0.2181599699349385 0 -0.36686649208967392 -0.22000787535716729 0 -0.35193993529386941 -0.19673881303508481 0 -0.34560017854699943 -0.20662887524865339 0 -0.36686649208967392 -0.22000787535716729 0 -0.34784510650434158 -0.2181599699349385 0 -0.36686649208967392 -0.22000787535716729 0 -0.34784510650434158 -0.2181599699349385 0 -0.35618122780568939 -0.226229488548289 0 -0.36686649208967392 -0.22000787535716729 0 -0.34784510650434158 -0.2181599699349385 0 -0.35618122780568939 -0.226229488548289 0 -0.33549551137066302 -0.22276456492487401 0 -0.35618122780568939 -0.226229488548289 0 -0.34294106032841909 -0.24179406536881409 0 -0.33549551137066302 -0.22276456492487401 0 -0.35618122780568939 -0.226229488548289 0 -0.33549551137066302 -0.22276456492487401 0 -0.34784510650434158 -0.2181599699349385 0 -0.35618122780568939 -0.226229488548289 0 -0.35618122780568939 -0.226229488548289 0 -0.37792049780345538 -0.22987088576108219 0 -0.35618122780568939 -0.226229488548289 0 -0.37046566887256849 -0.2256186448075567 0 -0.37792049780345538 -0.22987088576108219 0 -0.35618122780568939 -0.226229488548289 0 -0.37176744018693869 -0.241317228562551 0 -0.37792049780345538 -0.22987088576108219 0 -0.35618122780568939 -0.226229488548289 0 -0.36686649208967392 -0.22000787535716729 0 -0.37046566887256849 -0.2256186448075567 0 -0.35618122780568939 -0.226229488548289 0 -0.37176744018693869 -0.241317228562551 0 -0.36686649208967392 -0.22000787535716729 0 -0.37046566887256849 -0.2256186448075567 0 -0.3569482669838222 -0.25662797097489809 0 -0.37176744018693869 -0.241317228562551 0 -0.34294106032841909 -0.24179406536881409 0 -0.35618122780568939 -0.226229488548289 0 -0.37176744018693869 -0.241317228562551 0 -0.34294106032841909 -0.24179406536881409 0 -0.32493017335586422 -0.25814995515877809 0 -0.34294106032841909 -0.24179406536881409 0 -0.32109483400438721 -0.2405373646159136 0 -0.34294106032841909 -0.24179406536881409 0 -0.33549551137066302 -0.22276456492487401 0 -0.32109483400438721 -0.2405373646159136 0 -0.33334582434030802 -0.2167513815853086 0 -0.34784510650434158 -0.2181599699349385 0 -0.33549551137066302 -0.22276456492487401 0 -0.33549551137066302 -0.22276456492487401 0 -0.31480979493563688 -0.2192996413014571 0 -0.32109483400438721 -0.2405373646159136 0 -0.33549551137066302 -0.22276456492487401 0 -0.31480979493563688 -0.2192996413014571 0 -0.30829567243185491 -0.2333337785859399 0 -0.31480979493563688 -0.2192996413014571 0 -0.32109483400438721 -0.2405373646159136 0 -0.33334582434030802 -0.2167513815853086 0 -0.33549551137066302 -0.22276456492487401 0 -0.31480979493563688 -0.2192996413014571 0 -0.32493017335586422 -0.25814995515877809 0 -0.30846408808500381 -0.2499303869099207 0 -0.32109483400438721 -0.2405373646159136 0 -0.30846408808500381 -0.2499303869099207 0 -0.30829567243185491 -0.2333337785859399 0 -0.32109483400438721 -0.2405373646159136 0 -0.42526550406559183 -0.25163026709429731 0 -0.41867042955141898 -0.236696629583378 0 -0.43768109130161581 -0.23988097619288609 0 -0.41867042955141898 -0.236696629583378 0 -0.43768109130161581 -0.23988097619288609 0 -0.42672895844592212 -0.227792369088058 0 -0.41867042955141898 -0.236696629583378 0 -0.43768109130161581 -0.23988097619288609 0 -0.42672895844592212 -0.227792369088058 0 -0.43599632625878049 -0.2186012451447526 0 -0.43768109130161581 -0.23988097619288609 0 -0.42672895844592212 -0.227792369088058 0 -0.43599632625878049 -0.2186012451447526 0 -0.42260478448853278 -0.2116885144257547 0 -0.43599632625878049 -0.2186012451447526 0 -0.43768109130161581 -0.23988097619288609 0 -0.42672895844592212 -0.227792369088058 0 -0.41276495166890848 -0.22446685716729151 0 -0.41867042955141898 -0.236696629583378 0 -0.42672895844592212 -0.227792369088058 0 -0.41276495166890848 -0.22446685716729151 0 -0.42260478448853278 -0.2116885144257547 0 -0.41276495166890848 -0.22446685716729151 0 -0.41867042955141898 -0.236696629583378 0 -0.40204617031512208 -0.22907293217646041 0 -0.41867042955141898 -0.236696629583378 0 -0.39965976780122192 -0.2335122829738718 0 -0.40204617031512208 -0.22907293217646041 0 -0.41867042955141898 -0.236696629583378 0 -0.39965976780122192 -0.2335122829738718 0 -0.40954989830364158 -0.25378595709655738 0 -0.41867042955141898 -0.236696629583378 0 -0.39965976780122192 -0.2335122829738718 0 -0.40954989830364158 -0.25378595709655738 0 -0.42526550406559183 -0.25163026709429731 0 -0.41867042955141898 -0.236696629583378 0 -0.38735365256818771 -0.25640496857681327 0 -0.39965976780122192 -0.2335122829738718 0 -0.38735365256818771 -0.25640496857681327 0 -0.40954989830364158 -0.25378595709655738 0 -0.39965976780122192 -0.2335122829738718 0 -0.38735365256818771 -0.25640496857681327 0 -0.37176744018693869 -0.241317228562551 0 -0.37792049780345538 -0.22987088576108219 0 -0.38735365256818771 -0.25640496857681327 0 -0.37792049780345538 -0.22987088576108219 0 -0.39965976780122192 -0.2335122829738718 0 -0.38735365256818771 -0.25640496857681327 0 -0.37176744018693869 -0.241317228562551 0 -0.37046566887256849 -0.2256186448075567 0 -0.37792049780345538 -0.22987088576108219 0 -0.3898157218792912 -0.22223736626222909 0 -0.37792049780345538 -0.22987088576108219 0 -0.39965976780122192 -0.2335122829738718 0 -0.36686649208967392 -0.22000787535716729 0 -0.3898157218792912 -0.22223736626222909 0 -0.37792049780345538 -0.22987088576108219 0 -0.3898157218792912 -0.22223736626222909 0 -0.39965976780122192 -0.2335122829738718 0 -0.36686649208967392 -0.22000787535716729 0 -0.37046566887256849 -0.2256186448075567 0 -0.3898157218792912 -0.22223736626222909 0 -0.41276495166890848 -0.22446685716729151 0 -0.3898157218792912 -0.22223736626222909 0 -0.4022941858702096 -0.21301900673172619 0 -0.41276495166890848 -0.22446685716729151 0 -0.3898157218792912 -0.22223736626222909 0 -0.40204617031512208 -0.22907293217646041 0 -0.41276495166890848 -0.22446685716729151 0 -0.3898157218792912 -0.22223736626222909 0 -0.3898157218792912 -0.22223736626222909 0 -0.39965976780122192 -0.2335122829738718 0 -0.40204617031512208 -0.22907293217646041 0 -0.39965976780122192 -0.2335122829738718 0 -0.40204617031512208 -0.22907293217646041 0 -0.4022941858702096 -0.21301900673172619 0 -0.39622330861776722 -0.200652453445503 0 -0.41263700956170002 -0.2027618541422618 0 -0.4022941858702096 -0.21301900673172619 0 -0.39036017013116447 -0.2099750527605059 0 -0.39622330861776722 -0.200652453445503 0 -0.3898157218792912 -0.22223736626222909 0 -0.4022941858702096 -0.21301900673172619 0 -0.39036017013116447 -0.2099750527605059 0 -0.3898157218792912 -0.22223736626222909 0 -0.39036017013116447 -0.2099750527605059 0 -0.3792727839211969 -0.21198518199970681 0 -0.36686649208967392 -0.22000787535716729 0 -0.3898157218792912 -0.22223736626222909 0 -0.3792727839211969 -0.21198518199970681 0 -0.39036017013116447 -0.2099750527605059 0 -0.3792727839211969 -0.21198518199970681 0 -0.38148461719747062 -0.2013399835281644 0 -0.39036017013116447 -0.2099750527605059 0 -0.38148461719747062 -0.2013399835281644 0 -0.39622330861776722 -0.200652453445503 0 -0.36959938077861743 -0.20417117896095241 0 -0.3792727839211969 -0.21198518199970681 0 -0.38148461719747062 -0.2013399835281644 0 -0.37011137104458081 -0.18992026118201349 0 -0.38148461719747062 -0.2013399835281644 0 -0.38701532384279919 -0.18846668287779389 0 -0.38148461719747062 -0.2013399835281644 0 -0.38701532384279919 -0.18846668287779389 0 -0.39622330861776722 -0.200652453445503 0 -0.39622330861776722 -0.200652453445503 0 -0.40354854510325922 -0.18835214063256561 0 -0.41263700956170002 -0.2027618541422618 0 -0.38701532384279919 -0.18846668287779389 0 -0.39622330861776722 -0.200652453445503 0 -0.40354854510325922 -0.18835214063256561 0 -0.40354854510325922 -0.18835214063256561 0 -0.41263700956170002 -0.2027618541422618 0 -0.41673598750621488 -0.1871227240794015 0 -0.41263700956170002 -0.2027618541422618 0 -0.42233927682484101 -0.1970798755393238 0 -0.41673598750621488 -0.1871227240794015 0 -0.42233927682484101 -0.1970798755393238 0 -0.42540704135181112 -0.18650477095258219 0 -0.41673598750621488 -0.1871227240794015 0 -0.4022941858702096 -0.21301900673172619 0 -0.41263700956170002 -0.2027618541422618 0 -0.41255345149433797 -0.21385008565330729 0 -0.41276495166890848 -0.22446685716729151 0 -0.4022941858702096 -0.21301900673172619 0 -0.41255345149433797 -0.21385008565330729 0 -0.41276495166890848 -0.22446685716729151 0 -0.41255345149433797 -0.21385008565330729 0 -0.42260478448853278 -0.2116885144257547 0 -0.41263700956170002 -0.2027618541422618 0 -0.42260478448853278 -0.2116885144257547 0 -0.42233927682484101 -0.1970798755393238 0 -0.41263700956170002 -0.2027618541422618 0 -0.41255345149433797 -0.21385008565330729 0 -0.42260478448853278 -0.2116885144257547 0 -0.43599632625878049 -0.2186012451447526 0 -0.43431156121594611 -0.19732151409661899 0 -0.43599632625878049 -0.2186012451447526 0 -0.42260478448853278 -0.2116885144257547 0 -0.43431156121594611 -0.19732151409661899 0 -0.43431156121594611 -0.19732151409661899 0 -0.42233927682484101 -0.1970798755393238 0 -0.42540704135181112 -0.18650477095258219 0 -0.42260478448853278 -0.2116885144257547 0 -0.43431156121594611 -0.19732151409661899 0 -0.42233927682484101 -0.1970798755393238 0 -0.43431156121594611 -0.19732151409661899 0 -0.43262679617311173 -0.1760417830484855 0 -0.43431156121594611 -0.19732151409661899 0 -0.43262679617311173 -0.1760417830484855 0 -0.43998854769571583 -0.18121411451562661 0 -0.43431156121594611 -0.19732151409661899 0 -0.42540704135181112 -0.18650477095258219 0 -0.43262679617311173 -0.1760417830484855 0 -0.42540704135181112 -0.18650477095258219 0 -0.43262679617311173 -0.1760417830484855 0 -0.42011196389996652 -0.17531692542380339 0 -0.43262679617311173 -0.1760417830484855 0 -0.41866638992769872 -0.16279383461628699 0 -0.42946866281160612 -0.15319909086300371 0 -0.43262679617311173 -0.1760417830484855 0 -0.42946866281160612 -0.15319909086300371 0 -0.43998854769571583 -0.18121411451562661 0 -0.42946866281160612 -0.15319909086300371 0 -0.43998854769571583 -0.18121411451562661 0 -0.43262679617311173 -0.1760417830484855 0 -0.41866638992769872 -0.16279383461628699 0 -0.42011196389996652 -0.17531692542380339 0 -0.41866638992769872 -0.16279383461628699 0 -0.41064261538631219 -0.1679445971706654 0 -0.42011196389996652 -0.17531692542380339 0 -0.41866638992769872 -0.16279383461628699 0 -0.41064261538631219 -0.1679445971706654 0 -0.40459418751255161 -0.15581600703016971 0 -0.41064261538631219 -0.1679445971706654 0 -0.41027277485250507 -0.1791205665922275 0 -0.42011196389996652 -0.17531692542380339 0 -0.41027277485250507 -0.1791205665922275 0 -0.42011196389996652 -0.17531692542380339 0 -0.41673598750621488 -0.1871227240794015 0 -0.42540704135181112 -0.18650477095258219 0 -0.42011196389996652 -0.17531692542380339 0 -0.41673598750621488 -0.1871227240794015 0 -0.40354854510325922 -0.18835214063256561 0 -0.41027277485250507 -0.1791205665922275 0 -0.41673598750621488 -0.1871227240794015 0 -0.41064261538631219 -0.1679445971706654 0 -0.41027277485250507 -0.1791205665922275 0 -0.39429054902731031 -0.17335943274798679 0 -0.40354854510325922 -0.18835214063256561 0 -0.41027277485250507 -0.1791205665922275 0 -0.39429054902731031 -0.17335943274798679 0 -0.38701532384279919 -0.18846668287779389 0 -0.40354854510325922 -0.18835214063256561 0 -0.39429054902731031 -0.17335943274798679 0 -0.37011137104458081 -0.18992026118201349 0 -0.38701532384279919 -0.18846668287779389 0 -0.37540161455022469 -0.17567077419270491 0 -0.38701532384279919 -0.18846668287779389 0 -0.39429054902731031 -0.17335943274798679 0 -0.37540161455022469 -0.17567077419270491 0 -0.39429054902731031 -0.17335943274798679 0 -0.37622771002777472 -0.16028897214742749 0 -0.39033870828141648 -0.15177232130208221 0 -0.39429054902731031 -0.17335943274798679 0 -0.37540161455022469 -0.17567077419270491 0 -0.37622771002777472 -0.16028897214742749 0 -0.39429054902731031 -0.17335943274798679 0 -0.40459418751255161 -0.15581600703016971 0 -0.39033870828141648 -0.15177232130208221 0 -0.41064261538631219 -0.1679445971706654 0 -0.39429054902731031 -0.17335943274798679 0 -0.40459418751255161 -0.15581600703016971 0 -0.40459418751255161 -0.15581600703016971 0 -0.39033870828141648 -0.15177232130208221 0 -0.40361437930207722 -0.13707944573985531 0 -0.37622771002777472 -0.16028897214742749 0 -0.39033870828141648 -0.15177232130208221 0 -0.37606326436239101 -0.1417057825119187 0 -0.39033870828141648 -0.15177232130208221 0 -0.37606326436239101 -0.1417057825119187 0 -0.38918659054706572 -0.13200442973639029 0 -0.37606326436239101 -0.1417057825119187 0 -0.37660811984927961 -0.13008761310785 0 -0.38918659054706572 -0.13200442973639029 0 -0.37660811984927961 -0.13008761310785 0 -0.38918659054706572 -0.13200442973639029 0 -0.38280078160759462 -0.12063144682871781 0 -0.38918659054706572 -0.13200442973639029 0 -0.40206816450786748 -0.12534119825959489 0 -0.39362740265852347 -0.12023929836753899 0 -0.39033870828141648 -0.15177232130208221 0 -0.38918659054706572 -0.13200442973639029 0 -0.40361437930207722 -0.13707944573985531 0 -0.38918659054706572 -0.13200442973639029 0 -0.40361437930207722 -0.13707944573985531 0 -0.40206816450786748 -0.12534119825959489 0 -0.40361437930207722 -0.13707944573985531 0 -0.40206816450786748 -0.12534119825959489 0 -0.40808680778215001 -0.13065799625154201 0 -0.40808680778215001 -0.13065799625154201 0 -0.41440068079573672 -0.13627359269513761 0 -0.41226400652291861 -0.1239377483115803 0 -0.40206816450786748 -0.12534119825959489 0 -0.40808680778215001 -0.13065799625154201 0 -0.41226400652291861 -0.1239377483115803 0 -0.41894877792749702 -0.12518406721038061 0 -0.41440068079573672 -0.13627359269513761 0 -0.42946866281160612 -0.15319909086300371 0 -0.41894877792749702 -0.12518406721038061 0 -0.41440068079573672 -0.13627359269513761 0 -0.41226400652291861 -0.1239377483115803 0 -0.40361437930207722 -0.13707944573985531 0 -0.41440068079573672 -0.13627359269513761 0 -0.41455411378264428 -0.14844460416159461 0 -0.40361437930207722 -0.13707944573985531 0 -0.40808680778215001 -0.13065799625154201 0 -0.41440068079573672 -0.13627359269513761 0 -0.41440068079573672 -0.13627359269513761 0 -0.41455411378264428 -0.14844460416159461 0 -0.42946866281160612 -0.15319909086300371 0 -0.40459418751255161 -0.15581600703016971 0 -0.40361437930207722 -0.13707944573985531 0 -0.41455411378264428 -0.14844460416159461 0 -0.41866638992769872 -0.16279383461628699 0 -0.40459418751255161 -0.15581600703016971 0 -0.41455411378264428 -0.14844460416159461 0 -0.41866638992769872 -0.16279383461628699 0 -0.41455411378264428 -0.14844460416159461 0 -0.42946866281160612 -0.15319909086300371 0 -0.41894877792749702 -0.12518406721038061 0 -0.44045734787150531 -0.13277265485056591 0 -0.44322140784488478 -0.12970949307144969 0 -0.41894877792749702 -0.12518406721038061 0 -0.44322140784488478 -0.12970949307144969 0 -0.43566435235120449 -0.1212664494772297 0 -0.41894877792749702 -0.12518406721038061 0 -0.42946866281160612 -0.15319909086300371 0 -0.41894877792749702 -0.12518406721038061 0 -0.42946866281160612 -0.15319909086300371 0 -0.44045734787150531 -0.13277265485056591 0 -0.41894877792749702 -0.12518406721038061 0 -0.44322140784488478 -0.12970949307144969 0 -0.44045734787150531 -0.13277265485056591 0 -0.44322140784488478 -0.12970949307144969 0 -0.4674940377622725 -0.13423491893251921 0 -0.44322140784488478 -0.12970949307144969 0 -0.44733428235407358 -0.1238748093235674 0 -0.45692601649221087 -0.12356048664681669 0 -0.44322140784488478 -0.12970949307144969 0 -0.44733428235407358 -0.1238748093235674 0 -0.44294579078483792 -0.12321074044094479 0 -0.44045734787150531 -0.13277265485056591 0 -0.44272645135067812 -0.14673642271107551 0 -0.45237062095080027 -0.14111946822045579 0 -0.42946866281160612 -0.15319909086300371 0 -0.44045734787150531 -0.13277265485056591 0 -0.44272645135067812 -0.14673642271107551 0 -0.45072392628580149 -0.1493237746598193 0 -0.4594136712387516 -0.15907520598671959 0 -0.44369838129204831 -0.15983318794453441 0 -0.42946866281160612 -0.15319909086300371 0 -0.44272645135067812 -0.14673642271107551 0 -0.44369838129204831 -0.15983318794453441 0 -0.44272645135067812 -0.14673642271107551 0 -0.45072392628580149 -0.1493237746598193 0 -0.44369838129204831 -0.15983318794453441 0 -0.44272645135067812 -0.14673642271107551 0 -0.45072392628580149 -0.1493237746598193 0 -0.45237062095080027 -0.14111946822045579 0 -0.45072392628580149 -0.1493237746598193 0 -0.45237062095080027 -0.14111946822045579 0 -0.46234589278656069 -0.1462976492047568 0 -0.45072392628580149 -0.1493237746598193 0 -0.46234589278656069 -0.1462976492047568 0 -0.4594136712387516 -0.15907520598671959 0 -0.46234589278656069 -0.1462976492047568 0 -0.47126195880699367 -0.15114855879433189 0 -0.4594136712387516 -0.15907520598671959 0 -0.46234589278656069 -0.1462976492047568 0 -0.47263579455304677 -0.14227319708552469 0 -0.47126195880699367 -0.15114855879433189 0 -0.46234589278656069 -0.1462976492047568 0 -0.4674940377622725 -0.13423491893251921 0 -0.47263579455304677 -0.14227319708552469 0 -0.44322140784488478 -0.12970949307144969 0 -0.4674940377622725 -0.13423491893251921 0 -0.44322140784488478 -0.12970949307144969 0 -0.4674940377622725 -0.13423491893251921 0 -0.45692601649221087 -0.12356048664681669 0 -0.44045734787150531 -0.13277265485056591 0 -0.4674940377622725 -0.13423491893251921 0 -0.44045734787150531 -0.13277265485056591 0 -0.45237062095080027 -0.14111946822045579 0 -0.4674940377622725 -0.13423491893251921 0 -0.45237062095080027 -0.14111946822045579 0 -0.46234589278656069 -0.1462976492047568 0 -0.4674940377622725 -0.13423491893251921 0 -0.4674940377622725 -0.13423491893251921 0 -0.48374701888113703 -0.13511395222434611 0 -0.48287724029030338 -0.1371029864959995 0 -0.4674940377622725 -0.13423491893251921 0 -0.47763063677159262 -0.12743973822845001 0 -0.46967506937988168 -0.1156176767753732 0 -0.4674940377622725 -0.13423491893251921 0 -0.48374701888113703 -0.13511395222434611 0 -0.4674940377622725 -0.13423491893251921 0 -0.48374701888113703 -0.13511395222434611 0 -0.47763063677159262 -0.12743973822845001 0 -0.4674940377622725 -0.13423491893251921 0 -0.48287724029030338 -0.1371029864959995 0 -0.47263579455304677 -0.14227319708552469 0 -0.4674940377622725 -0.13423491893251921 0 -0.48287724029030338 -0.1371029864959995 0 -0.48374701888113703 -0.13511395222434611 0 -0.50000000000000155 -0.135992985516173 0 -0.48374701888113703 -0.13511395222434611 0 -0.49205522913860639 -0.12740517559633521 0 -0.50000000000000155 -0.135992985516173 0 -0.48374701888113703 -0.13511395222434611 0 -0.50000000000000155 -0.135992985516173 0 -0.49826044281833443 -0.13997105405947971 0 -0.48374701888113703 -0.13511395222434611 0 -0.47763063677159262 -0.12743973822845001 0 -0.49205522913860639 -0.12740517559633521 0 -0.48287724029030338 -0.1371029864959995 0 -0.49826044281833443 -0.13997105405947971 0 -0.48970767335880078 -0.14315599262379999 0 -0.48374701888113703 -0.13511395222434611 0 -0.48287724029030338 -0.1371029864959995 0 -0.49826044281833443 -0.13997105405947971 0 -0.48287724029030338 -0.1371029864959995 0 -0.49826044281833443 -0.13997105405947971 0 -0.49826044281833443 -0.13997105405947971 0 -0.48880400060070173 -0.15204336264114099 0 -0.5 -0.16257722613166559 0 -0.50000000000000155 -0.135992985516173 0 -0.49826044281833443 -0.13997105405947971 0 -0.5 -0.16257722613166559 0 -0.49826044281833443 -0.13997105405947971 0 -0.48970767335880078 -0.14315599262379999 0 -0.48880400060070173 -0.15204336264114099 0 -0.48287724029030338 -0.1371029864959995 0 -0.48970767335880078 -0.14315599262379999 0 -0.48109439442191998 -0.14634995125647379 0 -0.48970767335880078 -0.14315599262379999 0 -0.48880400060070173 -0.15204336264114099 0 -0.48109439442191998 -0.14634995125647379 0 -0.48880400060070173 -0.15204336264114099 0 -0.47963691241901019 -0.15527409117642871 0 -0.48109439442191998 -0.14634995125647379 0 -0.47963691241901019 -0.15527409117642871 0 -0.48109439442191998 -0.14634995125647379 0 -0.47126195880699367 -0.15114855879433189 0 -0.48287724029030338 -0.1371029864959995 0 -0.48109439442191998 -0.14634995125647379 0 -0.47263579455304677 -0.14227319708552469 0 -0.48109439442191998 -0.14634995125647379 0 -0.47263579455304677 -0.14227319708552469 0 -0.47126195880699367 -0.15114855879433189 0 -0.47963691241901019 -0.15527409117642871 0 -0.47126195880699367 -0.15114855879433189 0 -0.47245641001431532 -0.16410528104960509 0 -0.47245641001431532 -0.16410528104960509 0 -0.48456779825112051 -0.16272330214059169 0 -0.48203689297531532 -0.18026514525766901 0 -0.47963691241901019 -0.15527409117642871 0 -0.47245641001431532 -0.16410528104960509 0 -0.48456779825112051 -0.16272330214059169 0 -0.48880400060070173 -0.15204336264114099 0 -0.47963691241901019 -0.15527409117642871 0 -0.48456779825112051 -0.16272330214059169 0 -0.48880400060070173 -0.15204336264114099 0 -0.48456779825112051 -0.16272330214059169 0 -0.5 -0.16257722613166559 0 -0.48456779825112051 -0.16272330214059169 0 -0.5 -0.16257722613166559 0 -0.48203689297531532 -0.18026514525766901 0 -0.5 -0.16257722613166559 0 -0.48203689297531532 -0.18026514525766901 0 -0.5 -0.18916146674715831 0 -0.48203689297531532 -0.18026514525766901 0 -0.46298931177680752 -0.17444523791590999 0 -0.46469577716211852 -0.18836469606845241 0 -0.47245641001431532 -0.16410528104960509 0 -0.48203689297531532 -0.18026514525766901 0 -0.46298931177680752 -0.17444523791590999 0 -0.46298931177680752 -0.17444523791590999 0 -0.45287945294922188 -0.1812555272221191 0 -0.46469577716211852 -0.18836469606845241 0 -0.45287945294922188 -0.1812555272221191 0 -0.45428713313978042 -0.19262575075787 0 -0.46469577716211852 -0.18836469606845241 0 -0.46298931177680752 -0.17444523791590999 0 -0.45241981770873502 -0.1683727523380795 0 -0.45287945294922188 -0.1812555272221191 0 -0.47245641001431532 -0.16410528104960509 0 -0.46298931177680752 -0.17444523791590999 0 -0.4594136712387516 -0.15907520598671959 0 -0.47126195880699367 -0.15114855879433189 0 -0.47245641001431532 -0.16410528104960509 0 -0.4594136712387516 -0.15907520598671959 0 -0.46298931177680752 -0.17444523791590999 0 -0.4594136712387516 -0.15907520598671959 0 -0.45241981770873502 -0.1683727523380795 0 -0.42946866281160612 -0.15319909086300371 0 -0.44369838129204831 -0.15983318794453441 0 -0.43998854769571583 -0.18121411451562661 0 -0.45241981770873502 -0.1683727523380795 0 -0.44369838129204831 -0.15983318794453441 0 -0.44724654991143031 -0.17266889550508979 0 -0.44369838129204831 -0.15983318794453441 0 -0.43998854769571583 -0.18121411451562661 0 -0.44724654991143031 -0.17266889550508979 0 -0.4594136712387516 -0.15907520598671959 0 -0.45241981770873502 -0.1683727523380795 0 -0.44369838129204831 -0.15983318794453441 0 -0.43998854769571583 -0.18121411451562661 0 -0.45287945294922188 -0.1812555272221191 0 -0.45428713313978042 -0.19262575075787 0 -0.43998854769571583 -0.18121411451562661 0 -0.45287945294922188 -0.1812555272221191 0 -0.44724654991143031 -0.17266889550508979 0 -0.45241981770873502 -0.1683727523380795 0 -0.45287945294922188 -0.1812555272221191 0 -0.44724654991143031 -0.17266889550508979 0 -0.43431156121594611 -0.19732151409661899 0 -0.43998854769571583 -0.18121411451562661 0 -0.45050843257982548 -0.20922913816824931 0 -0.43998854769571583 -0.18121411451562661 0 -0.45050843257982548 -0.20922913816824931 0 -0.43998854769571583 -0.18121411451562661 0 -0.45050843257982548 -0.20922913816824931 0 -0.45428713313978042 -0.19262575075787 0 -0.43599632625878049 -0.2186012451447526 0 -0.45050843257982548 -0.20922913816824931 0 -0.45220777374996862 -0.2200568739728504 0 -0.43599632625878049 -0.2186012451447526 0 -0.43431156121594611 -0.19732151409661899 0 -0.45050843257982548 -0.20922913816824931 0 -0.45050843257982548 -0.20922913816824931 0 -0.46358199538875849 -0.21621606839911139 0 -0.46416234351701913 -0.20206936003933609 0 -0.45050843257982548 -0.20922913816824931 0 -0.46358199538875849 -0.21621606839911139 0 -0.45220777374996862 -0.2200568739728504 0 -0.46358199538875849 -0.21621606839911139 0 -0.46416234351701913 -0.20206936003933609 0 -0.47584177389025878 -0.2099599387464354 0 -0.46416234351701913 -0.20206936003933609 0 -0.46469577716211852 -0.18836469606845241 0 -0.47543198611444948 -0.1964372659635831 0 -0.45050843257982548 -0.20922913816824931 0 -0.46416234351701913 -0.20206936003933609 0 -0.45428713313978042 -0.19262575075787 0 -0.46416234351701913 -0.20206936003933609 0 -0.45428713313978042 -0.19262575075787 0 -0.46469577716211852 -0.18836469606845241 0 -0.48203689297531532 -0.18026514525766901 0 -0.47543198611444948 -0.1964372659635831 0 -0.48896798164452709 -0.20246918393678889 0 -0.48203689297531532 -0.18026514525766901 0 -0.46469577716211852 -0.18836469606845241 0 -0.47543198611444948 -0.1964372659635831 0 -0.46416234351701913 -0.20206936003933609 0 -0.47543198611444948 -0.1964372659635831 0 -0.47584177389025878 -0.2099599387464354 0 -0.47543198611444948 -0.1964372659635831 0 -0.48896798164452709 -0.20246918393678889 0 -0.47584177389025878 -0.2099599387464354 0 -0.48203689297531532 -0.18026514525766901 0 -0.5 -0.18916146674715831 0 -0.48896798164452709 -0.20246918393678889 0 -0.5 -0.18916146674715831 0 -0.48896798164452709 -0.20246918393678889 0 -0.5 -0.21574570736265089 0 -0.48896798164452709 -0.20246918393678889 0 -0.5 -0.21574570736265089 0 -0.4855904510003024 -0.2225834573442762 0 -0.48896798164452709 -0.20246918393678889 0 -0.47584177389025878 -0.2099599387464354 0 -0.4855904510003024 -0.2225834573442762 0 -0.46358199538875849 -0.21621606839911139 0 -0.47584177389025878 -0.2099599387464354 0 -0.47180050520052819 -0.2265679125371455 0 -0.47584177389025878 -0.2099599387464354 0 -0.47180050520052819 -0.2265679125371455 0 -0.4855904510003024 -0.2225834573442762 0 -0.47180050520052819 -0.2265679125371455 0 -0.4855904510003024 -0.2225834573442762 0 -0.47930384830573691 -0.24047285468383381 0 -0.4855904510003024 -0.2225834573442762 0 -0.5 -0.2307035027613078 0 -0.47930384830573691 -0.24047285468383381 0 -0.5 -0.21574570736265089 0 -0.4855904510003024 -0.2225834573442762 0 -0.5 -0.2307035027613078 0 -0.48812836472625931 -0.25507586270891369 0 -0.5 -0.24232994797814361 0 -0.47930384830573691 -0.24047285468383381 0 -0.5 -0.2307035027613078 0 -0.47930384830573691 -0.24047285468383381 0 -0.5 -0.2307035027613078 0 -0.5 -0.24232994797814361 0 -0.47930384830573691 -0.24047285468383381 0 -0.45928936195740799 -0.25024220660635982 0 -0.47930384830573691 -0.24047285468383381 0 -0.47180050520052819 -0.2265679125371455 0 -0.47930384830573691 -0.24047285468383381 0 -0.46319243784012082 -0.23833960216517289 0 -0.45928936195740799 -0.25024220660635982 0 -0.46418071873126332 -0.25557144543121929 0 -0.47930384830573691 -0.24047285468383381 0 -0.45928936195740799 -0.25024220660635982 0 -0.47930384830573691 -0.24047285468383381 0 -0.46319243784012082 -0.23833960216517289 0 -0.45928936195740799 -0.25024220660635982 0 -0.45458035191101348 -0.2437803501201424 0 -0.46319243784012082 -0.23833960216517289 0 -0.45928936195740799 -0.25024220660635982 0 -0.45458035191101348 -0.2437803501201424 0 -0.44847237959020703 -0.24783071556647349 0 -0.45356765673120403 -0.23681519036679599 0 -0.46319243784012082 -0.23833960216517289 0 -0.45957494200362309 -0.22873452762666641 0 -0.45458035191101348 -0.2437803501201424 0 -0.45356765673120403 -0.23681519036679599 0 -0.46319243784012082 -0.23833960216517289 0 -0.47180050520052819 -0.2265679125371455 0 -0.46319243784012082 -0.23833960216517289 0 -0.45957494200362309 -0.22873452762666641 0 -0.46358199538875849 -0.21621606839911139 0 -0.47180050520052819 -0.2265679125371455 0 -0.45957494200362309 -0.22873452762666641 0 -0.46358199538875849 -0.21621606839911139 0 -0.45957494200362309 -0.22873452762666641 0 -0.45220777374996862 -0.2200568739728504 0 -0.45356765673120403 -0.23681519036679599 0 -0.45957494200362309 -0.22873452762666641 0 -0.44659793836102479 -0.2285622183178144 0 -0.43599632625878049 -0.2186012451447526 0 -0.44659793836102479 -0.2285622183178144 0 -0.43768109130161581 -0.23988097619288609 0 -0.43599632625878049 -0.2186012451447526 0 -0.44659793836102479 -0.2285622183178144 0 -0.45220777374996862 -0.2200568739728504 0 -0.45356765673120403 -0.23681519036679599 0 -0.44659793836102479 -0.2285622183178144 0 -0.44566619387870238 -0.23742638446287709 0 -0.45957494200362309 -0.22873452762666641 0 -0.44659793836102479 -0.2285622183178144 0 -0.45220777374996862 -0.2200568739728504 0 -0.44159202179432488 -0.2405360695514466 0 -0.43768109130161581 -0.23988097619288609 0 -0.44566619387870238 -0.23742638446287709 0 -0.43927487560907968 -0.26001155852888652 0 -0.44159202179432488 -0.2405360695514466 0 -0.44847237959020703 -0.24783071556647349 0 -0.43927487560907968 -0.26001155852888652 0 -0.44159202179432488 -0.2405360695514466 0 -0.43768109130161581 -0.23988097619288609 0 -0.44659793836102479 -0.2285622183178144 0 -0.43768109130161581 -0.23988097619288609 0 -0.44566619387870238 -0.23742638446287709 0 -0.43927487560907968 -0.26001155852888652 0 -0.43768109130161581 -0.23988097619288609 0 -0.44159202179432488 -0.2405360695514466 0 -0.43768109130161581 -0.23988097619288609 0 -0.44159202179432488 -0.2405360695514466 0 -0.44847237959020703 -0.24783071556647349 0 -0.4488922612053432 -0.24133746788544219 0 -0.45458035191101348 -0.2437803501201424 0 -0.44847237959020703 -0.24783071556647349 0 -0.4488922612053432 -0.24133746788544219 0 -0.45458035191101348 -0.2437803501201424 0 -0.45356765673120403 -0.23681519036679599 0 -0.4488922612053432 -0.24133746788544219 0 -0.45356765673120403 -0.23681519036679599 0 -0.44566619387870238 -0.23742638446287709 0 -0.4488922612053432 -0.24133746788544219 0 -0.44159202179432488 -0.2405360695514466 0 -0.44566619387870238 -0.23742638446287709 0 -0.4488922612053432 -0.24133746788544219 0 -0.42696903595728403 -0.043524300661642583 0 -0.42283401094015027 -0.066147271592615908 0 -0.45483938044406208 -0.055905589402946598 0 -0.41063423193552823 -0.035530945541751971 0 -0.42696903595728403 -0.043524300661642583 0 -0.42201807453036411 -0.024090737102640258 0 -0.41063423193552823 -0.035530945541751971 0 -0.4066230890275816 -0.049627156055233733 0 -0.42696903595728403 -0.043524300661642583 0 -0.4066230890275816 -0.049627156055233733 0 -0.40238892602494208 -0.063678346112828174 0 -0.42283401094015027 -0.066147271592615908 0 -0.4066230890275816 -0.049627156055233733 0 -0.42696903595728403 -0.043524300661642583 0 -0.42283401094015027 -0.066147271592615908 0 -0.42696903595728403 -0.043524300661642583 0 -0.42201807453036411 -0.024090737102640258 0 -0.44460929842883218 -0.03024602865086606 0 -0.42201807453036411 -0.024090737102640258 0 -0.44065572886467891 -0.008724382811930529 0 -0.42201807453036411 -0.024090737102640258 0 -0.44065572886467891 -0.008724382811930529 0 -0.44460929842883218 -0.03024602865086606 0 -0.42201807453036411 -0.024090737102640258 0 -0.42371987986013321 -0.0023373594758670131 0 -0.44065572886467891 -0.008724382811930529 0 -0.42201807453036411 -0.024090737102640258 0 -0.42371987986013321 -0.0023373594758670131 0 -0.40568778554657942 -0.0071128094684239128 0 -0.42201807453036411 -0.024090737102640258 0 -0.39936453760363672 -0.025233990291440401 0 -0.40568778554657942 -0.0071128094684239128 0 -0.41063423193552823 -0.035530945541751971 0 -0.42201807453036411 -0.024090737102640258 0 -0.39936453760363672 -0.025233990291440401 0 -0.39936453760363672 -0.025233990291440401 0 -0.40568778554657942 -0.0071128094684239128 0 -0.39487078458156022 -0.0136413796972156 0 -0.40568778554657942 -0.0071128094684239128 0 -0.39511222313640543 -0.0043980754813927143 0 -0.39500107419647112 0.0080372471967794061 0 -0.40568778554657942 -0.0071128094684239128 0 -0.39487078458156022 -0.0136413796972156 0 -0.39511222313640543 -0.0043980754813927143 0 -0.39487078458156022 -0.0136413796972156 0 -0.39511222313640543 -0.0043980754813927143 0 -0.38517766961433092 -0.0063721784754573246 0 -0.39511222313640543 -0.0043980754813927143 0 -0.38517766961433092 -0.0063721784754573246 0 -0.39500107419647112 0.0080372471967794061 0 -0.38517766961433092 -0.0063721784754573246 0 -0.37912460818950078 -0.0065278018498123114 0 -0.37677101586784778 -0.032104785925230361 0 -0.38517766961433092 -0.0063721784754573246 0 -0.37677101586784778 -0.032104785925230361 0 -0.39936453760363672 -0.025233990291440401 0 -0.39487078458156022 -0.0136413796972156 0 -0.37677101586784778 -0.032104785925230361 0 -0.37912460818950078 -0.0065278018498123114 0 -0.37677101586784778 -0.032104785925230361 0 -0.39487078458156022 -0.0136413796972156 0 -0.38517766961433092 -0.0063721784754573246 0 -0.37677101586784778 -0.032104785925230361 0 -0.39936453760363672 -0.025233990291440401 0 -0.37677101586784778 -0.032104785925230361 0 -0.39455732130724991 -0.040889085134838507 0 -0.37466409336866269 -0.055001157023149803 0 -0.37677101586784778 -0.032104785925230361 0 -0.38255415621163902 -0.048319504309389492 0 -0.37466409336866269 -0.055001157023149803 0 -0.37677101586784778 -0.032104785925230361 0 -0.37677101586784778 -0.032104785925230361 0 -0.39455732130724991 -0.040889085134838507 0 -0.38255415621163902 -0.048319504309389492 0 -0.41063423193552823 -0.035530945541751971 0 -0.39936453760363672 -0.025233990291440401 0 -0.39455732130724991 -0.040889085134838507 0 -0.41063423193552823 -0.035530945541751971 0 -0.4066230890275816 -0.049627156055233733 0 -0.39455732130724991 -0.040889085134838507 0 -0.4066230890275816 -0.049627156055233733 0 -0.39114076676008103 -0.054920053062184178 0 -0.40238892602494208 -0.063678346112828174 0 -0.4066230890275816 -0.049627156055233733 0 -0.39455732130724991 -0.040889085134838507 0 -0.39114076676008103 -0.054920053062184178 0 -0.39114076676008103 -0.054920053062184178 0 -0.38881217329319029 -0.067442069541619853 0 -0.40238892602494208 -0.063678346112828174 0 -0.39114076676008103 -0.054920053062184178 0 -0.38320848948076558 -0.059622719259999242 0 -0.38881217329319029 -0.067442069541619853 0 -0.39455732130724991 -0.040889085134838507 0 -0.39114076676008103 -0.054920053062184178 0 -0.38255415621163902 -0.048319504309389492 0 -0.39114076676008103 -0.054920053062184178 0 -0.38320848948076558 -0.059622719259999242 0 -0.38255415621163902 -0.048319504309389492 0 -0.37466409336866269 -0.055001157023149803 0 -0.38320848948076558 -0.059622719259999242 0 -0.38255415621163902 -0.048319504309389492 0 -0.37466409336866269 -0.055001157023149803 0 -0.38320848948076558 -0.059622719259999242 0 -0.3806672124350467 -0.067697076131995715 0 -0.37255717086947798 -0.077897528121069384 0 -0.37466409336866269 -0.055001157023149803 0 -0.3806672124350467 -0.067697076131995715 0 -0.38320848948076558 -0.059622719259999242 0 -0.3806672124350467 -0.067697076131995715 0 -0.38881217329319029 -0.067442069541619853 0 -0.3806672124350467 -0.067697076131995715 0 -0.38881217329319029 -0.067442069541619853 0 -0.38465271641365772 -0.078075209509904653 0 -0.37255717086947798 -0.077897528121069384 0 -0.3806672124350467 -0.067697076131995715 0 -0.38465271641365772 -0.078075209509904653 0 -0.37255717086947798 -0.077897528121069384 0 -0.38465271641365772 -0.078075209509904653 0 -0.38662875777426398 -0.090737519564571309 0 -0.37045024837029322 -0.100793899218989 0 -0.37255717086947798 -0.077897528121069384 0 -0.38662875777426398 -0.090737519564571309 0 -0.38662875777426398 -0.090737519564571309 0 -0.40253459010370718 -0.080255180312487157 0 -0.39925582892748629 -0.098179458085420737 0 -0.40253459010370718 -0.080255180312487157 0 -0.39925582892748629 -0.098179458085420737 0 -0.41195792929376451 -0.099189307442586166 0 -0.38465271641365772 -0.078075209509904653 0 -0.38662875777426398 -0.090737519564571309 0 -0.40253459010370718 -0.080255180312487157 0 -0.38881217329319029 -0.067442069541619853 0 -0.38465271641365772 -0.078075209509904653 0 -0.40253459010370718 -0.080255180312487157 0 -0.38881217329319029 -0.067442069541619853 0 -0.40253459010370718 -0.080255180312487157 0 -0.40238892602494208 -0.063678346112828174 0 -0.38918659054706572 -0.13200442973639029 0 -0.38280078160759462 -0.12063144682871781 0 -0.39362740265852347 -0.12023929836753899 0 -0.36834332587110852 -0.1236902703169086 0 -0.37660811984927961 -0.13008761310785 0 -0.38280078160759462 -0.12063144682871781 0 -0.36834332587110852 -0.1236902703169086 0 -0.38280078160759462 -0.12063144682871781 0 -0.38020522973052651 -0.10912133061679551 0 -0.38280078160759462 -0.12063144682871781 0 -0.38020522973052651 -0.10912133061679551 0 -0.39280303502937208 -0.1097535171547909 0 -0.38280078160759462 -0.12063144682871781 0 -0.39280303502937208 -0.1097535171547909 0 -0.39362740265852347 -0.12023929836753899 0 -0.37045024837029322 -0.100793899218989 0 -0.38662875777426398 -0.090737519564571309 0 -0.38020522973052651 -0.10912133061679551 0 -0.38662875777426398 -0.090737519564571309 0 -0.38020522973052651 -0.10912133061679551 0 -0.39280303502937208 -0.1097535171547909 0 -0.38662875777426398 -0.090737519564571309 0 -0.39925582892748629 -0.098179458085420737 0 -0.39280303502937208 -0.1097535171547909 0 -0.39925582892748629 -0.098179458085420737 0 -0.40127844160071741 -0.11346589985820101 0 -0.41007296611702743 -0.1086730916312295 0 -0.39925582892748629 -0.098179458085420737 0 -0.39280303502937208 -0.1097535171547909 0 -0.40127844160071741 -0.11346589985820101 0 -0.39280303502937208 -0.1097535171547909 0 -0.40127844160071741 -0.11346589985820101 0 -0.39362740265852347 -0.12023929836753899 0 -0.40206816450786748 -0.12534119825959489 0 -0.40127844160071741 -0.11346589985820101 0 -0.39362740265852347 -0.12023929836753899 0 -0.40206816450786748 -0.12534119825959489 0 -0.40127844160071741 -0.11346589985820101 0 -0.40850720505109822 -0.11787023202284461 0 -0.41894877792749702 -0.12518406721038061 0 -0.41226400652291861 -0.1239377483115803 0 -0.41581705584610729 -0.1168441215598276 0 -0.41894877792749702 -0.12518406721038061 0 -0.41581705584610729 -0.1168441215598276 0 -0.41894877792749702 -0.12518406721038061 0 -0.41581705584610729 -0.1168441215598276 0 -0.42659002794683198 -0.1168674784615648 0 -0.41894877792749702 -0.12518406721038061 0 -0.41226400652291861 -0.1239377483115803 0 -0.40206816450786748 -0.12534119825959489 0 -0.41226400652291861 -0.1239377483115803 0 -0.40850720505109822 -0.11787023202284461 0 -0.41226400652291861 -0.1239377483115803 0 -0.40850720505109822 -0.11787023202284461 0 -0.41581705584610729 -0.1168441215598276 0 -0.40127844160071741 -0.11346589985820101 0 -0.40850720505109822 -0.11787023202284461 0 -0.41007296611702743 -0.1086730916312295 0 -0.40850720505109822 -0.11787023202284461 0 -0.41581705584610729 -0.1168441215598276 0 -0.41007296611702743 -0.1086730916312295 0 -0.41581705584610729 -0.1168441215598276 0 -0.41007296611702743 -0.1086730916312295 0 -0.42362133598299101 -0.10648953081849689 0 -0.41007296611702743 -0.1086730916312295 0 -0.41195792929376451 -0.099189307442586166 0 -0.42362133598299101 -0.10648953081849689 0 -0.39925582892748629 -0.098179458085420737 0 -0.41007296611702743 -0.1086730916312295 0 -0.41195792929376451 -0.099189307442586166 0 -0.41195792929376451 -0.099189307442586166 0 -0.42362133598299101 -0.10648953081849689 0 -0.424914749862432 -0.092042679133449185 0 -0.42362133598299101 -0.10648953081849689 0 -0.424914749862432 -0.092042679133449185 0 -0.44729490962115692 -0.1038301779544112 0 -0.42362133598299101 -0.10648953081849689 0 -0.43603619530881432 -0.1136084005439799 0 -0.44729490962115692 -0.1038301779544112 0 -0.424914749862432 -0.092042679133449185 0 -0.44729490962115692 -0.1038301779544112 0 -0.41894877792749702 -0.12518406721038061 0 -0.42659002794683198 -0.1168674784615648 0 -0.43566435235120449 -0.1212664494772297 0 -0.42362133598299101 -0.10648953081849689 0 -0.42659002794683198 -0.1168674784615648 0 -0.43603619530881432 -0.1136084005439799 0 -0.41581705584610729 -0.1168441215598276 0 -0.42362133598299101 -0.10648953081849689 0 -0.42659002794683198 -0.1168674784615648 0 -0.42659002794683198 -0.1168674784615648 0 -0.43603619530881432 -0.1136084005439799 0 -0.43566435235120449 -0.1212664494772297 0 -0.40253459010370718 -0.080255180312487157 0 -0.40238892602494208 -0.063678346112828174 0 -0.42283401094015027 -0.066147271592615908 0 -0.40253459010370718 -0.080255180312487157 0 -0.41195792929376451 -0.099189307442586166 0 -0.424914749862432 -0.092042679133449185 0 -0.40253459010370718 -0.080255180312487157 0 -0.424914749862432 -0.092042679133449185 0 -0.40253459010370718 -0.080255180312487157 0 -0.424914749862432 -0.092042679133449185 0 -0.42283401094015027 -0.066147271592615908 0 -0.424914749862432 -0.092042679133449185 0 -0.42283401094015027 -0.066147271592615908 0 -0.44467927748639929 -0.080269172030114078 0 -0.42283401094015027 -0.066147271592615908 0 -0.44467927748639929 -0.080269172030114078 0 -0.45483938044406208 -0.055905589402946598 0 -0.424914749862432 -0.092042679133449185 0 -0.44467927748639929 -0.080269172030114078 0 -0.44729490962115692 -0.1038301779544112 0 -0.44467927748639929 -0.080269172030114078 0 -0.44729490962115692 -0.1038301779544112 0 -0.46911303574849172 -0.084567605724436556 0 -0.46911303574849172 -0.084567605724436556 0 -0.47823342942478791 -0.062483718422336597 0 -0.45483938044406208 -0.055905589402946598 0 -0.44467927748639929 -0.080269172030114078 0 -0.46911303574849172 -0.084567605724436556 0 -0.45483938044406208 -0.055905589402946598 0 -0.44556312058918851 -0.1179922098915325 0 -0.44729490962115692 -0.1038301779544112 0 -0.45692601649221087 -0.12356048664681669 0 -0.44556312058918851 -0.1179922098915325 0 -0.44733428235407358 -0.1238748093235674 0 -0.45692601649221087 -0.12356048664681669 0 -0.44322140784488478 -0.12970949307144969 0 -0.43566435235120449 -0.1212664494772297 0 -0.44294579078483792 -0.12321074044094479 0 -0.44556312058918851 -0.1179922098915325 0 -0.44733428235407358 -0.1238748093235674 0 -0.44294579078483792 -0.12321074044094479 0 -0.43566435235120449 -0.1212664494772297 0 -0.44556312058918851 -0.1179922098915325 0 -0.44294579078483792 -0.12321074044094479 0 -0.43603619530881432 -0.1136084005439799 0 -0.43566435235120449 -0.1212664494772297 0 -0.44556312058918851 -0.1179922098915325 0 -0.43603619530881432 -0.1136084005439799 0 -0.44556312058918851 -0.1179922098915325 0 -0.44729490962115692 -0.1038301779544112 0 -0.44729490962115692 -0.1038301779544112 0 -0.46967506937988168 -0.1156176767753732 0 -0.46911303574849172 -0.084567605724436556 0 -0.4674940377622725 -0.13423491893251921 0 -0.45692601649221087 -0.12356048664681669 0 -0.46967506937988168 -0.1156176767753732 0 -0.44729490962115692 -0.1038301779544112 0 -0.45692601649221087 -0.12356048664681669 0 -0.46967506937988168 -0.1156176767753732 0 -0.44729490962115692 -0.1038301779544112 0 -0.46967506937988168 -0.1156176767753732 0 -0.49205522913860639 -0.12740517559633521 0 -0.46967506937988168 -0.1156176767753732 0 -0.49205522913860639 -0.12740517559633521 0 -0.46967506937988168 -0.1156176767753732 0 -0.48660401362117528 -0.1119419539188805 0 -0.47763063677159262 -0.12743973822845001 0 -0.49205522913860639 -0.12740517559633521 0 -0.46967506937988168 -0.1156176767753732 0 -0.46967506937988168 -0.1156176767753732 0 -0.48686903347530242 -0.095010728594277019 0 -0.46911303574849172 -0.084567605724436556 0 -0.46967506937988168 -0.1156176767753732 0 -0.48686903347530242 -0.095010728594277019 0 -0.48660401362117528 -0.1119419539188805 0 -0.5 -0.10771144711820731 0 -0.48686903347530242 -0.095010728594277019 0 -0.48660401362117528 -0.1119419539188805 0 -0.5 -0.10771144711820731 0 -0.48686903347530242 -0.095010728594277019 0 -0.5 -0.079429908720241693 0 -0.49205522913860639 -0.12740517559633521 0 -0.5 -0.10771144711820731 0 -0.48660401362117528 -0.1119419539188805 0 -0.49205522913860639 -0.12740517559633521 0 -0.50000000000000155 -0.135992985516173 0 -0.5 -0.10771144711820731 0 -0.46911303574849172 -0.084567605724436556 0 -0.5 -0.079429908720241693 0 -0.47823342942478791 -0.062483718422336597 0 -0.48686903347530242 -0.095010728594277019 0 -0.46911303574849172 -0.084567605724436556 0 -0.5 -0.079429908720241693 0 -0.5 -0.079429908720241693 0 -0.5 -0.051148370322275823 0 -0.47823342942478791 -0.062483718422336597 0 -0.5 -0.051148370322275823 0 -0.48014693938875658 -0.04387740800154806 0 -0.47823342942478791 -0.062483718422336597 0 -0.5 -0.051148370322275823 0 -0.48014693938875658 -0.04387740800154806 0 -0.5 -0.022866831924309938 0 -0.48014693938875658 -0.04387740800154806 0 -0.47823342942478791 -0.062483718422336597 0 -0.45483938044406208 -0.055905589402946598 0 -0.45483938044406208 -0.055905589402946598 0 -0.44460929842883218 -0.03024602865086606 0 -0.467661887074933 -0.02698252993587132 0 -0.48014693938875658 -0.04387740800154806 0 -0.45483938044406208 -0.055905589402946598 0 -0.467661887074933 -0.02698252993587132 0 -0.42696903595728403 -0.043524300661642583 0 -0.45483938044406208 -0.055905589402946598 0 -0.44460929842883218 -0.03024602865086606 0 -0.44065572886467891 -0.008724382811930529 0 -0.45851882049580273 -0.0114044346152048 0 -0.45929338319899371 0.0066419714787792064 0 -0.44065572886467891 -0.008724382811930529 0 -0.45929338319899371 0.0066419714787792064 0 -0.44065572886467891 -0.008724382811930529 0 -0.44460929842883218 -0.03024602865086606 0 -0.45851882049580273 -0.0114044346152048 0 -0.44460929842883218 -0.03024602865086606 0 -0.467661887074933 -0.02698252993587132 0 -0.45851882049580273 -0.0114044346152048 0 -0.467661887074933 -0.02698252993587132 0 -0.45851882049580273 -0.0114044346152048 0 -0.47723418805050632 -0.004531465458910337 0 -0.45851882049580273 -0.0114044346152048 0 -0.47723418805050632 -0.004531465458910337 0 -0.45929338319899371 0.0066419714787792064 0 -0.48014693938875658 -0.04387740800154806 0 -0.467661887074933 -0.02698252993587132 0 -0.5 -0.022866831924309938 0 -0.467661887074933 -0.02698252993587132 0 -0.47723418805050632 -0.004531465458910337 0 -0.5 -0.022866831924309938 0 -0.47723418805050632 -0.004531465458910337 0 -0.5 -0.022866831924309938 0 -0.5 0.0054147064736558836 0 -0.47723418805050632 -0.004531465458910337 0 -0.5 0.0054147064736558836 0 -0.47793103753330862 0.02200832576948894 0 -0.47793103753330862 0.02200832576948894 0 -0.49656869186762342 0.037374680060198673 0 -0.47793103753330862 0.02200832576948894 0 -0.5 0.033696244871621761 0 -0.49656869186762342 0.037374680060198673 0 -0.5 0.0054147064736558836 0 -0.47793103753330862 0.02200832576948894 0 -0.5 0.033696244871621761 0 -0.47723418805050632 -0.004531465458910337 0 -0.47793103753330862 0.02200832576948894 0 -0.45929338319899371 0.0066419714787792064 0 -0.5 0.061977783269587527 0 -0.49656869186762342 0.037374680060198673 0 -0.48388610632301671 0.052995498784365262 0 -0.5 0.061977783269587527 0 -0.48388610632301671 0.052995498784365262 0 -0.48328753368330202 0.069302228146094644 0 -0.47793103753330862 0.02200832576948894 0 -0.49656869186762342 0.037374680060198673 0 -0.4801331079816139 0.038963211717754867 0 -0.5 0.061977783269587527 0 -0.5 0.033696244871621761 0 -0.49656869186762342 0.037374680060198673 0 -0.49656869186762342 0.037374680060198673 0 -0.4801331079816139 0.038963211717754867 0 -0.48388610632301671 0.052995498784365262 0 -0.47793103753330862 0.02200832576948894 0 -0.4801331079816139 0.038963211717754867 0 -0.46780951646236069 0.036579176158469243 0 -0.4801331079816139 0.038963211717754867 0 -0.47042809880942521 0.049666478338352499 0 -0.46780951646236069 0.036579176158469243 0 -0.48388610632301671 0.052995498784365262 0 -0.48328753368330202 0.069302228146094644 0 -0.47128019631414492 0.062760320865599586 0 -0.4801331079816139 0.038963211717754867 0 -0.48388610632301671 0.052995498784365262 0 -0.47042809880942521 0.049666478338352499 0 -0.48388610632301671 0.052995498784365262 0 -0.47042809880942521 0.049666478338352499 0 -0.47128019631414492 0.062760320865599586 0 -0.47042809880942521 0.049666478338352499 0 -0.45200741150973489 0.049554560164058237 0 -0.45802253781367752 0.063482282034478657 0 -0.47042809880942521 0.049666478338352499 0 -0.45802253781367752 0.063482282034478657 0 -0.47128019631414492 0.062760320865599586 0 -0.47042809880942521 0.049666478338352499 0 -0.46780951646236069 0.036579176158469243 0 -0.45200741150973489 0.049554560164058237 0 -0.46780951646236069 0.036579176158469243 0 -0.45200741150973489 0.049554560164058237 0 -0.45519858727346219 0.02842831947724896 0 -0.45200741150973489 0.049554560164058237 0 -0.45519858727346219 0.02842831947724896 0 -0.43702221690191972 0.039733917298284543 0 -0.45200741150973489 0.049554560164058237 0 -0.43702221690191972 0.039733917298284543 0 -0.43388981384462799 0.056865247185560741 0 -0.45200741150973489 0.049554560164058237 0 -0.43388981384462799 0.056865247185560741 0 -0.44358941909877581 0.066251547043131548 0 -0.45200741150973489 0.049554560164058237 0 -0.44358941909877581 0.066251547043131548 0 -0.45802253781367752 0.063482282034478657 0 -0.47793103753330862 0.02200832576948894 0 -0.45929338319899371 0.0066419714787792064 0 -0.47793103753330862 0.02200832576948894 0 -0.45929338319899371 0.0066419714787792064 0 -0.45519858727346219 0.02842831947724896 0 -0.47793103753330862 0.02200832576948894 0 -0.46780951646236069 0.036579176158469243 0 -0.45519858727346219 0.02842831947724896 0 -0.45929338319899371 0.0066419714787792064 0 -0.45519858727346219 0.02842831947724896 0 -0.43651938359816039 0.0163670645231235 0 -0.45519858727346219 0.02842831947724896 0 -0.43651938359816039 0.0163670645231235 0 -0.43702221690191972 0.039733917298284543 0 -0.44065572886467891 -0.008724382811930529 0 -0.45929338319899371 0.0066419714787792064 0 -0.43651938359816039 0.0163670645231235 0 -0.42371987986013321 -0.0023373594758670131 0 -0.41371842676088322 0.011874067480536141 0 -0.43651938359816039 0.0163670645231235 0 -0.42371987986013321 -0.0023373594758670131 0 -0.44065572886467891 -0.008724382811930529 0 -0.43651938359816039 0.0163670645231235 0 -0.42371987986013321 -0.0023373594758670131 0 -0.40568778554657942 -0.0071128094684239128 0 -0.41371842676088322 0.011874067480536141 0 -0.41371842676088322 0.011874067480536141 0 -0.42303420607939513 0.03027514035493422 0 -0.39804375089273841 0.025582859754169691 0 -0.42303420607939513 0.03027514035493422 0 -0.43651938359816039 0.0163670645231235 0 -0.43702221690191972 0.039733917298284543 0 -0.41371842676088322 0.011874067480536141 0 -0.42303420607939513 0.03027514035493422 0 -0.43651938359816039 0.0163670645231235 0 -0.42303420607939513 0.03027514035493422 0 -0.43702221690191972 0.039733917298284543 0 -0.42127775759704672 0.047928340711726893 0 -0.43702221690191972 0.039733917298284543 0 -0.43388981384462799 0.056865247185560741 0 -0.42127775759704672 0.047928340711726893 0 -0.43388981384462799 0.056865247185560741 0 -0.42127775759704672 0.047928340711726893 0 -0.41924651013108949 0.065572272984079527 0 -0.42127775759704672 0.047928340711726893 0 -0.40843050834279382 0.039598648579304292 0 -0.4019845501408113 0.056176917340899538 0 -0.42127775759704672 0.047928340711726893 0 -0.4019845501408113 0.056176917340899538 0 -0.41924651013108949 0.065572272984079527 0 -0.42303420607939513 0.03027514035493422 0 -0.42127775759704672 0.047928340711726893 0 -0.40843050834279382 0.039598648579304292 0 -0.42303420607939513 0.03027514035493422 0 -0.40843050834279382 0.039598648579304292 0 -0.39804375089273841 0.025582859754169691 0 -0.40843050834279382 0.039598648579304292 0 -0.4019845501408113 0.056176917340899538 0 -0.38383179283280738 0.044626166301023701 0 -0.40843050834279382 0.039598648579304292 0 -0.38383179283280738 0.044626166301023701 0 -0.39804375089273841 0.025582859754169691 0 -0.4019845501408113 0.056176917340899538 0 -0.38383179283280738 0.044626166301023701 0 -0.38618538515446071 0.070203150376441606 0 -0.38383179283280738 0.044626166301023701 0 -0.38618538515446071 0.070203150376441606 0 -0.38383179283280738 0.044626166301023701 0 -0.38618538515446071 0.070203150376441606 0 -0.36555211422520678 0.060095309267582192 0 -0.38383179283280738 0.044626166301023701 0 -0.38147820051115411 0.019049182225605761 0 -0.38383179283280738 0.044626166301023701 0 -0.38147820051115411 0.019049182225605761 0 -0.39804375089273841 0.025582859754169691 0 -0.38383179283280738 0.044626166301023701 0 -0.38147820051115411 0.019049182225605761 0 -0.36649990139404232 0.024441610025915519 0 -0.38517766961433092 -0.0063721784754573246 0 -0.38147820051115411 0.019049182225605761 0 -0.39500107419647112 0.0080372471967794061 0 -0.38517766961433092 -0.0063721784754573246 0 -0.37912460818950078 -0.0065278018498123114 0 -0.38147820051115411 0.019049182225605761 0 -0.37912460818950078 -0.0065278018498123114 0 -0.38147820051115411 0.019049182225605761 0 -0.37912460818950078 -0.0065278018498123114 0 -0.38147820051115411 0.019049182225605761 0 -0.36782225349506198 0.0048657833312758091 0 -0.40568778554657942 -0.0071128094684239128 0 -0.41371842676088322 0.011874067480536141 0 -0.39500107419647112 0.0080372471967794061 0 -0.41371842676088322 0.011874067480536141 0 -0.39500107419647112 0.0080372471967794061 0 -0.39804375089273841 0.025582859754169691 0 -0.38147820051115411 0.019049182225605761 0 -0.39500107419647112 0.0080372471967794061 0 -0.39804375089273841 0.025582859754169691 0 -0.39096607744150452 0.1062128193945954 0 -0.40570018320824108 0.1087502723171956 0 -0.40125501452309831 0.092537130979411963 0 -0.39096607744150452 0.1062128193945954 0 -0.38044628307441097 0.092456129427715528 0 -0.40125501452309831 0.092537130979411963 0 -0.40570018320824108 0.1087502723171956 0 -0.41331671127124342 0.1183359578508147 0 -0.38927342918587599 0.1255134882067182 0 -0.39096607744150452 0.1062128193945954 0 -0.40570018320824108 0.1087502723171956 0 -0.38927342918587599 0.1255134882067182 0 -0.39096607744150452 0.1062128193945954 0 -0.37665747635832342 0.11002337083399689 0 -0.38927342918587599 0.1255134882067182 0 -0.37665747635832342 0.11002337083399689 0 -0.38927342918587599 0.1255134882067182 0 -0.36006253610573752 0.1198919621846538 0 -0.39096607744150452 0.1062128193945954 0 -0.37665747635832342 0.11002337083399689 0 -0.38044628307441097 0.092456129427715528 0 -0.38044628307441097 0.092456129427715528 0 -0.38618538515446071 0.070203150376441606 0 -0.40125501452309831 0.092537130979411963 0 -0.38044628307441097 0.092456129427715528 0 -0.38618538515446071 0.070203150376441606 0 -0.36763344039030971 0.079060927352334748 0 -0.4019845501408113 0.056176917340899538 0 -0.38618538515446071 0.070203150376441606 0 -0.40772145285935418 0.076037117993934089 0 -0.38618538515446071 0.070203150376441606 0 -0.40125501452309831 0.092537130979411963 0 -0.40772145285935418 0.076037117993934089 0 -0.41638412285923643 0.091080662019301276 0 -0.40772145285935418 0.076037117993934089 0 -0.42384016665171481 0.08185121886435838 0 -0.40125501452309831 0.092537130979411963 0 -0.41638412285923643 0.091080662019301276 0 -0.40772145285935418 0.076037117993934089 0 -0.40772145285935418 0.076037117993934089 0 -0.41924651013108949 0.065572272984079527 0 -0.42384016665171481 0.08185121886435838 0 -0.4019845501408113 0.056176917340899538 0 -0.40772145285935418 0.076037117993934089 0 -0.41924651013108949 0.065572272984079527 0 -0.41924651013108949 0.065572272984079527 0 -0.43019556782920149 0.072150844912083692 0 -0.42384016665171481 0.08185121886435838 0 -0.43388981384462799 0.056865247185560741 0 -0.41924651013108949 0.065572272984079527 0 -0.43019556782920149 0.072150844912083692 0 -0.43019556782920149 0.072150844912083692 0 -0.42384016665171481 0.08185121886435838 0 -0.43235993024407759 0.079879659623298682 0 -0.43019556782920149 0.072150844912083692 0 -0.43235993024407759 0.079879659623298682 0 -0.4403146270292867 0.078507516966347474 0 -0.43388981384462799 0.056865247185560741 0 -0.43019556782920149 0.072150844912083692 0 -0.44358941909877581 0.066251547043131548 0 -0.41638412285923643 0.091080662019301276 0 -0.42560206036465381 0.091106385495738074 0 -0.42384016665171481 0.08185121886435838 0 -0.42560206036465381 0.091106385495738074 0 -0.42384016665171481 0.08185121886435838 0 -0.43282138525159131 0.087917162947370536 0 -0.42384016665171481 0.08185121886435838 0 -0.43235993024407759 0.079879659623298682 0 -0.43282138525159131 0.087917162947370536 0 -0.43235993024407759 0.079879659623298682 0 -0.43282138525159131 0.087917162947370536 0 -0.4403146270292867 0.078507516966347474 0 -0.43282138525159131 0.087917162947370536 0 -0.43362250875064462 0.094695983420591406 0 -0.43901162219300932 0.098415602326793986 0 -0.42560206036465381 0.091106385495738074 0 -0.43282138525159131 0.087917162947370536 0 -0.43362250875064462 0.094695983420591406 0 -0.43282138525159131 0.087917162947370536 0 -0.43362250875064462 0.094695983420591406 0 -0.43362250875064462 0.094695983420591406 0 -0.43560139944858373 0.111440648623032 0 -0.43362250875064462 0.094695983420591406 0 -0.43560139944858373 0.111440648623032 0 -0.43901162219300932 0.098415602326793986 0 -0.43362250875064462 0.094695983420591406 0 -0.42204767405473131 0.099903517389425614 0 -0.42570063763599891 0.1129571902434999 0 -0.43362250875064462 0.094695983420591406 0 -0.42570063763599891 0.1129571902434999 0 -0.43362250875064462 0.094695983420591406 0 -0.42570063763599891 0.1129571902434999 0 -0.43560139944858373 0.111440648623032 0 -0.42560206036465381 0.091106385495738074 0 -0.43362250875064462 0.094695983420591406 0 -0.42204767405473131 0.099903517389425614 0 -0.41638412285923643 0.091080662019301276 0 -0.42560206036465381 0.091106385495738074 0 -0.42204767405473131 0.099903517389425614 0 -0.41638412285923643 0.091080662019301276 0 -0.42204767405473131 0.099903517389425614 0 -0.41308380056262289 0.100728989300401 0 -0.40570018320824108 0.1087502723171956 0 -0.40125501452309831 0.092537130979411963 0 -0.41308380056262289 0.100728989300401 0 -0.42204767405473131 0.099903517389425614 0 -0.41716384400525119 0.10832629090722989 0 -0.41308380056262289 0.100728989300401 0 -0.42204767405473131 0.099903517389425614 0 -0.41716384400525119 0.10832629090722989 0 -0.42570063763599891 0.1129571902434999 0 -0.40570018320824108 0.1087502723171956 0 -0.41716384400525119 0.10832629090722989 0 -0.41308380056262289 0.100728989300401 0 -0.40125501452309831 0.092537130979411963 0 -0.41638412285923643 0.091080662019301276 0 -0.41308380056262289 0.100728989300401 0 -0.41331671127124342 0.1183359578508147 0 -0.42570063763599891 0.1129571902434999 0 -0.41848432226601678 0.13113501422877091 0 -0.41331671127124342 0.1183359578508147 0 -0.41848432226601678 0.13113501422877091 0 -0.38927342918587599 0.1255134882067182 0 -0.40570018320824108 0.1087502723171956 0 -0.41716384400525119 0.10832629090722989 0 -0.41331671127124342 0.1183359578508147 0 -0.41716384400525119 0.10832629090722989 0 -0.41331671127124342 0.1183359578508147 0 -0.42570063763599891 0.1129571902434999 0 -0.42570063763599891 0.1129571902434999 0 -0.42974187347053111 0.1238689273704415 0 -0.41848432226601678 0.13113501422877091 0 -0.43560139944858373 0.111440648623032 0 -0.43838141364557631 0.13496413429869339 0 -0.43560139944858373 0.111440648623032 0 -0.42974187347053111 0.1238689273704415 0 -0.43838141364557631 0.13496413429869339 0 -0.42570063763599891 0.1129571902434999 0 -0.41848432226601678 0.13113501422877091 0 -0.42570063763599891 0.1129571902434999 0 -0.43560139944858373 0.111440648623032 0 -0.42974187347053111 0.1238689273704415 0 -0.43560139944858373 0.111440648623032 0 -0.43901162219300932 0.098415602326793986 0 -0.4566436177489161 0.1201437198754424 0 -0.43560139944858373 0.111440648623032 0 -0.4467387360795691 0.12624162216463949 0 -0.43838141364557631 0.13496413429869339 0 -0.43560139944858373 0.111440648623032 0 -0.4566436177489161 0.1201437198754424 0 -0.4467387360795691 0.12624162216463949 0 -0.43901162219300932 0.098415602326793986 0 -0.4566436177489161 0.1201437198754424 0 -0.43901162219300932 0.098415602326793986 0 -0.45462044308834498 0.099586517411388936 0 -0.4566436177489161 0.1201437198754424 0 -0.43901162219300932 0.098415602326793986 0 -0.45462044308834498 0.099586517411388936 0 -0.44386863401159982 0.089721699903261343 0 -0.45462044308834498 0.099586517411388936 0 -0.4566436177489161 0.1201437198754424 0 -0.47020449133502701 0.10311632864541009 0 -0.45462044308834498 0.099586517411388936 0 -0.46430106959496947 0.089973247684177179 0 -0.47020449133502701 0.10311632864541009 0 -0.4566436177489161 0.1201437198754424 0 -0.47871073377917861 0.12048979192622571 0 -0.47020449133502701 0.10311632864541009 0 -0.44358941909877581 0.066251547043131548 0 -0.45194395164690943 0.0735533574175537 0 -0.45802253781367752 0.063482282034478657 0 -0.44358941909877581 0.066251547043131548 0 -0.45194395164690943 0.0735533574175537 0 -0.4403146270292867 0.078507516966347474 0 -0.43019556782920149 0.072150844912083692 0 -0.44358941909877581 0.066251547043131548 0 -0.4403146270292867 0.078507516966347474 0 -0.45257509249576638 0.084181699864405837 0 -0.4403146270292867 0.078507516966347474 0 -0.44386863401159982 0.089721699903261343 0 -0.45194395164690943 0.0735533574175537 0 -0.45257509249576638 0.084181699864405837 0 -0.4403146270292867 0.078507516966347474 0 -0.43282138525159131 0.087917162947370536 0 -0.4403146270292867 0.078507516966347474 0 -0.44386863401159982 0.089721699903261343 0 -0.43282138525159131 0.087917162947370536 0 -0.43901162219300932 0.098415602326793986 0 -0.44386863401159982 0.089721699903261343 0 -0.45462044308834498 0.099586517411388936 0 -0.45257509249576638 0.084181699864405837 0 -0.44386863401159982 0.089721699903261343 0 -0.45462044308834498 0.099586517411388936 0 -0.45257509249576638 0.084181699864405837 0 -0.46430106959496947 0.089973247684177179 0 -0.45257509249576638 0.084181699864405837 0 -0.46430106959496947 0.089973247684177179 0 -0.46521808179704061 0.075343741179405052 0 -0.45194395164690943 0.0735533574175537 0 -0.45257509249576638 0.084181699864405837 0 -0.46521808179704061 0.075343741179405052 0 -0.45194395164690943 0.0735533574175537 0 -0.46521808179704061 0.075343741179405052 0 -0.45802253781367752 0.063482282034478657 0 -0.46521808179704061 0.075343741179405052 0 -0.45802253781367752 0.063482282034478657 0 -0.47128019631414492 0.062760320865599586 0 -0.46521808179704061 0.075343741179405052 0 -0.48328753368330202 0.069302228146094644 0 -0.47128019631414492 0.062760320865599586 0 -0.46521808179704061 0.075343741179405052 0 -0.48328753368330202 0.069302228146094644 0 -0.47888723925866827 0.087637951320275922 0 -0.46430106959496947 0.089973247684177179 0 -0.46521808179704061 0.075343741179405052 0 -0.47888723925866827 0.087637951320275922 0 -0.46430106959496947 0.089973247684177179 0 -0.47888723925866827 0.087637951320275922 0 -0.47020449133502701 0.10311632864541009 0 -0.48328753368330202 0.069302228146094644 0 -0.47888723925866827 0.087637951320275922 0 -0.5 0.090259321667553349 0 -0.5 0.061977783269587527 0 -0.48328753368330202 0.069302228146094644 0 -0.5 0.090259321667553349 0 -0.47888723925866827 0.087637951320275922 0 -0.47020449133502701 0.10311632864541009 0 -0.48556049287457481 0.1040088507249968 0 -0.47871073377917861 0.12048979192622571 0 -0.47020449133502701 0.10311632864541009 0 -0.48556049287457481 0.1040088507249968 0 -0.47888723925866827 0.087637951320275922 0 -0.5 0.090259321667553349 0 -0.48556049287457481 0.1040088507249968 0 -0.5 0.090259321667553349 0 -0.48556049287457481 0.1040088507249968 0 -0.5 0.1185408600655191 0 -0.47871073377917861 0.12048979192622571 0 -0.48556049287457481 0.1040088507249968 0 -0.5 0.1185408600655191 0 -0.47871073377917861 0.12048979192622571 0 -0.5 0.1185408600655191 0 -0.48851683390530642 0.13242820264548791 0 -0.48851683390530642 0.13242820264548791 0 -0.4742756133048236 0.1418718374240904 0 -0.50000000000001221 0.14682239846348491 0 -0.5 0.1185408600655191 0 -0.48851683390530642 0.13242820264548791 0 -0.50000000000001221 0.14682239846348491 0 -0.47871073377917861 0.12048979192622571 0 -0.48851683390530642 0.13242820264548791 0 -0.4742756133048236 0.1418718374240904 0 -0.4566436177489161 0.1201437198754424 0 -0.47871073377917861 0.12048979192622571 0 -0.4742756133048236 0.1418718374240904 0 -0.4742756133048236 0.1418718374240904 0 -0.48713780665241169 0.1577220710578118 0 -0.4742756133048236 0.1418718374240904 0 -0.48713780665241169 0.1577220710578118 0 -0.46481045671311561 0.16000364538176159 0 -0.4742756133048236 0.1418718374240904 0 -0.50000000000001221 0.14682239846348491 0 -0.48713780665241169 0.1577220710578118 0 -0.4742756133048236 0.1418718374240904 0 -0.50000000000001221 0.14682239846348491 0 -0.48713780665241169 0.1577220710578118 0 -0.50000000000000022 0.17357230469153259 0 -0.50000000000001221 0.14682239846348491 0 -0.48713780665241169 0.1577220710578118 0 -0.50000000000000022 0.17357230469153259 0 -0.48713780665241169 0.1577220710578118 0 -0.50000000000000022 0.17357230469153259 0 -0.47657740009093391 0.17045548742169669 0 -0.50000000000000022 0.17357230469153259 0 -0.48476364230739311 0.1847234059334735 0 -0.5 0.20254301646023179 0 -0.50000000000000022 0.17357230469153259 0 -0.48476364230739311 0.1847234059334735 0 -0.47657740009093391 0.17045548742169669 0 -0.48476364230739311 0.1847234059334735 0 -0.47657740009093391 0.17045548742169669 0 -0.46811548670188441 0.18290081426643609 0 -0.48713780665241169 0.1577220710578118 0 -0.47657740009093391 0.17045548742169669 0 -0.46481045671311561 0.16000364538176159 0 -0.46481045671311561 0.16000364538176159 0 -0.45599978470605829 0.17400387348920629 0 -0.44210582301088069 0.1664787540620844 0 -0.47657740009093391 0.17045548742169669 0 -0.46481045671311561 0.16000364538176159 0 -0.45599978470605829 0.17400387348920629 0 -0.46481045671311561 0.16000364538176159 0 -0.44210582301088069 0.1664787540620844 0 -0.45356189660593971 0.1514670589619509 0 -0.47657740009093391 0.17045548742169669 0 -0.45599978470605829 0.17400387348920629 0 -0.46811548670188441 0.18290081426643609 0 -0.45599978470605829 0.17400387348920629 0 -0.46811548670188441 0.18290081426643609 0 -0.44781915684397211 0.1869598544700288 0 -0.45599978470605829 0.17400387348920629 0 -0.44210582301088069 0.1664787540620844 0 -0.43680697802404622 0.178994336425251 0 -0.45599978470605829 0.17400387348920629 0 -0.44781915684397211 0.1869598544700288 0 -0.43680697802404622 0.178994336425251 0 -0.44781915684397211 0.1869598544700288 0 -0.43282576461303601 0.19247394461444631 0 -0.43680697802404622 0.178994336425251 0 -0.44210582301088069 0.1664787540620844 0 -0.44024361832822828 0.15072144418038891 0 -0.44024361832822828 0.15072144418038891 0 -0.43838141364557631 0.13496413429869339 0 -0.44024361832822828 0.15072144418038891 0 -0.43838141364557631 0.13496413429869339 0 -0.45632851347520009 0.13841798586139101 0 -0.44210582301088069 0.1664787540620844 0 -0.44024361832822828 0.15072144418038891 0 -0.45356189660593971 0.1514670589619509 0 -0.44024361832822828 0.15072144418038891 0 -0.45632851347520009 0.13841798586139101 0 -0.45356189660593971 0.1514670589619509 0 -0.4467387360795691 0.12624162216463949 0 -0.43838141364557631 0.13496413429869339 0 -0.45632851347520009 0.13841798586139101 0 -0.43838141364557631 0.13496413429869339 0 -0.45632851347520009 0.13841798586139101 0 -0.4566436177489161 0.1201437198754424 0 -0.4467387360795691 0.12624162216463949 0 -0.45632851347520009 0.13841798586139101 0 -0.4742756133048236 0.1418718374240904 0 -0.45632851347520009 0.13841798586139101 0 -0.4566436177489161 0.1201437198754424 0 -0.4742756133048236 0.1418718374240904 0 -0.4566436177489161 0.1201437198754424 0 -0.4742756133048236 0.1418718374240904 0 -0.45632851347520009 0.13841798586139101 0 -0.4742756133048236 0.1418718374240904 0 -0.45632851347520009 0.13841798586139101 0 -0.45356189660593971 0.1514670589619509 0 -0.4742756133048236 0.1418718374240904 0 -0.46481045671311561 0.16000364538176159 0 -0.45356189660593971 0.1514670589619509 0 -0.48160793071992181 0.23328550792606029 0 -0.46393451125687979 0.23002728790426369 0 -0.47718539364661477 0.25142720972220611 0 -0.5 0.23151372822893071 0 -0.48160793071992181 0.23328550792606029 0 -0.47718539364661477 0.25142720972220611 0 -0.5 0.23151372822893071 0 -0.49999999999999573 0.2604844399976296 0 -0.47718539364661477 0.25142720972220611 0 -0.5 0.23151372822893071 0 -0.48160793071992181 0.23328550792606029 0 -0.48657715505772708 0.21708320909761991 0 -0.48160793071992181 0.23328550792606029 0 -0.48657715505772708 0.21708320909761991 0 -0.46393451125687979 0.23002728790426369 0 -0.48657715505772708 0.21708320909761991 0 -0.46384115896416328 0.21210914723959659 0 -0.46393451125687979 0.23002728790426369 0 -0.48657715505772708 0.21708320909761991 0 -0.46384115896416328 0.21210914723959659 0 -0.48657715505772708 0.21708320909761991 0 -0.47753948183656653 0.1990061627170871 0 -0.46384115896416328 0.21210914723959659 0 -0.48657715505772708 0.21708320909761991 0 -0.5 0.20254301646023179 0 -0.47753948183656653 0.1990061627170871 0 -0.5 0.23151372822893071 0 -0.48657715505772708 0.21708320909761991 0 -0.5 0.20254301646023179 0 -0.48476364230739311 0.1847234059334735 0 -0.5 0.20254301646023179 0 -0.47753948183656653 0.1990061627170871 0 -0.48476364230739311 0.1847234059334735 0 -0.46811548670188441 0.18290081426643609 0 -0.47753948183656653 0.1990061627170871 0 -0.46811548670188441 0.18290081426643609 0 -0.47753948183656653 0.1990061627170871 0 -0.46102822996019899 0.19622293570396229 0 -0.46811548670188441 0.18290081426643609 0 -0.44781915684397211 0.1869598544700288 0 -0.46102822996019899 0.19622293570396229 0 -0.47753948183656653 0.1990061627170871 0 -0.46102822996019899 0.19622293570396229 0 -0.46384115896416328 0.21210914723959659 0 -0.44781915684397211 0.1869598544700288 0 -0.46102822996019899 0.19622293570396229 0 -0.44110516287059942 0.20713508538157319 0 -0.44781915684397211 0.1869598544700288 0 -0.44110516287059942 0.20713508538157319 0 -0.43282576461303601 0.19247394461444631 0 -0.44110516287059942 0.20713508538157319 0 -0.46384115896416328 0.21210914723959659 0 -0.44547847730451062 0.2256032132433396 0 -0.44110516287059942 0.20713508538157319 0 -0.46384115896416328 0.21210914723959659 0 -0.46102822996019899 0.19622293570396229 0 -0.44110516287059942 0.20713508538157319 0 -0.46384115896416328 0.21210914723959659 0 -0.46384115896416328 0.21210914723959659 0 -0.46393451125687979 0.23002728790426369 0 -0.44547847730451062 0.2256032132433396 0 -0.46393451125687979 0.23002728790426369 0 -0.44547847730451062 0.2256032132433396 0 -0.45437078729323399 0.24236997944678271 0 -0.44110516287059942 0.20713508538157319 0 -0.44547847730451062 0.2256032132433396 0 -0.42719247661382248 0.23158039077241849 0 -0.44547847730451062 0.2256032132433396 0 -0.45437078729323399 0.24236997944678271 0 -0.42719247661382248 0.23158039077241849 0 -0.45437078729323399 0.24236997944678271 0 -0.42719247661382248 0.23158039077241849 0 -0.45437078729323399 0.24236997944678271 0 -0.43540858778534303 0.24504742794071729 0 -0.43967319471912858 0.2613383072916392 0 -0.45437078729323399 0.24236997944678271 0 -0.43540858778534303 0.24504742794071729 0 -0.42719247661382248 0.23158039077241849 0 -0.45437078729323399 0.24236997944678271 0 -0.47718539364661477 0.25142720972220611 0 -0.46393451125687979 0.23002728790426369 0 -0.45437078729323399 0.24236997944678271 0 -0.47718539364661477 0.25142720972220611 0 -0.46393451125687979 0.23002728790426369 0 -0.45437078729323399 0.24236997944678271 0 -0.41984368032676922 0.24106455469484819 0 -0.39756530599907502 0.23536100507292471 0 -0.40318624257749158 0.25140104498405802 0 -0.41984368032676922 0.24106455469484819 0 -0.43540858778534303 0.24504742794071729 0 -0.43967319471912858 0.2613383072916392 0 -0.41984368032676922 0.24106455469484819 0 -0.43540858778534303 0.24504742794071729 0 -0.42719247661382248 0.23158039077241849 0 -0.42719247661382248 0.23158039077241849 0 -0.41042717951360491 0.21322975279376361 0 -0.40001416593441003 0.22079080209805679 0 -0.42719247661382248 0.23158039077241849 0 -0.40001416593441003 0.22079080209805679 0 -0.41984368032676922 0.24106455469484819 0 -0.42719247661382248 0.23158039077241849 0 -0.40001416593441003 0.22079080209805679 0 -0.41984368032676922 0.24106455469484819 0 -0.40001416593441003 0.22079080209805679 0 -0.41042717951360491 0.21322975279376361 0 -0.41836916677703562 0.20216102352354989 0 -0.40131768620089231 0.2072380719584444 0 -0.42719247661382248 0.23158039077241849 0 -0.41042717951360491 0.21322975279376361 0 -0.41836916677703562 0.20216102352354989 0 -0.44110516287059942 0.20713508538157319 0 -0.41836916677703562 0.20216102352354989 0 -0.44110516287059942 0.20713508538157319 0 -0.42719247661382248 0.23158039077241849 0 -0.41836916677703562 0.20216102352354989 0 -0.43282576461303601 0.19247394461444631 0 -0.41836916677703562 0.20216102352354989 0 -0.42184685873866917 0.1816108316351504 0 -0.44110516287059942 0.20713508538157319 0 -0.43282576461303601 0.19247394461444631 0 -0.41836916677703562 0.20216102352354989 0 -0.40921898960604908 0.1895365298512926 0 -0.41836916677703562 0.20216102352354989 0 -0.3956331706834717 0.19718696166552649 0 -0.40921898960604908 0.1895365298512926 0 -0.41836916677703562 0.20216102352354989 0 -0.42184685873866917 0.1816108316351504 0 -0.41836916677703562 0.20216102352354989 0 -0.3956331706834717 0.19718696166552649 0 -0.40921898960604908 0.1895365298512926 0 -0.3956331706834717 0.19718696166552649 0 -0.40040585690368419 0.17667448200844099 0 -0.39136662422252511 0.19944421589827899 0 -0.40040585690368419 0.17667448200844099 0 -0.3956331706834717 0.19718696166552649 0 -0.39136662422252511 0.19944421589827899 0 -0.40040585690368419 0.17667448200844099 0 -0.41836916677703562 0.20216102352354989 0 -0.3956331706834717 0.19718696166552649 0 -0.40131768620089231 0.2072380719584444 0 -0.3956331706834717 0.19718696166552649 0 -0.39461172943314232 0.20293935826741491 0 -0.40131768620089231 0.2072380719584444 0 -0.3956331706834717 0.19718696166552649 0 -0.39461172943314232 0.20293935826741491 0 -0.39136662422252511 0.19944421589827899 0 -0.37957872595526382 0.21267808330712329 0 -0.3746996784928851 0.18948155302650541 0 -0.39136662422252511 0.19944421589827899 0 -0.37957872595526382 0.21267808330712329 0 -0.3746996784928851 0.18948155302650541 0 -0.39136662422252511 0.19944421589827899 0 -0.38810522912230011 0.18365509031558741 0 -0.3746996784928851 0.18948155302650541 0 -0.39136662422252511 0.19944421589827899 0 -0.38870143383519468 0.2092246322345333 0 -0.37957872595526382 0.21267808330712329 0 -0.37957872595526382 0.21267808330712329 0 -0.40001416593441003 0.22079080209805679 0 -0.391979914133611 0.22157543393250739 0 -0.37957872595526382 0.21267808330712329 0 -0.40001416593441003 0.22079080209805679 0 -0.38870143383519468 0.2092246322345333 0 -0.37957872595526382 0.21267808330712329 0 -0.40001416593441003 0.22079080209805679 0 -0.38870143383519468 0.2092246322345333 0 -0.40001416593441003 0.22079080209805679 0 -0.38870143383519468 0.2092246322345333 0 -0.40131768620089231 0.2072380719584444 0 -0.40001416593441003 0.22079080209805679 0 -0.39461172943314232 0.20293935826741491 0 -0.39136662422252511 0.19944421589827899 0 -0.38870143383519468 0.2092246322345333 0 -0.39461172943314232 0.20293935826741491 0 -0.38870143383519468 0.2092246322345333 0 -0.40131768620089231 0.2072380719584444 0 -0.41042717951360491 0.21322975279376361 0 -0.40131768620089231 0.2072380719584444 0 -0.40001416593441003 0.22079080209805679 0 -0.41984368032676922 0.24106455469484819 0 -0.40001416593441003 0.22079080209805679 0 -0.39756530599907502 0.23536100507292471 0 -0.391979914133611 0.22157543393250739 0 -0.38353991952141497 0.2315108467128881 0 -0.39756530599907502 0.23536100507292471 0 -0.40001416593441003 0.22079080209805679 0 -0.391979914133611 0.22157543393250739 0 -0.39756530599907502 0.23536100507292471 0 -0.37957872595526382 0.21267808330712329 0 -0.38353991952141497 0.2315108467128881 0 -0.37957872595526382 0.21267808330712329 0 -0.391979914133611 0.22157543393250739 0 -0.38353991952141497 0.2315108467128881 0 -0.391979914133611 0.22157543393250739 0 -0.38353991952141497 0.2315108467128881 0 -0.37957872595526382 0.21267808330712329 0 -0.38353991952141497 0.2315108467128881 0 -0.36842819702888713 0.22416747728564271 0 -0.38353991952141497 0.2315108467128881 0 -0.38668427731165073 0.24646011524464351 0 -0.39756530599907502 0.23536100507292471 0 -0.38353991952141497 0.2315108467128881 0 -0.38668427731165073 0.24646011524464351 0 -0.37102133932541642 0.24624749849840419 0 -0.38353991952141497 0.2315108467128881 0 -0.38668427731165073 0.24646011524464351 0 -0.38353991952141497 0.2315108467128881 0 -0.37102133932541642 0.24624749849840419 0 -0.38668427731165073 0.24646011524464351 0 -0.39756530599907502 0.23536100507292471 0 -0.40318624257749158 0.25140104498405802 0 -0.40944508958484332 0.15390474811860311 0 -0.41848432226601678 0.13113501422877091 0 -0.42639290675778779 0.14683848485349399 0 -0.40944508958484332 0.15390474811860311 0 -0.42639290675778779 0.14683848485349399 0 -0.4254100899642746 0.16346708344101191 0 -0.40944508958484332 0.15390474811860311 0 -0.41848432226601678 0.13113501422877091 0 -0.43838141364557631 0.13496413429869339 0 -0.41848432226601678 0.13113501422877091 0 -0.42974187347053111 0.1238689273704415 0 -0.43838141364557631 0.13496413429869339 0 -0.41848432226601678 0.13113501422877091 0 -0.43838141364557631 0.13496413429869339 0 -0.41848432226601678 0.13113501422877091 0 -0.42639290675778779 0.14683848485349399 0 -0.44024361832822828 0.15072144418038891 0 -0.42639290675778779 0.14683848485349399 0 -0.4254100899642746 0.16346708344101191 0 -0.44024361832822828 0.15072144418038891 0 -0.43838141364557631 0.13496413429869339 0 -0.42639290675778779 0.14683848485349399 0 -0.44210582301088069 0.1664787540620844 0 -0.44024361832822828 0.15072144418038891 0 -0.4254100899642746 0.16346708344101191 0 -0.44210582301088069 0.1664787540620844 0 -0.4254100899642746 0.16346708344101191 0 -0.43680697802404622 0.178994336425251 0 -0.4254100899642746 0.16346708344101191 0 -0.43680697802404622 0.178994336425251 0 -0.42184685873866917 0.1816108316351504 0 -0.43282576461303601 0.19247394461444631 0 -0.43680697802404622 0.178994336425251 0 -0.42184685873866917 0.1816108316351504 0 -0.4254100899642746 0.16346708344101191 0 -0.42184685873866917 0.1816108316351504 0 -0.40040585690368419 0.17667448200844099 0 -0.40921898960604908 0.1895365298512926 0 -0.42184685873866917 0.1816108316351504 0 -0.40040585690368419 0.17667448200844099 0 -0.40944508958484332 0.15390474811860311 0 -0.4254100899642746 0.16346708344101191 0 -0.40040585690368419 0.17667448200844099 0 -0.40944508958484332 0.15390474811860311 0 -0.40040585690368419 0.17667448200844099 0 -0.40944508958484332 0.15390474811860311 0 -0.38594875687010621 0.16902011032912409 0 -0.38667519079408541 0.15062853217378661 0 -0.40944508958484332 0.15390474811860311 0 -0.40040585690368419 0.17667448200844099 0 -0.38594875687010621 0.16902011032912409 0 -0.39136662422252511 0.19944421589827899 0 -0.40040585690368419 0.17667448200844099 0 -0.38810522912230011 0.18365509031558741 0 -0.40040585690368419 0.17667448200844099 0 -0.38810522912230011 0.18365509031558741 0 -0.38594875687010621 0.16902011032912409 0 -0.38810522912230011 0.18365509031558741 0 -0.38594875687010621 0.16902011032912409 0 -0.3746996784928851 0.18948155302650541 0 -0.38594875687010621 0.16902011032912409 0 -0.36982063103050372 0.16628502274588799 0 -0.3746996784928851 0.18948155302650541 0 -0.38594875687010621 0.16902011032912409 0 -0.38667519079408541 0.15062853217378661 0 -0.36982063103050372 0.16628502274588799 0 -0.40944508958484332 0.15390474811860311 0 -0.38667519079408541 0.15062853217378661 0 -0.38927342918587599 0.1255134882067182 0 -0.41848432226601678 0.13113501422877091 0 -0.38927342918587599 0.1255134882067182 0 -0.40944508958484332 0.15390474811860311 0 -0.41848432226601678 0.13113501422877091 0 -0.38927342918587599 0.1255134882067182 0 -0.38667519079408541 0.15062853217378661 0 -0.38927342918587599 0.1255134882067182 0 -0.36494158356812217 0.1430884924652705 0 -0.36494158356812217 0.1430884924652705 0 -0.36006253610573752 0.1198919621846538 0 -0.38927342918587599 0.1255134882067182 0 -0.36494158356812217 0.1430884924652705 0 -0.36006253610573752 0.1198919621846538 0 -0.36494158356812217 0.1430884924652705 0 -0.34132796265181431 0.1387815269220975 0 -0.36006253610573752 0.1198919621846538 0 -0.36494158356812217 0.1430884924652705 0 -0.34642931593700238 0.16495012311779489 0 -0.34132796265181431 0.1387815269220975 0 -0.36494158356812217 0.1430884924652705 0 -0.36982063103050372 0.16628502274588799 0 -0.38667519079408541 0.15062853217378661 0 -0.36494158356812217 0.1430884924652705 0 -0.36982063103050372 0.16628502274588799 0 -0.36494158356812217 0.1430884924652705 0 -0.36982063103050372 0.16628502274588799 0 -0.34642931593700238 0.16495012311779489 0 -0.36982063103050372 0.16628502274588799 0 -0.35831981659726492 0.1787350813167283 0 -0.3746996784928851 0.18948155302650541 0 -0.36982063103050372 0.16628502274588799 0 -0.3746996784928851 0.18948155302650541 0 -0.35831981659726492 0.1787350813167283 0 -0.34642931593700238 0.16495012311779489 0 -0.34477465914825001 0.18967901598593481 0 -0.36982063103050372 0.16628502274588799 0 -0.35831981659726492 0.1787350813167283 0 -0.34642931593700238 0.16495012311779489 0 -0.34642931593700238 0.16495012311779489 0 -0.32456845077204499 0.1791391416261279 0 -0.32415475829339491 0.15404044755861879 0 -0.34642931593700238 0.16495012311779489 0 -0.32456845077204499 0.1791391416261279 0 -0.34477465914825001 0.18967901598593481 0 -0.32456845077204499 0.1791391416261279 0 -0.31098467378763761 0.19784771544744709 0 -0.30713310058805848 0.16956639084136371 0 -0.32456845077204499 0.1791391416261279 0 -0.32415475829339491 0.15404044755861879 0 -0.30713310058805848 0.16956639084136371 0 -0.32415475829339491 0.15404044755861879 0 -0.31941148630632099 0.13121281313144209 0 -0.30135063422710362 0.14378726030397651 0 -0.31941148630632099 0.13121281313144209 0 -0.34132796265181431 0.1387815269220975 0 -0.33628010120049001 0.1153151224310511 0 -0.34642931593700238 0.16495012311779489 0 -0.32415475829339491 0.15404044755861879 0 -0.34132796265181431 0.1387815269220975 0 -0.32415475829339491 0.15404044755861879 0 -0.31941148630632099 0.13121281313144209 0 -0.34132796265181431 0.1387815269220975 0 -0.37102133932541642 0.24624749849840419 0 -0.35100911747949021 0.23011423748141849 0 -0.34218203211383003 0.24969530508137319 0 -0.37102133932541642 0.24624749849840419 0 -0.35100911747949021 0.23011423748141849 0 -0.37102133932541642 0.24624749849840419 0 -0.36842819702888713 0.22416747728564271 0 -0.35100911747949021 0.23011423748141849 0 -0.36842819702888713 0.22416747728564271 0 -0.35100911747949021 0.23011423748141849 0 -0.35891639883350279 0.21739360045671841 0 -0.38353991952141497 0.2315108467128881 0 -0.37102133932541642 0.24624749849840419 0 -0.36842819702888713 0.22416747728564271 0 -0.34868139470931231 0.20739115533417829 0 -0.3675468861163218 0.20790153172563419 0 -0.35911767775857051 0.1944511284126606 0 -0.35100911747949021 0.23011423748141849 0 -0.35891639883350279 0.21739360045671841 0 -0.34868139470931231 0.20739115533417829 0 -0.35891639883350279 0.21739360045671841 0 -0.34868139470931231 0.20739115533417829 0 -0.3675468861163218 0.20790153172563419 0 -0.36842819702888713 0.22416747728564271 0 -0.35891639883350279 0.21739360045671841 0 -0.3675468861163218 0.20790153172563419 0 -0.37957872595526382 0.21267808330712329 0 -0.3675468861163218 0.20790153172563419 0 -0.3746996784928851 0.18948155302650541 0 -0.37957872595526382 0.21267808330712329 0 -0.36842819702888713 0.22416747728564271 0 -0.3675468861163218 0.20790153172563419 0 -0.37957872595526382 0.21267808330712329 0 -0.3675468861163218 0.20790153172563419 0 -0.35831981659726492 0.1787350813167283 0 -0.3746996784928851 0.18948155302650541 0 -0.35911767775857051 0.1944511284126606 0 -0.3675468861163218 0.20790153172563419 0 -0.3746996784928851 0.18948155302650541 0 -0.35911767775857051 0.1944511284126606 0 -0.34868139470931231 0.20739115533417829 0 -0.34477465914825001 0.18967901598593481 0 -0.35911767775857051 0.1944511284126606 0 -0.35831981659726492 0.1787350813167283 0 -0.34477465914825001 0.18967901598593481 0 -0.35911767775857051 0.1944511284126606 0 -0.32456845077204499 0.1791391416261279 0 -0.33099689563356388 0.21398097646443279 0 -0.31098467378763761 0.19784771544744709 0 -0.32456845077204499 0.1791391416261279 0 -0.34477465914825001 0.18967901598593481 0 -0.33099689563356388 0.21398097646443279 0 -0.33099689563356388 0.21398097646443279 0 -0.31098467378763761 0.19784771544744709 0 -0.33099689563356388 0.21398097646443279 0 -0.31353693820809098 0.22051039047122661 0 -0.31098467378763761 0.19784771544744709 0 -0.34868139470931231 0.20739115533417829 0 -0.34477465914825001 0.18967901598593481 0 -0.33099689563356388 0.21398097646443279 0 -0.35100911747949021 0.23011423748141849 0 -0.34868139470931231 0.20739115533417829 0 -0.33099689563356388 0.21398097646443279 0 -0.35100911747949021 0.23011423748141849 0 -0.33099689563356388 0.21398097646443279 0 -0.32620842538989009 0.2360343346498103 0 -0.35100911747949021 0.23011423748141849 0 -0.33099689563356388 0.21398097646443279 0 -0.33099689563356388 0.21398097646443279 0 -0.31353693820809098 0.22051039047122661 0 -0.32620842538989009 0.2360343346498103 0 -0.31353693820809098 0.22051039047122661 0 -0.32620842538989009 0.2360343346498103 0 -0.30826866969894839 0.23634148903406429 0 -0.32620842538989009 0.2360343346498103 0 -0.30826866969894839 0.23634148903406429 0 -0.31237949306787027 0.2511543050774091 0 -0.32620842538989009 0.2360343346498103 0 -0.32718323085999013 0.25286507485387549 0 -0.31237949306787027 0.2511543050774091 0 -0.32620842538989009 0.2360343346498103 0 -0.34218203211383003 0.24969530508137319 0 -0.32718323085999013 0.25286507485387549 0 -0.35100911747949021 0.23011423748141849 0 -0.32620842538989009 0.2360343346498103 0 -0.34218203211383003 0.24969530508137319 0 -0.29406882567944492 0.24808579016521951 0 -0.28202324201123952 0.23559536686418181 0 -0.27438734738757331 0.25539565657640151 0 -0.29406882567944492 0.24808579016521951 0 -0.28202324201123952 0.23559536686418181 0 -0.29514966614944582 0.22592262480665609 0 -0.29406882567944492 0.24808579016521951 0 -0.30826866969894839 0.23634148903406429 0 -0.31237949306787027 0.2511543050774091 0 -0.29406882567944492 0.24808579016521951 0 -0.30826866969894839 0.23634148903406429 0 -0.29514966614944582 0.22592262480665609 0 -0.31353693820809098 0.22051039047122661 0 -0.30826866969894839 0.23634148903406429 0 -0.29514966614944582 0.22592262480665609 0 -0.28202324201123952 0.23559536686418181 0 -0.29514966614944582 0.22592262480665609 0 -0.27220161997487519 0.21941323598648621 0 -0.29514966614944582 0.22592262480665609 0 -0.29076456833970682 0.20550251089957811 0 -0.27220161997487519 0.21941323598648621 0 -0.31353693820809098 0.22051039047122661 0 -0.29514966614944582 0.22592262480665609 0 -0.29076456833970682 0.20550251089957811 0 -0.31353693820809098 0.22051039047122661 0 -0.29076456833970682 0.20550251089957811 0 -0.31098467378763761 0.19784771544744709 0 -0.31098467378763761 0.19784771544744709 0 -0.2909724519417114 0.18171445443046139 0 -0.29076456833970682 0.20550251089957811 0 -0.31098467378763761 0.19784771544744709 0 -0.2909724519417114 0.18171445443046139 0 -0.29076456833970682 0.20550251089957811 0 -0.26360111949022269 0.19020955072881179 0 -0.2909724519417114 0.18171445443046139 0 -0.26360111949022269 0.19020955072881179 0 -0.24867924549348591 0.21477896355887771 0 -0.24003375834807469 0.19097967105946809 0 -0.26360111949022269 0.19020955072881179 0 -0.27220161997487519 0.21941323598648621 0 -0.24867924549348591 0.21477896355887771 0 -0.29076456833970682 0.20550251089957811 0 -0.26360111949022269 0.19020955072881179 0 -0.27220161997487519 0.21941323598648621 0 -0.28202324201123952 0.23559536686418181 0 -0.27220161997487519 0.21941323598648621 0 -0.26741474898719458 0.24132224523012019 0 -0.27220161997487519 0.21941323598648621 0 -0.24819191351699149 0.23495274290407281 0 -0.24867924549348591 0.21477896355887771 0 -0.27220161997487519 0.21941323598648621 0 -0.26741474898719458 0.24132224523012019 0 -0.24819191351699149 0.23495274290407281 0 -0.26741474898719458 0.24132224523012019 0 -0.25499370846812258 0.25382717309031783 0 -0.24819191351699149 0.23495274290407281 0 -0.28202324201123952 0.23559536686418181 0 -0.26741474898719458 0.24132224523012019 0 -0.27438734738757331 0.25539565657640151 0 -0.30135063422710362 0.14378726030397651 0 -0.29076763450645893 0.1608693256815506 0 -0.27687856386052229 0.14577460991692809 0 -0.2827968976252605 0.1259680264203796 0 -0.30135063422710362 0.14378726030397651 0 -0.27687856386052229 0.14577460991692809 0 -0.2827968976252605 0.1259680264203796 0 -0.30135063422710362 0.14378726030397651 0 -0.30090707476115791 0.1240832828729921 0 -0.31941148630632099 0.13121281313144209 0 -0.30135063422710362 0.14378726030397651 0 -0.30090707476115791 0.1240832828729921 0 -0.32415475829339491 0.15404044755861879 0 -0.30135063422710362 0.14378726030397651 0 -0.30713310058805848 0.16956639084136371 0 -0.30135063422710362 0.14378726030397651 0 -0.30713310058805848 0.16956639084136371 0 -0.29076763450645893 0.1608693256815506 0 -0.31098467378763761 0.19784771544744709 0 -0.30713310058805848 0.16956639084136371 0 -0.2909724519417114 0.18171445443046139 0 -0.30713310058805848 0.16956639084136371 0 -0.2909724519417114 0.18171445443046139 0 -0.29076763450645893 0.1608693256815506 0 -0.2909724519417114 0.18171445443046139 0 -0.29076763450645893 0.1608693256815506 0 -0.2709602300957844 0.1655811934134766 0 -0.29076763450645893 0.1608693256815506 0 -0.2709602300957844 0.1655811934134766 0 -0.27687856386052229 0.14577460991692809 0 -0.26360111949022269 0.19020955072881179 0 -0.2709602300957844 0.1655811934134766 0 -0.2909724519417114 0.18171445443046139 0 -0.2709602300957844 0.1655811934134766 0 -0.26360111949022269 0.19020955072881179 0 -0.2909724519417114 0.18171445443046139 0 -0.2709602300957844 0.1655811934134766 0 -0.26360111949022269 0.19020955072881179 0 -0.25912112614351812 0.16855492642609951 0 -0.24851141791789419 0.17283258723328199 0 -0.26360111949022269 0.19020955072881179 0 -0.24851141791789419 0.17283258723328199 0 -0.24003375834807469 0.19097967105946809 0 -0.26360111949022269 0.19020955072881179 0 -0.2709602300957844 0.1655811934134766 0 -0.25912112614351812 0.16855492642609951 0 -0.2595150430760933 0.15635442234335131 0 -0.25912112614351812 0.16855492642609951 0 -0.24851141791789419 0.17283258723328199 0 -0.2709602300957844 0.1655811934134766 0 -0.2595150430760933 0.15635442234335131 0 -0.25912112614351812 0.16855492642609951 0 -0.2709602300957844 0.1655811934134766 0 -0.2595150430760933 0.15635442234335131 0 -0.2595150430760933 0.15635442234335131 0 -0.26464293840580078 0.13549103795087361 0 -0.24622100901902591 0.14003801238151611 0 -0.2709602300957844 0.1655811934134766 0 -0.27687856386052229 0.14577460991692809 0 -0.2595150430760933 0.15635442234335131 0 -0.27687856386052229 0.14577460991692809 0 -0.26464293840580078 0.13549103795087361 0 -0.2709602300957844 0.1655811934134766 0 -0.2595150430760933 0.15635442234335131 0 -0.27687856386052229 0.14577460991692809 0 -0.2827968976252605 0.1259680264203796 0 -0.26464293840580078 0.13549103795087361 0 -0.26980885604635652 0.11871065676394919 0 -0.2827968976252605 0.1259680264203796 0 -0.27687856386052229 0.14577460991692809 0 -0.26464293840580078 0.13549103795087361 0 -0.2827968976252605 0.1259680264203796 0 -0.27687856386052229 0.14577460991692809 0 -0.26464293840580078 0.13549103795087361 0 -0.25468488244533621 0.12734607261513969 0 -0.26980885604635652 0.11871065676394919 0 -0.26464293840580078 0.13549103795087361 0 -0.25468488244533621 0.12734607261513969 0 -0.24622100901902591 0.14003801238151611 0 -0.25468488244533621 0.12734607261513969 0 -0.26229957364096629 0.10107784938156621 0 -0.2377119113784632 0.1184279918264306 0 -0.25468488244533621 0.12734607261513969 0 -0.26229957364096629 0.10107784938156621 0 -0.26980885604635652 0.11871065676394919 0 -0.26229957364096629 0.10107784938156621 0 -0.28065310620891548 0.094233499920799435 0 -0.28871523138999838 0.1061614429238311 0 -0.26229957364096629 0.10107784938156621 0 -0.28871523138999838 0.1061614429238311 0 -0.26229957364096629 0.10107784938156621 0 -0.26980885604635652 0.11871065676394919 0 -0.28871523138999838 0.1061614429238311 0 -0.2827968976252605 0.1259680264203796 0 -0.26980885604635652 0.11871065676394919 0 -0.28871523138999838 0.1061614429238311 0 -0.2827968976252605 0.1259680264203796 0 -0.28871523138999838 0.1061614429238311 0 -0.30090707476115791 0.1240832828729921 0 -0.2827968976252605 0.1259680264203796 0 -0.28871523138999838 0.1061614429238311 0 -0.28065310620891548 0.094233499920799435 0 -0.28871523138999838 0.1061614429238311 0 -0.2938877384059736 0.088850879483021117 0 -0.28871523138999838 0.1061614429238311 0 -0.2938877384059736 0.088850879483021117 0 -0.28871523138999838 0.1061614429238311 0 -0.31249766629524461 0.1107382826774396 0 -0.28871523138999838 0.1061614429238311 0 -0.31129262223520948 0.092501275728831808 0 -0.2938877384059736 0.088850879483021117 0 -0.28871523138999838 0.1061614429238311 0 -0.31249766629524461 0.1107382826774396 0 -0.31129262223520948 0.092501275728831808 0 -0.31941148630632099 0.13121281313144209 0 -0.31249766629524461 0.1107382826774396 0 -0.30090707476115791 0.1240832828729921 0 -0.28871523138999838 0.1061614429238311 0 -0.31249766629524461 0.1107382826774396 0 -0.30090707476115791 0.1240832828729921 0 -0.29906024542194831 0.071540316042210991 0 -0.30722926079115598 0.068202459258340967 0 -0.30729932333812449 0.073592412733717957 0 -0.29906024542194831 0.071540316042210991 0 -0.30729932333812449 0.073592412733717957 0 -0.29906024542194831 0.071540316042210991 0 -0.30729932333812449 0.073592412733717957 0 -0.30476262567174273 0.082609649905928631 0 -0.29906024542194831 0.071540316042210991 0 -0.30722926079115598 0.068202459258340967 0 -0.30831055542055308 0.0605147960965342 0 -0.30722926079115598 0.068202459258340967 0 -0.30831055542055308 0.0605147960965342 0 -0.31424691898399798 0.067162312160900683 0 -0.30722926079115598 0.068202459258340967 0 -0.30729932333812449 0.073592412733717957 0 -0.31424691898399798 0.067162312160900683 0 -0.30729932333812449 0.073592412733717957 0 -0.30476262567174273 0.082609649905928631 0 -0.31506299613273109 0.078088456198681488 0 -0.30729932333812449 0.073592412733717957 0 -0.31506299613273109 0.078088456198681488 0 -0.31424691898399798 0.067162312160900683 0 -0.30476262567174273 0.082609649905928631 0 -0.31129262223520948 0.092501275728831808 0 -0.2938877384059736 0.088850879483021117 0 -0.30476262567174273 0.082609649905928631 0 -0.31129262223520948 0.092501275728831808 0 -0.31506299613273109 0.078088456198681488 0 -0.29906024542194831 0.071540316042210991 0 -0.30476262567174273 0.082609649905928631 0 -0.2938877384059736 0.088850879483021117 0 -0.28065310620891548 0.094233499920799435 0 -0.2938877384059736 0.088850879483021117 0 -0.27770988139872349 0.080843827894779188 0 -0.29906024542194831 0.071540316042210991 0 -0.2938877384059736 0.088850879483021117 0 -0.29906024542194831 0.071540316042210991 0 -0.2938877384059736 0.088850879483021117 0 -0.27770988139872349 0.080843827894779188 0 -0.29906024542194831 0.071540316042210991 0 -0.27030980239680352 0.064379479646241147 0 -0.29906024542194831 0.071540316042210991 0 -0.27030980239680352 0.064379479646241147 0 -0.27770988139872349 0.080843827894779188 0 -0.29906024542194831 0.071540316042210991 0 -0.27030980239680352 0.064379479646241147 0 -0.28570192820287638 0.053589624809495702 0 -0.27030980239680352 0.064379479646241147 0 -0.27770988139872349 0.080843827894779188 0 -0.25965921563801592 0.080940771584705584 0 -0.27030980239680352 0.064379479646241147 0 -0.2648272076325589 0.0630139367188573 0 -0.26229957364096629 0.10107784938156621 0 -0.28065310620891548 0.094233499920799435 0 -0.27770988139872349 0.080843827894779188 0 -0.26229957364096629 0.10107784938156621 0 -0.27770988139872349 0.080843827894779188 0 -0.25965921563801592 0.080940771584705584 0 -0.26229957364096629 0.10107784938156621 0 -0.25965921563801592 0.080940771584705584 0 -0.23588391589193361 0.095994255839304377 0 -0.25965921563801592 0.080940771584705584 0 -0.2648272076325589 0.0630139367188573 0 -0.24155935937165779 0.057218643250274363 0 -0.27030980239680352 0.064379479646241147 0 -0.25965921563801592 0.080940771584705584 0 -0.2648272076325589 0.0630139367188573 0 -0.25965921563801592 0.080940771584705584 0 -0.24155935937165779 0.057218643250274363 0 -0.2648272076325589 0.0630139367188573 0 -0.25683717479782531 0.046290360374415418 0 -0.27175161203649112 0.046765168806836399 0 -0.2648272076325589 0.0630139367188573 0 -0.24155935937165779 0.057218643250274363 0 -0.2648272076325589 0.0630139367188573 0 -0.25683717479782531 0.046290360374415418 0 -0.24155935937165779 0.057218643250274363 0 -0.25683717479782531 0.046290360374415418 0 -0.26423482878968158 0.032966491532556069 0 -0.24509905070280441 0.028053838272241571 0 -0.25683717479782531 0.046290360374415418 0 -0.26423482878968158 0.032966491532556069 0 -0.27175161203649112 0.046765168806836399 0 -0.26423482878968158 0.032966491532556069 0 -0.27175161203649112 0.046765168806836399 0 -0.28058932942500808 0.027465130035003969 0 -0.27030980239680352 0.064379479646241147 0 -0.2648272076325589 0.0630139367188573 0 -0.28570192820287638 0.053589624809495702 0 -0.2648272076325589 0.0630139367188573 0 -0.28570192820287638 0.053589624809495702 0 -0.2648272076325589 0.0630139367188573 0 -0.27175161203649112 0.046765168806836399 0 -0.28570192820287638 0.053589624809495702 0 -0.25183928942381151 -0.0075624078338361357 0 -0.26231918469715187 0.011442998676570891 0 -0.24064278425173949 0.0039350805849091954 0 -0.26423482878968158 0.032966491532556069 0 -0.26231918469715187 0.011442998676570891 0 -0.24509905070280441 0.028053838272241571 0 -0.26231918469715187 0.011442998676570891 0 -0.28058932942500808 0.027465130035003969 0 -0.28183843873369202 0.0091895247227355304 0 -0.26423482878968158 0.032966491532556069 0 -0.26231918469715187 0.011442998676570891 0 -0.28058932942500808 0.027465130035003969 0 -0.26984196325799531 -0.012984777539566179 0 -0.26231918469715187 0.011442998676570891 0 -0.28183843873369202 0.0091895247227355304 0 -0.29701101476603092 -0.014621766165129181 0 -0.28183843873369202 0.0091895247227355304 0 -0.3102633006888777 0.0077601655750476131 0 -0.28183843873369202 0.0091895247227355304 0 -0.29709593771607801 0.02515328111835765 0 -0.3102633006888777 0.0077601655750476131 0 -0.28183843873369202 0.0091895247227355304 0 -0.3102633006888777 0.0077601655750476131 0 -0.28058932942500808 0.027465130035003969 0 -0.29709593771607801 0.02515328111835765 0 -0.2920017148422821 0.039612978477250899 0 -0.28058932942500808 0.027465130035003969 0 -0.28183843873369202 0.0091895247227355304 0 -0.29709593771607801 0.02515328111835765 0 -0.29709593771607801 0.02515328111835765 0 -0.30897765297328811 0.021169349536114181 0 -0.3102633006888777 0.0077601655750476131 0 -0.29709593771607801 0.02515328111835765 0 -0.30987359062039682 0.029792474193326712 0 -0.30191129314261722 0.03620943000446486 0 -0.29709593771607801 0.02515328111835765 0 -0.30987359062039682 0.029792474193326712 0 -0.30897765297328811 0.021169349536114181 0 -0.28570192820287638 0.053589624809495702 0 -0.3063970966247983 0.044886206874948958 0 -0.27175161203649112 0.046765168806836399 0 -0.28058932942500808 0.027465130035003969 0 -0.2920017148422821 0.039612978477250899 0 -0.27175161203649112 0.046765168806836399 0 -0.28570192820287638 0.053589624809495702 0 -0.2920017148422821 0.039612978477250899 0 -0.28570192820287638 0.053589624809495702 0 -0.2920017148422821 0.039612978477250899 0 -0.3063970966247983 0.044886206874948958 0 -0.2920017148422821 0.039612978477250899 0 -0.30191129314261722 0.03620943000446486 0 -0.3063970966247983 0.044886206874948958 0 -0.29709593771607801 0.02515328111835765 0 -0.2920017148422821 0.039612978477250899 0 -0.30191129314261722 0.03620943000446486 0 -0.30987359062039682 0.029792474193326712 0 -0.30191129314261722 0.03620943000446486 0 -0.31131856135863312 0.036767725003285803 0 -0.30191129314261722 0.03620943000446486 0 -0.31131856135863312 0.036767725003285803 0 -0.3063970966247983 0.044886206874948958 0 -0.3063970966247983 0.044886206874948958 0 -0.30916370084657319 0.047912463688777489 0 -0.31418387586950342 0.046824220035231158 0 -0.29906024542194831 0.071540316042210991 0 -0.30591302258948833 0.048606478825931471 0 -0.30831055542055308 0.0605147960965342 0 -0.30916370084657319 0.047912463688777489 0 -0.31016080830250309 0.051332949018998368 0 -0.31418387586950342 0.046824220035231158 0 -0.28570192820287638 0.053589624809495702 0 -0.3063970966247983 0.044886206874948958 0 -0.30591302258948833 0.048606478825931471 0 -0.31016080830250309 0.051332949018998368 0 -0.30591302258948833 0.048606478825931471 0 -0.30831055542055308 0.0605147960965342 0 -0.29906024542194831 0.071540316042210991 0 -0.28570192820287638 0.053589624809495702 0 -0.30591302258948833 0.048606478825931471 0 -0.29906024542194831 0.071540316042210991 0 -0.30591302258948833 0.048606478825931471 0 -0.30916370084657319 0.047912463688777489 0 -0.31016080830250309 0.051332949018998368 0 -0.30591302258948833 0.048606478825931471 0 -0.3063970966247983 0.044886206874948958 0 -0.30916370084657319 0.047912463688777489 0 -0.30591302258948833 0.048606478825931471 0 -0.31016080830250309 0.051332949018998368 0 -0.30831055542055308 0.0605147960965342 0 -0.313617628451068 0.05363149094091571 0 -0.30831055542055308 0.0605147960965342 0 -0.31448773688283149 0.059729311243778303 0 -0.313617628451068 0.05363149094091571 0 -0.30831055542055308 0.0605147960965342 0 -0.31448773688283149 0.059729311243778303 0 -0.31424691898399798 0.067162312160900683 0 -0.31448773688283149 0.059729311243778303 0 -0.31876327652527908 0.055260681592637882 0 -0.313617628451068 0.05363149094091571 0 -0.31448773688283149 0.059729311243778303 0 -0.31876327652527908 0.055260681592637882 0 -0.3209143030536632 0.06088141231844519 0 -0.31876327652527908 0.055260681592637882 0 -0.3209143030536632 0.06088141231844519 0 -0.32504030590961031 0.053761826952615471 0 -0.3209143030536632 0.06088141231844519 0 -0.32504030590961031 0.053761826952615471 0 -0.32822695698409188 0.060978720206715478 0 -0.31876327652527908 0.055260681592637882 0 -0.32504030590961031 0.053761826952615471 0 -0.31975640832922247 0.048299366507434723 0 -0.327288669391818 0.047902198711607967 0 -0.32504030590961031 0.053761826952615471 0 -0.31975640832922247 0.048299366507434723 0 -0.31876327652527908 0.055260681592637882 0 -0.31975640832922247 0.048299366507434723 0 -0.313617628451068 0.05363149094091571 0 -0.31975640832922247 0.048299366507434723 0 -0.313617628451068 0.05363149094091571 0 -0.31418387586950342 0.046824220035231158 0 -0.31016080830250309 0.051332949018998368 0 -0.313617628451068 0.05363149094091571 0 -0.31418387586950342 0.046824220035231158 0 -0.30987359062039682 0.029792474193326712 0 -0.31131856135863312 0.036767725003285803 0 -0.32709226504672051 0.036182788940402673 0 -0.31131856135863312 0.036767725003285803 0 -0.3063970966247983 0.044886206874948958 0 -0.32709226504672051 0.036182788940402673 0 -0.3063970966247983 0.044886206874948958 0 -0.32709226504672051 0.036182788940402673 0 -0.3063970966247983 0.044886206874948958 0 -0.31418387586950342 0.046824220035231158 0 -0.32709226504672051 0.036182788940402673 0 -0.31975640832922247 0.048299366507434723 0 -0.31418387586950342 0.046824220035231158 0 -0.32709226504672051 0.036182788940402673 0 -0.327288669391818 0.047902198711607967 0 -0.31975640832922247 0.048299366507434723 0 -0.32709226504672051 0.036182788940402673 0 -0.34120699915372399 0.030246793278824211 0 -0.34592088339172888 0.05265808550528131 0 -0.33780783904711931 0.042662270023997931 0 -0.34120699915372399 0.030246793278824211 0 -0.34592088339172888 0.05265808550528131 0 -0.32709226504672051 0.036182788940402673 0 -0.33726569828171887 0.053364812445978967 0 -0.327288669391818 0.047902198711607967 0 -0.32709226504672051 0.036182788940402673 0 -0.33726569828171887 0.053364812445978967 0 -0.32709226504672051 0.036182788940402673 0 -0.33780783904711931 0.042662270023997931 0 -0.33726569828171887 0.053364812445978967 0 -0.32709226504672051 0.036182788940402673 0 -0.34120699915372399 0.030246793278824211 0 -0.32709226504672051 0.036182788940402673 0 -0.33780783904711931 0.042662270023997931 0 -0.34120699915372399 0.030246793278824211 0 -0.33780783904711931 0.042662270023997931 0 -0.33726569828171887 0.053364812445978967 0 -0.34592088339172888 0.05265808550528131 0 -0.33726569828171887 0.053364812445978967 0 -0.34592088339172888 0.05265808550528131 0 -0.33590100009990548 0.065495079406543616 0 -0.32504030590961031 0.053761826952615471 0 -0.33726569828171887 0.053364812445978967 0 -0.32822695698409188 0.060978720206715478 0 -0.33726569828171887 0.053364812445978967 0 -0.32822695698409188 0.060978720206715478 0 -0.33590100009990548 0.065495079406543616 0 -0.327288669391818 0.047902198711607967 0 -0.32504030590961031 0.053761826952615471 0 -0.33726569828171887 0.053364812445978967 0 -0.31546801871320929 -0.01043582355740966 0 -0.3102633006888777 0.0077601655750476131 0 -0.33620291068688851 0.0064557786303970676 0 -0.3102633006888777 0.0077601655750476131 0 -0.33620291068688851 0.0064557786303970676 0 -0.3102633006888777 0.0077601655750476131 0 -0.31867778286779919 0.021971477257725022 0 -0.33620291068688851 0.0064557786303970676 0 -0.3102633006888777 0.0077601655750476131 0 -0.31867778286779919 0.021971477257725022 0 -0.30987359062039682 0.029792474193326712 0 -0.32709226504672051 0.036182788940402673 0 -0.31867778286779919 0.021971477257725022 0 -0.30897765297328811 0.021169349536114181 0 -0.3102633006888777 0.0077601655750476131 0 -0.31867778286779919 0.021971477257725022 0 -0.30987359062039682 0.029792474193326712 0 -0.30897765297328811 0.021169349536114181 0 -0.31867778286779919 0.021971477257725022 0 -0.32709226504672051 0.036182788940402673 0 -0.31867778286779919 0.021971477257725022 0 -0.33051067534235912 0.024562003945940429 0 -0.32709226504672051 0.036182788940402673 0 -0.31867778286779919 0.021971477257725022 0 -0.31867778286779919 0.021971477257725022 0 -0.33051067534235912 0.024562003945940429 0 -0.33620291068688851 0.0064557786303970676 0 -0.34120699915372399 0.030246793278824211 0 -0.33620291068688851 0.0064557786303970676 0 -0.34770239690733351 0.027515133398202239 0 -0.33051067534235912 0.024562003945940429 0 -0.34120699915372399 0.030246793278824211 0 -0.33620291068688851 0.0064557786303970676 0 -0.34120699915372399 0.030246793278824211 0 -0.33620291068688851 0.0064557786303970676 0 -0.32709226504672051 0.036182788940402673 0 -0.33051067534235912 0.024562003945940429 0 -0.34120699915372399 0.030246793278824211 0 -0.33620291068688851 0.0064557786303970676 0 -0.35201258209097508 0.0056607809808327421 0 -0.35396316357688568 0.016516956486029109 0 -0.34370585250575481 -0.0094211722746199381 0 -0.33620291068688851 0.0064557786303970676 0 -0.35201258209097508 0.0056607809808327421 0 -0.35201258209097508 0.0056607809808327421 0 -0.35396316357688568 0.016516956486029109 0 -0.36782225349506198 0.0048657833312758091 0 -0.33620291068688851 0.0064557786303970676 0 -0.35201258209097508 0.0056607809808327421 0 -0.33620291068688851 0.0064557786303970676 0 -0.35396316357688568 0.016516956486029109 0 -0.34770239690733351 0.027515133398202239 0 -0.35396316357688568 0.016516956486029109 0 -0.3566247867558644 0.026642619270324831 0 -0.36649990139404232 0.024441610025915519 0 -0.34120699915372399 0.030246793278824211 0 -0.34770239690733351 0.027515133398202239 0 -0.34770239690733351 0.027515133398202239 0 -0.3566247867558644 0.026642619270324831 0 -0.35833368514519631 0.038096777171152472 0 -0.35396316357688568 0.016516956486029109 0 -0.34770239690733351 0.027515133398202239 0 -0.3566247867558644 0.026642619270324831 0 -0.38147820051115411 0.019049182225605761 0 -0.36649990139404232 0.024441610025915519 0 -0.36782225349506198 0.0048657833312758091 0 -0.3566247867558644 0.026642619270324831 0 -0.36649990139404232 0.024441610025915519 0 -0.35833368514519631 0.038096777171152472 0 -0.35201258209097508 0.0056607809808327421 0 -0.36782225349506198 0.0048657833312758091 0 -0.35396316357688568 0.016516956486029109 0 -0.36649990139404232 0.024441610025915519 0 -0.36782225349506198 0.0048657833312758091 0 -0.36590378191011091 -0.01025690750480699 0 -0.35201258209097508 0.0056607809808327421 0 -0.36782225349506198 0.0048657833312758091 0 -0.34592088339172888 0.05265808550528131 0 -0.35833368514519631 0.038096777171152472 0 -0.36555211422520678 0.060095309267582192 0 -0.34120699915372399 0.030246793278824211 0 -0.34770239690733351 0.027515133398202239 0 -0.35833368514519631 0.038096777171152472 0 -0.34120699915372399 0.030246793278824211 0 -0.34592088339172888 0.05265808550528131 0 -0.35833368514519631 0.038096777171152472 0 -0.38383179283280738 0.044626166301023701 0 -0.36649990139404232 0.024441610025915519 0 -0.35833368514519631 0.038096777171152472 0 -0.38383179283280738 0.044626166301023701 0 -0.35833368514519631 0.038096777171152472 0 -0.36555211422520678 0.060095309267582192 0 -0.38618538515446071 0.070203150376441606 0 -0.36555211422520678 0.060095309267582192 0 -0.36763344039030971 0.079060927352334748 0 -0.36555211422520678 0.060095309267582192 0 -0.35063476762973289 0.075069377731738579 0 -0.36763344039030971 0.079060927352334748 0 -0.34592088339172888 0.05265808550528131 0 -0.35063476762973289 0.075069377731738579 0 -0.34592088339172888 0.05265808550528131 0 -0.36555211422520678 0.060095309267582192 0 -0.35063476762973289 0.075069377731738579 0 -0.34592088339172888 0.05265808550528131 0 -0.35063476762973289 0.075069377731738579 0 -0.33590100009990548 0.065495079406543616 0 -0.35063476762973289 0.075069377731738579 0 -0.3553486518677369 0.097480669958195806 0 -0.35063476762973289 0.075069377731738579 0 -0.3553486518677369 0.097480669958195806 0 -0.33964070122000961 0.093532785902245563 0 -0.35063476762973289 0.075069377731738579 0 -0.36763344039030971 0.079060927352334748 0 -0.3553486518677369 0.097480669958195806 0 -0.38044628307441097 0.092456129427715528 0 -0.36763344039030971 0.079060927352334748 0 -0.3553486518677369 0.097480669958195806 0 -0.37665747635832342 0.11002337083399689 0 -0.38044628307441097 0.092456129427715528 0 -0.3553486518677369 0.097480669958195806 0 -0.37665747635832342 0.11002337083399689 0 -0.36006253610573752 0.1198919621846538 0 -0.3553486518677369 0.097480669958195806 0 -0.38927342918587599 0.1255134882067182 0 -0.36006253610573752 0.1198919621846538 0 -0.36006253610573752 0.1198919621846538 0 -0.33628010120049001 0.1153151224310511 0 -0.34132796265181431 0.1387815269220975 0 -0.36006253610573752 0.1198919621846538 0 -0.33628010120049001 0.1153151224310511 0 -0.36006253610573752 0.1198919621846538 0 -0.3553486518677369 0.097480669958195806 0 -0.33628010120049001 0.1153151224310511 0 -0.36006253610573752 0.1198919621846538 0 -0.3553486518677369 0.097480669958195806 0 -0.3553486518677369 0.097480669958195806 0 -0.33628010120049001 0.1153151224310511 0 -0.33964070122000961 0.093532785902245563 0 -0.33628010120049001 0.1153151224310511 0 -0.32624961676337461 0.098129034645597357 0 -0.33964070122000961 0.093532785902245563 0 -0.31249766629524461 0.1107382826774396 0 -0.33628010120049001 0.1153151224310511 0 -0.31941148630632099 0.13121281313144209 0 -0.31249766629524461 0.1107382826774396 0 -0.33628010120049001 0.1153151224310511 0 -0.31249766629524461 0.1107382826774396 0 -0.33628010120049001 0.1153151224310511 0 -0.32624961676337461 0.098129034645597357 0 -0.31249766629524461 0.1107382826774396 0 -0.31129262223520948 0.092501275728831808 0 -0.32624961676337461 0.098129034645597357 0 -0.31129262223520948 0.092501275728831808 0 -0.32624961676337461 0.098129034645597357 0 -0.32969036863871382 0.081669724744645025 0 -0.31129262223520948 0.092501275728831808 0 -0.31506299613273109 0.078088456198681488 0 -0.32969036863871382 0.081669724744645025 0 -0.31506299613273109 0.078088456198681488 0 -0.31424691898399798 0.067162312160900683 0 -0.32391001494159238 0.069098466543773468 0 -0.3209143030536632 0.06088141231844519 0 -0.31424691898399798 0.067162312160900683 0 -0.32391001494159238 0.069098466543773468 0 -0.31448773688283149 0.059729311243778303 0 -0.3209143030536632 0.06088141231844519 0 -0.31424691898399798 0.067162312160900683 0 -0.3209143030536632 0.06088141231844519 0 -0.32822695698409188 0.060978720206715478 0 -0.32391001494159238 0.069098466543773468 0 -0.31506299613273109 0.078088456198681488 0 -0.32391001494159238 0.069098466543773468 0 -0.32969036863871382 0.081669724744645025 0 -0.32391001494159238 0.069098466543773468 0 -0.33590100009990548 0.065495079406543616 0 -0.32969036863871382 0.081669724744645025 0 -0.35063476762973289 0.075069377731738579 0 -0.33590100009990548 0.065495079406543616 0 -0.32969036863871382 0.081669724744645025 0 -0.32822695698409188 0.060978720206715478 0 -0.32391001494159238 0.069098466543773468 0 -0.33590100009990548 0.065495079406543616 0 -0.35063476762973289 0.075069377731738579 0 -0.33964070122000961 0.093532785902245563 0 -0.32969036863871382 0.081669724744645025 0 -0.32624961676337461 0.098129034645597357 0 -0.33964070122000961 0.093532785902245563 0 -0.32969036863871382 0.081669724744645025 0 -0.38929572517217831 0.47137053177936961 0 -0.40195879339205098 0.45673073817012277 0 -0.4080899991723399 0.48031880442591918 0 -0.38890625485748659 0.48653209473169728 0 -0.38929572517217831 0.47137053177936961 0 -0.4080899991723399 0.48031880442591918 0 -0.40036949895133589 0.5 0 -0.38890625485748659 0.48653209473169728 0 -0.4080899991723399 0.48031880442591918 0 -0.40036949895133589 0.5 0 -0.38890625485748659 0.48653209473169728 0 -0.37158416539771549 0.5 0 -0.38890625485748659 0.48653209473169728 0 -0.37158416539771549 0.5 0 -0.37168132825398981 0.48806615700376049 0 -0.38890625485748659 0.48653209473169728 0 -0.37287448475472412 0.47584895735093802 0 -0.38929572517217831 0.47137053177936961 0 -0.37434924209356119 0.46074833573343188 0 -0.37287448475472412 0.47584895735093802 0 -0.38890625485748659 0.48653209473169728 0 -0.38929572517217831 0.47137053177936961 0 -0.37287448475472412 0.47584895735093802 0 -0.38890625485748659 0.48653209473169728 0 -0.37287448475472412 0.47584895735093802 0 -0.37168132825398981 0.48806615700376049 0 -0.38929572517217831 0.47137053177936961 0 -0.40195879339205098 0.45673073817012277 0 -0.37434924209356119 0.46074833573343188 0 -0.37582399943241629 0.44564771411592752 0 -0.40195879339205098 0.45673073817012277 0 -0.37434924209356119 0.46074833573343188 0 -0.37582399943241629 0.44564771411592752 0 -0.37434924209356119 0.46074833573343188 0 -0.37582399943241629 0.44564771411592752 0 -0.39299164118098068 0.43927465351186168 0 -0.40195879339205098 0.45673073817012277 0 -0.37582399943241629 0.44564771411592752 0 -0.40195879339205098 0.45673073817012277 0 -0.39299164118098068 0.43927465351186168 0 -0.40195879339205098 0.45673073817012277 0 -0.4080582816146211 0.4544145734092539 0 -0.39299164118098068 0.43927465351186168 0 -0.4080582816146211 0.4544145734092539 0 -0.40730450805039919 0.4432472278084254 0 -0.39299164118098068 0.43927465351186168 0 -0.4080582816146211 0.4544145734092539 0 -0.40195879339205098 0.45673073817012277 0 -0.42809358735168368 0.46781376222432303 0 -0.4080899991723399 0.48031880442591918 0 -0.40195879339205098 0.45673073817012277 0 -0.42809358735168368 0.46781376222432303 0 -0.40195879339205098 0.45673073817012277 0 -0.4080582816146211 0.4544145734092539 0 -0.42809358735168368 0.46781376222432303 0 -0.4080582816146211 0.4544145734092539 0 -0.41410905373428641 0.454029707086543 0 -0.42809358735168368 0.46781376222432303 0 -0.41410905373428641 0.454029707086543 0 -0.40730450805039919 0.4432472278084254 0 -0.4156815187520192 0.43865404396780677 0 -0.4080582816146211 0.4544145734092539 0 -0.41410905373428641 0.454029707086543 0 -0.40730450805039919 0.4432472278084254 0 -0.41410905373428641 0.454029707086543 0 -0.4156815187520192 0.43865404396780677 0 -0.41410905373428641 0.454029707086543 0 -0.4156815187520192 0.43865404396780677 0 -0.42679268400504772 0.45033272447932521 0 -0.4156815187520192 0.43865404396780677 0 -0.42679268400504772 0.45033272447932521 0 -0.42879848250356067 0.43634510971893697 0 -0.42679268400504772 0.45033272447932521 0 -0.43396248135411142 0.45733611527947621 0 -0.44034298123736848 0.44941183858880368 0 -0.42679268400504772 0.45033272447932521 0 -0.44034298123736848 0.44941183858880368 0 -0.42879848250356067 0.43634510971893697 0 -0.44034298123736848 0.44941183858880368 0 -0.42879848250356067 0.43634510971893697 0 -0.44034298123736848 0.44941183858880368 0 -0.43933292756509451 0.43806004985056668 0 -0.42879848250356067 0.43634510971893697 0 -0.41410905373428641 0.454029707086543 0 -0.42679268400504772 0.45033272447932521 0 -0.42809358735168368 0.46781376222432303 0 -0.42679268400504772 0.45033272447932521 0 -0.42809358735168368 0.46781376222432303 0 -0.43396248135411142 0.45733611527947621 0 -0.42809358735168368 0.46781376222432303 0 -0.43396248135411142 0.45733611527947621 0 -0.44062067282234568 0.46178613582545303 0 -0.42809358735168368 0.46781376222432303 0 -0.4080899991723399 0.48031880442591918 0 -0.42915483250495651 0.5 0 -0.42809358735168368 0.46781376222432303 0 -0.42915483250495651 0.5 0 -0.45422838131131599 0.47889678627852422 0 -0.40036949895133589 0.5 0 -0.4080899991723399 0.48031880442591918 0 -0.42915483250495651 0.5 0 -0.42915483250495651 0.5 0 -0.45422838131131599 0.47889678627852422 0 -0.4579401660585769 0.50000000000000278 0 -0.42809358735168368 0.46781376222432303 0 -0.45422838131131599 0.47889678627852422 0 -0.42809358735168368 0.46781376222432303 0 -0.45422838131131599 0.47889678627852422 0 -0.44062067282234568 0.46178613582545303 0 -0.4713117899383889 0.48614137481570519 0 -0.47302582119031328 0.46553288692427941 0 -0.46141794774517708 0.46667213134190771 0 -0.45422838131131599 0.47889678627852422 0 -0.4713117899383889 0.48614137481570519 0 -0.45422838131131599 0.47889678627852422 0 -0.4713117899383889 0.48614137481570519 0 -0.46141794774517708 0.46667213134190771 0 -0.45422838131131599 0.47889678627852422 0 -0.4579401660585769 0.50000000000000278 0 -0.46120237068699849 0.50000000000000078 0 -0.45422838131131599 0.47889678627852422 0 -0.46120237068699849 0.50000000000000078 0 -0.4713117899383889 0.48614137481570519 0 -0.45422838131131599 0.47889678627852422 0 -0.4579401660585769 0.50000000000000278 0 -0.46120237068699849 0.50000000000000078 0 -0.48839519856545999 0.49338596335289059 0 -0.4713117899383889 0.48614137481570519 0 -0.48584959905754938 0.47562430036245812 0 -0.48839519856545999 0.49338596335289059 0 -0.46120237068699849 0.50000000000000078 0 -0.4713117899383889 0.48614137481570519 0 -0.48839519856545999 0.49338596335289059 0 -0.4713117899383889 0.48614137481570519 0 -0.48839519856545999 0.49338596335289059 0 -0.46120237068699849 0.50000000000000078 0 -0.5 0.5 0 -0.48839519856545999 0.49338596335289059 0 -0.4713117899383889 0.48614137481570519 0 -0.48584959905754938 0.47562430036245812 0 -0.47302582119031328 0.46553288692427941 0 -0.48584959905754938 0.47562430036245812 0 -0.50000000000000344 0.49056335945478108 0 -0.5 0.46459149010359002 0 -0.50000000000000344 0.49056335945478108 0 -0.48839519856545999 0.49338596335289059 0 -0.48584959905754938 0.47562430036245812 0 -0.50000000000000344 0.49056335945478108 0 -0.48839519856545999 0.49338596335289059 0 -0.50000000000001221 0.49830723013777728 0 -0.48839519856545999 0.49338596335289059 0 -0.50000000000000344 0.49056335945478108 0 -0.50000000000001221 0.49830723013777728 0 -0.48839519856545999 0.49338596335289059 0 -0.5 0.5 0 -0.50000000000001221 0.49830723013777728 0 -0.48839519856545999 0.49338596335289059 0 -0.5 0.4386196207523988 0 -0.5 0.46459149010359002 0 -0.48387456845957938 0.45358364587783828 0 -0.5 0.4386196207523988 0 -0.48387456845957938 0.45358364587783828 0 -0.47440722703859622 0.43665496418018268 0 -0.48584959905754938 0.47562430036245812 0 -0.5 0.46459149010359002 0 -0.48387456845957938 0.45358364587783828 0 -0.48387456845957938 0.45358364587783828 0 -0.47302582119031328 0.46553288692427941 0 -0.46611878680933788 0.45179643347756371 0 -0.48584959905754938 0.47562430036245812 0 -0.48387456845957938 0.45358364587783828 0 -0.47302582119031328 0.46553288692427941 0 -0.48387456845957938 0.45358364587783828 0 -0.46611878680933788 0.45179643347756371 0 -0.47440722703859622 0.43665496418018268 0 -0.46611878680933788 0.45179643347756371 0 -0.45893539076292328 0.43899376691396602 0 -0.44983598368570771 0.45392397342582658 0 -0.46611878680933788 0.45179643347756371 0 -0.45893539076292328 0.43899376691396602 0 -0.47440722703859622 0.43665496418018268 0 -0.45422838131131599 0.47889678627852422 0 -0.46141794774517708 0.46667213134190771 0 -0.44983598368570771 0.45392397342582658 0 -0.46611878680933788 0.45179643347756371 0 -0.46141794774517708 0.46667213134190771 0 -0.44983598368570771 0.45392397342582658 0 -0.47302582119031328 0.46553288692427941 0 -0.46611878680933788 0.45179643347756371 0 -0.46141794774517708 0.46667213134190771 0 -0.45422838131131599 0.47889678627852422 0 -0.44983598368570771 0.45392397342582658 0 -0.44062067282234568 0.46178613582545303 0 -0.45422838131131599 0.47889678627852422 0 -0.44983598368570771 0.45392397342582658 0 -0.43396248135411142 0.45733611527947621 0 -0.44062067282234568 0.46178613582545303 0 -0.44034298123736848 0.44941183858880368 0 -0.44983598368570771 0.45392397342582658 0 -0.44062067282234568 0.46178613582545303 0 -0.44034298123736848 0.44941183858880368 0 -0.45893539076292328 0.43899376691396602 0 -0.44983598368570771 0.45392397342582658 0 -0.44544358606010143 0.42895116057312871 0 -0.44983598368570771 0.45392397342582658 0 -0.44544358606010143 0.42895116057312871 0 -0.44983598368570771 0.45392397342582658 0 -0.44034298123736848 0.44941183858880368 0 -0.43933292756509451 0.43806004985056668 0 -0.44983598368570771 0.45392397342582658 0 -0.43933292756509451 0.43806004985056668 0 -0.44544358606010143 0.42895116057312871 0 -0.43933292756509451 0.43806004985056668 0 -0.44544358606010143 0.42895116057312871 0 -0.43224360433873388 0.42166816694613712 0 -0.44544358606010143 0.42895116057312871 0 -0.44105118843449509 0.40397834772043079 0 -0.43224360433873388 0.42166816694613712 0 -0.44544358606010143 0.42895116057312871 0 -0.44105118843449509 0.40397834772043079 0 -0.44544358606010143 0.42895116057312871 0 -0.46085665236754769 0.40664074779963461 0 -0.44105118843449509 0.40397834772043079 0 -0.46085665236754769 0.40664074779963461 0 -0.46378356811643129 0.4256800786343094 0 -0.47927498435298782 0.41715975370463487 0 -0.44544358606010143 0.42895116057312871 0 -0.46085665236754769 0.40664074779963461 0 -0.46378356811643129 0.4256800786343094 0 -0.45893539076292328 0.43899376691396602 0 -0.44544358606010143 0.42895116057312871 0 -0.46378356811643129 0.4256800786343094 0 -0.45893539076292328 0.43899376691396602 0 -0.46378356811643129 0.4256800786343094 0 -0.47440722703859622 0.43665496418018268 0 -0.46378356811643129 0.4256800786343094 0 -0.47440722703859622 0.43665496418018268 0 -0.47927498435298782 0.41715975370463487 0 -0.47927498435298782 0.41715975370463487 0 -0.50000000000000422 0.41264775140120769 0 -0.47930012765392088 0.39491459104617122 0 -0.5 0.4386196207523988 0 -0.47440722703859622 0.43665496418018268 0 -0.47927498435298782 0.41715975370463487 0 -0.5 0.4386196207523988 0 -0.47927498435298782 0.41715975370463487 0 -0.50000000000000422 0.41264775140120769 0 -0.5 0.3918405935280137 0 -0.4820242442145537 0.37448340686729348 0 -0.5 0.37103343565481972 0 -0.5 0.3918405935280137 0 -0.47930012765392088 0.39491459104617122 0 -0.4820242442145537 0.37448340686729348 0 -0.50000000000000422 0.41264775140120769 0 -0.5 0.3918405935280137 0 -0.47930012765392088 0.39491459104617122 0 -0.50000000000000422 0.41264775140120769 0 -0.47930012765392088 0.39491459104617122 0 -0.46085665236754769 0.40664074779963461 0 -0.47927498435298782 0.41715975370463487 0 -0.47930012765392088 0.39491459104617122 0 -0.47930012765392088 0.39491459104617122 0 -0.45860025530783588 0.37718143069113669 0 -0.4820242442145537 0.37448340686729348 0 -0.47930012765392088 0.39491459104617122 0 -0.45860025530783588 0.37718143069113669 0 -0.47930012765392088 0.39491459104617122 0 -0.45860025530783588 0.37718143069113669 0 -0.4615825785606138 0.39131312265017898 0 -0.45860025530783588 0.37718143069113669 0 -0.4615825785606138 0.39131312265017898 0 -0.4492110906738237 0.38320955120225392 0 -0.46085665236754769 0.40664074779963461 0 -0.4492110906738237 0.38320955120225392 0 -0.46085665236754769 0.40664074779963461 0 -0.47930012765392088 0.39491459104617122 0 -0.4615825785606138 0.39131312265017898 0 -0.46085665236754769 0.40664074779963461 0 -0.4615825785606138 0.39131312265017898 0 -0.4492110906738237 0.38320955120225392 0 -0.46085665236754769 0.40664074779963461 0 -0.44105118843449509 0.40397834772043079 0 -0.4492110906738237 0.38320955120225392 0 -0.44105118843449509 0.40397834772043079 0 -0.43665879080888881 0.37900553486773292 0 -0.44105118843449509 0.40397834772043079 0 -0.4492110906738237 0.38320955120225392 0 -0.43665879080888881 0.37900553486773292 0 -0.42191973330561072 0.37765638465153778 0 -0.41958685853768141 0.40046738275030419 0 -0.42861304127111349 0.39092484424672153 0 -0.43665879080888881 0.37900553486773292 0 -0.42191973330561072 0.37765638465153778 0 -0.42861304127111349 0.39092484424672153 0 -0.42191973330561072 0.37765638465153778 0 -0.41958685853768141 0.40046738275030419 0 -0.41714400140127789 0.37990899472704948 0 -0.39672247382245063 0.40003963484922689 0 -0.42191973330561072 0.37765638465153778 0 -0.41714400140127789 0.37990899472704948 0 -0.41958685853768141 0.40046738275030419 0 -0.41714400140127789 0.37990899472704948 0 -0.41011039063937738 0.3980187550439328 0 -0.41958685853768141 0.40046738275030419 0 -0.41714400140127789 0.37990899472704948 0 -0.41011039063937738 0.3980187550439328 0 -0.39672247382245063 0.40003963484922689 0 -0.41011039063937738 0.3980187550439328 0 -0.41958685853768141 0.40046738275030419 0 -0.40698822879609953 0.41165900784915038 0 -0.44105118843449509 0.40397834772043079 0 -0.42861304127111349 0.39092484424672153 0 -0.42919224925330762 0.40911141412646018 0 -0.41958685853768141 0.40046738275030419 0 -0.42861304127111349 0.39092484424672153 0 -0.42919224925330762 0.40911141412646018 0 -0.44105118843449509 0.40397834772043079 0 -0.43665879080888881 0.37900553486773292 0 -0.42861304127111349 0.39092484424672153 0 -0.44105118843449509 0.40397834772043079 0 -0.43224360433873388 0.42166816694613712 0 -0.42919224925330762 0.40911141412646018 0 -0.41958685853768141 0.40046738275030419 0 -0.42919224925330762 0.40911141412646018 0 -0.41725398376975242 0.4232783808490706 0 -0.43224360433873388 0.42166816694613712 0 -0.42919224925330762 0.40911141412646018 0 -0.41725398376975242 0.4232783808490706 0 -0.43933292756509451 0.43806004985056668 0 -0.43224360433873388 0.42166816694613712 0 -0.42879848250356067 0.43634510971893697 0 -0.43224360433873388 0.42166816694613712 0 -0.42879848250356067 0.43634510971893697 0 -0.41725398376975242 0.4232783808490706 0 -0.42879848250356067 0.43634510971893697 0 -0.41725398376975242 0.4232783808490706 0 -0.4156815187520192 0.43865404396780677 0 -0.42879848250356067 0.43634510971893697 0 -0.41725398376975242 0.4232783808490706 0 -0.4156815187520192 0.43865404396780677 0 -0.41725398376975242 0.4232783808490706 0 -0.4156815187520192 0.43865404396780677 0 -0.41725398376975242 0.4232783808490706 0 -0.40568204497008908 0.429863161066662 0 -0.40730450805039919 0.4432472278084254 0 -0.4156815187520192 0.43865404396780677 0 -0.40568204497008908 0.429863161066662 0 -0.41958685853768141 0.40046738275030419 0 -0.41725398376975242 0.4232783808490706 0 -0.41958685853768141 0.40046738275030419 0 -0.41725398376975242 0.4232783808490706 0 -0.40698822879609953 0.41165900784915038 0 -0.41725398376975242 0.4232783808490706 0 -0.40698822879609953 0.41165900784915038 0 -0.40568204497008908 0.429863161066662 0 -0.41725398376975242 0.4232783808490706 0 -0.40698822879609953 0.41165900784915038 0 -0.40698822879609953 0.41165900784915038 0 -0.40568204497008908 0.429863161066662 0 -0.39295811882680631 0.42237545763459727 0 -0.40698822879609953 0.41165900784915038 0 -0.39379881208076362 0.41301264869178128 0 -0.39672247382245063 0.40003963484922689 0 -0.40698822879609953 0.41165900784915038 0 -0.39379881208076362 0.41301264869178128 0 -0.39295811882680631 0.42237545763459727 0 -0.39299164118098068 0.43927465351186168 0 -0.40568204497008908 0.429863161066662 0 -0.39295811882680631 0.42237545763459727 0 -0.39299164118098068 0.43927465351186168 0 -0.40730450805039919 0.4432472278084254 0 -0.40568204497008908 0.429863161066662 0 -0.37582399943241629 0.44564771411592752 0 -0.39299164118098068 0.43927465351186168 0 -0.37792500074733981 0.42413473361447018 0 -0.39299164118098068 0.43927465351186168 0 -0.39295811882680631 0.42237545763459727 0 -0.37792500074733981 0.42413473361447018 0 -0.37582399943241629 0.44564771411592752 0 -0.37792500074733981 0.42413473361447018 0 -0.39299164118098068 0.43927465351186168 0 -0.37792500074733981 0.42413473361447018 0 -0.37792500074733981 0.42413473361447018 0 -0.37512919784843002 0.42132533279782503 0 -0.37852642687769961 0.41797649443415208 0 -0.3807228886519915 0.39548605666694842 0 -0.37852642687769961 0.41797649443415208 0 -0.38679420773953349 0.40092113630208692 0 -0.39672247382245063 0.40003963484922689 0 -0.39379881208076362 0.41301264869178128 0 -0.37852642687769961 0.41797649443415208 0 -0.39672247382245063 0.40003963484922689 0 -0.37852642687769961 0.41797649443415208 0 -0.39672247382245063 0.40003963484922689 0 -0.37852642687769961 0.41797649443415208 0 -0.3807228886519915 0.39548605666694842 0 -0.37187472498789442 0.40815864712156008 0 -0.39379881208076362 0.41301264869178128 0 -0.39295811882680631 0.42237545763459727 0 -0.37852642687769961 0.41797649443415208 0 -0.39295811882680631 0.42237545763459727 0 -0.37792500074733981 0.42413473361447018 0 -0.37852642687769961 0.41797649443415208 0 -0.37852642687769961 0.41797649443415208 0 -0.37512919784843002 0.42132533279782503 0 -0.37187472498789442 0.40815864712156008 0 -0.37792500074733981 0.42413473361447018 0 -0.37852642687769961 0.41797649443415208 0 -0.37792500074733981 0.42413473361447018 0 -0.37852642687769961 0.41797649443415208 0 -0.37512919784843002 0.42132533279782503 0 -0.37852642687769961 0.41797649443415208 0 -0.37512919784843002 0.42132533279782503 0 -0.37852642687769961 0.41797649443415208 0 -0.38679420773953349 0.40092113630208692 0 -0.3807228886519915 0.39548605666694842 0 -0.38679420773953349 0.40092113630208692 0 -0.38918144997208731 0.39150426953576961 0 -0.3807228886519915 0.39548605666694842 0 -0.3807228886519915 0.39548605666694842 0 -0.38291935042628078 0.37299561889974409 0 -0.3807228886519915 0.39548605666694842 0 -0.38291935042628078 0.37299561889974409 0 -0.37351888366060432 0.38674041426089339 0 -0.38918144997208731 0.39150426953576961 0 -0.3807228886519915 0.39548605666694842 0 -0.38291935042628078 0.37299561889974409 0 -0.38291935042628078 0.37299561889974409 0 -0.3700479854434211 0.37862834780246279 0 -0.37351888366060432 0.38674041426089339 0 -0.38918144997208731 0.39150426953576961 0 -0.39980026584449663 0.37759790182387182 0 -0.38291935042628078 0.37299561889974409 0 -0.38918144997208731 0.39150426953576961 0 -0.39980026584449663 0.37759790182387182 0 -0.39672247382245063 0.40003963484922689 0 -0.41714400140127789 0.37990899472704948 0 -0.39980026584449663 0.37759790182387182 0 -0.39672247382245063 0.40003963484922689 0 -0.41011039063937738 0.3980187550439328 0 -0.40698822879609953 0.41165900784915038 0 -0.39672247382245063 0.40003963484922689 0 -0.40698822879609953 0.41165900784915038 0 -0.39672247382245063 0.40003963484922689 0 -0.38679420773953349 0.40092113630208692 0 -0.38918144997208731 0.39150426953576961 0 -0.39672247382245063 0.40003963484922689 0 -0.38918144997208731 0.39150426953576961 0 -0.39672247382245063 0.40003963484922689 0 -0.38490491667756072 0.35690605861696312 0 -0.3973455439443096 0.34138612771474403 0 -0.40665122753379301 0.35954356754638478 0 -0.39980026584449663 0.37759790182387182 0 -0.38490491667756072 0.35690605861696312 0 -0.40665122753379301 0.35954356754638478 0 -0.39980026584449663 0.37759790182387182 0 -0.38291935042628078 0.37299561889974409 0 -0.38490491667756072 0.35690605861696312 0 -0.38291935042628078 0.37299561889974409 0 -0.37695531163432172 0.36344163853771733 0 -0.38490491667756072 0.35690605861696312 0 -0.38291935042628078 0.37299561889974409 0 -0.37695531163432172 0.36344163853771733 0 -0.36841413419743602 0.36886247267623928 0 -0.37695531163432172 0.36344163853771733 0 -0.38490491667756072 0.35690605861696312 0 -0.36985304539504033 0.35697347243616012 0 -0.38490491667756072 0.35690605861696312 0 -0.37600153790046992 0.33856611455287222 0 -0.3973455439443096 0.34138612771474403 0 -0.38490491667756072 0.35690605861696312 0 -0.37600153790046992 0.33856611455287222 0 -0.36902635102756842 0.34740155714343701 0 -0.37600153790046992 0.33856611455287222 0 -0.3973455439443096 0.34138612771474403 0 -0.37600153790046992 0.33856611455287222 0 -0.38811173404745408 0.32990489815133489 0 -0.3973455439443096 0.34138612771474403 0 -0.37600153790046992 0.33856611455287222 0 -0.38811173404745408 0.32990489815133489 0 -0.37934864065580282 0.32696515794957332 0 -0.37934864065580282 0.32696515794957332 0 -0.3863838018062758 0.31481291074979939 0 -0.36726733204387851 0.32439139499574871 0 -0.3863838018062758 0.31481291074979939 0 -0.36726733204387851 0.32439139499574871 0 -0.37406976088246752 0.31487651660629618 0 -0.3863838018062758 0.31481291074979939 0 -0.36726733204387851 0.32439139499574871 0 -0.3863838018062758 0.31481291074979939 0 -0.38449534383174649 0.31369725763295508 0 -0.37406976088246752 0.31487651660629618 0 -0.38811173404745408 0.32990489815133489 0 -0.37934864065580282 0.32696515794957332 0 -0.3863838018062758 0.31481291074979939 0 -0.3863838018062758 0.31481291074979939 0 -0.38449534383174649 0.31369725763295508 0 -0.3863838018062758 0.31481291074979939 0 -0.4067931204701527 0.32687021903367758 0 -0.3863838018062758 0.31481291074979939 0 -0.4067931204701527 0.32687021903367758 0 -0.40243210891479009 0.30677175782126959 0 -0.3863838018062758 0.31481291074979939 0 -0.40301981805020848 0.32956679858067139 0 -0.38811173404745408 0.32990489815133489 0 -0.3863838018062758 0.31481291074979939 0 -0.40301981805020848 0.32956679858067139 0 -0.3863838018062758 0.31481291074979939 0 -0.40301981805020848 0.32956679858067139 0 -0.4067931204701527 0.32687021903367758 0 -0.38811173404745408 0.32990489815133489 0 -0.3973455439443096 0.34138612771474403 0 -0.40301981805020848 0.32956679858067139 0 -0.4067931204701527 0.32687021903367758 0 -0.42720243913402922 0.33892752731755599 0 -0.4200256774690081 0.34413537306300529 0 -0.4067931204701527 0.32687021903367758 0 -0.42720243913402922 0.33892752731755599 0 -0.40301981805020848 0.32956679858067139 0 -0.4067931204701527 0.32687021903367758 0 -0.4200256774690081 0.34413537306300529 0 -0.4067931204701527 0.32687021903367758 0 -0.42720243913402922 0.33892752731755599 0 -0.42540086516824738 0.33530270999340178 0 -0.3973455439443096 0.34138612771474403 0 -0.40301981805020848 0.32956679858067139 0 -0.4200256774690081 0.34413537306300529 0 -0.40301981805020848 0.32956679858067139 0 -0.4200256774690081 0.34413537306300529 0 -0.4067931204701527 0.32687021903367758 0 -0.42013924568838112 0.32098507972290968 0 -0.42540086516824738 0.33530270999340178 0 -0.4067931204701527 0.32687021903367758 0 -0.42013924568838112 0.32098507972290968 0 -0.40243210891479009 0.30677175782126959 0 -0.42013924568838112 0.32098507972290968 0 -0.40243210891479009 0.30677175782126959 0 -0.42013924568838112 0.32098507972290968 0 -0.43708409751294119 0.32018916208201831 0 -0.43784638246197272 0.33519840162454889 0 -0.42013924568838112 0.32098507972290968 0 -0.43708409751294119 0.32018916208201831 0 -0.42773272325970318 0.30940922817445132 0 -0.42013924568838112 0.32098507972290968 0 -0.43784638246197272 0.33519840162454889 0 -0.42013924568838112 0.32098507972290968 0 -0.42540086516824738 0.33530270999340178 0 -0.43784638246197272 0.33519840162454889 0 -0.42720243913402922 0.33892752731755599 0 -0.42540086516824738 0.33530270999340178 0 -0.42720243913402922 0.33892752731755599 0 -0.42540086516824738 0.33530270999340178 0 -0.43784638246197272 0.33519840162454889 0 -0.42720243913402922 0.33892752731755599 0 -0.44155538660213273 0.34740688497056238 0 -0.42720243913402922 0.33892752731755599 0 -0.44155538660213273 0.34740688497056238 0 -0.43784638246197272 0.33519840162454889 0 -0.42720243913402922 0.33892752731755599 0 -0.4200256774690081 0.34413537306300529 0 -0.43790038296174738 0.35944827033610632 0 -0.42720243913402922 0.33892752731755599 0 -0.43790038296174738 0.35944827033610632 0 -0.42720243913402922 0.33892752731755599 0 -0.43790038296174738 0.35944827033610632 0 -0.44155538660213273 0.34740688497056238 0 -0.4200256774690081 0.34413537306300529 0 -0.43790038296174738 0.35944827033610632 0 -0.4200256774690081 0.34413537306300529 0 -0.42368359445439829 0.36041404749733019 0 -0.43790038296174738 0.35944827033610632 0 -0.3973455439443096 0.34138612771474403 0 -0.4200256774690081 0.34413537306300529 0 -0.40665122753379301 0.35954356754638478 0 -0.4200256774690081 0.34413537306300529 0 -0.40665122753379301 0.35954356754638478 0 -0.42368359445439829 0.36041404749733019 0 -0.41714400140127789 0.37990899472704948 0 -0.39980026584449663 0.37759790182387182 0 -0.40665122753379301 0.35954356754638478 0 -0.41714400140127789 0.37990899472704948 0 -0.40665122753379301 0.35954356754638478 0 -0.42368359445439829 0.36041404749733019 0 -0.41714400140127789 0.37990899472704948 0 -0.43790038296174738 0.35944827033610632 0 -0.43665879080888881 0.37900553486773292 0 -0.42191973330561072 0.37765638465153778 0 -0.43790038296174738 0.35944827033610632 0 -0.41714400140127789 0.37990899472704948 0 -0.42368359445439829 0.36041404749733019 0 -0.43790038296174738 0.35944827033610632 0 -0.42191973330561072 0.37765638465153778 0 -0.41714400140127789 0.37990899472704948 0 -0.43790038296174738 0.35944827033610632 0 -0.4492110906738237 0.38320955120225392 0 -0.43790038296174738 0.35944827033610632 0 -0.4492110906738237 0.38320955120225392 0 -0.43665879080888881 0.37900553486773292 0 -0.43790038296174738 0.35944827033610632 0 -0.45860025530783588 0.37718143069113669 0 -0.43790038296174738 0.35944827033610632 0 -0.45860025530783588 0.37718143069113669 0 -0.4492110906738237 0.38320955120225392 0 -0.43790038296174738 0.35944827033610632 0 -0.45860025530783588 0.37718143069113669 0 -0.43790038296174738 0.35944827033610632 0 -0.45560281789647711 0.35962327781199499 0 -0.43790038296174738 0.35944827033610632 0 -0.45560281789647711 0.35962327781199499 0 -0.45414579988229858 0.34343425569395969 0 -0.43790038296174738 0.35944827033610632 0 -0.45414579988229858 0.34343425569395969 0 -0.43790038296174738 0.35944827033610632 0 -0.44155538660213273 0.34740688497056238 0 -0.45414579988229858 0.34343425569395969 0 -0.4626096701827983 0.3513224768656445 0 -0.46990853527216381 0.34338943032325592 0 -0.45414579988229858 0.34343425569395969 0 -0.4626096701827983 0.3513224768656445 0 -0.45560281789647711 0.35962327781199499 0 -0.45414579988229858 0.34343425569395969 0 -0.4626096701827983 0.3513224768656445 0 -0.45560281789647711 0.35962327781199499 0 -0.47078152768025389 0.35884294363336738 0 -0.4626096701827983 0.3513224768656445 0 -0.47078152768025389 0.35884294363336738 0 -0.46990853527216381 0.34338943032325592 0 -0.45860025530783588 0.37718143069113669 0 -0.45560281789647711 0.35962327781199499 0 -0.47078152768025389 0.35884294363336738 0 -0.45860025530783588 0.37718143069113669 0 -0.4820242442145537 0.37448340686729348 0 -0.47078152768025389 0.35884294363336738 0 -0.4820242442145537 0.37448340686729348 0 -0.47078152768025389 0.35884294363336738 0 -0.48452727950191049 0.35411706808178672 0 -0.47078152768025389 0.35884294363336738 0 -0.48452727950191049 0.35411706808178672 0 -0.46990853527216381 0.34338943032325592 0 -0.48452727950191049 0.35411706808178672 0 -0.48234016987972611 0.33598944535793618 0 -0.46990853527216381 0.34338943032325592 0 -0.50000000000000444 0.35022627778162557 0 -0.48452727950191049 0.35411706808178672 0 -0.5 0.37103343565481972 0 -0.50000000000000444 0.35022627778162557 0 -0.48452727950191049 0.35411706808178672 0 -0.48234016987972611 0.33598944535793618 0 -0.4820242442145537 0.37448340686729348 0 -0.48452727950191049 0.35411706808178672 0 -0.5 0.37103343565481972 0 -0.49999999999999711 0.32301660666997423 0 -0.47989106490637351 0.30245717354386309 0 -0.49999999999999711 0.32301660666997423 0 -0.48234016987972611 0.33598944535793618 0 -0.4817278936363863 0.32080395962650549 0 -0.49999999999999711 0.32301660666997423 0 -0.4817278936363863 0.32080395962650549 0 -0.47989106490637351 0.30245717354386309 0 -0.50000000000000444 0.35022627778162557 0 -0.48234016987972611 0.33598944535793618 0 -0.50000000000000444 0.35022627778162557 0 -0.49999999999999711 0.32301660666997423 0 -0.48234016987972611 0.33598944535793618 0 -0.48234016987972611 0.33598944535793618 0 -0.46990853527216381 0.34338943032325592 0 -0.47039121680284962 0.32742024105181278 0 -0.48234016987972611 0.33598944535793618 0 -0.46468033975944578 0.32175261293424889 0 -0.48234016987972611 0.33598944535793618 0 -0.47039121680284962 0.32742024105181278 0 -0.46468033975944578 0.32175261293424889 0 -0.48234016987972611 0.33598944535793618 0 -0.4817278936363863 0.32080395962650549 0 -0.46468033975944578 0.32175261293424889 0 -0.4817278936363863 0.32080395962650549 0 -0.46468033975944578 0.32175261293424889 0 -0.47989106490637351 0.30245717354386309 0 -0.47039121680284962 0.32742024105181278 0 -0.46468033975944578 0.32175261293424889 0 -0.45136813900330658 0.32868461405330679 0 -0.46468033975944578 0.32175261293424889 0 -0.44702050963916568 0.30751578051056161 0 -0.46468033975944578 0.32175261293424889 0 -0.45136813900330658 0.32868461405330679 0 -0.44702050963916568 0.30751578051056161 0 -0.47039121680284962 0.32742024105181278 0 -0.45414579988229858 0.34343425569395969 0 -0.45136813900330658 0.32868461405330679 0 -0.46990853527216381 0.34338943032325592 0 -0.47039121680284962 0.32742024105181278 0 -0.45414579988229858 0.34343425569395969 0 -0.47039121680284962 0.32742024105181278 0 -0.45414579988229858 0.34343425569395969 0 -0.45414579988229858 0.34343425569395969 0 -0.44710382282413008 0.33712403865103041 0 -0.45136813900330658 0.32868461405330679 0 -0.44155538660213273 0.34740688497056238 0 -0.45414579988229858 0.34343425569395969 0 -0.44710382282413008 0.33712403865103041 0 -0.44710382282413008 0.33712403865103041 0 -0.45136813900330658 0.32868461405330679 0 -0.43784638246197272 0.33519840162454889 0 -0.44155538660213273 0.34740688497056238 0 -0.44710382282413008 0.33712403865103041 0 -0.43784638246197272 0.33519840162454889 0 -0.43708409751294119 0.32018916208201831 0 -0.45136813900330658 0.32868461405330679 0 -0.44702050963916568 0.30751578051056161 0 -0.43708409751294119 0.32018916208201831 0 -0.45136813900330658 0.32868461405330679 0 -0.43784638246197272 0.33519840162454889 0 -0.44702050963916568 0.30751578051056161 0 -0.42936067951888612 0.2932789480868736 0 -0.44702050963916568 0.30751578051056161 0 -0.44790085547064729 0.28398922119281977 0 -0.45985497991767682 0.2995225057198489 0 -0.44790085547064729 0.28398922119281977 0 -0.42936067951888612 0.2932789480868736 0 -0.44702050963916568 0.30751578051056161 0 -0.44790085547064729 0.28398922119281977 0 -0.42936067951888612 0.2932789480868736 0 -0.44790085547064729 0.28398922119281977 0 -0.45978212981275141 0.28189774041775079 0 -0.45985497991767682 0.2995225057198489 0 -0.45978212981275141 0.28189774041775079 0 -0.45985497991767682 0.2995225057198489 0 -0.47989106490637351 0.30245717354386309 0 -0.46468033975944578 0.32175261293424889 0 -0.45985497991767682 0.2995225057198489 0 -0.47989106490637351 0.30245717354386309 0 -0.46468033975944578 0.32175261293424889 0 -0.44702050963916568 0.30751578051056161 0 -0.45985497991767682 0.2995225057198489 0 -0.45978212981275141 0.28189774041775079 0 -0.47989106490637351 0.30245717354386309 0 -0.45978212981275141 0.28189774041775079 0 -0.47989106490637351 0.30245717354386309 0 -0.48479457606323562 0.28699048108605929 0 -0.5 0.28132849555507777 0 -0.48479457606323562 0.28699048108605929 0 -0.5 0.302172551112526 0 -0.47989106490637351 0.30245717354386309 0 -0.48479457606323562 0.28699048108605929 0 -0.5 0.302172551112526 0 -0.49999999999999711 0.32301660666997423 0 -0.47989106490637351 0.30245717354386309 0 -0.5 0.302172551112526 0 -0.49999999999999573 0.2604844399976296 0 -0.47718539364661477 0.25142720972220611 0 -0.49999999999999573 0.2604844399976296 0 -0.48026141654621379 0.2706480830516747 0 -0.47718539364661477 0.25142720972220611 0 -0.5 0.28132849555507777 0 -0.49999999999999573 0.2604844399976296 0 -0.48026141654621379 0.2706480830516747 0 -0.5 0.28132849555507777 0 -0.48479457606323562 0.28699048108605929 0 -0.48026141654621379 0.2706480830516747 0 -0.45978212981275141 0.28189774041775079 0 -0.48479457606323562 0.28699048108605929 0 -0.48026141654621379 0.2706480830516747 0 -0.48026141654621379 0.2706480830516747 0 -0.47718539364661477 0.25142720972220611 0 -0.46225458440358869 0.26153626398601032 0 -0.45437078729323399 0.24236997944678271 0 -0.47718539364661477 0.25142720972220611 0 -0.46225458440358869 0.26153626398601032 0 -0.45978212981275141 0.28189774041775079 0 -0.46225458440358869 0.26153626398601032 0 -0.43967319471912858 0.2613383072916392 0 -0.45978212981275141 0.28189774041775079 0 -0.48026141654621379 0.2706480830516747 0 -0.46225458440358869 0.26153626398601032 0 -0.45978212981275141 0.28189774041775079 0 -0.44228911649314467 0.27660346955078507 0 -0.43967319471912858 0.2613383072916392 0 -0.44790085547064729 0.28398922119281977 0 -0.45978212981275141 0.28189774041775079 0 -0.44228911649314467 0.27660346955078507 0 -0.45978212981275141 0.28189774041775079 0 -0.43967319471912858 0.2613383072916392 0 -0.44790085547064729 0.28398922119281977 0 -0.44228911649314467 0.27660346955078507 0 -0.43401544386311253 0.28206524896035118 0 -0.45437078729323399 0.24236997944678271 0 -0.43967319471912858 0.2613383072916392 0 -0.45437078729323399 0.24236997944678271 0 -0.46225458440358869 0.26153626398601032 0 -0.43967319471912858 0.2613383072916392 0 -0.41984368032676922 0.24106455469484819 0 -0.43967319471912858 0.2613383072916392 0 -0.41759493836436429 0.26120546953705831 0 -0.43967319471912858 0.2613383072916392 0 -0.41759493836436429 0.26120546953705831 0 -0.43007395860008307 0.27372682989136521 0 -0.41984368032676922 0.24106455469484819 0 -0.43967319471912858 0.2613383072916392 0 -0.41984368032676922 0.24106455469484819 0 -0.41759493836436429 0.26120546953705831 0 -0.40318624257749158 0.25140104498405802 0 -0.41759493836436429 0.26120546953705831 0 -0.40318624257749158 0.25140104498405802 0 -0.40515167879147262 0.27376236813374671 0 -0.4204747224810495 0.28611535249110048 0 -0.40515167879147262 0.27376236813374671 0 -0.41759493836436429 0.26120546953705831 0 -0.41832382455924239 0.27370250501331761 0 -0.40515167879147262 0.27376236813374671 0 -0.41832382455924239 0.27370250501331761 0 -0.4204747224810495 0.28611535249110048 0 -0.40515167879147262 0.27376236813374671 0 -0.43007395860008307 0.27372682989136521 0 -0.4204747224810495 0.28611535249110048 0 -0.41832382455924239 0.27370250501331761 0 -0.43007395860008307 0.27372682989136521 0 -0.4204747224810495 0.28611535249110048 0 -0.43007395860008307 0.27372682989136521 0 -0.43401544386311253 0.28206524896035118 0 -0.4204747224810495 0.28611535249110048 0 -0.41759493836436429 0.26120546953705831 0 -0.41832382455924239 0.27370250501331761 0 -0.43007395860008307 0.27372682989136521 0 -0.44228911649314467 0.27660346955078507 0 -0.43967319471912858 0.2613383072916392 0 -0.43007395860008307 0.27372682989136521 0 -0.43967319471912858 0.2613383072916392 0 -0.43007395860008307 0.27372682989136521 0 -0.44228911649314467 0.27660346955078507 0 -0.43007395860008307 0.27372682989136521 0 -0.43401544386311253 0.28206524896035118 0 -0.44790085547064729 0.28398922119281977 0 -0.43401544386311253 0.28206524896035118 0 -0.42936067951888612 0.2932789480868736 0 -0.42936067951888612 0.2932789480868736 0 -0.4204747224810495 0.28611535249110048 0 -0.43401544386311253 0.28206524896035118 0 -0.42936067951888612 0.2932789480868736 0 -0.4204747224810495 0.28611535249110048 0 -0.43708409751294119 0.32018916208201831 0 -0.44702050963916568 0.30751578051056161 0 -0.42773272325970318 0.30940922817445132 0 -0.44702050963916568 0.30751578051056161 0 -0.42936067951888612 0.2932789480868736 0 -0.42773272325970318 0.30940922817445132 0 -0.42936067951888612 0.2932789480868736 0 -0.40243210891479009 0.30677175782126959 0 -0.42936067951888612 0.2932789480868736 0 -0.40991568930742073 0.29974256401923621 0 -0.40243210891479009 0.30677175782126959 0 -0.42013924568838112 0.32098507972290968 0 -0.42773272325970318 0.30940922817445132 0 -0.40243210891479009 0.30677175782126959 0 -0.42936067951888612 0.2932789480868736 0 -0.42773272325970318 0.30940922817445132 0 -0.40243210891479009 0.30677175782126959 0 -0.42936067951888612 0.2932789480868736 0 -0.40991568930742073 0.29974256401923621 0 -0.4204747224810495 0.28611535249110048 0 -0.40991568930742073 0.29974256401923621 0 -0.4204747224810495 0.28611535249110048 0 -0.40991568930742073 0.29974256401923621 0 -0.4204747224810495 0.28611535249110048 0 -0.40620235032179891 0.28733469521940619 0 -0.4204747224810495 0.28611535249110048 0 -0.40620235032179891 0.28733469521940619 0 -0.40515167879147262 0.27376236813374671 0 -0.40620235032179891 0.28733469521940619 0 -0.39617859150802592 0.28345208664931959 0 -0.40515167879147262 0.27376236813374671 0 -0.40620235032179891 0.28733469521940619 0 -0.40079827235341481 0.2947003721026123 0 -0.39617859150802592 0.28345208664931959 0 -0.40991568930742073 0.29974256401923621 0 -0.40620235032179891 0.28733469521940619 0 -0.40079827235341481 0.2947003721026123 0 -0.40079827235341481 0.2947003721026123 0 -0.39617859150802592 0.28345208664931959 0 -0.38926262171503961 0.29620075680383212 0 -0.3863838018062758 0.31481291074979939 0 -0.40243210891479009 0.30677175782126959 0 -0.38925273496798363 0.30769150684441482 0 -0.3863838018062758 0.31481291074979939 0 -0.40243210891479009 0.30677175782126959 0 -0.40991568930742073 0.29974256401923621 0 -0.40079827235341481 0.2947003721026123 0 -0.40243210891479009 0.30677175782126959 0 -0.40243210891479009 0.30677175782126959 0 -0.38926262171503961 0.29620075680383212 0 -0.40243210891479009 0.30677175782126959 0 -0.38925273496798363 0.30769150684441482 0 -0.38926262171503961 0.29620075680383212 0 -0.40079827235341481 0.2947003721026123 0 -0.40243210891479009 0.30677175782126959 0 -0.38926262171503961 0.29620075680383212 0 -0.38449534383174649 0.31369725763295508 0 -0.36664146643107381 0.29840220336344769 0 -0.38449534383174649 0.31369725763295508 0 -0.37847340168646981 0.30265873551188061 0 -0.36664146643107381 0.29840220336344769 0 -0.38449534383174649 0.31369725763295508 0 -0.38925273496798363 0.30769150684441482 0 -0.38430249061953209 0.30627777139791151 0 -0.3863838018062758 0.31481291074979939 0 -0.38449534383174649 0.31369725763295508 0 -0.38925273496798363 0.30769150684441482 0 -0.38430249061953209 0.30627777139791151 0 -0.37847340168646981 0.30265873551188061 0 -0.38926262171503961 0.29620075680383212 0 -0.38925273496798363 0.30769150684441482 0 -0.38430249061953209 0.30627777139791151 0 -0.38926262171503961 0.29620075680383212 0 -0.37847340168646981 0.30265873551188061 0 -0.38926262171503961 0.29620075680383212 0 -0.3747262976341364 0.29450165243203158 0 -0.38449534383174649 0.31369725763295508 0 -0.38430249061953209 0.30627777139791151 0 -0.37847340168646981 0.30265873551188061 0 -0.38449534383174649 0.31369725763295508 0 -0.36980820407800152 0.30502046764619622 0 -0.38449534383174649 0.31369725763295508 0 -0.36980820407800152 0.30502046764619622 0 -0.37406976088246752 0.31487651660629618 0 -0.39617859150802592 0.28345208664931959 0 -0.38926262171503961 0.29620075680383212 0 -0.38509345832221648 0.27855329381336791 0 -0.38926262171503961 0.29620075680383212 0 -0.37609313451528981 0.28562975578639349 0 -0.38509345832221648 0.27855329381336791 0 -0.38926262171503961 0.29620075680383212 0 -0.37609313451528981 0.28562975578639349 0 -0.3747262976341364 0.29450165243203158 0 -0.38926262171503961 0.29620075680383212 0 -0.37609313451528981 0.28562975578639349 0 -0.37609313451528981 0.28562975578639349 0 -0.38509345832221648 0.27855329381336791 0 -0.37487726731349291 0.26893530770647561 0 -0.3833500282293687 0.26715318761585638 0 -0.38982863510189192 0.26140938377639761 0 -0.39159356277106289 0.269800406498926 0 -0.38509345832221648 0.27855329381336791 0 -0.3833500282293687 0.26715318761585638 0 -0.39159356277106289 0.269800406498926 0 -0.38509345832221648 0.27855329381336791 0 -0.3833500282293687 0.26715318761585638 0 -0.37487726731349291 0.26893530770647561 0 -0.37102133932541642 0.24624749849840419 0 -0.3833500282293687 0.26715318761585638 0 -0.38982863510189192 0.26140938377639761 0 -0.38668427731165073 0.24646011524464351 0 -0.37102133932541642 0.24624749849840419 0 -0.38982863510189192 0.26140938377639761 0 -0.37102133932541642 0.24624749849840419 0 -0.3833500282293687 0.26715318761585638 0 -0.37487726731349291 0.26893530770647561 0 -0.37102133932541642 0.24624749849840419 0 -0.38982863510189192 0.26140938377639761 0 -0.38668427731165073 0.24646011524464351 0 -0.38982863510189192 0.26140938377639761 0 -0.38982863510189192 0.26140938377639761 0 -0.40318624257749158 0.25140104498405802 0 -0.40515167879147262 0.27376236813374671 0 -0.38982863510189192 0.26140938377639761 0 -0.39159356277106289 0.269800406498926 0 -0.38668427731165073 0.24646011524464351 0 -0.38982863510189192 0.26140938377639761 0 -0.40318624257749158 0.25140104498405802 0 -0.39617859150802592 0.28345208664931959 0 -0.38509345832221648 0.27855329381336791 0 -0.39159356277106289 0.269800406498926 0 -0.39617859150802592 0.28345208664931959 0 -0.40515167879147262 0.27376236813374671 0 -0.39159356277106289 0.269800406498926 0 -0.38982863510189192 0.26140938377639761 0 -0.40515167879147262 0.27376236813374671 0 -0.38982863510189192 0.26140938377639761 0 -0.40515167879147262 0.27376236813374671 0 -0.39159356277106289 0.269800406498926 0 -0.35251143260307238 0.26803703418686331 0 -0.34878758903040119 0.28310714909394002 0 -0.3340015258807284 0.2898265698753224 0 -0.36370394777819759 0.27314554759917498 0 -0.36235029588113871 0.28534335602303668 0 -0.34878758903040119 0.28310714909394002 0 -0.35251143260307238 0.26803703418686331 0 -0.36370394777819759 0.27314554759917498 0 -0.34878758903040119 0.28310714909394002 0 -0.37102133932541642 0.24624749849840419 0 -0.34218203211383003 0.24969530508137319 0 -0.35251143260307238 0.26803703418686331 0 -0.37102133932541642 0.24624749849840419 0 -0.35251143260307238 0.26803703418686331 0 -0.37102133932541642 0.24624749849840419 0 -0.35251143260307238 0.26803703418686331 0 -0.36370394777819759 0.27314554759917498 0 -0.37102133932541642 0.24624749849840419 0 -0.37487726731349291 0.26893530770647561 0 -0.36370394777819759 0.27314554759917498 0 -0.37609313451528981 0.28562975578639349 0 -0.37487726731349291 0.26893530770647561 0 -0.36370394777819759 0.27314554759917498 0 -0.37609313451528981 0.28562975578639349 0 -0.3747262976341364 0.29450165243203158 0 -0.36235029588113871 0.28534335602303668 0 -0.37609313451528981 0.28562975578639349 0 -0.36370394777819759 0.27314554759917498 0 -0.36235029588113871 0.28534335602303668 0 -0.3747262976341364 0.29450165243203158 0 -0.36235029588113871 0.28534335602303668 0 -0.36664146643107381 0.29840220336344769 0 -0.38449534383174649 0.31369725763295508 0 -0.36980820407800152 0.30502046764619622 0 -0.36664146643107381 0.29840220336344769 0 -0.36980820407800152 0.30502046764619622 0 -0.36685557735733498 0.31197196086717432 0 -0.37406976088246752 0.31487651660629618 0 -0.37847340168646981 0.30265873551188061 0 -0.3747262976341364 0.29450165243203158 0 -0.36664146643107381 0.29840220336344769 0 -0.36980820407800152 0.30502046764619622 0 -0.36017911299685001 0.30654617880224683 0 -0.35512106432425627 0.29634367765943748 0 -0.36980820407800152 0.30502046764619622 0 -0.35512106432425627 0.29634367765943748 0 -0.36980820407800152 0.30502046764619622 0 -0.36664146643107381 0.29840220336344769 0 -0.35512106432425627 0.29634367765943748 0 -0.36980820407800152 0.30502046764619622 0 -0.36017911299685001 0.30654617880224683 0 -0.36685557735733498 0.31197196086717432 0 -0.36017911299685001 0.30654617880224683 0 -0.36685557735733498 0.31197196086717432 0 -0.35951062720028087 0.31373064496140179 0 -0.36017911299685001 0.30654617880224683 0 -0.34987919167519133 0.30659530863122458 0 -0.35951062720028087 0.31373064496140179 0 -0.36017911299685001 0.30654617880224683 0 -0.34987919167519133 0.30659530863122458 0 -0.35512106432425627 0.29634367765943748 0 -0.34987919167519133 0.30659530863122458 0 -0.35512106432425627 0.29634367765943748 0 -0.3446352933987108 0.29651570846768338 0 -0.34987919167519133 0.30659530863122458 0 -0.3446352933987108 0.29651570846768338 0 -0.33725640904880932 0.307988856090054 0 -0.36664146643107381 0.29840220336344769 0 -0.34878758903040119 0.28310714909394002 0 -0.36235029588113871 0.28534335602303668 0 -0.36664146643107381 0.29840220336344769 0 -0.34878758903040119 0.28310714909394002 0 -0.36664146643107381 0.29840220336344769 0 -0.35512106432425627 0.29634367765943748 0 -0.34878758903040119 0.28310714909394002 0 -0.35512106432425627 0.29634367765943748 0 -0.3446352933987108 0.29651570846768338 0 -0.34878758903040119 0.28310714909394002 0 -0.3446352933987108 0.29651570846768338 0 -0.34878758903040119 0.28310714909394002 0 -0.3340015258807284 0.2898265698753224 0 -0.3446352933987108 0.29651570846768338 0 -0.3340015258807284 0.2898265698753224 0 -0.33725640904880932 0.307988856090054 0 -0.3340015258807284 0.2898265698753224 0 -0.33725640904880932 0.307988856090054 0 -0.31549161915838442 0.3116161055637815 0 -0.34987919167519133 0.30659530863122458 0 -0.33725640904880932 0.307988856090054 0 -0.34350729956515702 0.3190882953123047 0 -0.3340015258807284 0.2898265698753224 0 -0.31549161915838442 0.3116161055637815 0 -0.3340015258807284 0.2898265698753224 0 -0.31549161915838442 0.3116161055637815 0 -0.31282305566356899 0.29425111592644698 0 -0.3340015258807284 0.2898265698753224 0 -0.31282305566356899 0.29425111592644698 0 -0.3208776176159408 0.28034059641294601 0 -0.31282305566356899 0.29425111592644698 0 -0.3208776176159408 0.28034059641294601 0 -0.30623762002181831 0.28109761969070851 0 -0.31675184592199379 0.26649280120069369 0 -0.3208776176159408 0.28034059641294601 0 -0.30623762002181831 0.28109761969070851 0 -0.31675184592199379 0.26649280120069369 0 -0.3208776176159408 0.28034059641294601 0 -0.33227269326121228 0.26814094181069809 0 -0.3340015258807284 0.2898265698753224 0 -0.3208776176159408 0.28034059641294601 0 -0.33227269326121228 0.26814094181069809 0 -0.35251143260307238 0.26803703418686331 0 -0.3340015258807284 0.2898265698753224 0 -0.35251143260307238 0.26803703418686331 0 -0.3340015258807284 0.2898265698753224 0 -0.33227269326121228 0.26814094181069809 0 -0.34218203211383003 0.24969530508137319 0 -0.35251143260307238 0.26803703418686331 0 -0.33227269326121228 0.26814094181069809 0 -0.34218203211383003 0.24969530508137319 0 -0.33227269326121228 0.26814094181069809 0 -0.32718323085999013 0.25286507485387549 0 -0.31675184592199379 0.26649280120069369 0 -0.33227269326121228 0.26814094181069809 0 -0.32718323085999013 0.25286507485387549 0 -0.31675184592199379 0.26649280120069369 0 -0.32718323085999013 0.25286507485387549 0 -0.31237949306787027 0.2511543050774091 0 -0.29406882567944492 0.24808579016521951 0 -0.31237949306787027 0.2511543050774091 0 -0.30156042070513078 0.26535826935852502 0 -0.31675184592199379 0.26649280120069369 0 -0.31237949306787027 0.2511543050774091 0 -0.30156042070513078 0.26535826935852502 0 -0.31675184592199379 0.26649280120069369 0 -0.30156042070513078 0.26535826935852502 0 -0.30623762002181831 0.28109761969070851 0 -0.30156042070513078 0.26535826935852502 0 -0.30623762002181831 0.28109761969070851 0 -0.29042532091793971 0.27856611991701502 0 -0.30156042070513078 0.26535826935852502 0 -0.29042532091793971 0.27856611991701502 0 -0.2863190905078023 0.26427717422018632 0 -0.29042532091793971 0.27856611991701502 0 -0.2863190905078023 0.26427717422018632 0 -0.27490272379756631 0.27435639096625819 0 -0.29406882567944492 0.24808579016521951 0 -0.2863190905078023 0.26427717422018632 0 -0.27438734738757331 0.25539565657640151 0 -0.29406882567944492 0.24808579016521951 0 -0.30156042070513078 0.26535826935852502 0 -0.2863190905078023 0.26427717422018632 0 -0.2863190905078023 0.26427717422018632 0 -0.27438734738757331 0.25539565657640151 0 -0.27490272379756631 0.27435639096625819 0 -0.27438734738757331 0.25539565657640151 0 -0.27490272379756631 0.27435639096625819 0 -0.25992987173167259 0.27024378052177628 0 -0.27490272379756631 0.27435639096625819 0 -0.25992987173167259 0.27024378052177628 0 -0.2644193132904995 0.28370672988866968 0 -0.25992987173167259 0.27024378052177628 0 -0.2497019672081322 0.28301844179522329 0 -0.2429518053774273 0.26707266061814627 0 -0.25992987173167259 0.27024378052177628 0 -0.2644193132904995 0.28370672988866968 0 -0.2497019672081322 0.28301844179522329 0 -0.26741474898719458 0.24132224523012019 0 -0.27438734738757331 0.25539565657640151 0 -0.25499370846812258 0.25382717309031783 0 -0.27438734738757331 0.25539565657640151 0 -0.25992987173167259 0.27024378052177628 0 -0.25499370846812258 0.25382717309031783 0 -0.25992987173167259 0.27024378052177628 0 -0.25499370846812258 0.25382717309031783 0 -0.2429518053774273 0.26707266061814627 0 -0.26020144662002492 0.29806372512065299 0 -0.25082215645828948 0.30725659750656648 0 -0.26521594109948482 0.31623046416797351 0 -0.26020144662002492 0.29806372512065299 0 -0.2644193132904995 0.28370672988866968 0 -0.2497019672081322 0.28301844179522329 0 -0.26020144662002492 0.29806372512065299 0 -0.2644193132904995 0.28370672988866968 0 -0.27740906279776067 0.29103666627902081 0 -0.27490272379756631 0.27435639096625819 0 -0.2644193132904995 0.28370672988866968 0 -0.27740906279776067 0.29103666627902081 0 -0.29042532091793971 0.27856611991701502 0 -0.27490272379756631 0.27435639096625819 0 -0.27740906279776067 0.29103666627902081 0 -0.26020144662002492 0.29806372512065299 0 -0.27823142354435049 0.30673225203414289 0 -0.26521594109948482 0.31623046416797351 0 -0.26020144662002492 0.29806372512065299 0 -0.27740906279776067 0.29103666627902081 0 -0.27823142354435049 0.30673225203414289 0 -0.27740906279776067 0.29103666627902081 0 -0.27823142354435049 0.30673225203414289 0 -0.29562187525892353 0.29578125461450178 0 -0.27823142354435049 0.30673225203414289 0 -0.29562187525892353 0.29578125461450178 0 -0.29245992986284503 0.31418361032420539 0 -0.29042532091793971 0.27856611991701502 0 -0.27740906279776067 0.29103666627902081 0 -0.29562187525892353 0.29578125461450178 0 -0.30623762002181831 0.28109761969070851 0 -0.29042532091793971 0.27856611991701502 0 -0.29562187525892353 0.29578125461450178 0 -0.31282305566356899 0.29425111592644698 0 -0.30623762002181831 0.28109761969070851 0 -0.29562187525892353 0.29578125461450178 0 -0.31549161915838442 0.3116161055637815 0 -0.31282305566356899 0.29425111592644698 0 -0.30363047338892268 0.30736852579649782 0 -0.31282305566356899 0.29425111592644698 0 -0.29562187525892353 0.29578125461450178 0 -0.30363047338892268 0.30736852579649782 0 -0.29562187525892353 0.29578125461450178 0 -0.30363047338892268 0.30736852579649782 0 -0.29245992986284503 0.31418361032420539 0 -0.31549161915838442 0.3116161055637815 0 -0.30363047338892268 0.30736852579649782 0 -0.30900410360489389 0.32971427829790168 0 -0.30900410360489389 0.32971427829790168 0 -0.29245992986284503 0.31418361032420539 0 -0.2903613367575843 0.32726694892948571 0 -0.30363047338892268 0.30736852579649782 0 -0.30900410360489389 0.32971427829790168 0 -0.29245992986284503 0.31418361032420539 0 -0.30900410360489389 0.32971427829790168 0 -0.29439218389858512 0.34019563906556538 0 -0.2903613367575843 0.32726694892948571 0 -0.30900410360489389 0.32971427829790168 0 -0.30739372270134319 0.34419451985642818 0 -0.3173001272913632 0.34267452985038682 0 -0.30900410360489389 0.32971427829790168 0 -0.29439218389858512 0.34019563906556538 0 -0.30739372270134319 0.34419451985642818 0 -0.29439218389858512 0.34019563906556538 0 -0.2903613367575843 0.32726694892948571 0 -0.27651033442219519 0.33302862149431389 0 -0.29439218389858512 0.34019563906556538 0 -0.27651033442219519 0.33302862149431389 0 -0.28334243951230259 0.3449868682262936 0 -0.2903613367575843 0.32726694892948571 0 -0.27944013199940232 0.31921259546544212 0 -0.27651033442219519 0.33302862149431389 0 -0.27823142354435049 0.30673225203414289 0 -0.29245992986284503 0.31418361032420539 0 -0.27944013199940232 0.31921259546544212 0 -0.29245992986284503 0.31418361032420539 0 -0.2903613367575843 0.32726694892948571 0 -0.27944013199940232 0.31921259546544212 0 -0.27944013199940232 0.31921259546544212 0 -0.27651033442219519 0.33302862149431389 0 -0.26521594109948482 0.31623046416797351 0 -0.27823142354435049 0.30673225203414289 0 -0.27944013199940232 0.31921259546544212 0 -0.26521594109948482 0.31623046416797351 0 -0.27651033442219519 0.33302862149431389 0 -0.26067069456868269 0.33180133549005458 0 -0.26521594109948482 0.31623046416797351 0 -0.27651033442219519 0.33302862149431389 0 -0.27061864049115059 0.351370230589096 0 -0.28334243951230259 0.3449868682262936 0 -0.27651033442219519 0.33302862149431389 0 -0.26067069456868269 0.33180133549005458 0 -0.27061864049115059 0.351370230589096 0 -0.26067069456868269 0.33180133549005458 0 -0.27061864049115059 0.351370230589096 0 -0.24938868174502141 0.34738747942199327 0 -0.26067069456868269 0.33180133549005458 0 -0.24938868174502141 0.34738747942199327 0 -0.2451531799809791 0.330223803792838 0 -0.26067069456868269 0.33180133549005458 0 -0.25401802485225888 0.3197267147461782 0 -0.2451531799809791 0.330223803792838 0 -0.25082215645828948 0.30725659750656648 0 -0.25401802485225888 0.3197267147461782 0 -0.26521594109948482 0.31623046416797351 0 -0.25082215645828948 0.30725659750656648 0 -0.25401802485225888 0.3197267147461782 0 -0.24723650295103011 0.31501016826620992 0 -0.26067069456868269 0.33180133549005458 0 -0.25401802485225888 0.3197267147461782 0 -0.26521594109948482 0.31623046416797351 0 -0.25608611531703879 0.36559084292903887 0 -0.26816773020024959 0.37241237148721618 0 -0.26042223072547288 0.38558990368876928 0 -0.25513743600172878 0.37068336237299943 0 -0.25608611531703879 0.36559084292903887 0 -0.24938868174502141 0.34738747942199327 0 -0.25513743600172878 0.37068336237299943 0 -0.25608611531703879 0.36559084292903887 0 -0.26042223072547288 0.38558990368876928 0 -0.25608611531703879 0.36559084292903887 0 -0.26696118377512301 0.36216849765101111 0 -0.26816773020024959 0.37241237148721618 0 -0.27061864049115059 0.351370230589096 0 -0.24938868174502141 0.34738747942199327 0 -0.25608611531703879 0.36559084292903887 0 -0.26696118377512301 0.36216849765101111 0 -0.24938868174502141 0.34738747942199327 0 -0.25513743600172878 0.37068336237299943 0 -0.24938868174502141 0.34738747942199327 0 -0.27061864049115059 0.351370230589096 0 -0.26696118377512301 0.36216849765101111 0 -0.24938868174502141 0.34738747942199327 0 -0.27061864049115059 0.351370230589096 0 -0.29184859923727968 0.35535298175619923 0 -0.27061864049115059 0.351370230589096 0 -0.27939784360223002 0.36429113568460192 0 -0.26696118377512301 0.36216849765101111 0 -0.27061864049115059 0.351370230589096 0 -0.27939784360223002 0.36429113568460192 0 -0.29184859923727968 0.35535298175619923 0 -0.27939784360223002 0.36429113568460192 0 -0.26696118377512301 0.36216849765101111 0 -0.26816773020024959 0.37241237148721618 0 -0.27939784360223002 0.36429113568460192 0 -0.26816773020024959 0.37241237148721618 0 -0.28043391261645428 0.37946787168632901 0 -0.27939784360223002 0.36429113568460192 0 -0.29184859923727968 0.35535298175619923 0 -0.30044559450743491 0.37334583968388541 0 -0.27939784360223002 0.36429113568460192 0 -0.30044559450743491 0.37334583968388541 0 -0.28043391261645428 0.37946787168632901 0 -0.27061864049115059 0.351370230589096 0 -0.28334243951230259 0.3449868682262936 0 -0.29184859923727968 0.35535298175619923 0 -0.29439218389858512 0.34019563906556538 0 -0.28334243951230259 0.3449868682262936 0 -0.29184859923727968 0.35535298175619923 0 -0.29439218389858512 0.34019563906556538 0 -0.29184859923727968 0.35535298175619923 0 -0.3105700751401424 0.35645221454997278 0 -0.29184859923727968 0.35535298175619923 0 -0.3105700751401424 0.35645221454997278 0 -0.31325997337202011 0.35915519561215009 0 -0.29439218389858512 0.34019563906556538 0 -0.3105700751401424 0.35645221454997278 0 -0.29439218389858512 0.34019563906556538 0 -0.3105700751401424 0.35645221454997278 0 -0.30739372270134319 0.34419451985642818 0 -0.29184859923727968 0.35535298175619923 0 -0.31325997337202011 0.35915519561215009 0 -0.3105700751401424 0.35645221454997278 0 -0.31325997337202011 0.35915519561215009 0 -0.3105700751401424 0.35645221454997278 0 -0.30739372270134319 0.34419451985642818 0 -0.31388353019453569 0.34985341089589372 0 -0.30044559450743491 0.37334583968388541 0 -0.32087542327380419 0.36680768469911218 0 -0.29184859923727968 0.35535298175619923 0 -0.30044559450743491 0.37334583968388541 0 -0.31325997337202011 0.35915519561215009 0 -0.30044559450743491 0.37334583968388541 0 -0.32087542327380419 0.36680768469911218 0 -0.31325997337202011 0.35915519561215009 0 -0.30044559450743491 0.37334583968388541 0 -0.32087542327380419 0.36680768469911218 0 -0.31640607848916319 0.37564691192914368 0 -0.32056439436941719 0.36084999907078602 0 -0.32087542327380419 0.36680768469911218 0 -0.31325997337202011 0.35915519561215009 0 -0.32087542327380419 0.36680768469911218 0 -0.31325997337202011 0.35915519561215009 0 -0.32056439436941719 0.36084999907078602 0 -0.32087542327380419 0.36680768469911218 0 -0.32674796638169962 0.37270879003438012 0 -0.32056439436941719 0.36084999907078602 0 -0.32735712554349949 0.36268434494687402 0 -0.32674796638169962 0.37270879003438012 0 -0.32056439436941719 0.36084999907078602 0 -0.32735712554349949 0.36268434494687402 0 -0.32324075254877371 0.35528782925629548 0 -0.32087542327380419 0.36680768469911218 0 -0.32674796638169962 0.37270879003438012 0 -0.31640607848916319 0.37564691192914368 0 -0.32087542327380419 0.36680768469911218 0 -0.32674796638169962 0.37270879003438012 0 -0.32674796638169962 0.37270879003438012 0 -0.33325695529526672 0.36746669880797472 0 -0.33826194868966258 0.37349623452695802 0 -0.33826194868966258 0.37349623452695802 0 -0.34403548547578799 0.36318624740322197 0 -0.3447596177746326 0.38064674330837478 0 -0.32735712554349949 0.36268434494687402 0 -0.32674796638169962 0.37270879003438012 0 -0.33325695529526672 0.36746669880797472 0 -0.32735712554349949 0.36268434494687402 0 -0.33325695529526672 0.36746669880797472 0 -0.33489594447280119 0.36205736098547808 0 -0.32735712554349949 0.36268434494687402 0 -0.33489594447280119 0.36205736098547808 0 -0.33001118896026937 0.3553848431267419 0 -0.33325695529526672 0.36746669880797472 0 -0.33489594447280119 0.36205736098547808 0 -0.33761258348337958 0.36655163543090818 0 -0.33489594447280119 0.36205736098547808 0 -0.33714080258940798 0.35459650970210399 0 -0.34403548547578799 0.36318624740322197 0 -0.33489594447280119 0.36205736098547808 0 -0.33761258348337958 0.36655163543090818 0 -0.34403548547578799 0.36318624740322197 0 -0.33761258348337958 0.36655163543090818 0 -0.33826194868966258 0.37349623452695802 0 -0.34403548547578799 0.36318624740322197 0 -0.33325695529526672 0.36746669880797472 0 -0.33761258348337958 0.36655163543090818 0 -0.33826194868966258 0.37349623452695802 0 -0.34331135317694378 0.34572575149806922 0 -0.33714080258940798 0.35459650970210399 0 -0.34403548547578799 0.36318624740322197 0 -0.34331135317694378 0.34572575149806922 0 -0.34403548547578799 0.36318624740322197 0 -0.34331135317694378 0.34572575149806922 0 -0.33714080258940798 0.35459650970210399 0 -0.33357818660823002 0.34720545507991241 0 -0.33714080258940798 0.35459650970210399 0 -0.33001118896026937 0.3553848431267419 0 -0.33357818660823002 0.34720545507991241 0 -0.33489594447280119 0.36205736098547808 0 -0.33714080258940798 0.35459650970210399 0 -0.33001118896026937 0.3553848431267419 0 -0.33001118896026937 0.3553848431267419 0 -0.33357818660823002 0.34720545507991241 0 -0.32559677058376713 0.34758998122819601 0 -0.32559677058376713 0.34758998122819601 0 -0.31865201436177659 0.35035350795845749 0 -0.3173001272913632 0.34267452985038682 0 -0.32559677058376713 0.34758998122819601 0 -0.32324075254877371 0.35528782925629548 0 -0.31865201436177659 0.35035350795845749 0 -0.32735712554349949 0.36268434494687402 0 -0.33001118896026937 0.3553848431267419 0 -0.32324075254877371 0.35528782925629548 0 -0.33001118896026937 0.3553848431267419 0 -0.32559677058376713 0.34758998122819601 0 -0.32324075254877371 0.35528782925629548 0 -0.32056439436941719 0.36084999907078602 0 -0.32324075254877371 0.35528782925629548 0 -0.31726302147391261 0.35486429920671803 0 -0.3105700751401424 0.35645221454997278 0 -0.32056439436941719 0.36084999907078602 0 -0.31325997337202011 0.35915519561215009 0 -0.3105700751401424 0.35645221454997278 0 -0.32056439436941719 0.36084999907078602 0 -0.31726302147391261 0.35486429920671803 0 -0.31726302147391261 0.35486429920671803 0 -0.31865201436177659 0.35035350795845749 0 -0.31388353019453569 0.34985341089589372 0 -0.32324075254877371 0.35528782925629548 0 -0.31726302147391261 0.35486429920671803 0 -0.31865201436177659 0.35035350795845749 0 -0.3105700751401424 0.35645221454997278 0 -0.31726302147391261 0.35486429920671803 0 -0.31388353019453569 0.34985341089589372 0 -0.30739372270134319 0.34419451985642818 0 -0.31388353019453569 0.34985341089589372 0 -0.3173001272913632 0.34267452985038682 0 -0.31865201436177659 0.35035350795845749 0 -0.31388353019453569 0.34985341089589372 0 -0.3173001272913632 0.34267452985038682 0 -0.30900410360489389 0.32971427829790168 0 -0.3173001272913632 0.34267452985038682 0 -0.33183081773076201 0.33273018984445102 0 -0.30900410360489389 0.32971427829790168 0 -0.33183081773076201 0.33273018984445102 0 -0.32559677058376713 0.34758998122819601 0 -0.3173001272913632 0.34267452985038682 0 -0.33183081773076201 0.33273018984445102 0 -0.30900410360489389 0.32971427829790168 0 -0.32818831953008332 0.31866983670989563 0 -0.33183081773076201 0.33273018984445102 0 -0.33725640904880932 0.307988856090054 0 -0.31549161915838442 0.3116161055637815 0 -0.32818831953008332 0.31866983670989563 0 -0.31549161915838442 0.3116161055637815 0 -0.30900410360489389 0.32971427829790168 0 -0.32818831953008332 0.31866983670989563 0 -0.32818831953008332 0.31866983670989563 0 -0.34350729956515702 0.3190882953123047 0 -0.33183081773076201 0.33273018984445102 0 -0.33725640904880932 0.307988856090054 0 -0.32818831953008332 0.31866983670989563 0 -0.34350729956515702 0.3190882953123047 0 -0.33183081773076201 0.33273018984445102 0 -0.35465753185663002 0.33574610139100192 0 -0.34331135317694378 0.34572575149806922 0 -0.33183081773076201 0.33273018984445102 0 -0.35465753185663002 0.33574610139100192 0 -0.34350729956515702 0.3190882953123047 0 -0.33183081773076201 0.33273018984445102 0 -0.35465753185663002 0.33574610139100192 0 -0.33357818660823002 0.34720545507991241 0 -0.32559677058376713 0.34758998122819601 0 -0.33183081773076201 0.33273018984445102 0 -0.34331135317694378 0.34572575149806922 0 -0.33357818660823002 0.34720545507991241 0 -0.33183081773076201 0.33273018984445102 0 -0.34987919167519133 0.30659530863122458 0 -0.34350729956515702 0.3190882953123047 0 -0.35951062720028087 0.31373064496140179 0 -0.35465753185663002 0.33574610139100192 0 -0.35951062720028087 0.31373064496140179 0 -0.34350729956515702 0.3190882953123047 0 -0.35465753185663002 0.33574610139100192 0 -0.35951062720028087 0.31373064496140179 0 -0.35465753185663002 0.33574610139100192 0 -0.35951062720028087 0.31373064496140179 0 -0.36726733204387851 0.32439139499574871 0 -0.36685557735733498 0.31197196086717432 0 -0.35951062720028087 0.31373064496140179 0 -0.36726733204387851 0.32439139499574871 0 -0.36685557735733498 0.31197196086717432 0 -0.36726733204387851 0.32439139499574871 0 -0.37406976088246752 0.31487651660629618 0 -0.37600153790046992 0.33856611455287222 0 -0.35465753185663002 0.33574610139100192 0 -0.36902635102756842 0.34740155714343701 0 -0.37600153790046992 0.33856611455287222 0 -0.35465753185663002 0.33574610139100192 0 -0.36726733204387851 0.32439139499574871 0 -0.37600153790046992 0.33856611455287222 0 -0.35465753185663002 0.33574610139100192 0 -0.37600153790046992 0.33856611455287222 0 -0.37934864065580282 0.32696515794957332 0 -0.36726733204387851 0.32439139499574871 0 -0.35465753185663002 0.33574610139100192 0 -0.36902635102756842 0.34740155714343701 0 -0.36050357368094132 0.35166726256084452 0 -0.38490491667756072 0.35690605861696312 0 -0.36902635102756842 0.34740155714343701 0 -0.36985304539504033 0.35697347243616012 0 -0.36902635102756842 0.34740155714343701 0 -0.36050357368094132 0.35166726256084452 0 -0.36985304539504033 0.35697347243616012 0 -0.36050357368094132 0.35166726256084452 0 -0.36985304539504033 0.35697347243616012 0 -0.35966679049623618 0.36144437140426378 0 -0.37695531163432172 0.36344163853771733 0 -0.36985304539504033 0.35697347243616012 0 -0.36841413419743602 0.36886247267623928 0 -0.38291935042628078 0.37299561889974409 0 -0.36841413419743602 0.36886247267623928 0 -0.3700479854434211 0.37862834780246279 0 -0.36841413419743602 0.36886247267623928 0 -0.35747772320126558 0.37066760982862262 0 -0.36119030587028728 0.37807133350970829 0 -0.36841413419743602 0.36886247267623928 0 -0.35966679049623618 0.36144437140426378 0 -0.35747772320126558 0.37066760982862262 0 -0.36985304539504033 0.35697347243616012 0 -0.36841413419743602 0.36886247267623928 0 -0.35966679049623618 0.36144437140426378 0 -0.35966679049623618 0.36144437140426378 0 -0.3542720751917206 0.36540647255695408 0 -0.35747772320126558 0.37066760982862262 0 -0.35966679049623618 0.36144437140426378 0 -0.3542720751917206 0.36540647255695408 0 -0.3497085748156315 0.35819642234968829 0 -0.3516747453665755 0.37054862701449842 0 -0.3497085748156315 0.35819642234968829 0 -0.3447596177746326 0.38064674330837478 0 -0.34403548547578799 0.36318624740322197 0 -0.3497085748156315 0.35819642234968829 0 -0.3447596177746326 0.38064674330837478 0 -0.3497085748156315 0.35819642234968829 0 -0.3447596177746326 0.38064674330837478 0 -0.3542720751917206 0.36540647255695408 0 -0.3516747453665755 0.37054862701449842 0 -0.3497085748156315 0.35819642234968829 0 -0.34403548547578799 0.36318624740322197 0 -0.3447596177746326 0.38064674330837478 0 -0.3542720751917206 0.36540647255695408 0 -0.35747772320126558 0.37066760982862262 0 -0.3516747453665755 0.37054862701449842 0 -0.35747772320126558 0.37066760982862262 0 -0.3516747453665755 0.37054862701449842 0 -0.35215573584962678 0.37782588702885223 0 -0.35465753185663002 0.33574610139100192 0 -0.36050357368094132 0.35166726256084452 0 -0.3497085748156315 0.35819642234968829 0 -0.34331135317694378 0.34572575149806922 0 -0.34403548547578799 0.36318624740322197 0 -0.3497085748156315 0.35819642234968829 0 -0.35465753185663002 0.33574610139100192 0 -0.3497085748156315 0.35819642234968829 0 -0.34331135317694378 0.34572575149806922 0 -0.35465753185663002 0.33574610139100192 0 -0.3497085748156315 0.35819642234968829 0 -0.36050357368094132 0.35166726256084452 0 -0.35966679049623618 0.36144437140426378 0 -0.3497085748156315 0.35819642234968829 0 -0.34519935936497342 0.39124992486748827 0 -0.36016427860670258 0.40628762883265568 0 -0.34597128073974182 0.40986272535265988 0 -0.34519935936497342 0.39124992486748827 0 -0.34597128073974182 0.40986272535265988 0 -0.34519935936497342 0.39124992486748827 0 -0.34597128073974182 0.40986272535265988 0 -0.34052587717446819 0.3998525748688645 0 -0.35469916296039078 0.39416541710500103 0 -0.35371837503807912 0.38558590967673673 0 -0.35971463883180887 0.39353820504312348 0 -0.35469916296039078 0.39416541710500103 0 -0.34519935936497342 0.39124992486748827 0 -0.36016427860670258 0.40628762883265568 0 -0.35469916296039078 0.39416541710500103 0 -0.35971463883180887 0.39353820504312348 0 -0.36016427860670258 0.40628762883265568 0 -0.34519935936497342 0.39124992486748827 0 -0.36016427860670258 0.40628762883265568 0 -0.34519935936497342 0.39124992486748827 0 -0.3447596177746326 0.38064674330837478 0 -0.34519935936497342 0.39124992486748827 0 -0.3447596177746326 0.38064674330837478 0 -0.35371837503807912 0.38558590967673673 0 -0.3447596177746326 0.38064674330837478 0 -0.34292585762325722 0.38896536551878708 0 -0.34519935936497342 0.39124992486748827 0 -0.3447596177746326 0.38064674330837478 0 -0.34292585762325722 0.38896536551878708 0 -0.35469916296039078 0.39416541710500103 0 -0.34519935936497342 0.39124992486748827 0 -0.35371837503807912 0.38558590967673673 0 -0.34519935936497342 0.39124992486748827 0 -0.34292585762325722 0.38896536551878708 0 -0.3447596177746326 0.38064674330837478 0 -0.35215573584962678 0.37782588702885223 0 -0.35371837503807912 0.38558590967673673 0 -0.3516747453665755 0.37054862701449842 0 -0.3447596177746326 0.38064674330837478 0 -0.35215573584962678 0.37782588702885223 0 -0.35215573584962678 0.37782588702885223 0 -0.35371837503807912 0.38558590967673673 0 -0.36119030587028728 0.37807133350970829 0 -0.35747772320126558 0.37066760982862262 0 -0.35215573584962678 0.37782588702885223 0 -0.36119030587028728 0.37807133350970829 0 -0.35371837503807912 0.38558590967673673 0 -0.36419725306249712 0.38647189966572848 0 -0.35971463883180887 0.39353820504312348 0 -0.35371837503807912 0.38558590967673673 0 -0.36419725306249712 0.38647189966572848 0 -0.36119030587028728 0.37807133350970829 0 -0.36419725306249712 0.38647189966572848 0 -0.36119030587028728 0.37807133350970829 0 -0.3700479854434211 0.37862834780246279 0 -0.36841413419743602 0.36886247267623928 0 -0.36119030587028728 0.37807133350970829 0 -0.3700479854434211 0.37862834780246279 0 -0.36419725306249712 0.38647189966572848 0 -0.37351888366060432 0.38674041426089339 0 -0.36831997467090732 0.39684498219510739 0 -0.36419725306249712 0.38647189966572848 0 -0.3700479854434211 0.37862834780246279 0 -0.37351888366060432 0.38674041426089339 0 -0.3807228886519915 0.39548605666694842 0 -0.37351888366060432 0.38674041426089339 0 -0.36831997467090732 0.39684498219510739 0 -0.36419725306249712 0.38647189966572848 0 -0.36831997467090732 0.39684498219510739 0 -0.35971463883180887 0.39353820504312348 0 -0.36831997467090732 0.39684498219510739 0 -0.35971463883180887 0.39353820504312348 0 -0.36016427860670258 0.40628762883265568 0 -0.36831997467090732 0.39684498219510739 0 -0.37187472498789442 0.40815864712156008 0 -0.36016427860670258 0.40628762883265568 0 -0.3807228886519915 0.39548605666694842 0 -0.36831997467090732 0.39684498219510739 0 -0.37187472498789442 0.40815864712156008 0 -0.37512919784843002 0.42132533279782503 0 -0.36016427860670258 0.40628762883265568 0 -0.37512919784843002 0.42132533279782503 0 -0.37187472498789442 0.40815864712156008 0 -0.36016427860670258 0.40628762883265568 0 -0.37512919784843002 0.42132533279782503 0 -0.36004681795654009 0.42136961634197528 0 -0.36016427860670258 0.40628762883265568 0 -0.37512919784843002 0.42132533279782503 0 -0.35808616487560269 0.43812560212352097 0 -0.37582399943241629 0.44564771411592752 0 -0.37792500074733981 0.42413473361447018 0 -0.35808616487560269 0.43812560212352097 0 -0.37512919784843002 0.42132533279782503 0 -0.36004681795654009 0.42136961634197528 0 -0.35808616487560269 0.43812560212352097 0 -0.37792500074733981 0.42413473361447018 0 -0.37512919784843002 0.42132533279782503 0 -0.35808616487560269 0.43812560212352097 0 -0.33433391332260198 0.4280529466547297 0 -0.35808616487560269 0.43812560212352097 0 -0.34674320211451098 0.42847552583783161 0 -0.33433391332260198 0.4280529466547297 0 -0.35808616487560269 0.43812560212352097 0 -0.36004681795654009 0.42136961634197528 0 -0.34674320211451098 0.42847552583783161 0 -0.35808616487560269 0.43812560212352097 0 -0.36004681795654009 0.42136961634197528 0 -0.34674320211451098 0.42847552583783161 0 -0.35323139485437388 0.41649887409128061 0 -0.34674320211451098 0.42847552583783161 0 -0.35323139485437388 0.41649887409128061 0 -0.34597128073974182 0.40986272535265988 0 -0.34674320211451098 0.42847552583783161 0 -0.34597128073974182 0.40986272535265988 0 -0.34674320211451098 0.42847552583783161 0 -0.34597128073974182 0.40986272535265988 0 -0.33881810191409167 0.4173379624740437 0 -0.36016427860670258 0.40628762883265568 0 -0.35323139485437388 0.41649887409128061 0 -0.34597128073974182 0.40986272535265988 0 -0.36004681795654009 0.42136961634197528 0 -0.36016427860670258 0.40628762883265568 0 -0.35323139485437388 0.41649887409128061 0 -0.34597128073974182 0.40986272535265988 0 -0.3371603598164844 0.40817362999889689 0 -0.33881810191409167 0.4173379624740437 0 -0.33881810191409167 0.4173379624740437 0 -0.32966386856920538 0.41224757202045081 0 -0.33433391332260198 0.4280529466547297 0 -0.3371603598164844 0.40817362999889689 0 -0.32966386856920538 0.41224757202045081 0 -0.33038690066908682 0.40181249026716631 0 -0.3371603598164844 0.40817362999889689 0 -0.33881810191409167 0.4173379624740437 0 -0.32966386856920538 0.41224757202045081 0 -0.34674320211451098 0.42847552583783161 0 -0.33881810191409167 0.4173379624740437 0 -0.33433391332260198 0.4280529466547297 0 -0.33433391332260198 0.4280529466547297 0 -0.31058166176960261 0.41798029118593549 0 -0.33433391332260198 0.4280529466547297 0 -0.31058166176960261 0.41798029118593549 0 -0.32155092574148569 0.44164832770783469 0 -0.32966386856920538 0.41224757202045081 0 -0.31806597580125451 0.40595503618750989 0 -0.31058166176960261 0.41798029118593549 0 -0.32966386856920538 0.41224757202045081 0 -0.33433391332260198 0.4280529466547297 0 -0.31058166176960261 0.41798029118593549 0 -0.32966386856920538 0.41224757202045081 0 -0.31806597580125451 0.40595503618750989 0 -0.33038690066908682 0.40181249026716631 0 -0.31806597580125451 0.40595503618750989 0 -0.32273489077651668 0.39187012392478271 0 -0.30703800012477622 0.3987099774337996 0 -0.32273489077651668 0.39187012392478271 0 -0.31211753112487811 0.38341396385521592 0 -0.30703800012477622 0.3987099774337996 0 -0.31806597580125451 0.40595503618750989 0 -0.32273489077651668 0.39187012392478271 0 -0.33038690066908682 0.40181249026716631 0 -0.32273489077651668 0.39187012392478271 0 -0.33038690066908682 0.40181249026716631 0 -0.33395254686867781 0.39289859209684391 0 -0.33038690066908682 0.40181249026716631 0 -0.33395254686867781 0.39289859209684391 0 -0.34052587717446819 0.3998525748688645 0 -0.34519935936497342 0.39124992486748827 0 -0.34052587717446819 0.3998525748688645 0 -0.34292585762325722 0.38896536551878708 0 -0.34052587717446819 0.3998525748688645 0 -0.34292585762325722 0.38896536551878708 0 -0.33395254686867781 0.39289859209684391 0 -0.34052587717446819 0.3998525748688645 0 -0.34292585762325722 0.38896536551878708 0 -0.3371603598164844 0.40817362999889689 0 -0.33038690066908682 0.40181249026716631 0 -0.34052587717446819 0.3998525748688645 0 -0.34597128073974182 0.40986272535265988 0 -0.3371603598164844 0.40817362999889689 0 -0.34052587717446819 0.3998525748688645 0 -0.32674796638169962 0.37270879003438012 0 -0.34292585762325722 0.38896536551878708 0 -0.32674796638169962 0.37270879003438012 0 -0.34292585762325722 0.38896536551878708 0 -0.32989075269106682 0.38541218107038028 0 -0.32674796638169962 0.37270879003438012 0 -0.33826194868966258 0.37349623452695802 0 -0.34292585762325722 0.38896536551878708 0 -0.33826194868966258 0.37349623452695802 0 -0.3447596177746326 0.38064674330837478 0 -0.34292585762325722 0.38896536551878708 0 -0.33395254686867781 0.39289859209684391 0 -0.34292585762325722 0.38896536551878708 0 -0.32989075269106682 0.38541218107038028 0 -0.32273489077651668 0.39187012392478271 0 -0.33395254686867781 0.39289859209684391 0 -0.32989075269106682 0.38541218107038028 0 -0.32674796638169962 0.37270879003438012 0 -0.32989075269106682 0.38541218107038028 0 -0.32226202403338811 0.38154215839079553 0 -0.32674796638169962 0.37270879003438012 0 -0.32226202403338811 0.38154215839079553 0 -0.31640607848916319 0.37564691192914368 0 -0.32273489077651668 0.39187012392478271 0 -0.32989075269106682 0.38541218107038028 0 -0.32226202403338811 0.38154215839079553 0 -0.32273489077651668 0.39187012392478271 0 -0.32226202403338811 0.38154215839079553 0 -0.31211753112487811 0.38341396385521592 0 -0.32226202403338811 0.38154215839079553 0 -0.31640607848916319 0.37564691192914368 0 -0.31211753112487811 0.38341396385521592 0 -0.31211753112487811 0.38341396385521592 0 -0.30703800012477622 0.3987099774337996 0 -0.29397436642722202 0.3891182926811666 0 -0.30044559450743491 0.37334583968388541 0 -0.31211753112487811 0.38341396385521592 0 -0.29397436642722202 0.3891182926811666 0 -0.30044559450743491 0.37334583968388541 0 -0.31640607848916319 0.37564691192914368 0 -0.31211753112487811 0.38341396385521592 0 -0.29397436642722202 0.3891182926811666 0 -0.27698174997318559 0.39186446771062872 0 -0.28682941021660319 0.40790763571714128 0 -0.30703800012477622 0.3987099774337996 0 -0.29397436642722202 0.3891182926811666 0 -0.28682941021660319 0.40790763571714128 0 -0.30044559450743491 0.37334583968388541 0 -0.28043391261645428 0.37946787168632901 0 -0.29397436642722202 0.3891182926811666 0 -0.28043391261645428 0.37946787168632901 0 -0.27698174997318559 0.39186446771062872 0 -0.30044559450743491 0.37334583968388541 0 -0.29397436642722202 0.3891182926811666 0 -0.28043391261645428 0.37946787168632901 0 -0.28043391261645428 0.37946787168632901 0 -0.27698174997318559 0.39186446771062872 0 -0.26042223072547288 0.38558990368876928 0 -0.28043391261645428 0.37946787168632901 0 -0.26042223072547288 0.38558990368876928 0 -0.26816773020024959 0.37241237148721618 0 -0.28043391261645428 0.37946787168632901 0 -0.26042223072547288 0.38558990368876928 0 -0.27698174997318559 0.39186446771062872 0 -0.26307715866360409 0.39783498024834629 0 -0.28682941021660319 0.40790763571714128 0 -0.26307715866360409 0.39783498024834629 0 -0.28682941021660319 0.40790763571714128 0 -0.27698174997318559 0.39186446771062872 0 -0.26307715866360409 0.39783498024834629 0 -0.26042223072547288 0.38558990368876928 0 -0.26307715866360409 0.39783498024834629 0 -0.26042223072547288 0.38558990368876928 0 -0.26307715866360409 0.39783498024834629 0 -0.24519033963232431 0.39024968817055461 0 -0.24751095862731329 0.4055462583146513 0 -0.26307715866360409 0.39783498024834629 0 -0.26042223072547288 0.38558990368876928 0 -0.24519033963232431 0.39024968817055461 0 -0.26307715866360409 0.39783498024834629 0 -0.24519033963232431 0.39024968817055461 0 -0.25608611531703879 0.36559084292903887 0 -0.26042223072547288 0.38558990368876928 0 -0.26042223072547288 0.38558990368876928 0 -0.24519033963232431 0.39024968817055461 0 -0.2510571553639972 0.38087810156707769 0 -0.26042223072547288 0.38558990368876928 0 -0.24519033963232431 0.39024968817055461 0 -0.25513743600172878 0.37068336237299943 0 -0.2510571553639972 0.38087810156707769 0 -0.26042223072547288 0.38558990368876928 0 -0.25366422526113502 0.41730045962228268 0 -0.26811010713908578 0.421047979184201 0 -0.24942093582390021 0.43246866009568108 0 -0.26811010713908578 0.421047979184201 0 -0.27314305561456592 0.44426097812005599 0 -0.24942093582390021 0.43246866009568108 0 -0.26307715866360409 0.39783498024834629 0 -0.26811010713908578 0.421047979184201 0 -0.26307715866360409 0.39783498024834629 0 -0.25366422526113502 0.41730045962228268 0 -0.26811010713908578 0.421047979184201 0 -0.26307715866360409 0.39783498024834629 0 -0.25366422526113502 0.41730045962228268 0 -0.24751095862731329 0.4055462583146513 0 -0.26307715866360409 0.39783498024834629 0 -0.26811010713908578 0.421047979184201 0 -0.28682941021660319 0.40790763571714128 0 -0.26811010713908578 0.421047979184201 0 -0.2873841096964932 0.43047803203835749 0 -0.28682941021660319 0.40790763571714128 0 -0.26811010713908578 0.421047979184201 0 -0.2873841096964932 0.43047803203835749 0 -0.27314305561456592 0.44426097812005599 0 -0.26811010713908578 0.421047979184201 0 -0.27314305561456592 0.44426097812005599 0 -0.2873841096964932 0.43047803203835749 0 -0.28682941021660319 0.40790763571714128 0 -0.31058166176960261 0.41798029118593549 0 -0.30703800012477622 0.3987099774337996 0 -0.28682941021660319 0.40790763571714128 0 -0.31058166176960261 0.41798029118593549 0 -0.28682941021660319 0.40790763571714128 0 -0.31058166176960261 0.41798029118593549 0 -0.31806597580125451 0.40595503618750989 0 -0.30703800012477622 0.3987099774337996 0 -0.31058166176960261 0.41798029118593549 0 -0.2873841096964932 0.43047803203835749 0 -0.31058166176960261 0.41798029118593549 0 -0.30117306941298189 0.44124895540324571 0 -0.31058166176960261 0.41798029118593549 0 -0.30117306941298189 0.44124895540324571 0 -0.32155092574148569 0.44164832770783469 0 -0.30117306941298189 0.44124895540324571 0 -0.31088175624190129 0.45592816314251777 0 -0.32155092574148569 0.44164832770783469 0 -0.30117306941298189 0.44124895540324571 0 -0.31088175624190129 0.45592816314251777 0 -0.29698492980220709 0.45518619030609631 0 -0.31088175624190129 0.45592816314251777 0 -0.29993700327738171 0.46565280813240351 0 -0.32104894682745949 0.47463525620183661 0 -0.31088175624190129 0.45592816314251777 0 -0.29698492980220709 0.45518619030609631 0 -0.29993700327738171 0.46565280813240351 0 -0.28846546605265089 0.46267867223274811 0 -0.28604239743702342 0.45031969015689749 0 -0.27817600409004362 0.46747397705591159 0 -0.29698492980220709 0.45518619030609631 0 -0.29993700327738171 0.46565280813240351 0 -0.28846546605265089 0.46267867223274811 0 -0.29993700327738171 0.46565280813240351 0 -0.28846546605265089 0.46267867223274811 0 -0.29005634726642238 0.47421521102366271 0 -0.29698492980220709 0.45518619030609631 0 -0.28846546605265089 0.46267867223274811 0 -0.28604239743702342 0.45031969015689749 0 -0.28846546605265089 0.46267867223274811 0 -0.27817600409004362 0.46747397705591159 0 -0.29005634726642238 0.47421521102366271 0 -0.28846546605265089 0.46267867223274811 0 -0.27817600409004362 0.46747397705591159 0 -0.2873841096964932 0.43047803203835749 0 -0.30117306941298189 0.44124895540324571 0 -0.28604239743702342 0.45031969015689749 0 -0.2873841096964932 0.43047803203835749 0 -0.28604239743702342 0.45031969015689749 0 -0.27314305561456592 0.44426097812005599 0 -0.30117306941298189 0.44124895540324571 0 -0.29698492980220709 0.45518619030609631 0 -0.28604239743702342 0.45031969015689749 0 -0.27314305561456592 0.44426097812005599 0 -0.27817600409004362 0.46747397705591159 0 -0.2527984548475557 0.45476999327527351 0 -0.28604239743702342 0.45031969015689749 0 -0.27314305561456592 0.44426097812005599 0 -0.27817600409004362 0.46747397705591159 0 -0.27314305561456592 0.44426097812005599 0 -0.27817600409004362 0.46747397705591159 0 -0.27817600409004362 0.46747397705591159 0 -0.2527984548475557 0.45476999327527351 0 -0.25491190943774428 0.47831598470393971 0 -0.27314305561456592 0.44426097812005599 0 -0.2527984548475557 0.45476999327527351 0 -0.24942093582390021 0.43246866009568108 0 -0.25961334986895179 0.5 0 -0.26773957583034069 0.48684570990002368 0 -0.24680594243500059 0.49154730911233863 0 -0.25491190943774428 0.47831598470393971 0 -0.26773957583034069 0.48684570990002368 0 -0.24680594243500059 0.49154730911233863 0 -0.27817600409004362 0.46747397705591159 0 -0.28170208441345052 0.48373698852795338 0 -0.27817600409004362 0.46747397705591159 0 -0.25491190943774428 0.47831598470393971 0 -0.27817600409004362 0.46747397705591159 0 -0.26773957583034069 0.48684570990002368 0 -0.28170208441345052 0.48373698852795338 0 -0.27817600409004362 0.46747397705591159 0 -0.25491190943774428 0.47831598470393971 0 -0.26773957583034069 0.48684570990002368 0 -0.25961334986895179 0.5 0 -0.26773957583034069 0.48684570990002368 0 -0.2852281647368542 0.49999999999999578 0 -0.26773957583034069 0.48684570990002368 0 -0.2852281647368542 0.49999999999999578 0 -0.28170208441345052 0.48373698852795338 0 -0.2852281647368542 0.49999999999999578 0 -0.28170208441345052 0.48373698852795338 0 -0.2852281647368542 0.49999999999999578 0 -0.29241554216441312 0.48712643818909501 0 -0.28170208441345052 0.48373698852795338 0 -0.2852281647368542 0.49999999999999578 0 -0.29241554216441312 0.48712643818909501 0 -0.30088015944300289 0.49451675620079638 0 -0.27817600409004362 0.46747397705591159 0 -0.28170208441345052 0.48373698852795338 0 -0.29005634726642238 0.47421521102366271 0 -0.29241554216441312 0.48712643818909501 0 -0.28170208441345052 0.48373698852795338 0 -0.29005634726642238 0.47421521102366271 0 -0.29241554216441312 0.48712643818909501 0 -0.29005634726642238 0.47421521102366271 0 -0.29964198360059258 0.47862238200386498 0 -0.29993700327738171 0.46565280813240351 0 -0.29005634726642238 0.47421521102366271 0 -0.29964198360059258 0.47862238200386498 0 -0.29993700327738171 0.46565280813240351 0 -0.29964198360059258 0.47862238200386498 0 -0.32104894682745949 0.47463525620183661 0 -0.29964198360059258 0.47862238200386498 0 -0.30088015944300289 0.49451675620079638 0 -0.32104894682745949 0.47463525620183661 0 -0.30088015944300289 0.49451675620079638 0 -0.31401349829047459 0.5 0 -0.32104894682745949 0.47463525620183661 0 -0.2852281647368542 0.49999999999999578 0 -0.30088015944300289 0.49451675620079638 0 -0.31401349829047459 0.5 0 -0.29241554216441312 0.48712643818909501 0 -0.29964198360059258 0.47862238200386498 0 -0.30088015944300289 0.49451675620079638 0 -0.30088015944300289 0.49451675620079638 0 -0.32104894682745949 0.47463525620183661 0 -0.31401349829047459 0.5 0 -0.3298769779047161 0.48819858079336381 0 -0.32104894682745949 0.47463525620183661 0 -0.3427988318440951 0.5 0 -0.3298769779047161 0.48819858079336381 0 -0.34164663465683531 0.47815906697161847 0 -0.31401349829047459 0.5 0 -0.3427988318440951 0.5 0 -0.3298769779047161 0.48819858079336381 0 -0.3298769779047161 0.48819858079336381 0 -0.34164663465683531 0.47815906697161847 0 -0.32104894682745949 0.47463525620183661 0 -0.34164663465683531 0.47815906697161847 0 -0.32104894682745949 0.47463525620183661 0 -0.34121773421191592 0.45475375620287672 0 -0.31088175624190129 0.45592816314251777 0 -0.32104894682745949 0.47463525620183661 0 -0.32367484075569058 0.4567413758137665 0 -0.31088175624190129 0.45592816314251777 0 -0.32367484075569058 0.4567413758137665 0 -0.32155092574148569 0.44164832770783469 0 -0.32155092574148569 0.44164832770783469 0 -0.34121773421191592 0.45475375620287672 0 -0.33433391332260198 0.4280529466547297 0 -0.32155092574148569 0.44164832770783469 0 -0.34121773421191592 0.45475375620287672 0 -0.32367484075569058 0.4567413758137665 0 -0.32155092574148569 0.44164832770783469 0 -0.34121773421191592 0.45475375620287672 0 -0.32104894682745949 0.47463525620183661 0 -0.34121773421191592 0.45475375620287672 0 -0.32104894682745949 0.47463525620183661 0 -0.32367484075569058 0.4567413758137665 0 -0.34121773421191592 0.45475375620287672 0 -0.34121773421191592 0.45475375620287672 0 -0.35704610948332027 0.46530135677690698 0 -0.36130465001936363 0.45291535299053171 0 -0.34121773421191592 0.45475375620287672 0 -0.35704610948332027 0.46530135677690698 0 -0.34164663465683531 0.47815906697161847 0 -0.34121773421191592 0.45475375620287672 0 -0.35704610948332027 0.46530135677690698 0 -0.34121773421191592 0.45475375620287672 0 -0.35808616487560269 0.43812560212352097 0 -0.36130465001936363 0.45291535299053171 0 -0.33433391332260198 0.4280529466547297 0 -0.34121773421191592 0.45475375620287672 0 -0.35808616487560269 0.43812560212352097 0 -0.34121773421191592 0.45475375620287672 0 -0.35808616487560269 0.43812560212352097 0 -0.37582399943241629 0.44564771411592752 0 -0.35808616487560269 0.43812560212352097 0 -0.36130465001936363 0.45291535299053171 0 -0.37582399943241629 0.44564771411592752 0 -0.35808616487560269 0.43812560212352097 0 -0.37582399943241629 0.44564771411592752 0 -0.36130465001936363 0.45291535299053171 0 -0.37434924209356119 0.46074833573343188 0 -0.35704610948332027 0.46530135677690698 0 -0.36130465001936363 0.45291535299053171 0 -0.37434924209356119 0.46074833573343188 0 -0.35704610948332027 0.46530135677690698 0 -0.37434924209356119 0.46074833573343188 0 -0.37287448475472412 0.47584895735093802 0 -0.37434924209356119 0.46074833573343188 0 -0.37287448475472412 0.47584895735093802 0 -0.35704610948332027 0.46530135677690698 0 -0.37287448475472412 0.47584895735093802 0 -0.35704610948332027 0.46530135677690698 0 -0.37287448475472412 0.47584895735093802 0 -0.35936202050693622 0.4839300090744344 0 -0.37287448475472412 0.47584895735093802 0 -0.37168132825398981 0.48806615700376049 0 -0.37287448475472412 0.47584895735093802 0 -0.37168132825398981 0.48806615700376049 0 -0.35936202050693622 0.4839300090744344 0 -0.37158416539771549 0.5 0 -0.37168132825398981 0.48806615700376049 0 -0.35936202050693622 0.4839300090744344 0 -0.3427988318440951 0.5 0 -0.34164663465683531 0.47815906697161847 0 -0.35936202050693622 0.4839300090744344 0 -0.3427988318440951 0.5 0 -0.37158416539771549 0.5 0 -0.35936202050693622 0.4839300090744344 0 -0.34164663465683531 0.47815906697161847 0 -0.35704610948332027 0.46530135677690698 0 -0.35936202050693622 0.4839300090744344 0 -0.138942231070775 0.48447267014090178 0 -0.13625357232312629 0.46381464741799988 0 -0.16235358266841551 0.47468196523381401 0 -0.1528305288832493 0.5 0 -0.138942231070775 0.48447267014090178 0 -0.16235358266841551 0.47468196523381401 0 -0.1528305288832493 0.5 0 -0.138942231070775 0.48447267014090178 0 -0.1250539332583005 0.5 0 -0.138942231070775 0.48447267014090178 0 -0.1250539332583005 0.5 0 -0.1111439796713484 0.47585227863606272 0 -0.138942231070775 0.48447267014090178 0 -0.13625357232312629 0.46381464741799988 0 -0.1111439796713484 0.47585227863606272 0 -0.13625357232312629 0.46381464741799988 0 -0.13653170374439841 0.44473011964112202 0 -0.1195037747543428 0.45466364534398118 0 -0.13653170374439841 0.44473011964112202 0 -0.1197819061756151 0.4355791175671036 0 -0.1195037747543428 0.45466364534398118 0 -0.13625357232312629 0.46381464741799988 0 -0.13653170374439841 0.44473011964112202 0 -0.15647698963696191 0.44751655951707858 0 -0.13653170374439841 0.44473011964112202 0 -0.15647698963696191 0.44751655951707858 0 -0.14111820654548951 0.42482867821219639 0 -0.13625357232312629 0.46381464741799988 0 -0.15647698963696191 0.44751655951707858 0 -0.16235358266841551 0.47468196523381401 0 -0.15647698963696191 0.44751655951707858 0 -0.18412151213304959 0.45092913181606359 0 -0.16235358266841551 0.47468196523381401 0 -0.15647698963696191 0.44751655951707858 0 -0.18412151213304959 0.45092913181606359 0 -0.16769775208292989 0.42746010418096048 0 -0.18412151213304959 0.45092913181606359 0 -0.16235358266841551 0.47468196523381401 0 -0.1890457276332129 0.47847482603549851 0 -0.1528305288832493 0.5 0 -0.16235358266841551 0.47468196523381401 0 -0.18060712450819799 0.5 0 -0.16235358266841551 0.47468196523381401 0 -0.18060712450819799 0.5 0 -0.1890457276332129 0.47847482603549851 0 -0.20838372013314671 0.49999999999999828 0 -0.23164781478544519 0.48915799235196827 0 -0.20976269872325479 0.46676303312761491 0 -0.18060712450819799 0.5 0 -0.1890457276332129 0.47847482603549851 0 -0.20838372013314671 0.49999999999999828 0 -0.1890457276332129 0.47847482603549851 0 -0.20838372013314671 0.49999999999999828 0 -0.20976269872325479 0.46676303312761491 0 -0.20838372013314671 0.49999999999999828 0 -0.23164781478544519 0.48915799235196827 0 -0.20838372013314671 0.49999999999999828 0 -0.2339985350010492 0.5 0 -0.23164781478544519 0.48915799235196827 0 -0.23164781478544519 0.48915799235196827 0 -0.23252187616178699 0.46433752233840619 0 -0.20976269872325479 0.46676303312761491 0 -0.25491190943774428 0.47831598470393971 0 -0.23164781478544519 0.48915799235196827 0 -0.25491190943774428 0.47831598470393971 0 -0.23164781478544519 0.48915799235196827 0 -0.23252187616178699 0.46433752233840619 0 -0.25961334986895179 0.5 0 -0.2339985350010492 0.5 0 -0.24680594243500059 0.49154730911233863 0 -0.25491190943774428 0.47831598470393971 0 -0.23164781478544519 0.48915799235196827 0 -0.24680594243500059 0.49154730911233863 0 -0.2339985350010492 0.5 0 -0.23164781478544519 0.48915799235196827 0 -0.24680594243500059 0.49154730911233863 0 -0.2527984548475557 0.45476999327527351 0 -0.2286169479572937 0.44176283733764682 0 -0.24942093582390021 0.43246866009568108 0 -0.2527984548475557 0.45476999327527351 0 -0.25491190943774428 0.47831598470393971 0 -0.23252187616178699 0.46433752233840619 0 -0.2527984548475557 0.45476999327527351 0 -0.23252187616178699 0.46433752233840619 0 -0.2286169479572937 0.44176283733764682 0 -0.23252187616178699 0.46433752233840619 0 -0.21882451630746999 0.4539466897030614 0 -0.20976269872325479 0.46676303312761491 0 -0.23252187616178699 0.46433752233840619 0 -0.21882451630746999 0.4539466897030614 0 -0.2286169479572937 0.44176283733764682 0 -0.21882451630746999 0.4539466897030614 0 -0.2286169479572937 0.44176283733764682 0 -0.20439654238754459 0.4429233660085779 0 -0.21882451630746999 0.4539466897030614 0 -0.20439654238754459 0.4429233660085779 0 -0.20976269872325479 0.46676303312761491 0 -0.18412151213304959 0.45092913181606359 0 -0.1890457276332129 0.47847482603549851 0 -0.20976269872325479 0.46676303312761491 0 -0.18412151213304959 0.45092913181606359 0 -0.20439654238754459 0.4429233660085779 0 -0.20976269872325479 0.46676303312761491 0 -0.18412151213304959 0.45092913181606359 0 -0.20439654238754459 0.4429233660085779 0 -0.19339903836805869 0.42447658022663942 0 -0.19339903836805869 0.42447658022663942 0 -0.1938177966866618 0.40596572611647358 0 -0.17727141269942101 0.40911927427158962 0 -0.19339903836805869 0.42447658022663942 0 -0.20987222857522819 0.41226289546222339 0 -0.1938177966866618 0.40596572611647358 0 -0.19339903836805869 0.42447658022663942 0 -0.20987222857522819 0.41226289546222339 0 -0.2157397405852903 0.42612151122116992 0 -0.20987222857522819 0.41226289546222339 0 -0.2157397405852903 0.42612151122116992 0 -0.22514793222406601 0.41353484758448339 0 -0.20987222857522819 0.41226289546222339 0 -0.22514793222406601 0.41353484758448339 0 -0.2195040681594935 0.39810770714351529 0 -0.2286169479572937 0.44176283733764682 0 -0.20439654238754459 0.4429233660085779 0 -0.2157397405852903 0.42612151122116992 0 -0.20439654238754459 0.4429233660085779 0 -0.19339903836805869 0.42447658022663942 0 -0.2157397405852903 0.42612151122116992 0 -0.2286169479572937 0.44176283733764682 0 -0.2157397405852903 0.42612151122116992 0 -0.23055972152786081 0.42669608081385207 0 -0.2157397405852903 0.42612151122116992 0 -0.23055972152786081 0.42669608081385207 0 -0.22514793222406601 0.41353484758448339 0 -0.22514793222406601 0.41353484758448339 0 -0.23987090378071221 0.41672215161494558 0 -0.23571419994201731 0.40414668753024902 0 -0.23055972152786081 0.42669608081385207 0 -0.22514793222406601 0.41353484758448339 0 -0.23987090378071221 0.41672215161494558 0 -0.23987090378071221 0.41672215161494558 0 -0.24751095862731329 0.4055462583146513 0 -0.23571419994201731 0.40414668753024902 0 -0.25366422526113502 0.41730045962228268 0 -0.23987090378071221 0.41672215161494558 0 -0.24751095862731329 0.4055462583146513 0 -0.25366422526113502 0.41730045962228268 0 -0.23987090378071221 0.41672215161494558 0 -0.24942093582390021 0.43246866009568108 0 -0.2286169479572937 0.44176283733764682 0 -0.23055972152786081 0.42669608081385207 0 -0.24942093582390021 0.43246866009568108 0 -0.23055972152786081 0.42669608081385207 0 -0.23987090378071221 0.41672215161494558 0 -0.24942093582390021 0.43246866009568108 0 -0.24347861509646249 0.37698945203598899 0 -0.24519033963232431 0.39024968817055461 0 -0.23057772106406141 0.38405289154238492 0 -0.24519033963232431 0.39024968817055461 0 -0.23057772106406141 0.38405289154238492 0 -0.23485332728865579 0.37561931773976881 0 -0.24347861509646249 0.37698945203598899 0 -0.23057772106406141 0.38405289154238492 0 -0.2510571553639972 0.38087810156707769 0 -0.24347861509646249 0.37698945203598899 0 -0.24519033963232431 0.39024968817055461 0 -0.25513743600172878 0.37068336237299943 0 -0.2510571553639972 0.38087810156707769 0 -0.24347861509646249 0.37698945203598899 0 -0.24519033963232431 0.39024968817055461 0 -0.24751095862731329 0.4055462583146513 0 -0.23571419994201731 0.40414668753024902 0 -0.24519033963232431 0.39024968817055461 0 -0.2195040681594935 0.39810770714351529 0 -0.22514793222406601 0.41353484758448339 0 -0.23571419994201731 0.40414668753024902 0 -0.2195040681594935 0.39810770714351529 0 -0.24519033963232431 0.39024968817055461 0 -0.2195040681594935 0.39810770714351529 0 -0.23057772106406141 0.38405289154238492 0 -0.24519033963232431 0.39024968817055461 0 -0.23571419994201731 0.40414668753024902 0 -0.2195040681594935 0.39810770714351529 0 -0.22042197003950531 0.38924114828972062 0 -0.2201391810212516 0.38342955769447967 0 -0.23057772106406141 0.38405289154238492 0 -0.2195040681594935 0.39810770714351529 0 -0.22042197003950531 0.38924114828972062 0 -0.23057772106406141 0.38405289154238492 0 -0.22042197003950531 0.38924114828972062 0 -0.2201391810212516 0.38342955769447967 0 -0.2168148767670586 0.38495212803489948 0 -0.23485332728865579 0.37561931773976881 0 -0.23057772106406141 0.38405289154238492 0 -0.22734931244881801 0.37297605980961662 0 -0.23057772106406141 0.38405289154238492 0 -0.2159651024957977 0.37785609491421718 0 -0.23057772106406141 0.38405289154238492 0 -0.2159651024957977 0.37785609491421718 0 -0.22734931244881801 0.37297605980961662 0 -0.2201391810212516 0.38342955769447967 0 -0.23057772106406141 0.38405289154238492 0 -0.2159651024957977 0.37785609491421718 0 -0.2159651024957977 0.37785609491421718 0 -0.21490349070545581 0.3806128508915132 0 -0.19252705290990679 0.36791668357830998 0 -0.21490349070545581 0.3806128508915132 0 -0.21691623473983529 0.38104552569117639 0 -0.2168148767670586 0.38495212803489948 0 -0.2201391810212516 0.38342955769447967 0 -0.2159651024957977 0.37785609491421718 0 -0.21691623473983529 0.38104552569117639 0 -0.21490349070545581 0.3806128508915132 0 -0.21691623473983529 0.38104552569117639 0 -0.2159651024957977 0.37785609491421718 0 -0.21490349070545581 0.3806128508915132 0 -0.21691623473983529 0.38104552569117639 0 -0.2159651024957977 0.37785609491421718 0 -0.21490349070545581 0.3806128508915132 0 -0.21490349070545581 0.3806128508915132 0 -0.2115099245123403 0.38942514364526087 0 -0.2201391810212516 0.38342955769447967 0 -0.21691623473983529 0.38104552569117639 0 -0.2168148767670586 0.38495212803489948 0 -0.22042197003950531 0.38924114828972062 0 -0.2168148767670586 0.38495212803489948 0 -0.2115099245123403 0.38942514364526087 0 -0.21490349070545581 0.3806128508915132 0 -0.2115099245123403 0.38942514364526087 0 -0.20809119598219469 0.38467011685021169 0 -0.21490349070545581 0.3806128508915132 0 -0.2168148767670586 0.38495212803489948 0 -0.2115099245123403 0.38942514364526087 0 -0.2115099245123403 0.38942514364526087 0 -0.20495192287367611 0.38632741373853668 0 -0.19988382976124239 0.39192610164908631 0 -0.2115099245123403 0.38942514364526087 0 -0.20809119598219469 0.38467011685021169 0 -0.20495192287367611 0.38632741373853668 0 -0.20809119598219469 0.38467011685021169 0 -0.20495192287367611 0.38632741373853668 0 -0.20099944583730661 0.38231505912553609 0 -0.21490349070545581 0.3806128508915132 0 -0.20809119598219469 0.38467011685021169 0 -0.20099944583730661 0.38231505912553609 0 -0.2195040681594935 0.39810770714351529 0 -0.19988382976124239 0.39192610164908631 0 -0.1938177966866618 0.40596572611647358 0 -0.2195040681594935 0.39810770714351529 0 -0.2115099245123403 0.38942514364526087 0 -0.19988382976124239 0.39192610164908631 0 -0.20987222857522819 0.41226289546222339 0 -0.2195040681594935 0.39810770714351529 0 -0.1938177966866618 0.40596572611647358 0 -0.2195040681594935 0.39810770714351529 0 -0.1938177966866618 0.40596572611647358 0 -0.2195040681594935 0.39810770714351529 0 -0.22042197003950531 0.38924114828972062 0 -0.2115099245123403 0.38942514364526087 0 -0.19988382976124239 0.39192610164908631 0 -0.1938177966866618 0.40596572611647358 0 -0.18571026938573759 0.39413682918676329 0 -0.21490349070545581 0.3806128508915132 0 -0.20099944583730661 0.38231505912553609 0 -0.18671134103000711 0.37455245150414379 0 -0.21490349070545581 0.3806128508915132 0 -0.18671134103000711 0.37455245150414379 0 -0.19988382976124239 0.39192610164908631 0 -0.20099944583730661 0.38231505912553609 0 -0.19093697341784829 0.38521640862080542 0 -0.20495192287367611 0.38632741373853668 0 -0.19988382976124239 0.39192610164908631 0 -0.20099944583730661 0.38231505912553609 0 -0.19988382976124239 0.39192610164908631 0 -0.19093697341784829 0.38521640862080542 0 -0.18571026938573759 0.39413682918676329 0 -0.20099944583730661 0.38231505912553609 0 -0.19093697341784829 0.38521640862080542 0 -0.18671134103000711 0.37455245150414379 0 -0.18083371065543441 0.38536597396341649 0 -0.17036481392393391 0.38058526880823412 0 -0.18671134103000711 0.37455245150414379 0 -0.19093697341784829 0.38521640862080542 0 -0.18083371065543441 0.38536597396341649 0 -0.18671134103000711 0.37455245150414379 0 -0.19093697341784829 0.38521640862080542 0 -0.18083371065543441 0.38536597396341649 0 -0.18571026938573759 0.39413682918676329 0 -0.18083371065543441 0.38536597396341649 0 -0.17036481392393391 0.38058526880823412 0 -0.17044515551964479 0.39233891169713597 0 -0.18083371065543441 0.38536597396341649 0 -0.17044515551964479 0.39233891169713597 0 -0.18571026938573759 0.39413682918676329 0 -0.17036481392393391 0.38058526880823412 0 -0.15476840064051159 0.38439132708461932 0 -0.1585191913545585 0.36849205211677388 0 -0.17036481392393391 0.38058526880823412 0 -0.17044515551964479 0.39233891169713597 0 -0.15476840064051159 0.38439132708461932 0 -0.17044515551964479 0.39233891169713597 0 -0.15476840064051159 0.38439132708461932 0 -0.15264006003393599 0.40596667566987038 0 -0.17044515551964479 0.39233891169713597 0 -0.17727141269942101 0.40911927427158962 0 -0.15264006003393599 0.40596667566987038 0 -0.17044515551964479 0.39233891169713597 0 -0.18571026938573759 0.39413682918676329 0 -0.17727141269942101 0.40911927427158962 0 -0.1938177966866618 0.40596572611647358 0 -0.18571026938573759 0.39413682918676329 0 -0.17727141269942101 0.40911927427158962 0 -0.19339903836805869 0.42447658022663942 0 -0.17727141269942101 0.40911927427158962 0 -0.16769775208292989 0.42746010418096048 0 -0.18412151213304959 0.45092913181606359 0 -0.19339903836805869 0.42447658022663942 0 -0.16769775208292989 0.42746010418096048 0 -0.17727141269942101 0.40911927427158962 0 -0.16769775208292989 0.42746010418096048 0 -0.15264006003393599 0.40596667566987038 0 -0.16769775208292989 0.42746010418096048 0 -0.14111820654548951 0.42482867821219639 0 -0.15264006003393599 0.40596667566987038 0 -0.14111820654548951 0.42482867821219639 0 -0.1344521605938403 0.40542947756698 0 -0.15264006003393599 0.40596667566987038 0 -0.15647698963696191 0.44751655951707858 0 -0.16769775208292989 0.42746010418096048 0 -0.14111820654548951 0.42482867821219639 0 -0.13653170374439841 0.44473011964112202 0 -0.14111820654548951 0.42482867821219639 0 -0.1197819061756151 0.4355791175671036 0 -0.14111820654548951 0.42482867821219639 0 -0.1197131320615713 0.41509851415471072 0 -0.1197819061756151 0.4355791175671036 0 -0.14111820654548951 0.42482867821219639 0 -0.1344521605938403 0.40542947756698 0 -0.1197131320615713 0.41509851415471072 0 -0.1344521605938403 0.40542947756698 0 -0.13863411957581009 0.38993129933501802 0 -0.1197635140281522 0.39469053651664998 0 -0.12911823288158131 0.37983536022227982 0 -0.13863411957581009 0.38993129933501802 0 -0.1197635140281522 0.39469053651664998 0 -0.12911823288158131 0.37983536022227982 0 -0.13863411957581009 0.38993129933501802 0 -0.1421011434622077 0.3765056914167888 0 -0.13863411957581009 0.38993129933501802 0 -0.15476840064051159 0.38439132708461932 0 -0.1421011434622077 0.3765056914167888 0 -0.15476840064051159 0.38439132708461932 0 -0.1421011434622077 0.3765056914167888 0 -0.1585191913545585 0.36849205211677388 0 -0.1344521605938403 0.40542947756698 0 -0.13863411957581009 0.38993129933501802 0 -0.15264006003393599 0.40596667566987038 0 -0.13863411957581009 0.38993129933501802 0 -0.15476840064051159 0.38439132708461932 0 -0.15264006003393599 0.40596667566987038 0 -0.14454845620976189 0.35032773942290452 0 -0.14565095373812489 0.34803786090649619 0 -0.1690890033240158 0.35797727224240311 0 -0.13032704167910961 0.36243165272940508 0 -0.1585191913545585 0.36849205211677388 0 -0.14454845620976189 0.35032773942290452 0 -0.13328480609637161 0.35977082576090252 0 -0.1585191913545585 0.36849205211677388 0 -0.1421011434622077 0.3765056914167888 0 -0.13032704167910961 0.36243165272940508 0 -0.1585191913545585 0.36849205211677388 0 -0.13328480609637161 0.35977082576090252 0 -0.13032704167910961 0.36243165272940508 0 -0.1585191913545585 0.36849205211677388 0 -0.12911823288158131 0.37983536022227982 0 -0.1421011434622077 0.3765056914167888 0 -0.13032704167910961 0.36243165272940508 0 -0.13328480609637161 0.35977082576090252 0 -0.13032704167910961 0.36243165272940508 0 -0.1176919397273571 0.36268383656905362 0 -0.13328480609637161 0.35977082576090252 0 -0.13032704167910961 0.36243165272940508 0 -0.14454845620976189 0.35032773942290452 0 -0.12506826247722341 0.35250158281848121 0 -0.1176919397273571 0.36268383656905362 0 -0.14454845620976189 0.35032773942290452 0 -0.1176919397273571 0.36268383656905362 0 -0.14454845620976189 0.35032773942290452 0 -0.13328480609637161 0.35977082576090252 0 -0.1176919397273571 0.36268383656905362 0 -0.14565095373812489 0.34803786090649619 0 -0.12506826247722341 0.35250158281848121 0 -0.1222129041522336 0.33809844957058988 0 -0.14454845620976189 0.35032773942290452 0 -0.14565095373812489 0.34803786090649619 0 -0.12506826247722341 0.35250158281848121 0 -0.13840657251158989 0.3324422949857867 0 -0.13118095557009671 0.32106855211246149 0 -0.1222129041522336 0.33809844957058988 0 -0.14565095373812489 0.34803786090649619 0 -0.1222129041522336 0.33809844957058988 0 -0.14565095373812489 0.34803786090649619 0 -0.13840657251158989 0.3324422949857867 0 -0.1222129041522336 0.33809844957058988 0 -0.13118095557009671 0.32106855211246149 0 -0.1439529364198058 0.31943769442418879 0 -0.13459429445289589 0.30488228729345501 0 -0.13840657251158989 0.3324422949857867 0 -0.13118095557009671 0.32106855211246149 0 -0.1439529364198058 0.31943769442418879 0 -0.1439529364198058 0.31943769442418879 0 -0.16117228657518889 0.31775699436375598 0 -0.15112483073394259 0.30302504382424622 0 -0.1439529364198058 0.31943769442418879 0 -0.15234489427742501 0.33433644863819972 0 -0.16117228657518889 0.31775699436375598 0 -0.14565095373812489 0.34803786090649619 0 -0.15234489427742501 0.33433644863819972 0 -0.16201608059986189 0.3436468942178536 0 -0.14565095373812489 0.34803786090649619 0 -0.13840657251158989 0.3324422949857867 0 -0.15234489427742501 0.33433644863819972 0 -0.13840657251158989 0.3324422949857867 0 -0.1439529364198058 0.31943769442418879 0 -0.15234489427742501 0.33433644863819972 0 -0.15234489427742501 0.33433644863819972 0 -0.16950639711308391 0.3329609337176298 0 -0.16117228657518889 0.31775699436375598 0 -0.15234489427742501 0.33433644863819972 0 -0.16201608059986189 0.3436468942178536 0 -0.16950639711308391 0.3329609337176298 0 -0.16201608059986189 0.3436468942178536 0 -0.16950639711308391 0.3329609337176298 0 -0.17395536545816839 0.34437131705446899 0 -0.16950639711308391 0.3329609337176298 0 -0.16117228657518889 0.31775699436375598 0 -0.18628525215535749 0.31893606699113258 0 -0.16117228657518889 0.31775699436375598 0 -0.18628525215535749 0.31893606699113258 0 -0.16927085490465249 0.30155332011034619 0 -0.16950639711308391 0.3329609337176298 0 -0.18628525215535749 0.31893606699113258 0 -0.18425670598034341 0.33575348148189849 0 -0.16950639711308391 0.3329609337176298 0 -0.18425670598034341 0.33575348148189849 0 -0.17395536545816839 0.34437131705446899 0 -0.18425670598034341 0.33575348148189849 0 -0.18625280097239569 0.35010770082876902 0 -0.17395536545816839 0.34437131705446899 0 -0.18625280097239569 0.35010770082876902 0 -0.17395536545816839 0.34437131705446899 0 -0.1690890033240158 0.35797727224240311 0 -0.18625280097239569 0.35010770082876902 0 -0.1690890033240158 0.35797727224240311 0 -0.19252705290990679 0.36791668357830998 0 -0.14565095373812489 0.34803786090649619 0 -0.1690890033240158 0.35797727224240311 0 -0.14454845620976189 0.35032773942290452 0 -0.1690890033240158 0.35797727224240311 0 -0.1585191913545585 0.36849205211677388 0 -0.14565095373812489 0.34803786090649619 0 -0.16201608059986189 0.3436468942178536 0 -0.1690890033240158 0.35797727224240311 0 -0.16201608059986189 0.3436468942178536 0 -0.17395536545816839 0.34437131705446899 0 -0.1690890033240158 0.35797727224240311 0 -0.1690890033240158 0.35797727224240311 0 -0.1585191913545585 0.36849205211677388 0 -0.18671134103000711 0.37455245150414379 0 -0.17036481392393391 0.38058526880823412 0 -0.1585191913545585 0.36849205211677388 0 -0.18671134103000711 0.37455245150414379 0 -0.1690890033240158 0.35797727224240311 0 -0.18671134103000711 0.37455245150414379 0 -0.19252705290990679 0.36791668357830998 0 -0.1690890033240158 0.35797727224240311 0 -0.19252705290990679 0.36791668357830998 0 -0.1585191913545585 0.36849205211677388 0 -0.18671134103000711 0.37455245150414379 0 -0.19252705290990679 0.36791668357830998 0 -0.1989770294913418 0.35492734699648232 0 -0.20815852955223821 0.36261648835616678 0 -0.21490349070545581 0.3806128508915132 0 -0.18671134103000711 0.37455245150414379 0 -0.19252705290990679 0.36791668357830998 0 -0.18625280097239569 0.35010770082876902 0 -0.19252705290990679 0.36791668357830998 0 -0.1989770294913418 0.35492734699648232 0 -0.18625280097239569 0.35010770082876902 0 -0.1989770294913418 0.35492734699648232 0 -0.200994186156083 0.33830864718811682 0 -0.1989770294913418 0.35492734699648232 0 -0.2119704035941245 0.35203386605149428 0 -0.200994186156083 0.33830864718811682 0 -0.2119704035941245 0.35203386605149428 0 -0.2291598143487108 0.34359253350639951 0 -0.200994186156083 0.33830864718811682 0 -0.1989770294913418 0.35492734699648232 0 -0.2119704035941245 0.35203386605149428 0 -0.20815852955223821 0.36261648835616678 0 -0.2119704035941245 0.35203386605149428 0 -0.20815852955223821 0.36261648835616678 0 -0.22256245842224859 0.36072431421030621 0 -0.2159651024957977 0.37785609491421718 0 -0.20815852955223821 0.36261648835616678 0 -0.22256245842224859 0.36072431421030621 0 -0.2159651024957977 0.37785609491421718 0 -0.19252705290990679 0.36791668357830998 0 -0.20815852955223821 0.36261648835616678 0 -0.2159651024957977 0.37785609491421718 0 -0.19252705290990679 0.36791668357830998 0 -0.2159651024957977 0.37785609491421718 0 -0.22256245842224859 0.36072431421030621 0 -0.2159651024957977 0.37785609491421718 0 -0.22734931244881801 0.37297605980961662 0 -0.22256245842224859 0.36072431421030621 0 -0.23485332728865579 0.37561931773976881 0 -0.22734931244881801 0.37297605980961662 0 -0.23800766054528119 0.36845886757108498 0 -0.22734931244881801 0.37297605980961662 0 -0.22256245842224859 0.36072431421030621 0 -0.23800766054528119 0.36845886757108498 0 -0.22256245842224859 0.36072431421030621 0 -0.23741467854812129 0.35580001952082979 0 -0.23800766054528119 0.36845886757108498 0 -0.22256245842224859 0.36072431421030621 0 -0.2291598143487108 0.34359253350639951 0 -0.22256245842224859 0.36072431421030621 0 -0.23741467854812129 0.35580001952082979 0 -0.2291598143487108 0.34359253350639951 0 -0.2119704035941245 0.35203386605149428 0 -0.22256245842224859 0.36072431421030621 0 -0.2291598143487108 0.34359253350639951 0 -0.24938868174502141 0.34738747942199327 0 -0.2291598143487108 0.34359253350639951 0 -0.23741467854812129 0.35580001952082979 0 -0.24938868174502141 0.34738747942199327 0 -0.2291598143487108 0.34359253350639951 0 -0.23741467854812129 0.35580001952082979 0 -0.24938868174502141 0.34738747942199327 0 -0.24532888368726019 0.36239907906864788 0 -0.25513743600172878 0.37068336237299943 0 -0.24938868174502141 0.34738747942199327 0 -0.24532888368726019 0.36239907906864788 0 -0.24532888368726019 0.36239907906864788 0 -0.24548814883268319 0.36963269026218032 0 -0.23800766054528119 0.36845886757108498 0 -0.24347861509646249 0.37698945203598899 0 -0.24548814883268319 0.36963269026218032 0 -0.23800766054528119 0.36845886757108498 0 -0.25513743600172878 0.37068336237299943 0 -0.24532888368726019 0.36239907906864788 0 -0.24548814883268319 0.36963269026218032 0 -0.25513743600172878 0.37068336237299943 0 -0.24347861509646249 0.37698945203598899 0 -0.24548814883268319 0.36963269026218032 0 -0.23485332728865579 0.37561931773976881 0 -0.24347861509646249 0.37698945203598899 0 -0.23800766054528119 0.36845886757108498 0 -0.23741467854812129 0.35580001952082979 0 -0.24532888368726019 0.36239907906864788 0 -0.23800766054528119 0.36845886757108498 0 -0.24091767821693821 0.31306012816368228 0 -0.24723650295103011 0.31501016826620992 0 -0.2451531799809791 0.330223803792838 0 -0.24091767821693821 0.31306012816368228 0 -0.2451531799809791 0.330223803792838 0 -0.24091767821693821 0.31306012816368228 0 -0.2451531799809791 0.330223803792838 0 -0.23503874628282401 0.3283263308350407 0 -0.24091767821693821 0.31306012816368228 0 -0.23503874628282401 0.3283263308350407 0 -0.25401802485225888 0.3197267147461782 0 -0.24723650295103011 0.31501016826620992 0 -0.2451531799809791 0.330223803792838 0 -0.24938868174502141 0.34738747942199327 0 -0.2451531799809791 0.330223803792838 0 -0.24938868174502141 0.34738747942199327 0 -0.2451531799809791 0.330223803792838 0 -0.23931441098442111 0.33766782883185043 0 -0.24938868174502141 0.34738747942199327 0 -0.23931441098442111 0.33766782883185043 0 -0.2291598143487108 0.34359253350639951 0 -0.23931441098442111 0.33766782883185043 0 -0.23503874628282401 0.3283263308350407 0 -0.2291598143487108 0.34359253350639951 0 -0.2451531799809791 0.330223803792838 0 -0.23931441098442111 0.33766782883185043 0 -0.23503874628282401 0.3283263308350407 0 -0.23503874628282401 0.3283263308350407 0 -0.2291598143487108 0.34359253350639951 0 -0.2183152893572263 0.32957191476193859 0 -0.23503874628282401 0.3283263308350407 0 -0.2291598143487108 0.34359253350639951 0 -0.23503874628282401 0.3283263308350407 0 -0.2271447026835838 0.31764925552004952 0 -0.2183152893572263 0.32957191476193859 0 -0.2271447026835838 0.31764925552004952 0 -0.2183152893572263 0.32957191476193859 0 -0.2127940352121909 0.31099493937387801 0 -0.24091767821693821 0.31306012816368228 0 -0.23503874628282401 0.3283263308350407 0 -0.2271447026835838 0.31764925552004952 0 -0.2183152893572263 0.32957191476193859 0 -0.200994186156083 0.33830864718811682 0 -0.2127940352121909 0.31099493937387801 0 -0.2291598143487108 0.34359253350639951 0 -0.2183152893572263 0.32957191476193859 0 -0.200994186156083 0.33830864718811682 0 -0.2291598143487108 0.34359253350639951 0 -0.200994186156083 0.33830864718811682 0 -0.18425670598034341 0.33575348148189849 0 -0.18625280097239569 0.35010770082876902 0 -0.200994186156083 0.33830864718811682 0 -0.18628525215535749 0.31893606699113258 0 -0.18425670598034341 0.33575348148189849 0 -0.200994186156083 0.33830864718811682 0 -0.18628525215535749 0.31893606699113258 0 -0.200994186156083 0.33830864718811682 0 -0.2127940352121909 0.31099493937387801 0 -0.18628525215535749 0.31893606699113258 0 -0.1908486561183203 0.29483902242428278 0 -0.2127940352121909 0.31099493937387801 0 -0.1908486561183203 0.29483902242428278 0 -0.20865053199836611 0.28637225763903951 0 -0.1913835433487058 0.27399141546072842 0 -0.20865053199836611 0.28637225763903951 0 -0.2127940352121909 0.31099493937387801 0 -0.22293252467231819 0.29458967393184038 0 -0.1908486561183203 0.29483902242428278 0 -0.20865053199836611 0.28637225763903951 0 -0.2127940352121909 0.31099493937387801 0 -0.2127940352121909 0.31099493937387801 0 -0.22865776434873941 0.30629296446570797 0 -0.22293252467231819 0.29458967393184038 0 -0.2271447026835838 0.31764925552004952 0 -0.2127940352121909 0.31099493937387801 0 -0.22865776434873941 0.30629296446570797 0 -0.24091767821693821 0.31306012816368228 0 -0.2271447026835838 0.31764925552004952 0 -0.22865776434873941 0.30629296446570797 0 -0.22865776434873941 0.30629296446570797 0 -0.22293252467231819 0.29458967393184038 0 -0.2367282987769769 0.29608335568174943 0 -0.20865053199836611 0.28637225763903951 0 -0.22293252467231819 0.29458967393184038 0 -0.23253891933701559 0.2791065831998164 0 -0.22293252467231819 0.29458967393184038 0 -0.2367282987769769 0.29608335568174943 0 -0.23253891933701559 0.2791065831998164 0 -0.2367282987769769 0.29608335568174943 0 -0.2497019672081322 0.28301844179522329 0 -0.23253891933701559 0.2791065831998164 0 -0.26020144662002492 0.29806372512065299 0 -0.2367282987769769 0.29608335568174943 0 -0.2497019672081322 0.28301844179522329 0 -0.2367282987769769 0.29608335568174943 0 -0.23253891933701559 0.2791065831998164 0 -0.25082215645828948 0.30725659750656648 0 -0.24091767821693821 0.31306012816368228 0 -0.2367282987769769 0.29608335568174943 0 -0.24091767821693821 0.31306012816368228 0 -0.2367282987769769 0.29608335568174943 0 -0.24091767821693821 0.31306012816368228 0 -0.22865776434873941 0.30629296446570797 0 -0.2367282987769769 0.29608335568174943 0 -0.26020144662002492 0.29806372512065299 0 -0.25082215645828948 0.30725659750656648 0 -0.2367282987769769 0.29608335568174943 0 -0.25082215645828948 0.30725659750656648 0 -0.24091767821693821 0.31306012816368228 0 -0.24723650295103011 0.31501016826620992 0 -0.25499370846812258 0.25382717309031783 0 -0.235708961880149 0.25177341949651721 0 -0.2429518053774273 0.26707266061814627 0 -0.2497019672081322 0.28301844179522329 0 -0.2429518053774273 0.26707266061814627 0 -0.23253891933701559 0.2791065831998164 0 -0.20865053199836611 0.28637225763903951 0 -0.23253891933701559 0.2791065831998164 0 -0.22426340283625179 0.26354884344069712 0 -0.2429518053774273 0.26707266061814627 0 -0.23253891933701559 0.2791065831998164 0 -0.22426340283625179 0.26354884344069712 0 -0.235708961880149 0.25177341949651721 0 -0.22426340283625179 0.26354884344069712 0 -0.21704530339763251 0.24959003801806731 0 -0.235708961880149 0.25177341949651721 0 -0.2429518053774273 0.26707266061814627 0 -0.22426340283625179 0.26354884344069712 0 -0.22426340283625179 0.26354884344069712 0 -0.20676410203082751 0.26147473855227699 0 -0.21704530339763251 0.24959003801806731 0 -0.20676410203082751 0.26147473855227699 0 -0.20231806928452301 0.2402473460012845 0 -0.21704530339763251 0.24959003801806731 0 -0.20865053199836611 0.28637225763903951 0 -0.22426340283625179 0.26354884344069712 0 -0.20676410203082751 0.26147473855227699 0 -0.20865053199836611 0.28637225763903951 0 -0.20676410203082751 0.26147473855227699 0 -0.1913835433487058 0.27399141546072842 0 -0.20676410203082751 0.26147473855227699 0 -0.1913835433487058 0.27399141546072842 0 -0.17734599942912599 0.25099626575524658 0 -0.20676410203082751 0.26147473855227699 0 -0.17734599942912599 0.25099626575524658 0 -0.20231806928452301 0.2402473460012845 0 -0.17734599942912599 0.25099626575524658 0 -0.17330842716688921 0.27627479293279628 0 -0.17734599942912599 0.25099626575524658 0 -0.15753354274428891 0.25858197071336853 0 -0.17330842716688921 0.27627479293279628 0 -0.17734599942912599 0.25099626575524658 0 -0.15753354274428891 0.25858197071336853 0 -0.15760459646338579 0.24197264035209939 0 -0.15753354274428891 0.25858197071336853 0 -0.17330842716688921 0.27627479293279628 0 -0.15394977735528551 0.27458559126712351 0 -0.17330842716688921 0.27627479293279628 0 -0.1578868861391772 0.28830895391484662 0 -0.15394977735528551 0.27458559126712351 0 -0.1913835433487058 0.27399141546072842 0 -0.17734599942912599 0.25099626575524658 0 -0.17330842716688921 0.27627479293279628 0 -0.1908486561183203 0.29483902242428278 0 -0.1913835433487058 0.27399141546072842 0 -0.17330842716688921 0.27627479293279628 0 -0.1908486561183203 0.29483902242428278 0 -0.17330842716688921 0.27627479293279628 0 -0.16927085490465249 0.30155332011034619 0 -0.18628525215535749 0.31893606699113258 0 -0.1908486561183203 0.29483902242428278 0 -0.16927085490465249 0.30155332011034619 0 -0.16117228657518889 0.31775699436375598 0 -0.16927085490465249 0.30155332011034619 0 -0.15112483073394259 0.30302504382424622 0 -0.16927085490465249 0.30155332011034619 0 -0.1578868861391772 0.28830895391484662 0 -0.15112483073394259 0.30302504382424622 0 -0.17330842716688921 0.27627479293279628 0 -0.16927085490465249 0.30155332011034619 0 -0.1578868861391772 0.28830895391484662 0 -0.17330842716688921 0.27627479293279628 0 -0.16927085490465249 0.30155332011034619 0 -0.1578868861391772 0.28830895391484662 0 -0.1417805405351163 0.28610602143972069 0 -0.15394977735528551 0.27458559126712351 0 -0.1578868861391772 0.28830895391484662 0 -0.1417805405351163 0.28610602143972069 0 -0.15112483073394259 0.30302504382424622 0 -0.1417805405351163 0.28610602143972069 0 -0.15112483073394259 0.30302504382424622 0 -0.13459429445289589 0.30488228729345501 0 -0.1439529364198058 0.31943769442418879 0 -0.15112483073394259 0.30302504382424622 0 -0.13459429445289589 0.30488228729345501 0 -0.13459429445289589 0.30488228729345501 0 -0.12668004417838821 0.29184759013762263 0 -0.1167380703139579 0.31048203428828741 0 -0.13118095557009671 0.32106855211246149 0 -0.13459429445289589 0.30488228729345501 0 -0.1167380703139579 0.31048203428828741 0 -0.1417805405351163 0.28610602143972069 0 -0.12668004417838821 0.29184759013762263 0 -0.12902407911428779 0.27490198866066518 0 -0.1417805405351163 0.28610602143972069 0 -0.13459429445289589 0.30488228729345501 0 -0.12668004417838821 0.29184759013762263 0 -0.1417805405351163 0.28610602143972069 0 -0.12902407911428779 0.27490198866066518 0 -0.1409872189014634 0.269699008770872 0 -0.12902407911428779 0.27490198866066518 0 -0.13194018833849969 0.26269540241438938 0 -0.1409872189014634 0.269699008770872 0 -0.12902407911428779 0.27490198866066518 0 -0.13194018833849969 0.26269540241438938 0 -0.116733836902012 0.26738912034311502 0 -0.13194018833849969 0.26269540241438938 0 -0.13243016478697431 0.25209722541406521 0 -0.1239531221148822 0.25532768312897258 0 -0.13243016478697431 0.25209722541406521 0 -0.1239531221148822 0.25532768312897258 0 -0.1255001957498163 0.24628542454034369 0 -0.13194018833849969 0.26269540241438938 0 -0.13243016478697431 0.25209722541406521 0 -0.1428175167599289 0.25447727587941171 0 -0.13194018833849969 0.26269540241438938 0 -0.1428175167599289 0.25447727587941171 0 -0.1409872189014634 0.269699008770872 0 -0.15753354274428891 0.25858197071336853 0 -0.1428175167599289 0.25447727587941171 0 -0.15760459646338579 0.24197264035209939 0 -0.15753354274428891 0.25858197071336853 0 -0.1428175167599289 0.25447727587941171 0 -0.1409872189014634 0.269699008770872 0 -0.1417805405351163 0.28610602143972069 0 -0.15394977735528551 0.27458559126712351 0 -0.1409872189014634 0.269699008770872 0 -0.15753354274428891 0.25858197071336853 0 -0.15394977735528551 0.27458559126712351 0 -0.1409872189014634 0.269699008770872 0 -0.099110315392266293 0.27059235188270209 0 -0.1057884026374087 0.25524920372368182 0 -0.1112632364756833 0.28286561900598473 0 -0.099110315392266293 0.27059235188270209 0 -0.1112632364756833 0.28286561900598473 0 -0.0919151159495184 0.28263119636283451 0 -0.1057884026374087 0.25524920372368182 0 -0.1112632364756833 0.28286561900598473 0 -0.099110315392266293 0.27059235188270209 0 -0.096094146256345964 0.26075755230572001 0 -0.087353436639252338 0.26780083816002098 0 -0.099110315392266293 0.27059235188270209 0 -0.096094146256345964 0.26075755230572001 0 -0.1057884026374087 0.25524920372368182 0 -0.093841004053488664 0.25633116332211819 0 -0.1004635180975432 0.25391368625496658 0 -0.088114880810680918 0.25177782386922759 0 -0.1004635180975432 0.25391368625496658 0 -0.1057884026374087 0.25524920372368182 0 -0.098254434968115534 0.2456333193106548 0 -0.096094146256345964 0.26075755230572001 0 -0.1004635180975432 0.25391368625496658 0 -0.1057884026374087 0.25524920372368182 0 -0.096094146256345964 0.26075755230572001 0 -0.093841004053488664 0.25633116332211819 0 -0.1004635180975432 0.25391368625496658 0 -0.1057884026374087 0.25524920372368182 0 -0.1149807726357945 0.25662266459793281 0 -0.116733836902012 0.26738912034311502 0 -0.1057884026374087 0.25524920372368182 0 -0.1149807726357945 0.25662266459793281 0 -0.114554315497749 0.24628049261128021 0 -0.1149807726357945 0.25662266459793281 0 -0.1239531221148822 0.25532768312897258 0 -0.114554315497749 0.24628049261128021 0 -0.1149807726357945 0.25662266459793281 0 -0.1239531221148822 0.25532768312897258 0 -0.116733836902012 0.26738912034311502 0 -0.13194018833849969 0.26269540241438938 0 -0.1239531221148822 0.25532768312897258 0 -0.116733836902012 0.26738912034311502 0 -0.1057884026374087 0.25524920372368182 0 -0.116733836902012 0.26738912034311502 0 -0.1112632364756833 0.28286561900598473 0 -0.12902407911428779 0.27490198866066518 0 -0.116733836902012 0.26738912034311502 0 -0.1112632364756833 0.28286561900598473 0 -0.12668004417838821 0.29184759013762263 0 -0.12902407911428779 0.27490198866066518 0 -0.1112632364756833 0.28286561900598473 0 -0.1112632364756833 0.28286561900598473 0 -0.1167380703139579 0.31048203428828741 0 -0.12668004417838821 0.29184759013762263 0 -0.1112632364756833 0.28286561900598473 0 -0.1167380703139579 0.31048203428828741 0 -0.1112632364756833 0.28286561900598473 0 -0.1167380703139579 0.31048203428828741 0 -0.092693397477012857 0.30294179723835191 0 -0.1112632364756833 0.28286561900598473 0 -0.0919151159495184 0.28263119636283451 0 -0.092693397477012857 0.30294179723835191 0 -0.0919151159495184 0.28263119636283451 0 -0.080794797933091189 0.2924503641346205 0 -0.092693397477012857 0.30294179723835191 0 -0.0919151159495184 0.28263119636283451 0 -0.080794797933091189 0.2924503641346205 0 -0.077253578215269667 0.27791129364968109 0 -0.092693397477012857 0.30294179723835191 0 -0.071137331529621622 0.30455762061511921 0 -0.077265852040733884 0.31903768098421459 0 -0.080794797933091189 0.2924503641346205 0 -0.092693397477012857 0.30294179723835191 0 -0.071137331529621622 0.30455762061511921 0 -0.071137331529621622 0.30455762061511921 0 -0.054792325984982078 0.30950729669103172 0 -0.077265852040733884 0.31903768098421459 0 -0.071137331529621622 0.30455762061511921 0 -0.067013381953673429 0.29133520189092199 0 -0.054792325984982078 0.30950729669103172 0 -0.080794797933091189 0.2924503641346205 0 -0.067013381953673429 0.29133520189092199 0 -0.077253578215269667 0.27791129364968109 0 -0.080794797933091189 0.2924503641346205 0 -0.071137331529621622 0.30455762061511921 0 -0.067013381953673429 0.29133520189092199 0 -0.067013381953673429 0.29133520189092199 0 -0.064720399311902183 0.27598720151518641 0 -0.077253578215269667 0.27791129364968109 0 -0.064720399311902183 0.27598720151518641 0 -0.071239148682508205 0.2708599979095675 0 -0.065925506631533695 0.26439464521164657 0 -0.071239148682508205 0.2708599979095675 0 -0.077253578215269667 0.27791129364968109 0 -0.077057110571327248 0.26514685126175558 0 -0.071239148682508205 0.2708599979095675 0 -0.077057110571327248 0.26514685126175558 0 -0.065925506631533695 0.26439464521164657 0 -0.064720399311902183 0.27598720151518641 0 -0.071239148682508205 0.2708599979095675 0 -0.077253578215269667 0.27791129364968109 0 -0.0919151159495184 0.28263119636283451 0 -0.077253578215269667 0.27791129364968109 0 -0.087353436639252338 0.26780083816002098 0 -0.077253578215269667 0.27791129364968109 0 -0.087353436639252338 0.26780083816002098 0 -0.077057110571327248 0.26514685126175558 0 -0.099110315392266293 0.27059235188270209 0 -0.0919151159495184 0.28263119636283451 0 -0.087353436639252338 0.26780083816002098 0 -0.088114880810680918 0.25177782386922759 0 -0.088929340793596989 0.25820234274221238 0 -0.082167006219431279 0.25112813484404639 0 -0.093841004053488664 0.25633116332211819 0 -0.088114880810680918 0.25177782386922759 0 -0.088929340793596989 0.25820234274221238 0 -0.096094146256345964 0.26075755230572001 0 -0.087353436639252338 0.26780083816002098 0 -0.088929340793596989 0.25820234274221238 0 -0.096094146256345964 0.26075755230572001 0 -0.093841004053488664 0.25633116332211819 0 -0.088929340793596989 0.25820234274221238 0 -0.087353436639252338 0.26780083816002098 0 -0.080880621063232752 0.2581494491120499 0 -0.077057110571327248 0.26514685126175558 0 -0.087353436639252338 0.26780083816002098 0 -0.088929340793596989 0.25820234274221238 0 -0.080880621063232752 0.2581494491120499 0 -0.088929340793596989 0.25820234274221238 0 -0.080880621063232752 0.2581494491120499 0 -0.082167006219431279 0.25112813484404639 0 -0.080880621063232752 0.2581494491120499 0 -0.082167006219431279 0.25112813484404639 0 -0.076666686671242767 0.25204862571865688 0 -0.082167006219431279 0.25112813484404639 0 -0.076666686671242767 0.25204862571865688 0 -0.076004334722877626 0.24723302118292681 0 -0.076666686671242767 0.25204862571865688 0 -0.071802969642164455 0.25851494532730768 0 -0.070010111111491954 0.2464415319862093 0 -0.080880621063232752 0.2581494491120499 0 -0.076666686671242767 0.25204862571865688 0 -0.071802969642164455 0.25851494532730768 0 -0.071802969642164455 0.25851494532730768 0 -0.077057110571327248 0.26514685126175558 0 -0.065925506631533695 0.26439464521164657 0 -0.080880621063232752 0.2581494491120499 0 -0.071802969642164455 0.25851494532730768 0 -0.077057110571327248 0.26514685126175558 0 -0.071802969642164455 0.25851494532730768 0 -0.065925506631533695 0.26439464521164657 0 -0.063825786058281639 0.25388910503181172 0 -0.065925506631533695 0.26439464521164657 0 -0.063825786058281639 0.25388910503181172 0 -0.058669852390860061 0.25948994217654481 0 -0.071802969642164455 0.25851494532730768 0 -0.063825786058281639 0.25388910503181172 0 -0.070010111111491954 0.2464415319862093 0 -0.063825786058281639 0.25388910503181172 0 -0.052956725364248503 0.25398844567396672 0 -0.05838690939615615 0.24685761960527891 0 -0.063825786058281639 0.25388910503181172 0 -0.058669852390860061 0.25948994217654481 0 -0.052956725364248503 0.25398844567396672 0 -0.065925506631533695 0.26439464521164657 0 -0.058669852390860061 0.25948994217654481 0 -0.051971391509376401 0.26568757278875399 0 -0.052956725364248503 0.25398844567396672 0 -0.051971391509376401 0.26568757278875399 0 -0.038769726128567897 0.2581562343505211 0 -0.058669852390860061 0.25948994217654481 0 -0.052956725364248503 0.25398844567396672 0 -0.051971391509376401 0.26568757278875399 0 -0.064720399311902183 0.27598720151518641 0 -0.051971391509376401 0.26568757278875399 0 -0.05338185874717391 0.28759743473989319 0 -0.051971391509376401 0.26568757278875399 0 -0.05338185874717391 0.28759743473989319 0 -0.051971391509376401 0.26568757278875399 0 -0.042985949806576912 0.2770499600542346 0 -0.05338185874717391 0.28759743473989319 0 -0.064720399311902183 0.27598720151518641 0 -0.065925506631533695 0.26439464521164657 0 -0.051971391509376401 0.26568757278875399 0 -0.042985949806576912 0.2770499600542346 0 -0.038769726128567897 0.2581562343505211 0 -0.027501845728561531 0.27084910897345538 0 -0.051971391509376401 0.26568757278875399 0 -0.042985949806576912 0.2770499600542346 0 -0.038769726128567897 0.2581562343505211 0 -0.052956725364248503 0.25398844567396672 0 -0.038769726128567897 0.2581562343505211 0 -0.045951081437063501 0.2421735950950713 0 -0.038769726128567897 0.2581562343505211 0 -0.02023321952338877 0.25379143963427492 0 -0.027501845728561531 0.27084910897345538 0 -0.02023321952338877 0.25379143963427492 0 -0.027501845728561531 0.27084910897345538 0 -0.01507923724336137 0.26434370000051249 0 -0.038769726128567897 0.2581562343505211 0 -0.02023321952338877 0.25379143963427492 0 -0.028393867116377699 0.2428768222591032 0 -0.042985949806576912 0.2770499600542346 0 -0.01798170486332179 0.28454490946597127 0 -0.042985949806576912 0.2770499600542346 0 -0.027501845728561531 0.27084910897345538 0 -0.01798170486332179 0.28454490946597127 0 -0.027501845728561531 0.27084910897345538 0 -0.015949968511462249 0.27360042460923911 0 -0.01798170486332179 0.28454490946597127 0 -0.027501845728561531 0.27084910897345538 0 -0.015949968511462249 0.27360042460923911 0 -0.01507923724336137 0.26434370000051249 0 -0.015949968511462249 0.27360042460923911 0 -0.0077384578393843934 0.26989655625375208 0 -0.01507923724336137 0.26434370000051249 0 -0.015949968511462249 0.27360042460923911 0 -0.011055007536545329 0.27924812671609811 0 -0.0077384578393843934 0.26989655625375208 0 -0.015949968511462249 0.27360042460923911 0 -0.011055007536545329 0.27924812671609811 0 -0.01798170486332179 0.28454490946597127 0 -0.011055007536545329 0.27924812671609811 0 -0.0026730804511828099 0.27560396698430911 0 -0.0077384578393843934 0.26989655625375208 0 -0.011055007536545329 0.27924812671609811 0 -0.0026730804511828099 0.27560396698430911 0 0.0010085689623396241 0.28548657445276199 0 -0.0026730804511828099 0.27560396698430911 0 -0.0077384578393843934 0.26989655625375208 0 0.0070925746088588556 0.2677846105146241 0 -0.0077384578393843934 0.26989655625375208 0 -0.004688707870413332 0.2558135020850828 0 0.0070925746088588556 0.2677846105146241 0 -0.02023321952338877 0.25379143963427492 0 -0.004688707870413332 0.2558135020850828 0 -0.01507923724336137 0.26434370000051249 0 -0.0077384578393843934 0.26989655625375208 0 -0.004688707870413332 0.2558135020850828 0 -0.01507923724336137 0.26434370000051249 0 -0.017217590039138989 0.28950667898549393 0 -0.018056624395774309 0.30728632152310559 0 -0.0010984081856968699 0.31269359166515759 0 -0.017217590039138989 0.28950667898549393 0 -0.0010984081856968699 0.31269359166515759 0 0.0070225400799332413 0.292039858877708 0 -0.017217590039138989 0.28950667898549393 0 -0.0010984081856968699 0.31269359166515759 0 -0.017217590039138989 0.28950667898549393 0 -0.01798170486332179 0.28454490946597127 0 0.0070225400799332413 0.292039858877708 0 -0.01798170486332179 0.28454490946597127 0 0.0010085689623396241 0.28548657445276199 0 0.0070225400799332413 0.292039858877708 0 -0.01798170486332179 0.28454490946597127 0 0.0070225400799332413 0.292039858877708 0 -0.011055007536545329 0.27924812671609811 0 -0.01798170486332179 0.28454490946597127 0 0.0010085689623396241 0.28548657445276199 0 -0.042985949806576912 0.2770499600542346 0 -0.01798170486332179 0.28454490946597127 0 -0.02978182388755142 0.2898064773630028 0 -0.017217590039138989 0.28950667898549393 0 -0.01798170486332179 0.28454490946597127 0 -0.02978182388755142 0.2898064773630028 0 -0.017217590039138989 0.28950667898549393 0 -0.02978182388755142 0.2898064773630028 0 -0.024499229821213411 0.29748348204815928 0 -0.02978182388755142 0.2898064773630028 0 -0.024499229821213411 0.29748348204815928 0 -0.034704745452619978 0.30098872414843358 0 -0.018056624395774309 0.30728632152310559 0 -0.034704745452619978 0.30098872414843358 0 -0.037667060515469648 0.31944154917317152 0 -0.024499229821213411 0.29748348204815928 0 -0.018056624395774309 0.30728632152310559 0 -0.034704745452619978 0.30098872414843358 0 -0.017217590039138989 0.28950667898549393 0 -0.024499229821213411 0.29748348204815928 0 -0.018056624395774309 0.30728632152310559 0 -0.034704745452619978 0.30098872414843358 0 -0.054792325984982078 0.30950729669103172 0 -0.037667060515469648 0.31944154917317152 0 -0.034704745452619978 0.30098872414843358 0 -0.054792325984982078 0.30950729669103172 0 -0.034704745452619978 0.30098872414843358 0 -0.043129340775780872 0.29298997859931919 0 -0.054792325984982078 0.30950729669103172 0 -0.042985949806576912 0.2770499600542346 0 -0.043129340775780872 0.29298997859931919 0 -0.05338185874717391 0.28759743473989319 0 -0.042985949806576912 0.2770499600542346 0 -0.02978182388755142 0.2898064773630028 0 -0.043129340775780872 0.29298997859931919 0 -0.02978182388755142 0.2898064773630028 0 -0.034704745452619978 0.30098872414843358 0 -0.043129340775780872 0.29298997859931919 0 -0.043129340775780872 0.29298997859931919 0 -0.05338185874717391 0.28759743473989319 0 -0.054792325984982078 0.30950729669103172 0 -0.067013381953673429 0.29133520189092199 0 -0.05338185874717391 0.28759743473989319 0 -0.054792325984982078 0.30950729669103172 0 -0.067013381953673429 0.29133520189092199 0 -0.064720399311902183 0.27598720151518641 0 -0.05338185874717391 0.28759743473989319 0 -0.05338185874717391 0.28759743473989319 0 -0.054792325984982078 0.30950729669103172 0 -0.054792325984982078 0.30950729669103172 0 -0.056335720156082 0.33348201394715932 0 -0.054792325984982078 0.30950729669103172 0 -0.056335720156082 0.33348201394715932 0 -0.037667060515469648 0.31944154917317152 0 -0.056335720156082 0.33348201394715932 0 -0.037418624461230329 0.33571533733288489 0 -0.037667060515469648 0.31944154917317152 0 -0.056335720156082 0.33348201394715932 0 -0.037418624461230329 0.33571533733288489 0 -0.042274172550674893 0.35095376010721602 0 -0.037418624461230329 0.33571533733288489 0 -0.025970681591511498 0.3440950540400956 0 -0.042274172550674893 0.35095376010721602 0 -0.037418624461230329 0.33571533733288489 0 -0.037667060515469648 0.31944154917317152 0 -0.02454315779184486 0.328734893396045 0 -0.018056624395774309 0.30728632152310559 0 -0.02454315779184486 0.328734893396045 0 -0.0094166299445115342 0.32628581684788749 0 -0.018056624395774309 0.30728632152310559 0 -0.037667060515469648 0.31944154917317152 0 -0.02454315779184486 0.328734893396045 0 -0.02454315779184486 0.328734893396045 0 -0.0071078859541612973 0.3420532230972958 0 -0.025970681591511498 0.3440950540400956 0 -0.037418624461230329 0.33571533733288489 0 -0.02454315779184486 0.328734893396045 0 -0.025970681591511498 0.3440950540400956 0 -0.02454315779184486 0.328734893396045 0 -0.0071078859541612973 0.3420532230972958 0 -0.0094166299445115342 0.32628581684788749 0 -0.0071078859541612973 0.3420532230972958 0 -0.0094166299445115342 0.32628581684788749 0 0.01502077366774526 0.33588050434482142 0 -0.018056624395774309 0.30728632152310559 0 -0.0010984081856968699 0.31269359166515759 0 -0.0094166299445115342 0.32628581684788749 0 -0.018358402349361761 0.36208334826666733 0 0.0055573678519514856 0.37321293642611858 0 -0.018358402349361761 0.36208334826666733 0 -0.024070166689737289 0.38149000389404819 0 0.0055573678519514856 0.37321293642611858 0 -0.018358402349361761 0.36208334826666733 0 0.0081512274939709948 0.35400479806035851 0 0.0055573678519514856 0.37321293642611858 0 -0.0071078859541612973 0.3420532230972958 0 -0.018358402349361761 0.36208334826666733 0 0.0081512274939709948 0.35400479806035851 0 -0.018358402349361761 0.36208334826666733 0 -0.042274172550674893 0.35095376010721602 0 -0.0071078859541612973 0.3420532230972958 0 -0.025970681591511498 0.3440950540400956 0 -0.018358402349361761 0.36208334826666733 0 -0.025970681591511498 0.3440950540400956 0 -0.018358402349361761 0.36208334826666733 0 -0.042274172550674893 0.35095376010721602 0 -0.018358402349361761 0.36208334826666733 0 -0.039922269688873011 0.36896199025645221 0 -0.024070166689737289 0.38149000389404819 0 -0.018358402349361761 0.36208334826666733 0 -0.039922269688873011 0.36896199025645221 0 -0.042274172550674893 0.35095376010721602 0 -0.039922269688873011 0.36896199025645221 0 -0.042274172550674893 0.35095376010721602 0 -0.057879114327192581 0.35745673120328619 0 -0.056335720156082 0.33348201394715932 0 -0.042274172550674893 0.35095376010721602 0 -0.057879114327192581 0.35745673120328619 0 -0.056335720156082 0.33348201394715932 0 -0.057879114327192581 0.35745673120328619 0 -0.067823599482729355 0.34477950862267798 0 -0.056335720156082 0.33348201394715932 0 -0.057879114327192581 0.35745673120328619 0 -0.039922269688873011 0.36896199025645221 0 -0.057879114327192581 0.35745673120328619 0 -0.050429987128583743 0.37346132338962512 0 -0.057879114327192581 0.35745673120328619 0 -0.050429987128583743 0.37346132338962512 0 -0.059422508498303168 0.38143144845941318 0 -0.057879114327192581 0.35745673120328619 0 -0.059422508498303168 0.38143144845941318 0 -0.057879114327192581 0.35745673120328619 0 -0.064972817907804944 0.36898185957824903 0 -0.059422508498303168 0.38143144845941318 0 -0.057879114327192581 0.35745673120328619 0 -0.064972817907804944 0.36898185957824903 0 -0.074727189152500706 0.36034313138512991 0 -0.064972817907804944 0.36898185957824903 0 -0.074410504969373445 0.37470461090138368 0 -0.065465142457903275 0.377905461339614 0 -0.064972817907804944 0.36898185957824903 0 -0.074727189152500706 0.36034313138512991 0 -0.074410504969373445 0.37470461090138368 0 -0.074410504969373445 0.37470461090138368 0 -0.087039586873410277 0.36302288024274731 0 -0.090835423244952196 0.37503993371520261 0 -0.074727189152500706 0.36034313138512991 0 -0.074410504969373445 0.37470461090138368 0 -0.087039586873410277 0.36302288024274731 0 -0.087039586873410277 0.36302288024274731 0 -0.098896301204299542 0.35945476356882938 0 -0.090835423244952196 0.37503993371520261 0 -0.087039586873410277 0.36302288024274731 0 -0.088804060589383574 0.34893466452703797 0 -0.098896301204299542 0.35945476356882938 0 -0.074727189152500706 0.36034313138512991 0 -0.087039586873410277 0.36302288024274731 0 -0.088804060589383574 0.34893466452703797 0 -0.057879114327192581 0.35745673120328619 0 -0.074727189152500706 0.36034313138512991 0 -0.067823599482729355 0.34477950862267798 0 -0.074727189152500706 0.36034313138512991 0 -0.088804060589383574 0.34893466452703797 0 -0.067823599482729355 0.34477950862267798 0 -0.056335720156082 0.33348201394715932 0 -0.067823599482729355 0.34477950862267798 0 -0.077993722073082528 0.33496038667169831 0 -0.056335720156082 0.33348201394715932 0 -0.077993722073082528 0.33496038667169831 0 -0.077265852040733884 0.31903768098421459 0 -0.054792325984982078 0.30950729669103172 0 -0.077265852040733884 0.31903768098421459 0 -0.054792325984982078 0.30950729669103172 0 -0.056335720156082 0.33348201394715932 0 -0.077265852040733884 0.31903768098421459 0 -0.077993722073082528 0.33496038667169831 0 -0.077265852040733884 0.31903768098421459 0 -0.099739378096483811 0.3285680652774019 0 -0.092693397477012857 0.30294179723835191 0 -0.077265852040733884 0.31903768098421459 0 -0.099739378096483811 0.3285680652774019 0 -0.077265852040733884 0.31903768098421459 0 -0.099739378096483811 0.3285680652774019 0 -0.088804060589383574 0.34893466452703797 0 -0.067823599482729355 0.34477950862267798 0 -0.077993722073082528 0.33496038667169831 0 -0.088804060589383574 0.34893466452703797 0 -0.077993722073082528 0.33496038667169831 0 -0.099739378096483811 0.3285680652774019 0 -0.088804060589383574 0.34893466452703797 0 -0.099739378096483811 0.3285680652774019 0 -0.1085429007516984 0.34829306589090719 0 -0.1167380703139579 0.31048203428828741 0 -0.092693397477012857 0.30294179723835191 0 -0.099739378096483811 0.3285680652774019 0 -0.13118095557009671 0.32106855211246149 0 -0.1167380703139579 0.31048203428828741 0 -0.1222129041522336 0.33809844957058988 0 -0.1167380703139579 0.31048203428828741 0 -0.1222129041522336 0.33809844957058988 0 -0.1167380703139579 0.31048203428828741 0 -0.099739378096483811 0.3285680652774019 0 -0.1222129041522336 0.33809844957058988 0 -0.099739378096483811 0.3285680652774019 0 -0.1222129041522336 0.33809844957058988 0 -0.1085429007516984 0.34829306589090719 0 -0.099739378096483811 0.3285680652774019 0 -0.1222129041522336 0.33809844957058988 0 -0.12506826247722341 0.35250158281848121 0 -0.1222129041522336 0.33809844957058988 0 -0.12506826247722341 0.35250158281848121 0 -0.1222129041522336 0.33809844957058988 0 -0.1085429007516984 0.34829306589090719 0 -0.12506826247722341 0.35250158281848121 0 -0.1176919397273571 0.36268383656905362 0 -0.1085429007516984 0.34829306589090719 0 -0.12911823288158131 0.37983536022227982 0 -0.13032704167910961 0.36243165272940508 0 -0.11327102142864 0.37777537597962968 0 -0.13032704167910961 0.36243165272940508 0 -0.11327102142864 0.37777537597962968 0 -0.13032704167910961 0.36243165272940508 0 -0.1176919397273571 0.36268383656905362 0 -0.11327102142864 0.37777537597962968 0 -0.1176919397273571 0.36268383656905362 0 -0.11327102142864 0.37777537597962968 0 -0.090835423244952196 0.37503993371520261 0 -0.1176919397273571 0.36268383656905362 0 -0.098896301204299542 0.35945476356882938 0 -0.090835423244952196 0.37503993371520261 0 -0.1176919397273571 0.36268383656905362 0 -0.090835423244952196 0.37503993371520261 0 -0.088804060589383574 0.34893466452703797 0 -0.098896301204299542 0.35945476356882938 0 -0.1085429007516984 0.34829306589090719 0 -0.1176919397273571 0.36268383656905362 0 -0.098896301204299542 0.35945476356882938 0 -0.1085429007516984 0.34829306589090719 0 -0.096215001178169141 0.39311909922985278 0 -0.1197635140281522 0.39469053651664998 0 -0.1028692788283667 0.40792697715546422 0 -0.096215001178169141 0.39311909922985278 0 -0.11327102142864 0.37777537597962968 0 -0.096215001178169141 0.39311909922985278 0 -0.11327102142864 0.37777537597962968 0 -0.090835423244952196 0.37503993371520261 0 -0.12911823288158131 0.37983536022227982 0 -0.11327102142864 0.37777537597962968 0 -0.1197635140281522 0.39469053651664998 0 -0.096215001178169141 0.39311909922985278 0 -0.11327102142864 0.37777537597962968 0 -0.1197635140281522 0.39469053651664998 0 -0.1344521605938403 0.40542947756698 0 -0.1197635140281522 0.39469053651664998 0 -0.1197131320615713 0.41509851415471072 0 -0.1197635140281522 0.39469053651664998 0 -0.1197131320615713 0.41509851415471072 0 -0.1028692788283667 0.40792697715546422 0 -0.1197131320615713 0.41509851415471072 0 -0.1197819061756151 0.4355791175671036 0 -0.1004273264596484 0.4260506424736451 0 -0.1197819061756151 0.4355791175671036 0 -0.1004273264596484 0.4260506424736451 0 -0.1010179582116431 0.44991273550442917 0 -0.1004273264596484 0.4260506424736451 0 -0.1028692788283667 0.40792697715546422 0 -0.079158980927698269 0.40846282248007582 0 -0.1197131320615713 0.41509851415471072 0 -0.1004273264596484 0.4260506424736451 0 -0.1028692788283667 0.40792697715546422 0 -0.1004273264596484 0.4260506424736451 0 -0.079158980927698269 0.40846282248007582 0 -0.078062670353996305 0.43873108162098451 0 -0.062102960677227412 0.42380654573029891 0 -0.049543308782333227 0.44258485767637462 0 -0.078062670353996305 0.43873108162098451 0 -0.079158980927698269 0.40846282248007582 0 -0.062102960677227412 0.42380654573029891 0 -0.078062670353996305 0.43873108162098451 0 -0.079158980927698269 0.40846282248007582 0 -0.060043517503651389 0.40544053978577538 0 -0.062102960677227412 0.42380654573029891 0 -0.079158980927698269 0.40846282248007582 0 -0.062102960677227412 0.42380654573029891 0 -0.079158980927698269 0.40846282248007582 0 -0.0709000042091847 0.39841011549711591 0 -0.060043517503651389 0.40544053978577538 0 -0.0709000042091847 0.39841011549711591 0 -0.063978906762547333 0.38739603086135171 0 -0.060043517503651389 0.40544053978577538 0 -0.079158980927698269 0.40846282248007582 0 -0.0709000042091847 0.39841011549711591 0 -0.080418611642841795 0.39234106886126058 0 -0.0709000042091847 0.39841011549711591 0 -0.080418611642841795 0.39234106886126058 0 -0.063978906762547333 0.38739603086135171 0 -0.096215001178169141 0.39311909922985278 0 -0.079158980927698269 0.40846282248007582 0 -0.096215001178169141 0.39311909922985278 0 -0.1028692788283667 0.40792697715546422 0 -0.079158980927698269 0.40846282248007582 0 -0.096215001178169141 0.39311909922985278 0 -0.079158980927698269 0.40846282248007582 0 -0.080418611642841795 0.39234106886126058 0 -0.080418611642841795 0.39234106886126058 0 -0.090835423244952196 0.37503993371520261 0 -0.063978906762547333 0.38739603086135171 0 -0.096215001178169141 0.39311909922985278 0 -0.080418611642841795 0.39234106886126058 0 -0.090835423244952196 0.37503993371520261 0 -0.074410504969373445 0.37470461090138368 0 -0.090835423244952196 0.37503993371520261 0 -0.063978906762547333 0.38739603086135171 0 -0.090835423244952196 0.37503993371520261 0 -0.063978906762547333 0.38739603086135171 0 -0.063978906762547333 0.38739603086135171 0 -0.065465142457903275 0.377905461339614 0 -0.059422508498303168 0.38143144845941318 0 -0.064972817907804944 0.36898185957824903 0 -0.065465142457903275 0.377905461339614 0 -0.059422508498303168 0.38143144845941318 0 -0.074410504969373445 0.37470461090138368 0 -0.063978906762547333 0.38739603086135171 0 -0.065465142457903275 0.377905461339614 0 -0.063978906762547333 0.38739603086135171 0 -0.059422508498303168 0.38143144845941318 0 -0.044496055999966228 0.38599512363934863 0 -0.050429987128583743 0.37346132338962512 0 -0.059422508498303168 0.38143144845941318 0 -0.044496055999966228 0.38599512363934863 0 -0.063978906762547333 0.38739603086135171 0 -0.037122390280142463 0.39975212800750071 0 -0.044496055999966228 0.38599512363934863 0 -0.063978906762547333 0.38739603086135171 0 -0.037122390280142463 0.39975212800750071 0 -0.063978906762547333 0.38739603086135171 0 -0.060043517503651389 0.40544053978577538 0 -0.037122390280142463 0.39975212800750071 0 -0.039922269688873011 0.36896199025645221 0 -0.044496055999966228 0.38599512363934863 0 -0.024070166689737289 0.38149000389404819 0 -0.039922269688873011 0.36896199025645221 0 -0.050429987128583743 0.37346132338962512 0 -0.044496055999966228 0.38599512363934863 0 -0.037122390280142463 0.39975212800750071 0 -0.044496055999966228 0.38599512363934863 0 -0.024070166689737289 0.38149000389404819 0 -0.037122390280142463 0.39975212800750071 0 -0.024070166689737289 0.38149000389404819 0 -0.010079249672031819 0.39893449676820197 0 -0.024070166689737289 0.38149000389404819 0 -0.010079249672031819 0.39893449676820197 0 0.0055573678519514856 0.37321293642611858 0 -0.024132303542891202 0.42584906098864062 0 -0.0069543589259730403 0.44297919860842278 0 0.0060319477193199467 0.42371076879434411 0 -0.010079249672031819 0.39893449676820197 0 -0.024132303542891202 0.42584906098864062 0 0.0060319477193199467 0.42371076879434411 0 -0.037122390280142463 0.39975212800750071 0 -0.010079249672031819 0.39893449676820197 0 -0.024132303542891202 0.42584906098864062 0 -0.024132303542891202 0.42584906098864062 0 -0.046210239764630977 0.41697716499392651 0 -0.049543308782333227 0.44258485767637462 0 -0.037122390280142463 0.39975212800750071 0 -0.024132303542891202 0.42584906098864062 0 -0.046210239764630977 0.41697716499392651 0 -0.060043517503651389 0.40544053978577538 0 -0.046210239764630977 0.41697716499392651 0 -0.062102960677227412 0.42380654573029891 0 -0.060043517503651389 0.40544053978577538 0 -0.037122390280142463 0.39975212800750071 0 -0.046210239764630977 0.41697716499392651 0 -0.046210239764630977 0.41697716499392651 0 -0.062102960677227412 0.42380654573029891 0 -0.049543308782333227 0.44258485767637462 0 -0.049543308782333227 0.44258485767637462 0 -0.027350823556969481 0.45793495061936129 0 -0.043998745743371877 0.47493102995471059 0 -0.049543308782333227 0.44258485767637462 0 -0.043998745743371877 0.47493102995471059 0 -0.065162537328425599 0.46130308120502139 0 -0.024132303542891202 0.42584906098864062 0 -0.049543308782333227 0.44258485767637462 0 -0.027350823556969481 0.45793495061936129 0 -0.024132303542891202 0.42584906098864062 0 -0.027350823556969481 0.45793495061936129 0 -0.0069543589259730403 0.44297919860842278 0 -0.027350823556969481 0.45793495061936129 0 -0.0069543589259730403 0.44297919860842278 0 -0.01072829015554656 0.47276361289802232 0 -0.0069543589259730403 0.44297919860842278 0 -0.01072829015554656 0.47276361289802232 0 0.0074618156551188993 0.4591590341350224 0 -0.013947550758504731 0.5 0 -0.01072829015554656 0.47276361289802232 0 0.0098370932449210607 0.47853771561760389 0 -0.027350823556969481 0.45793495061936129 0 -0.01072829015554656 0.47276361289802232 0 -0.02771179241367281 0.48255498525049012 0 -0.013947550758504731 0.5 0 -0.02771179241367281 0.48255498525049012 0 -0.041724146383453682 0.5 0 -0.013947550758504731 0.5 0 -0.01072829015554656 0.47276361289802232 0 -0.02771179241367281 0.48255498525049012 0 -0.02771179241367281 0.48255498525049012 0 -0.041724146383453682 0.5 0 -0.043998745743371877 0.47493102995471059 0 -0.027350823556969481 0.45793495061936129 0 -0.02771179241367281 0.48255498525049012 0 -0.043998745743371877 0.47493102995471059 0 -0.043998745743371877 0.47493102995471059 0 -0.061089056887043393 0.48252676808346862 0 -0.065162537328425599 0.46130308120502139 0 -0.041724146383453682 0.5 0 -0.061089056887043393 0.48252676808346862 0 -0.069500742008402616 0.5 0 -0.041724146383453682 0.5 0 -0.043998745743371877 0.47493102995471059 0 -0.061089056887043393 0.48252676808346862 0 -0.061089056887043393 0.48252676808346862 0 -0.069500742008402616 0.5 0 -0.085059112971563197 0.47639972925761093 0 -0.069500742008402616 0.5 0 -0.085059112971563197 0.47639972925761093 0 -0.097277337633351557 0.5 0 -0.061089056887043393 0.48252676808346862 0 -0.085059112971563197 0.47639972925761093 0 -0.065162537328425599 0.46130308120502139 0 -0.085059112971563197 0.47639972925761093 0 -0.065162537328425599 0.46130308120502139 0 -0.08232556971640706 0.45658665689701139 0 -0.065162537328425599 0.46130308120502139 0 -0.078062670353996305 0.43873108162098451 0 -0.08232556971640706 0.45658665689701139 0 -0.049543308782333227 0.44258485767637462 0 -0.065162537328425599 0.46130308120502139 0 -0.078062670353996305 0.43873108162098451 0 -0.1004273264596484 0.4260506424736451 0 -0.078062670353996305 0.43873108162098451 0 -0.1010179582116431 0.44991273550442917 0 -0.078062670353996305 0.43873108162098451 0 -0.08232556971640706 0.45658665689701139 0 -0.1010179582116431 0.44991273550442917 0 -0.085059112971563197 0.47639972925761093 0 -0.08232556971640706 0.45658665689701139 0 -0.1010179582116431 0.44991273550442917 0 -0.085059112971563197 0.47639972925761093 0 -0.1010179582116431 0.44991273550442917 0 -0.1111439796713484 0.47585227863606272 0 -0.1197819061756151 0.4355791175671036 0 -0.1010179582116431 0.44991273550442917 0 -0.1195037747543428 0.45466364534398118 0 -0.13625357232312629 0.46381464741799988 0 -0.1195037747543428 0.45466364534398118 0 -0.1111439796713484 0.47585227863606272 0 -0.1010179582116431 0.44991273550442917 0 -0.1195037747543428 0.45466364534398118 0 -0.1111439796713484 0.47585227863606272 0 -0.1250539332583005 0.5 0 -0.1111439796713484 0.47585227863606272 0 -0.097277337633351557 0.5 0 -0.085059112971563197 0.47639972925761093 0 -0.1111439796713484 0.47585227863606272 0 -0.097277337633351557 0.5 0 -0.15663694264483541 0.080743475212518845 0 -0.1830526003938682 0.085827068754780703 0 -0.1700196107206626 0.1081491983194348 0 -0.15663694264483541 0.080743475212518845 0 -0.1830526003938682 0.085827068754780703 0 -0.15663694264483541 0.080743475212518845 0 -0.1711061680009025 0.066993968969244616 0 -0.15206634029275359 0.056478704007125152 0 -0.15663694264483541 0.080743475212518845 0 -0.1711061680009025 0.066993968969244616 0 -0.1830526003938682 0.085827068754780703 0 -0.1711061680009025 0.066993968969244616 0 -0.1830526003938682 0.085827068754780703 0 -0.19318568222882909 0.073532694628602693 0 -0.1711061680009025 0.066993968969244616 0 -0.1837916851398072 0.059008394714967147 0 -0.19318568222882909 0.073532694628602693 0 -0.1830526003938682 0.085827068754780703 0 -0.1700196107206626 0.1081491983194348 0 -0.19339860991671259 0.1051966207091759 0 -0.1700196107206626 0.1081491983194348 0 -0.19084174445693611 0.1245634351656021 0 -0.17488578910003999 0.13013339449781139 0 -0.1700196107206626 0.1081491983194348 0 -0.19084174445693611 0.1245634351656021 0 -0.19339860991671259 0.1051966207091759 0 -0.1700196107206626 0.1081491983194348 0 -0.15787523076428581 0.12827481072576119 0 -0.17488578910003999 0.13013339449781139 0 -0.1700196107206626 0.1081491983194348 0 -0.15292686983659179 0.1127269500658543 0 -0.15787523076428581 0.12827481072576119 0 -0.15663694264483541 0.080743475212518845 0 -0.1700196107206626 0.1081491983194348 0 -0.1451341910417672 0.09601653139375961 0 -0.1700196107206626 0.1081491983194348 0 -0.1451341910417672 0.09601653139375961 0 -0.15292686983659179 0.1127269500658543 0 -0.1451341910417672 0.09601653139375961 0 -0.15292686983659179 0.1127269500658543 0 -0.13353023720479301 0.1070165600499997 0 -0.15292686983659179 0.1127269500658543 0 -0.1393277982933247 0.1218339919005076 0 -0.15787523076428581 0.12827481072576119 0 -0.15292686983659179 0.1127269500658543 0 -0.13353023720479301 0.1070165600499997 0 -0.15292686983659179 0.1127269500658543 0 -0.1393277982933247 0.1218339919005076 0 -0.13353023720479301 0.1070165600499997 0 -0.13353023720479301 0.1070165600499997 0 -0.11720615843901611 0.1137246367104372 0 -0.1245516134801372 0.1235398944364224 0 -0.1393277982933247 0.1218339919005076 0 -0.13353023720479301 0.1070165600499997 0 -0.1245516134801372 0.1235398944364224 0 -0.1451341910417672 0.09601653139375961 0 -0.13353023720479301 0.1070165600499997 0 -0.12648490221554301 0.093182677969538608 0 -0.1451341910417672 0.09601653139375961 0 -0.12648490221554301 0.093182677969538608 0 -0.13022128489580259 0.075659881670257001 0 -0.15663694264483541 0.080743475212518845 0 -0.13022128489580259 0.075659881670257001 0 -0.15663694264483541 0.080743475212518845 0 -0.1451341910417672 0.09601653139375961 0 -0.13022128489580259 0.075659881670257001 0 -0.15663694264483541 0.080743475212518845 0 -0.13022128489580259 0.075659881670257001 0 -0.15206634029275359 0.056478704007125152 0 -0.13022128489580259 0.075659881670257001 0 -0.127032317358686 0.059237122868742942 0 -0.15206634029275359 0.056478704007125152 0 -0.127032317358686 0.059237122868742942 0 -0.12934916427595389 0.040253564639695323 0 -0.15206634029275359 0.056478704007125152 0 -0.127032317358686 0.059237122868742942 0 -0.15206634029275359 0.056478704007125152 0 -0.15206634029275359 0.056478704007125152 0 -0.14256120327544911 0.02856597864924473 0 -0.1621114551755086 0.032962621493935487 0 -0.12934916427595389 0.040253564639695323 0 -0.15206634029275359 0.056478704007125152 0 -0.14256120327544911 0.02856597864924473 0 -0.1491730936568573 -0.0015986133476244249 0 -0.12871323843160851 0.013123773824541321 0 -0.14256120327544911 0.02856597864924473 0 -0.12934916427595389 0.040253564639695323 0 -0.12871323843160851 0.013123773824541321 0 -0.14256120327544911 0.02856597864924473 0 -0.14256120327544911 0.02856597864924473 0 -0.1645297020792596 0.01354840476793108 0 -0.1491730936568573 -0.0015986133476244249 0 -0.14256120327544911 0.02856597864924473 0 -0.1645297020792596 0.01354840476793108 0 -0.1491730936568573 -0.0015986133476244249 0 -0.165628603269176 -0.0020946546525552911 0 -0.1645297020792596 0.01354840476793108 0 -0.165628603269176 -0.0020946546525552911 0 -0.1645297020792596 0.01354840476793108 0 -0.17747844821372899 0.0046966960789819739 0 -0.1491730936568573 -0.0015986133476244249 0 -0.1645297020792596 0.01354840476793108 0 -0.1645297020792596 0.01354840476793108 0 -0.17747844821372899 0.0046966960789819739 0 -0.14256120327544911 0.02856597864924473 0 -0.1645297020792596 0.01354840476793108 0 -0.1621114551755086 0.032962621493935487 0 -0.1645297020792596 0.01354840476793108 0 -0.1754200945780362 0.024290162838928941 0 -0.1621114551755086 0.032962621493935487 0 -0.1645297020792596 0.01354840476793108 0 -0.1754200945780362 0.024290162838928941 0 -0.1754200945780362 0.024290162838928941 0 -0.1863104870768145 0.035031920909925143 0 -0.18836884071250709 0.015438454149979431 0 -0.1863104870768145 0.035031920909925143 0 -0.18836884071250709 0.015438454149979431 0 -0.1754200945780362 0.024290162838928941 0 -0.1863104870768145 0.035031920909925143 0 -0.1645297020792596 0.01354840476793108 0 -0.1754200945780362 0.024290162838928941 0 -0.17747844821372899 0.0046966960789819739 0 -0.19042719434819899 -0.0041550126099663444 0 -0.17747844821372899 0.0046966960789819739 0 -0.18836884071250709 0.015438454149979431 0 -0.1754200945780362 0.024290162838928941 0 -0.17747844821372899 0.0046966960789819739 0 -0.18836884071250709 0.015438454149979431 0 -0.19042719434819899 -0.0041550126099663444 0 -0.17747844821372899 0.0046966960789819739 0 -0.1711061680009025 0.066993968969244616 0 -0.15206634029275359 0.056478704007125152 0 -0.16769592869189129 0.049187346522841263 0 -0.16769592869189129 0.049187346522841263 0 -0.1621114551755086 0.032962621493935487 0 -0.17506593013241181 0.04009608929611963 0 -0.1754200945780362 0.024290162838928941 0 -0.1621114551755086 0.032962621493935487 0 -0.17506593013241181 0.04009608929611963 0 -0.15206634029275359 0.056478704007125152 0 -0.16769592869189129 0.049187346522841263 0 -0.1621114551755086 0.032962621493935487 0 -0.17506593013241181 0.04009608929611963 0 -0.1863104870768145 0.035031920909925143 0 -0.1837916851398072 0.059008394714967147 0 -0.1754200945780362 0.024290162838928941 0 -0.17506593013241181 0.04009608929611963 0 -0.1863104870768145 0.035031920909925143 0 -0.1711061680009025 0.066993968969244616 0 -0.16769592869189129 0.049187346522841263 0 -0.1837916851398072 0.059008394714967147 0 -0.1863104870768145 0.035031920909925143 0 -0.1837916851398072 0.059008394714967147 0 -0.16769592869189129 0.049187346522841263 0 -0.17506593013241181 0.04009608929611963 0 -0.1837916851398072 0.059008394714967147 0 -0.1837916851398072 0.059008394714967147 0 -0.19452984270563101 0.043139096998774627 0 -0.20332036361259551 0.050689206694382719 0 -0.1837916851398072 0.059008394714967147 0 -0.20332036361259551 0.050689206694382719 0 -0.20456175264065951 0.062578471934716551 0 -0.19452984270563101 0.043139096998774627 0 -0.21037474937150111 0.041304159971551763 0 -0.20085743853258101 0.028503814056718799 0 -0.1863104870768145 0.035031920909925143 0 -0.19452984270563101 0.043139096998774627 0 -0.19452984270563101 0.043139096998774627 0 -0.21037474937150111 0.041304159971551763 0 -0.20332036361259551 0.050689206694382719 0 -0.1863104870768145 0.035031920909925143 0 -0.1837916851398072 0.059008394714967147 0 -0.19452984270563101 0.043139096998774627 0 -0.1863104870768145 0.035031920909925143 0 -0.19452984270563101 0.043139096998774627 0 -0.20085743853258101 0.028503814056718799 0 -0.21037474937150111 0.041304159971551763 0 -0.20085743853258101 0.028503814056718799 0 -0.22545827068029259 0.036116150134317411 0 -0.20332036361259551 0.050689206694382719 0 -0.22296130914615259 0.052586450458242291 0 -0.20456175264065951 0.062578471934716551 0 -0.21037474937150111 0.041304159971551763 0 -0.20332036361259551 0.050689206694382719 0 -0.22296130914615259 0.052586450458242291 0 -0.22296130914615259 0.052586450458242291 0 -0.21675602153729279 0.065690732096641113 0 -0.20456175264065951 0.062578471934716551 0 -0.19042719434819899 -0.0041550126099663444 0 -0.18836884071250709 0.015438454149979431 0 -0.20935718198892739 0.01501365701836067 0 -0.1932560932975623 -0.006088836097596145 0 -0.20935718198892739 0.01501365701836067 0 -0.19042719434819899 -0.0041550126099663444 0 -0.1932560932975623 -0.006088836097596145 0 -0.20935718198892739 0.01501365701836067 0 -0.19042719434819899 -0.0041550126099663444 0 -0.18836884071250709 0.015438454149979431 0 -0.1863104870768145 0.035031920909925143 0 -0.18836884071250709 0.015438454149979431 0 -0.20085743853258101 0.028503814056718799 0 -0.18836884071250709 0.015438454149979431 0 -0.20085743853258101 0.028503814056718799 0 -0.20935718198892739 0.01501365701836067 0 -0.20935718198892739 0.01501365701836067 0 -0.22545827068029259 0.036116150134317411 0 -0.20085743853258101 0.028503814056718799 0 -0.20935718198892739 0.01501365701836067 0 -0.22545827068029259 0.036116150134317411 0 -0.20979008560441481 -0.00036056365726287249 0 -0.20935718198892739 0.01501365701836067 0 -0.22703019481622139 0.013561185150131111 0 -0.1932560932975623 -0.006088836097596145 0 -0.20979008560441481 -0.00036056365726287249 0 -0.20935718198892739 0.01501365701836067 0 -0.20979008560441481 -0.00036056365726287249 0 -0.2246056469087612 -0.0044901169212649451 0 -0.22703019481622139 0.013561185150131111 0 -0.2246056469087612 -0.0044901169212649451 0 -0.22703019481622139 0.013561185150131111 0 -0.24064278425173949 0.0039350805849091954 0 -0.22703019481622139 0.013561185150131111 0 -0.24509905070280441 0.028053838272241571 0 -0.22545827068029259 0.036116150134317411 0 -0.20935718198892739 0.01501365701836067 0 -0.22703019481622139 0.013561185150131111 0 -0.22545827068029259 0.036116150134317411 0 -0.26231918469715187 0.011442998676570891 0 -0.24509905070280441 0.028053838272241571 0 -0.24064278425173949 0.0039350805849091954 0 -0.22703019481622139 0.013561185150131111 0 -0.24509905070280441 0.028053838272241571 0 -0.24064278425173949 0.0039350805849091954 0 -0.22296130914615259 0.052586450458242291 0 -0.24155935937165779 0.057218643250274363 0 -0.22727197142910391 0.0749306041085403 0 -0.22296130914615259 0.052586450458242291 0 -0.22545827068029259 0.036116150134317411 0 -0.24155935937165779 0.057218643250274363 0 -0.22296130914615259 0.052586450458242291 0 -0.24155935937165779 0.057218643250274363 0 -0.21037474937150111 0.041304159971551763 0 -0.22296130914615259 0.052586450458242291 0 -0.22545827068029259 0.036116150134317411 0 -0.22545827068029259 0.036116150134317411 0 -0.24155935937165779 0.057218643250274363 0 -0.24509905070280441 0.028053838272241571 0 -0.22545827068029259 0.036116150134317411 0 -0.24155935937165779 0.057218643250274363 0 -0.25683717479782531 0.046290360374415418 0 -0.24509905070280441 0.028053838272241571 0 -0.24155935937165779 0.057218643250274363 0 -0.24155935937165779 0.057218643250274363 0 -0.24109361558267781 0.07727106869570613 0 -0.22727197142910391 0.0749306041085403 0 -0.25965921563801592 0.080940771584705584 0 -0.24155935937165779 0.057218643250274363 0 -0.24109361558267781 0.07727106869570613 0 -0.24109361558267781 0.07727106869570613 0 -0.22727197142910391 0.0749306041085403 0 -0.23588391589193361 0.095994255839304377 0 -0.25965921563801592 0.080940771584705584 0 -0.24109361558267781 0.07727106869570613 0 -0.23588391589193361 0.095994255839304377 0 -0.22727197142910391 0.0749306041085403 0 -0.2094682581429009 0.090910662297042547 0 -0.23588391589193361 0.095994255839304377 0 -0.2094682581429009 0.090910662297042547 0 -0.23588391589193361 0.095994255839304377 0 -0.22296130914615259 0.052586450458242291 0 -0.22727197142910391 0.0749306041085403 0 -0.21675602153729279 0.065690732096641113 0 -0.22727197142910391 0.0749306041085403 0 -0.21675602153729279 0.065690732096641113 0 -0.2087229699430613 0.074679147994866704 0 -0.21675602153729279 0.065690732096641113 0 -0.20456175264065951 0.062578471934716551 0 -0.2087229699430613 0.074679147994866704 0 -0.22727197142910391 0.0749306041085403 0 -0.2087229699430613 0.074679147994866704 0 -0.2094682581429009 0.090910662297042547 0 -0.2087229699430613 0.074679147994866704 0 -0.2094682581429009 0.090910662297042547 0 -0.19318568222882909 0.073532694628602693 0 -0.1830526003938682 0.085827068754780703 0 -0.2094682581429009 0.090910662297042547 0 -0.1830526003938682 0.085827068754780703 0 -0.2094682581429009 0.090910662297042547 0 -0.19318568222882909 0.073532694628602693 0 -0.1837916851398072 0.059008394714967147 0 -0.20456175264065951 0.062578471934716551 0 -0.19318568222882909 0.073532694628602693 0 -0.20456175264065951 0.062578471934716551 0 -0.2087229699430613 0.074679147994866704 0 -0.19318568222882909 0.073532694628602693 0 -0.19084174445693611 0.1245634351656021 0 -0.19339860991671259 0.1051966207091759 0 -0.21361083586919541 0.1165327390090195 0 -0.1830526003938682 0.085827068754780703 0 -0.2094682581429009 0.090910662297042547 0 -0.19339860991671259 0.1051966207091759 0 -0.2094682581429009 0.090910662297042547 0 -0.19339860991671259 0.1051966207091759 0 -0.21361083586919541 0.1165327390090195 0 -0.21361083586919541 0.1165327390090195 0 -0.23588391589193361 0.095994255839304377 0 -0.2377119113784632 0.1184279918264306 0 -0.21361083586919541 0.1165327390090195 0 -0.2377119113784632 0.1184279918264306 0 -0.22522284473276541 0.1386863335032463 0 -0.2094682581429009 0.090910662297042547 0 -0.21361083586919541 0.1165327390090195 0 -0.23588391589193361 0.095994255839304377 0 -0.26229957364096629 0.10107784938156621 0 -0.23588391589193361 0.095994255839304377 0 -0.26229957364096629 0.10107784938156621 0 -0.23588391589193361 0.095994255839304377 0 -0.2377119113784632 0.1184279918264306 0 -0.25468488244533621 0.12734607261513969 0 -0.2377119113784632 0.1184279918264306 0 -0.24622100901902591 0.14003801238151611 0 -0.2377119113784632 0.1184279918264306 0 -0.24622100901902591 0.14003801238151611 0 -0.22522284473276541 0.1386863335032463 0 -0.22522284473276541 0.1386863335032463 0 -0.23734612993507101 0.15713168557826859 0 -0.2158917477508506 0.15854911747006531 0 -0.2595150430760933 0.15635442234335131 0 -0.24622100901902591 0.14003801238151611 0 -0.23734612993507101 0.15713168557826859 0 -0.24622100901902591 0.14003801238151611 0 -0.22522284473276541 0.1386863335032463 0 -0.23734612993507101 0.15713168557826859 0 -0.2595150430760933 0.15635442234335131 0 -0.23734612993507101 0.15713168557826859 0 -0.24851141791789419 0.17283258723328199 0 -0.23734612993507101 0.15713168557826859 0 -0.24851141791789419 0.17283258723328199 0 -0.22800856341125761 0.17368297724154241 0 -0.24851141791789419 0.17283258723328199 0 -0.22800856341125761 0.17368297724154241 0 -0.24003375834807469 0.19097967105946809 0 -0.22800856341125761 0.17368297724154241 0 -0.2081520135359137 0.1765750809740651 0 -0.2202104826523377 0.18862080058388389 0 -0.22800856341125761 0.17368297724154241 0 -0.24003375834807469 0.19097967105946809 0 -0.2202104826523377 0.18862080058388389 0 -0.23734612993507101 0.15713168557826859 0 -0.22800856341125761 0.17368297724154241 0 -0.2158917477508506 0.15854911747006531 0 -0.22800856341125761 0.17368297724154241 0 -0.2158917477508506 0.15854911747006531 0 -0.2081520135359137 0.1765750809740651 0 -0.2158917477508506 0.15854911747006531 0 -0.2081520135359137 0.1765750809740651 0 -0.19488383523045899 0.1622388996966781 0 -0.2081520135359137 0.1765750809740651 0 -0.2202104826523377 0.18862080058388389 0 -0.20454170784362161 0.19539967970920169 0 -0.2081520135359137 0.1765750809740651 0 -0.1882627849179849 0.18111686009446309 0 -0.19488383523045899 0.1622388996966781 0 -0.2081520135359137 0.1765750809740651 0 -0.1882627849179849 0.18111686009446309 0 -0.20454170784362161 0.19539967970920169 0 -0.19488383523045899 0.1622388996966781 0 -0.20360301612267431 0.14163185673946971 0 -0.1860997814973237 0.14604413987586129 0 -0.19084174445693611 0.1245634351656021 0 -0.20360301612267431 0.14163185673946971 0 -0.1860997814973237 0.14604413987586129 0 -0.19084174445693611 0.1245634351656021 0 -0.21361083586919541 0.1165327390090195 0 -0.20360301612267431 0.14163185673946971 0 -0.21361083586919541 0.1165327390090195 0 -0.22522284473276541 0.1386863335032463 0 -0.20360301612267431 0.14163185673946971 0 -0.2158917477508506 0.15854911747006531 0 -0.19488383523045899 0.1622388996966781 0 -0.20360301612267431 0.14163185673946971 0 -0.22522284473276541 0.1386863335032463 0 -0.2158917477508506 0.15854911747006531 0 -0.20360301612267431 0.14163185673946971 0 -0.235708961880149 0.25177341949651721 0 -0.22440015460856469 0.23570280027985291 0 -0.21704530339763251 0.24959003801806731 0 -0.25499370846812258 0.25382717309031783 0 -0.235708961880149 0.25177341949651721 0 -0.24819191351699149 0.23495274290407281 0 -0.235708961880149 0.25177341949651721 0 -0.22440015460856469 0.23570280027985291 0 -0.24819191351699149 0.23495274290407281 0 -0.24819191351699149 0.23495274290407281 0 -0.232059246576449 0.2201484966464303 0 -0.24867924549348591 0.21477896355887771 0 -0.22440015460856469 0.23570280027985291 0 -0.24819191351699149 0.23495274290407281 0 -0.232059246576449 0.2201484966464303 0 -0.22440015460856469 0.23570280027985291 0 -0.232059246576449 0.2201484966464303 0 -0.2069692845496246 0.21800249482456649 0 -0.232059246576449 0.2201484966464303 0 -0.2255417900286649 0.2046447079793568 0 -0.2069692845496246 0.21800249482456649 0 -0.2255417900286649 0.2046447079793568 0 -0.24867924549348591 0.21477896355887771 0 -0.24003375834807469 0.19097967105946809 0 -0.232059246576449 0.2201484966464303 0 -0.2255417900286649 0.2046447079793568 0 -0.24867924549348591 0.21477896355887771 0 -0.2255417900286649 0.2046447079793568 0 -0.24003375834807469 0.19097967105946809 0 -0.2202104826523377 0.18862080058388389 0 -0.2255417900286649 0.2046447079793568 0 -0.2202104826523377 0.18862080058388389 0 -0.20454170784362161 0.19539967970920169 0 -0.1882627849179849 0.18111686009446309 0 -0.20454170784362161 0.19539967970920169 0 -0.1837859096342922 0.20268643890778701 0 -0.2069692845496246 0.21800249482456649 0 -0.18138357169136271 0.22571773857769681 0 -0.1837859096342922 0.20268643890778701 0 -0.20454170784362161 0.19539967970920169 0 -0.2069692845496246 0.21800249482456649 0 -0.1837859096342922 0.20268643890778701 0 -0.2255417900286649 0.2046447079793568 0 -0.20454170784362161 0.19539967970920169 0 -0.2069692845496246 0.21800249482456649 0 -0.22440015460856469 0.23570280027985291 0 -0.2069692845496246 0.21800249482456649 0 -0.20231806928452301 0.2402473460012845 0 -0.2069692845496246 0.21800249482456649 0 -0.20231806928452301 0.2402473460012845 0 -0.18138357169136271 0.22571773857769681 0 -0.22440015460856469 0.23570280027985291 0 -0.20231806928452301 0.2402473460012845 0 -0.21704530339763251 0.24959003801806731 0 -0.17734599942912599 0.25099626575524658 0 -0.18138357169136271 0.22571773857769681 0 -0.17734599942912599 0.25099626575524658 0 -0.15760459646338579 0.24197264035209939 0 -0.18138357169136271 0.22571773857769681 0 -0.17734599942912599 0.25099626575524658 0 -0.20231806928452301 0.2402473460012845 0 -0.18138357169136271 0.22571773857769681 0 -0.15760459646338579 0.24197264035209939 0 -0.18138357169136271 0.22571773857769681 0 -0.15319132242995681 0.21655189328504029 0 -0.18138357169136271 0.22571773857769681 0 -0.1666265123535097 0.20559731299637149 0 -0.15319132242995681 0.21655189328504029 0 -0.18138357169136271 0.22571773857769681 0 -0.1666265123535097 0.20559731299637149 0 -0.1837859096342922 0.20268643890778701 0 -0.1882627849179849 0.18111686009446309 0 -0.1837859096342922 0.20268643890778701 0 -0.16807210850786741 0.18665824817956761 0 -0.1666265123535097 0.20559731299637149 0 -0.1837859096342922 0.20268643890778701 0 -0.16807210850786741 0.18665824817956761 0 -0.1666265123535097 0.20559731299637149 0 -0.14669964950406919 0.19637224603176559 0 -0.16807210850786741 0.18665824817956761 0 -0.14669964950406919 0.19637224603176559 0 -0.1328116149223689 0.20667813615449909 0 -0.12499868893356809 0.19169464401862171 0 -0.14669964950406919 0.19637224603176559 0 -0.1399231152302392 0.17688636379841899 0 -0.12499868893356809 0.19169464401862171 0 -0.1328116149223689 0.20667813615449909 0 -0.15319132242995681 0.21655189328504029 0 -0.12675244561454579 0.222092340863211 0 -0.14669964950406919 0.19637224603176559 0 -0.1328116149223689 0.20667813615449909 0 -0.15319132242995681 0.21655189328504029 0 -0.1666265123535097 0.20559731299637149 0 -0.14669964950406919 0.19637224603176559 0 -0.15319132242995681 0.21655189328504029 0 -0.15760459646338579 0.24197264035209939 0 -0.15319132242995681 0.21655189328504029 0 -0.13568927126994809 0.24003222742162769 0 -0.15319132242995681 0.21655189328504029 0 -0.12675244561454579 0.222092340863211 0 -0.13568927126994809 0.24003222742162769 0 -0.12675244561454579 0.222092340863211 0 -0.13568927126994809 0.24003222742162769 0 -0.1197488402286296 0.23685543728298239 0 -0.15319132242995681 0.21655189328504029 0 -0.12675244561454579 0.222092340863211 0 -0.13568927126994809 0.24003222742162769 0 -0.1255001957498163 0.24628542454034369 0 -0.1197488402286296 0.23685543728298239 0 -0.13243016478697431 0.25209722541406521 0 -0.13568927126994809 0.24003222742162769 0 -0.1255001957498163 0.24628542454034369 0 -0.13243016478697431 0.25209722541406521 0 -0.1428175167599289 0.25447727587941171 0 -0.13568927126994809 0.24003222742162769 0 -0.1428175167599289 0.25447727587941171 0 -0.15760459646338579 0.24197264035209939 0 -0.13568927126994809 0.24003222742162769 0 -0.16959257806099201 0.14363538840239731 0 -0.17014113475575571 0.1631428130994792 0 -0.15461072186907229 0.14629080684373741 0 -0.16959257806099201 0.14363538840239731 0 -0.15787523076428581 0.12827481072576119 0 -0.15461072186907229 0.14629080684373741 0 -0.16959257806099201 0.14363538840239731 0 -0.15787523076428581 0.12827481072576119 0 -0.17488578910003999 0.13013339449781139 0 -0.19084174445693611 0.1245634351656021 0 -0.17488578910003999 0.13013339449781139 0 -0.1860997814973237 0.14604413987586129 0 -0.16959257806099201 0.14363538840239731 0 -0.17488578910003999 0.13013339449781139 0 -0.1860997814973237 0.14604413987586129 0 -0.16959257806099201 0.14363538840239731 0 -0.1860997814973237 0.14604413987586129 0 -0.17014113475575571 0.1631428130994792 0 -0.19488383523045899 0.1622388996966781 0 -0.1860997814973237 0.14604413987586129 0 -0.17014113475575571 0.1631428130994792 0 -0.1882627849179849 0.18111686009446309 0 -0.19488383523045899 0.1622388996966781 0 -0.17014113475575571 0.1631428130994792 0 -0.1882627849179849 0.18111686009446309 0 -0.16807210850786741 0.18665824817956761 0 -0.17014113475575571 0.1631428130994792 0 -0.16807210850786741 0.18665824817956761 0 -0.17014113475575571 0.1631428130994792 0 -0.15460799896993729 0.17678081089148681 0 -0.14669964950406919 0.19637224603176559 0 -0.16807210850786741 0.18665824817956761 0 -0.15460799896993729 0.17678081089148681 0 -0.17014113475575571 0.1631428130994792 0 -0.14820398685175501 0.1608443833482027 0 -0.15460799896993729 0.17678081089148681 0 -0.17014113475575571 0.1631428130994792 0 -0.14820398685175501 0.1608443833482027 0 -0.15461072186907229 0.14629080684373741 0 -0.14820398685175501 0.1608443833482027 0 -0.1399231152302392 0.17688636379841899 0 -0.13605794162343379 0.16359888296998551 0 -0.14820398685175501 0.1608443833482027 0 -0.15460799896993729 0.17678081089148681 0 -0.1399231152302392 0.17688636379841899 0 -0.14669964950406919 0.19637224603176559 0 -0.15460799896993729 0.17678081089148681 0 -0.1399231152302392 0.17688636379841899 0 -0.1399231152302392 0.17688636379841899 0 -0.1268929288227609 0.1763703484421851 0 -0.13605794162343379 0.16359888296998551 0 -0.1399231152302392 0.17688636379841899 0 -0.1268929288227609 0.1763703484421851 0 -0.12499868893356809 0.19169464401862171 0 -0.14820398685175501 0.1608443833482027 0 -0.13605794162343379 0.16359888296998551 0 -0.1341647101557864 0.1508953536112656 0 -0.1268929288227609 0.1763703484421851 0 -0.13605794162343379 0.16359888296998551 0 -0.1249104133592906 0.16404472514522511 0 -0.13605794162343379 0.16359888296998551 0 -0.1341647101557864 0.1508953536112656 0 -0.1249104133592906 0.16404472514522511 0 -0.1341647101557864 0.1508953536112656 0 -0.13150435411506001 0.13394440018508219 0 -0.1182053426511263 0.14067019212956841 0 -0.1341647101557864 0.1508953536112656 0 -0.12054515040686239 0.15360453176782721 0 -0.1249104133592906 0.16404472514522511 0 -0.14820398685175501 0.1608443833482027 0 -0.1341647101557864 0.1508953536112656 0 -0.15461072186907229 0.14629080684373741 0 -0.1341647101557864 0.1508953536112656 0 -0.15461072186907229 0.14629080684373741 0 -0.14393234826573029 0.13608300399652579 0 -0.15787523076428581 0.12827481072576119 0 -0.15461072186907229 0.14629080684373741 0 -0.14393234826573029 0.13608300399652579 0 -0.1393277982933247 0.1218339919005076 0 -0.15787523076428581 0.12827481072576119 0 -0.14393234826573029 0.13608300399652579 0 -0.1393277982933247 0.1218339919005076 0 -0.14393234826573029 0.13608300399652579 0 -0.13150435411506001 0.13394440018508219 0 -0.1341647101557864 0.1508953536112656 0 -0.14393234826573029 0.13608300399652579 0 -0.13150435411506001 0.13394440018508219 0 -0.1393277982933247 0.1218339919005076 0 -0.13150435411506001 0.13394440018508219 0 -0.1245516134801372 0.1235398944364224 0 -0.1103311508786855 0.1267962204314145 0 -0.1182053426511263 0.14067019212956841 0 -0.1245516134801372 0.1235398944364224 0 -0.13150435411506001 0.13394440018508219 0 -0.1182053426511263 0.14067019212956841 0 -0.1245516134801372 0.1235398944364224 0 -0.1103311508786855 0.1267962204314145 0 -0.10326673707718501 0.13967343542725719 0 -0.1182053426511263 0.14067019212956841 0 -0.1103311508786855 0.1267962204314145 0 -0.10326673707718501 0.13967343542725719 0 -0.09316345007512529 0.12787552256921189 0 -0.10326673707718501 0.13967343542725719 0 -0.09316345007512529 0.12787552256921189 0 -0.092131834798674483 0.1419684547906048 0 -0.097987996390648938 0.14880638782865771 0 -0.1074670061447751 0.1518790602016101 0 -0.096959084729657391 0.15837331258183651 0 -0.10326673707718501 0.13967343542725719 0 -0.097987996390648938 0.14880638782865771 0 -0.092131834798674483 0.1419684547906048 0 -0.10326673707718501 0.13967343542725719 0 -0.097987996390648938 0.14880638782865771 0 -0.1074670061447751 0.1518790602016101 0 -0.1341647101557864 0.1508953536112656 0 -0.1182053426511263 0.14067019212956841 0 -0.12054515040686239 0.15360453176782721 0 -0.1074670061447751 0.1518790602016101 0 -0.12054515040686239 0.15360453176782721 0 -0.1126512217624015 0.16285054606665661 0 -0.1074670061447751 0.1518790602016101 0 -0.1182053426511263 0.14067019212956841 0 -0.12054515040686239 0.15360453176782721 0 -0.10326673707718501 0.13967343542725719 0 -0.1074670061447751 0.1518790602016101 0 -0.1182053426511263 0.14067019212956841 0 -0.12054515040686239 0.15360453176782721 0 -0.1249104133592906 0.16404472514522511 0 -0.1126512217624015 0.16285054606665661 0 -0.1249104133592906 0.16404472514522511 0 -0.1126512217624015 0.16285054606665661 0 -0.11637701785871039 0.17348831127417749 0 -0.1268929288227609 0.1763703484421851 0 -0.1249104133592906 0.16404472514522511 0 -0.11637701785871039 0.17348831127417749 0 -0.1126512217624015 0.16285054606665661 0 -0.11637701785871039 0.17348831127417749 0 -0.1072858333755583 0.17456722243877579 0 -0.1268929288227609 0.1763703484421851 0 -0.1120490126720752 0.184857253361356 0 -0.12499868893356809 0.19169464401862171 0 -0.1268929288227609 0.1763703484421851 0 -0.11637701785871039 0.17348831127417749 0 -0.1120490126720752 0.184857253361356 0 -0.11637701785871039 0.17348831127417749 0 -0.1120490126720752 0.184857253361356 0 -0.1072858333755583 0.17456722243877579 0 -0.1120490126720752 0.184857253361356 0 -0.1023405958079656 0.1824581270336729 0 -0.10028652406250441 0.1902731657093206 0 -0.1120490126720752 0.184857253361356 0 -0.1023405958079656 0.1824581270336729 0 -0.1072858333755583 0.17456722243877579 0 -0.1072858333755583 0.17456722243877579 0 -0.09813084103478012 0.17622802545224531 0 -0.102166311117417 0.16752107144454681 0 -0.1023405958079656 0.1824581270336729 0 -0.1072858333755583 0.17456722243877579 0 -0.09813084103478012 0.17622802545224531 0 -0.1023405958079656 0.1824581270336729 0 -0.094988706548214591 0.18541764039640099 0 -0.10028652406250441 0.1902731657093206 0 -0.1023405958079656 0.1824581270336729 0 -0.09813084103478012 0.17622802545224531 0 -0.094988706548214591 0.18541764039640099 0 -0.09813084103478012 0.17622802545224531 0 -0.094988706548214591 0.18541764039640099 0 -0.088329210134843905 0.1791987974885641 0 -0.1126512217624015 0.16285054606665661 0 -0.1049439554761321 0.16035470777757421 0 -0.102166311117417 0.16752107144454681 0 -0.1074670061447751 0.1518790602016101 0 -0.1049439554761321 0.16035470777757421 0 -0.096959084729657391 0.15837331258183651 0 -0.1074670061447751 0.1518790602016101 0 -0.1126512217624015 0.16285054606665661 0 -0.1049439554761321 0.16035470777757421 0 -0.1126512217624015 0.16285054606665661 0 -0.1072858333755583 0.17456722243877579 0 -0.102166311117417 0.16752107144454681 0 -0.102166311117417 0.16752107144454681 0 -0.096959084729657391 0.15837331258183651 0 -0.092515995629183695 0.1697044090756912 0 -0.09813084103478012 0.17622802545224531 0 -0.102166311117417 0.16752107144454681 0 -0.092515995629183695 0.1697044090756912 0 -0.1049439554761321 0.16035470777757421 0 -0.102166311117417 0.16752107144454681 0 -0.096959084729657391 0.15837331258183651 0 -0.096959084729657391 0.15837331258183651 0 -0.086666267715496362 0.16260468821527621 0 -0.092515995629183695 0.1697044090756912 0 -0.096959084729657391 0.15837331258183651 0 -0.086666267715496362 0.16260468821527621 0 -0.085659100428899987 0.15150151844792581 0 -0.086666267715496362 0.16260468821527621 0 -0.092515995629183695 0.1697044090756912 0 -0.081958627914643867 0.17137670854970369 0 -0.086666267715496362 0.16260468821527621 0 -0.081958627914643867 0.17137670854970369 0 -0.07575840308360747 0.163441139767841 0 -0.086666267715496362 0.16260468821527621 0 -0.07575840308360747 0.163441139767841 0 -0.085659100428899987 0.15150151844792581 0 -0.094988706548214591 0.18541764039640099 0 -0.088329210134843905 0.1791987974885641 0 -0.085591568165451049 0.18964457383416231 0 -0.092515995629183695 0.1697044090756912 0 -0.081958627914643867 0.17137670854970369 0 -0.088329210134843905 0.1791987974885641 0 -0.09813084103478012 0.17622802545224531 0 -0.092515995629183695 0.1697044090756912 0 -0.088329210134843905 0.1791987974885641 0 -0.081958627914643867 0.17137670854970369 0 -0.088329210134843905 0.1791987974885641 0 -0.078463393140294074 0.1817173413167695 0 -0.088329210134843905 0.1791987974885641 0 -0.078463393140294074 0.1817173413167695 0 -0.085591568165451049 0.18964457383416231 0 -0.078463393140294074 0.1817173413167695 0 -0.068234498590854245 0.18510914767529271 0 -0.075499929406126029 0.19337572244943441 0 -0.078463393140294074 0.1817173413167695 0 -0.071080604079637288 0.1733479018593603 0 -0.068234498590854245 0.18510914767529271 0 -0.081958627914643867 0.17137670854970369 0 -0.078463393140294074 0.1817173413167695 0 -0.071080604079637288 0.1733479018593603 0 -0.071080604079637288 0.1733479018593603 0 -0.068234498590854245 0.18510914767529271 0 -0.061037622844945093 0.17744015881265851 0 -0.068234498590854245 0.18510914767529271 0 -0.059303791777487361 0.18821752985612711 0 -0.061037622844945093 0.17744015881265851 0 -0.07575840308360747 0.163441139767841 0 -0.062677877755144787 0.16311566946103709 0 -0.073713676447992704 0.1525404825988903 0 -0.081958627914643867 0.17137670854970369 0 -0.071080604079637288 0.1733479018593603 0 -0.07575840308360747 0.163441139767841 0 -0.071080604079637288 0.1733479018593603 0 -0.062677877755144787 0.16311566946103709 0 -0.061037622844945093 0.17744015881265851 0 -0.071080604079637288 0.1733479018593603 0 -0.07575840308360747 0.163441139767841 0 -0.062677877755144787 0.16311566946103709 0 -0.062677877755144787 0.16311566946103709 0 -0.063507891657163182 0.15297234448059571 0 -0.073713676447992704 0.1525404825988903 0 -0.063507891657163182 0.15297234448059571 0 -0.073713676447992704 0.1525404825988903 0 -0.065727996859345772 0.1431286184142449 0 -0.073713676447992704 0.1525404825988903 0 -0.065727996859345772 0.1431286184142449 0 -0.079940899611227356 0.13974459364193351 0 -0.065727996859345772 0.1431286184142449 0 -0.068451934850009277 0.1311807054156269 0 -0.054622120689069617 0.13438025008977261 0 -0.068451934850009277 0.1311807054156269 0 -0.079119924600213776 0.12813268639280359 0 -0.072308681266802843 0.12006084568152101 0 -0.068451934850009277 0.1311807054156269 0 -0.079940899611227356 0.13974459364193351 0 -0.079119924600213776 0.12813268639280359 0 -0.065727996859345772 0.1431286184142449 0 -0.068451934850009277 0.1311807054156269 0 -0.079940899611227356 0.13974459364193351 0 -0.079119924600213776 0.12813268639280359 0 -0.09316345007512529 0.12787552256921189 0 -0.084402678968613865 0.12032923123529531 0 -0.079940899611227356 0.13974459364193351 0 -0.079119924600213776 0.12813268639280359 0 -0.09316345007512529 0.12787552256921189 0 -0.079940899611227356 0.13974459364193351 0 -0.09316345007512529 0.12787552256921189 0 -0.092131834798674483 0.1419684547906048 0 -0.097987996390648938 0.14880638782865771 0 -0.092131834798674483 0.1419684547906048 0 -0.085659100428899987 0.15150151844792581 0 -0.097987996390648938 0.14880638782865771 0 -0.096959084729657391 0.15837331258183651 0 -0.085659100428899987 0.15150151844792581 0 -0.07575840308360747 0.163441139767841 0 -0.073713676447992704 0.1525404825988903 0 -0.085659100428899987 0.15150151844792581 0 -0.073713676447992704 0.1525404825988903 0 -0.079940899611227356 0.13974459364193351 0 -0.085659100428899987 0.15150151844792581 0 -0.079940899611227356 0.13974459364193351 0 -0.092131834798674483 0.1419684547906048 0 -0.085659100428899987 0.15150151844792581 0 -0.1057884026374087 0.25524920372368182 0 -0.098995626970016917 0.23980607547375249 0 -0.1003135687991342 0.22763278844137899 0 -0.1057884026374087 0.25524920372368182 0 -0.114554315497749 0.24628049261128021 0 -0.1003135687991342 0.22763278844137899 0 -0.1057884026374087 0.25524920372368182 0 -0.1003135687991342 0.22763278844137899 0 -0.1004635180975432 0.25391368625496658 0 -0.098254434968115534 0.2456333193106548 0 -0.094325998903308533 0.2442355412820274 0 -0.1057884026374087 0.25524920372368182 0 -0.098254434968115534 0.2456333193106548 0 -0.098995626970016917 0.23980607547375249 0 -0.098254434968115534 0.2456333193106548 0 -0.094325998903308533 0.2442355412820274 0 -0.095632395195425254 0.24125013291497449 0 -0.098254434968115534 0.2456333193106548 0 -0.095632395195425254 0.24125013291497449 0 -0.098995626970016917 0.23980607547375249 0 -0.094325998903308533 0.2442355412820274 0 -0.095632395195425254 0.24125013291497449 0 -0.092040447864893127 0.23974005489579189 0 -0.095632395195425254 0.24125013291497449 0 -0.094791572115441272 0.23691594532256741 0 -0.092040447864893127 0.23974005489579189 0 -0.095632395195425254 0.24125013291497449 0 -0.094791572115441272 0.23691594532256741 0 -0.098995626970016917 0.23980607547375249 0 -0.094791572115441272 0.23691594532256741 0 -0.098995626970016917 0.23980607547375249 0 -0.0965747618056291 0.2340322738551531 0 -0.114554315497749 0.24628049261128021 0 -0.1197488402286296 0.23685543728298239 0 -0.1003135687991342 0.22763278844137899 0 -0.1255001957498163 0.24628542454034369 0 -0.114554315497749 0.24628049261128021 0 -0.1197488402286296 0.23685543728298239 0 -0.1239531221148822 0.25532768312897258 0 -0.1255001957498163 0.24628542454034369 0 -0.114554315497749 0.24628049261128021 0 -0.12675244561454579 0.222092340863211 0 -0.107683593369889 0.21876324957596649 0 -0.1003135687991342 0.22763278844137899 0 -0.12675244561454579 0.222092340863211 0 -0.1197488402286296 0.23685543728298239 0 -0.1003135687991342 0.22763278844137899 0 -0.12675244561454579 0.222092340863211 0 -0.1003135687991342 0.22763278844137899 0 -0.107683593369889 0.21876324957596649 0 -0.09944650591744128 0.22325910892451389 0 -0.09894152409911651 0.2171798410480775 0 -0.107683593369889 0.21876324957596649 0 -0.1003135687991342 0.22763278844137899 0 -0.09944650591744128 0.22325910892451389 0 -0.098995626970016917 0.23980607547375249 0 -0.1003135687991342 0.22763278844137899 0 -0.0965747618056291 0.2340322738551531 0 -0.1003135687991342 0.22763278844137899 0 -0.0965747618056291 0.2340322738551531 0 -0.092198279337924016 0.23177428618291351 0 -0.094791572115441272 0.23691594532256741 0 -0.0965747618056291 0.2340322738551531 0 -0.092198279337924016 0.23177428618291351 0 -0.1003135687991342 0.22763278844137899 0 -0.096856857170683805 0.22450312179766219 0 -0.093543817587319195 0.22619915835580379 0 -0.096856857170683805 0.22450312179766219 0 -0.094123536378840578 0.2209214314689523 0 -0.09944650591744128 0.22325910892451389 0 -0.096856857170683805 0.22450312179766219 0 -0.094123536378840578 0.2209214314689523 0 -0.093543817587319195 0.22619915835580379 0 -0.094123536378840578 0.2209214314689523 0 -0.09944650591744128 0.22325910892451389 0 -0.09894152409911651 0.2171798410480775 0 -0.1003135687991342 0.22763278844137899 0 -0.096856857170683805 0.22450312179766219 0 -0.09944650591744128 0.22325910892451389 0 -0.1003135687991342 0.22763278844137899 0 -0.09944650591744128 0.22325910892451389 0 -0.09894152409911651 0.2171798410480775 0 -0.1020386828459633 0.2119243570316294 0 -0.092386596503907598 0.21190232114485291 0 -0.094123536378840578 0.2209214314689523 0 -0.09894152409911651 0.2171798410480775 0 -0.092386596503907598 0.21190232114485291 0 -0.099020506856099338 0.20381157994298571 0 -0.1020386828459633 0.2119243570316294 0 -0.092386596503907598 0.21190232114485291 0 -0.099020506856099338 0.20381157994298571 0 -0.1020386828459633 0.2119243570316294 0 -0.11241596812970479 0.20667955657385659 0 -0.107683593369889 0.21876324957596649 0 -0.1020386828459633 0.2119243570316294 0 -0.11241596812970479 0.20667955657385659 0 -0.107683593369889 0.21876324957596649 0 -0.09894152409911651 0.2171798410480775 0 -0.1020386828459633 0.2119243570316294 0 -0.12675244561454579 0.222092340863211 0 -0.107683593369889 0.21876324957596649 0 -0.11241596812970479 0.20667955657385659 0 -0.1328116149223689 0.20667813615449909 0 -0.12675244561454579 0.222092340863211 0 -0.11241596812970479 0.20667955657385659 0 -0.1120490126720752 0.184857253361356 0 -0.12499868893356809 0.19169464401862171 0 -0.1069171207851044 0.19560173701714359 0 -0.1328116149223689 0.20667813615449909 0 -0.11241596812970479 0.20667955657385659 0 -0.12499868893356809 0.19169464401862171 0 -0.11241596812970479 0.20667955657385659 0 -0.12499868893356809 0.19169464401862171 0 -0.1069171207851044 0.19560173701714359 0 -0.1120490126720752 0.184857253361356 0 -0.1069171207851044 0.19560173701714359 0 -0.10028652406250441 0.1902731657093206 0 -0.099020506856099338 0.20381157994298571 0 -0.11241596812970479 0.20667955657385659 0 -0.1069171207851044 0.19560173701714359 0 -0.099020506856099338 0.20381157994298571 0 -0.1069171207851044 0.19560173701714359 0 -0.094625032386634819 0.1954291738421681 0 -0.094988706548214591 0.18541764039640099 0 -0.094625032386634819 0.1954291738421681 0 -0.10028652406250441 0.1902731657093206 0 -0.1069171207851044 0.19560173701714359 0 -0.094625032386634819 0.1954291738421681 0 -0.10028652406250441 0.1902731657093206 0 -0.094988706548214591 0.18541764039640099 0 -0.094625032386634819 0.1954291738421681 0 -0.085591568165451049 0.18964457383416231 0 -0.099020506856099338 0.20381157994298571 0 -0.094625032386634819 0.1954291738421681 0 -0.085739640485281085 0.20133233404826359 0 -0.094625032386634819 0.1954291738421681 0 -0.085739640485281085 0.20133233404826359 0 -0.085591568165451049 0.18964457383416231 0 -0.078463393140294074 0.1817173413167695 0 -0.085591568165451049 0.18964457383416231 0 -0.075499929406126029 0.19337572244943441 0 -0.085739640485281085 0.20133233404826359 0 -0.085591568165451049 0.18964457383416231 0 -0.075499929406126029 0.19337572244943441 0 -0.064021650296635729 0.19655623175740661 0 -0.073134484337216907 0.20456063616916911 0 -0.055860710480552841 0.20777972883394119 0 -0.068234498590854245 0.18510914767529271 0 -0.064021650296635729 0.19655623175740661 0 -0.059303791777487361 0.18821752985612711 0 -0.068234498590854245 0.18510914767529271 0 -0.075499929406126029 0.19337572244943441 0 -0.064021650296635729 0.19655623175740661 0 -0.085739640485281085 0.20133233404826359 0 -0.075499929406126029 0.19337572244943441 0 -0.073134484337216907 0.20456063616916911 0 -0.075499929406126029 0.19337572244943441 0 -0.064021650296635729 0.19655623175740661 0 -0.073134484337216907 0.20456063616916911 0 -0.076290311513114425 0.21691381729245479 0 -0.065062542866617945 0.22398995871223609 0 -0.055860710480552841 0.20777972883394119 0 -0.076290311513114425 0.21691381729245479 0 -0.055860710480552841 0.20777972883394119 0 -0.073134484337216907 0.20456063616916911 0 -0.076290311513114425 0.21691381729245479 0 -0.082466247886090291 0.21009816353008731 0 -0.073134484337216907 0.20456063616916911 0 -0.076290311513114425 0.21691381729245479 0 -0.055860710480552841 0.20777972883394119 0 -0.076290311513114425 0.21691381729245479 0 -0.082466247886090291 0.21009816353008731 0 -0.08629066579313921 0.21759837556786121 0 -0.085739640485281085 0.20133233404826359 0 -0.073134484337216907 0.20456063616916911 0 -0.082466247886090291 0.21009816353008731 0 -0.085739640485281085 0.20133233404826359 0 -0.082466247886090291 0.21009816353008731 0 -0.092386596503907598 0.21190232114485291 0 -0.099020506856099338 0.20381157994298571 0 -0.085739640485281085 0.20133233404826359 0 -0.092386596503907598 0.21190232114485291 0 -0.082466247886090291 0.21009816353008731 0 -0.092386596503907598 0.21190232114485291 0 -0.08629066579313921 0.21759837556786121 0 -0.094123536378840578 0.2209214314689523 0 -0.092386596503907598 0.21190232114485291 0 -0.08629066579313921 0.21759837556786121 0 -0.1003135687991342 0.22763278844137899 0 -0.074289338669812299 0.2330863439687374 0 -0.092198279337924016 0.23177428618291351 0 -0.074289338669812299 0.2330863439687374 0 -0.080812344669774119 0.2352721851126382 0 -0.1003135687991342 0.22763278844137899 0 -0.092198279337924016 0.23177428618291351 0 -0.074289338669812299 0.2330863439687374 0 -0.1003135687991342 0.22763278844137899 0 -0.08681456020968592 0.22803612252249639 0 -0.074289338669812299 0.2330863439687374 0 -0.094123536378840578 0.2209214314689523 0 -0.08629066579313921 0.21759837556786121 0 -0.088900330685113146 0.22308439729944471 0 -0.088900330685113146 0.22308439729944471 0 -0.08681456020968592 0.22803612252249639 0 -0.083729073456580788 0.22266689858210961 0 -0.088900330685113146 0.22308439729944471 0 -0.093543817587319195 0.22619915835580379 0 -0.08681456020968592 0.22803612252249639 0 -0.08629066579313921 0.21759837556786121 0 -0.088900330685113146 0.22308439729944471 0 -0.083729073456580788 0.22266689858210961 0 -0.094123536378840578 0.2209214314689523 0 -0.088900330685113146 0.22308439729944471 0 -0.093543817587319195 0.22619915835580379 0 -0.1003135687991342 0.22763278844137899 0 -0.093543817587319195 0.22619915835580379 0 -0.08681456020968592 0.22803612252249639 0 -0.08681456020968592 0.22803612252249639 0 -0.078417534199255762 0.2254003771600705 0 -0.074289338669812299 0.2330863439687374 0 -0.076290311513114425 0.21691381729245479 0 -0.078417534199255762 0.2254003771600705 0 -0.083729073456580788 0.22266689858210961 0 -0.08681456020968592 0.22803612252249639 0 -0.078417534199255762 0.2254003771600705 0 -0.083729073456580788 0.22266689858210961 0 -0.076290311513114425 0.21691381729245479 0 -0.08629066579313921 0.21759837556786121 0 -0.083729073456580788 0.22266689858210961 0 -0.065062542866617945 0.22398995871223609 0 -0.075173534889344501 0.23931379218279469 0 -0.049883551681145853 0.22471389811062281 0 -0.076290311513114425 0.21691381729245479 0 -0.072786204765024454 0.22526221832656881 0 -0.065062542866617945 0.22398995871223609 0 -0.075173534889344501 0.23931379218279469 0 -0.049883551681145853 0.22471389811062281 0 -0.076290311513114425 0.21691381729245479 0 -0.078417534199255762 0.2254003771600705 0 -0.072786204765024454 0.22526221832656881 0 -0.072786204765024454 0.22526221832656881 0 -0.065062542866617945 0.22398995871223609 0 -0.074289338669812299 0.2330863439687374 0 -0.078417534199255762 0.2254003771600705 0 -0.072786204765024454 0.22526221832656881 0 -0.074289338669812299 0.2330863439687374 0 -0.065062542866617945 0.22398995871223609 0 -0.074289338669812299 0.2330863439687374 0 -0.075173534889344501 0.23931379218279469 0 -0.074289338669812299 0.2330863439687374 0 -0.075173534889344501 0.23931379218279469 0 -0.080812344669774119 0.2352721851126382 0 -0.075173534889344501 0.23931379218279469 0 -0.070010111111491954 0.2464415319862093 0 -0.059190843009695182 0.23779542023933559 0 -0.063825786058281639 0.25388910503181172 0 -0.070010111111491954 0.2464415319862093 0 -0.05838690939615615 0.24685761960527891 0 -0.070010111111491954 0.2464415319862093 0 -0.05838690939615615 0.24685761960527891 0 -0.059190843009695182 0.23779542023933559 0 -0.075173534889344501 0.23931379218279469 0 -0.070010111111491954 0.2464415319862093 0 -0.076004334722877626 0.24723302118292681 0 -0.082167006219431279 0.25112813484404639 0 -0.075173534889344501 0.23931379218279469 0 -0.076004334722877626 0.24723302118292681 0 -0.076666686671242767 0.25204862571865688 0 -0.070010111111491954 0.2464415319862093 0 -0.076004334722877626 0.24723302118292681 0 -0.1004635180975432 0.25391368625496658 0 -0.088114880810680918 0.25177782386922759 0 -0.075173534889344501 0.23931379218279469 0 -0.1004635180975432 0.25391368625496658 0 -0.075173534889344501 0.23931379218279469 0 -0.1004635180975432 0.25391368625496658 0 -0.075173534889344501 0.23931379218279469 0 -0.085239198390565554 0.2406405130337492 0 -0.088114880810680918 0.25177782386922759 0 -0.082167006219431279 0.25112813484404639 0 -0.075173534889344501 0.23931379218279469 0 -0.075173534889344501 0.23931379218279469 0 -0.081107408202467479 0.2376641081118821 0 -0.085239198390565554 0.2406405130337492 0 -0.075173534889344501 0.23931379218279469 0 -0.081107408202467479 0.2376641081118821 0 -0.080812344669774119 0.2352721851126382 0 -0.081107408202467479 0.2376641081118821 0 -0.085115947471049183 0.2363374891198293 0 -0.085239198390565554 0.2406405130337492 0 -0.081107408202467479 0.2376641081118821 0 -0.080812344669774119 0.2352721851126382 0 -0.085115947471049183 0.2363374891198293 0 -0.094325998903308533 0.2442355412820274 0 -0.085239198390565554 0.2406405130337492 0 -0.092040447864893127 0.23974005489579189 0 -0.085239198390565554 0.2406405130337492 0 -0.089877089035974633 0.23708165771097031 0 -0.092040447864893127 0.23974005489579189 0 -0.092198279337924016 0.23177428618291351 0 -0.080812344669774119 0.2352721851126382 0 -0.085115947471049183 0.2363374891198293 0 -0.092198279337924016 0.23177428618291351 0 -0.085115947471049183 0.2363374891198293 0 -0.089877089035974633 0.23708165771097031 0 -0.085115947471049183 0.2363374891198293 0 -0.085239198390565554 0.2406405130337492 0 -0.089877089035974633 0.23708165771097031 0 -0.094791572115441272 0.23691594532256741 0 -0.092198279337924016 0.23177428618291351 0 -0.089877089035974633 0.23708165771097031 0 -0.094791572115441272 0.23691594532256741 0 -0.089877089035974633 0.23708165771097031 0 -0.092040447864893127 0.23974005489579189 0 -0.1004635180975432 0.25391368625496658 0 -0.094325998903308533 0.2442355412820274 0 -0.085239198390565554 0.2406405130337492 0 -0.045951081437063501 0.2421735950950713 0 -0.031306814384083927 0.2301645169081806 0 -0.028393867116377699 0.2428768222591032 0 -0.038769726128567897 0.2581562343505211 0 -0.045951081437063501 0.2421735950950713 0 -0.028393867116377699 0.2428768222591032 0 -0.045951081437063501 0.2421735950950713 0 -0.059190843009695182 0.23779542023933559 0 -0.049883551681145853 0.22471389811062281 0 -0.045951081437063501 0.2421735950950713 0 -0.05838690939615615 0.24685761960527891 0 -0.059190843009695182 0.23779542023933559 0 -0.052956725364248503 0.25398844567396672 0 -0.045951081437063501 0.2421735950950713 0 -0.05838690939615615 0.24685761960527891 0 -0.075173534889344501 0.23931379218279469 0 -0.059190843009695182 0.23779542023933559 0 -0.049883551681145853 0.22471389811062281 0 -0.065062542866617945 0.22398995871223609 0 -0.049883551681145853 0.22471389811062281 0 -0.055860710480552841 0.20777972883394119 0 -0.045951081437063501 0.2421735950950713 0 -0.049883551681145853 0.22471389811062281 0 -0.031306814384083927 0.2301645169081806 0 -0.049883551681145853 0.22471389811062281 0 -0.031306814384083927 0.2301645169081806 0 -0.024593568472947209 0.21011400403845051 0 -0.04144223502065926 0.21031331783961049 0 -0.035431109447991202 0.19864564037542781 0 -0.024593568472947209 0.21011400403845051 0 -0.04144223502065926 0.21031331783961049 0 -0.055860710480552841 0.20777972883394119 0 -0.035431109447991202 0.19864564037542781 0 -0.049883551681145853 0.22471389811062281 0 -0.04144223502065926 0.21031331783961049 0 -0.024593568472947209 0.21011400403845051 0 -0.055860710480552841 0.20777972883394119 0 -0.035431109447991202 0.19864564037542781 0 -0.049883551681145853 0.22471389811062281 0 -0.024593568472947209 0.21011400403845051 0 -0.049883551681145853 0.22471389811062281 0 -0.04144223502065926 0.21031331783961049 0 -0.055860710480552841 0.20777972883394119 0 -0.055860710480552841 0.20777972883394119 0 -0.052037859279284587 0.19544934250010301 0 -0.035431109447991202 0.19864564037542781 0 -0.064021650296635729 0.19655623175740661 0 -0.055860710480552841 0.20777972883394119 0 -0.052037859279284587 0.19544934250010301 0 -0.064021650296635729 0.19655623175740661 0 -0.052037859279284587 0.19544934250010301 0 -0.059303791777487361 0.18821752985612711 0 -0.052037859279284587 0.19544934250010301 0 -0.059303791777487361 0.18821752985612711 0 -0.051275362501905203 0.18428629586622919 0 -0.052037859279284587 0.19544934250010301 0 -0.043292657385394069 0.19032649390963691 0 -0.051275362501905203 0.18428629586622919 0 -0.052037859279284587 0.19544934250010301 0 -0.043292657385394069 0.19032649390963691 0 -0.035431109447991202 0.19864564037542781 0 -0.043292657385394069 0.19032649390963691 0 -0.035431109447991202 0.19864564037542781 0 -0.043292657385394069 0.19032649390963691 0 -0.035431109447991202 0.19864564037542781 0 -0.032604741070697121 0.18833250517240299 0 -0.01896616761585216 0.19794180562467339 0 -0.0056325988397643058 0.19689021080509089 0 -0.025662995806677229 0.20619120775547881 0 -0.035431109447991202 0.19864564037542781 0 -0.032604741070697121 0.18833250517240299 0 -0.012531751640030311 0.18840732198988031 0 -0.035431109447991202 0.19864564037542781 0 -0.01896616761585216 0.19794180562467339 0 -0.025662995806677229 0.20619120775547881 0 -0.0056325988397643058 0.19689021080509089 0 -0.025662995806677229 0.20619120775547881 0 -0.035431109447991202 0.19864564037542781 0 -0.01896616761585216 0.19794180562467339 0 -0.012531751640030311 0.18840732198988031 0 -0.035431109447991202 0.19864564037542781 0 -0.012531751640030311 0.18840732198988031 0 -0.01896616761585216 0.19794180562467339 0 -0.012531751640030311 0.18840732198988031 0 -0.0056325988397643058 0.19689021080509089 0 -0.0050948726899160968 0.19885741716632241 0 -0.0056325988397643058 0.19689021080509089 0 -0.025662995806677229 0.20619120775547881 0 -0.012531751640030311 0.18840732198988031 0 -0.0056325988397643058 0.19689021080509089 0 0.0020887413519905858 0.18729136112933481 0 -0.0050948726899160968 0.19885741716632241 0 -0.024593568472947209 0.21011400403845051 0 0.0016356939700863671 0.21461609658767691 0 -0.0050948726899160968 0.19885741716632241 0 -0.024593568472947209 0.21011400403845051 0 -0.024593568472947209 0.21011400403845051 0 -0.0057084941087844204 0.23009832530746829 0 0.0016356939700863671 0.21461609658767691 0 -0.0050948726899160968 0.19885741716632241 0 -0.025662995806677229 0.20619120775547881 0 -0.024593568472947209 0.21011400403845051 0 -0.035431109447991202 0.19864564037542781 0 -0.024593568472947209 0.21011400403845051 0 -0.035431109447991202 0.19864564037542781 0 -0.025662995806677229 0.20619120775547881 0 -0.024593568472947209 0.21011400403845051 0 -0.031306814384083927 0.2301645169081806 0 -0.024593568472947209 0.21011400403845051 0 -0.0057084941087844204 0.23009832530746829 0 -0.024593568472947209 0.21011400403845051 0 -0.0057084941087844204 0.23009832530746829 0 -0.02023321952338877 0.25379143963427492 0 -0.004688707870413332 0.2558135020850828 0 -0.0057084941087844204 0.23009832530746829 0 -0.02023321952338877 0.25379143963427492 0 -0.0057084941087844204 0.23009832530746829 0 -0.028393867116377699 0.2428768222591032 0 -0.031306814384083927 0.2301645169081806 0 -0.0057084941087844204 0.23009832530746829 0 -0.028393867116377699 0.2428768222591032 0 -0.039770584775153273 0.155917073625786 0 -0.039287402506821098 0.13988236293519851 0 -0.053727106539996287 0.14796086795753149 0 -0.039770584775153273 0.155917073625786 0 -0.039287402506821098 0.13988236293519851 0 -0.025932470009469549 0.15165117743793349 0 -0.043296598986927719 0.1252311927607494 0 -0.039287402506821098 0.13988236293519851 0 -0.022339160959092969 0.1192184259262921 0 -0.043296598986927719 0.1252311927607494 0 -0.039287402506821098 0.13988236293519851 0 -0.054622120689069617 0.13438025008977261 0 -0.043296598986927719 0.1252311927607494 0 -0.054622120689069617 0.13438025008977261 0 -0.057241684391317597 0.11889775305528461 0 -0.068451934850009277 0.1311807054156269 0 -0.054622120689069617 0.13438025008977261 0 -0.057241684391317597 0.11889775305528461 0 -0.065727996859345772 0.1431286184142449 0 -0.054622120689069617 0.13438025008977261 0 -0.053727106539996287 0.14796086795753149 0 -0.063507891657163182 0.15297234448059571 0 -0.065727996859345772 0.1431286184142449 0 -0.053727106539996287 0.14796086795753149 0 -0.039287402506821098 0.13988236293519851 0 -0.054622120689069617 0.13438025008977261 0 -0.053727106539996287 0.14796086795753149 0 -0.039770584775153273 0.155917073625786 0 -0.053727106539996287 0.14796086795753149 0 -0.051521839252080349 0.1604928001044223 0 -0.063507891657163182 0.15297234448059571 0 -0.053727106539996287 0.14796086795753149 0 -0.051521839252080349 0.1604928001044223 0 -0.062677877755144787 0.16311566946103709 0 -0.063507891657163182 0.15297234448059571 0 -0.051521839252080349 0.1604928001044223 0 -0.062677877755144787 0.16311566946103709 0 -0.051521839252080349 0.1604928001044223 0 -0.051141573930750729 0.17285904026278459 0 -0.062677877755144787 0.16311566946103709 0 -0.061037622844945093 0.17744015881265851 0 -0.051141573930750729 0.17285904026278459 0 -0.059303791777487361 0.18821752985612711 0 -0.061037622844945093 0.17744015881265851 0 -0.051275362501905203 0.18428629586622919 0 -0.051141573930750729 0.17285904026278459 0 -0.051275362501905203 0.18428629586622919 0 -0.040838669793569392 0.18142520985606511 0 -0.061037622844945093 0.17744015881265851 0 -0.051141573930750729 0.17285904026278459 0 -0.051275362501905203 0.18428629586622919 0 -0.043292657385394069 0.19032649390963691 0 -0.051275362501905203 0.18428629586622919 0 -0.040838669793569392 0.18142520985606511 0 -0.051141573930750729 0.17285904026278459 0 -0.040838669793569392 0.18142520985606511 0 -0.03759013926705148 0.1702990849720441 0 -0.040838669793569392 0.18142520985606511 0 -0.03759013926705148 0.1702990849720441 0 -0.02850468963520152 0.18103021226780661 0 -0.032604741070697121 0.18833250517240299 0 -0.040838669793569392 0.18142520985606511 0 -0.02850468963520152 0.18103021226780661 0 -0.043292657385394069 0.19032649390963691 0 -0.032604741070697121 0.18833250517240299 0 -0.040838669793569392 0.18142520985606511 0 -0.039770584775153273 0.155917073625786 0 -0.051521839252080349 0.1604928001044223 0 -0.03759013926705148 0.1702990849720441 0 -0.051521839252080349 0.1604928001044223 0 -0.051141573930750729 0.17285904026278459 0 -0.03759013926705148 0.1702990849720441 0 -0.039770584775153273 0.155917073625786 0 -0.028770291761939432 0.1624957290852316 0 -0.025932470009469549 0.15165117743793349 0 -0.039770584775153273 0.155917073625786 0 -0.03759013926705148 0.1702990849720441 0 -0.028770291761939432 0.1624957290852316 0 -0.028770291761939432 0.1624957290852316 0 -0.01645666814909854 0.15708102535799831 0 -0.025932470009469549 0.15165117743793349 0 -0.028770291761939432 0.1624957290852316 0 -0.017944249376541471 0.168609669012352 0 -0.026432930994241301 0.17188991709417581 0 -0.03759013926705148 0.1702990849720441 0 -0.028770291761939432 0.1624957290852316 0 -0.026432930994241301 0.17188991709417581 0 -0.028770291761939432 0.1624957290852316 0 -0.017944249376541471 0.168609669012352 0 -0.01645666814909854 0.15708102535799831 0 -0.012531751640030311 0.18840732198988031 0 -0.02850468963520152 0.18103021226780661 0 -0.019355284930472581 0.17701489013344451 0 -0.032604741070697121 0.18833250517240299 0 -0.012531751640030311 0.18840732198988031 0 -0.02850468963520152 0.18103021226780661 0 -0.03759013926705148 0.1702990849720441 0 -0.02850468963520152 0.18103021226780661 0 -0.026432930994241301 0.17188991709417581 0 -0.02850468963520152 0.18103021226780661 0 -0.026432930994241301 0.17188991709417581 0 -0.019355284930472581 0.17701489013344451 0 -0.017944249376541471 0.168609669012352 0 -0.026432930994241301 0.17188991709417581 0 -0.019355284930472581 0.17701489013344451 0 -0.017944249376541471 0.168609669012352 0 -0.019355284930472581 0.17701489013344451 0 -0.01075094651280903 0.17515314997736611 0 -0.012531751640030311 0.18840732198988031 0 0.0020887413519905858 0.18729136112933481 0 0.01036760616793082 0.17816900360433299 0 -0.012531751640030311 0.18840732198988031 0 0.01036760616793082 0.17816900360433299 0 -0.012531751640030311 0.18840732198988031 0 -0.019355284930472581 0.17701489013344451 0 -0.01075094651280903 0.17515314997736611 0 -0.012531751640030311 0.18840732198988031 0 -0.01075094651280903 0.17515314997736611 0 0.002548834246367523 0.17361791072911431 0 -0.01049963862968885 0.1641759846809068 0 -0.0098951633563627225 0.14641816832770321 0 0.002548834246367523 0.17361791072911431 0 -0.0098951633563627225 0.14641816832770321 0 0.002548834246367523 0.17361791072911431 0 -0.00051736649886272024 0.1581143877834357 0 -0.0098951633563627225 0.14641816832770321 0 0.002548834246367523 0.17361791072911431 0 -0.017944249376541471 0.168609669012352 0 -0.01645666814909854 0.15708102535799831 0 -0.01049963862968885 0.1641759846809068 0 -0.017944249376541471 0.168609669012352 0 -0.01075094651280903 0.17515314997736611 0 -0.01049963862968885 0.1641759846809068 0 -0.01075094651280903 0.17515314997736611 0 -0.01049963862968885 0.1641759846809068 0 0.002548834246367523 0.17361791072911431 0 -0.01645666814909854 0.15708102535799831 0 -0.01049963862968885 0.1641759846809068 0 -0.0098951633563627225 0.14641816832770321 0 -0.00051736649886272024 0.1581143877834357 0 -0.0098951633563627225 0.14641816832770321 0 0.0045566300691653842 0.14159662700455791 0 -0.039287402506821098 0.13988236293519851 0 -0.025932470009469549 0.15165117743793349 0 -0.022339160959092969 0.1192184259262921 0 -0.0098951633563627225 0.14641816832770321 0 -0.025932470009469549 0.15165117743793349 0 -0.022339160959092969 0.1192184259262921 0 -0.01645666814909854 0.15708102535799831 0 -0.0098951633563627225 0.14641816832770321 0 -0.025932470009469549 0.15165117743793349 0 -0.0098951633563627225 0.14641816832770321 0 -0.022339160959092969 0.1192184259262921 0 -0.0098951633563627225 0.14641816832770321 0 -0.0051874254262917448 0.13252577252147241 0 -0.022339160959092969 0.1192184259262921 0 -0.0098951633563627225 0.14641816832770321 0 -0.0051874254262917448 0.13252577252147241 0 0.0045566300691653842 0.14159662700455791 0 -0.0051874254262917448 0.13252577252147241 0 -0.022339160959092969 0.1192184259262921 0 0.0069279925411233276 0.12286986882733621 0 -0.0037841361478036929 0.1004174717702209 0 -0.022339160959092969 0.1192184259262921 0 0.0069279925411233276 0.12286986882733621 0 -0.0037841361478036929 0.1004174717702209 0 -0.022339160959092969 0.1192184259262921 0 -0.01928606746513065 0.089826339923481657 0 -0.022339160959092969 0.1192184259262921 0 -0.01928606746513065 0.089826339923481657 0 -0.034783158561823221 0.092018683524881073 0 -0.022339160959092969 0.1192184259262921 0 -0.034783158561823221 0.092018683524881073 0 -0.0077350902277770056 0.069982330192860792 0 -0.01366648930583881 0.071728540615999994 0 -0.024136552897330441 0.055244275757902889 0 -0.0077350902277770056 0.069982330192860792 0 -0.004553599416321219 0.068097812172203259 0 -0.024136552897330441 0.055244275757902889 0 -0.004553599416321219 0.068097812172203259 0 -0.0034907294980709449 0.058868134135229032 0 0.0049573368763592167 0.06253138299556911 0 -0.01366648930583881 0.071728540615999994 0 7.9005042563778938e-06 0.073235277862053666 0 -0.0077350902277770056 0.069982330192860792 0 -0.004553599416321219 0.068097812172203259 0 7.9005042563778938e-06 0.073235277862053666 0 -0.01366648930583881 0.071728540615999994 0 -0.0074014381522608964 0.08273513668563269 0 7.9005042563778938e-06 0.073235277862053666 0 -0.0077350902277770056 0.069982330192860792 0 -0.01366648930583881 0.071728540615999994 0 7.9005042563778938e-06 0.073235277862053666 0 -0.0077350902277770056 0.069982330192860792 0 -0.01366648930583881 0.071728540615999994 0 -0.0037841361478036929 0.1004174717702209 0 -0.0074014381522608964 0.08273513668563269 0 -0.01928606746513065 0.089826339923481657 0 -0.0037841361478036929 0.1004174717702209 0 -0.0074014381522608964 0.08273513668563269 0 0.003602597882473428 0.087375721075588414 0 -0.01366648930583881 0.071728540615999994 0 -0.0074014381522608964 0.08273513668563269 0 -0.01928606746513065 0.089826339923481657 0 -0.0074014381522608964 0.08273513668563269 0 0.003602597882473428 0.087375721075588414 0 7.9005042563778938e-06 0.073235277862053666 0 -0.01366648930583881 0.071728540615999994 0 -0.01928606746513065 0.089826339923481657 0 -0.042700634985857487 0.080276225090787481 0 -0.01366648930583881 0.071728540615999994 0 -0.035884659958905718 0.069280391504632 0 -0.042700634985857487 0.080276225090787481 0 -0.01366648930583881 0.071728540615999994 0 -0.035884659958905718 0.069280391504632 0 -0.027596898153055958 0.05591020613006998 0 -0.01366648930583881 0.071728540615999994 0 -0.035884659958905718 0.069280391504632 0 -0.01366648930583881 0.071728540615999994 0 -0.042700634985857487 0.080276225090787481 0 -0.035884659958905718 0.069280391504632 0 -0.055339306484280537 0.067136746271780096 0 -0.035884659958905718 0.069280391504632 0 -0.042700634985857487 0.080276225090787481 0 -0.055339306484280537 0.067136746271780096 0 -0.035884659958905718 0.069280391504632 0 -0.027596898153055958 0.05591020613006998 0 -0.035884659958905718 0.069280391504632 0 -0.042700634985857487 0.080276225090787481 0 -0.01928606746513065 0.089826339923481657 0 -0.042700634985857487 0.080276225090787481 0 -0.034783158561823221 0.092018683524881073 0 -0.042700634985857487 0.080276225090787481 0 -0.034783158561823221 0.092018683524881073 0 -0.050238426504539732 0.092436525094638164 0 -0.042700634985857487 0.080276225090787481 0 -0.050238426504539732 0.092436525094638164 0 -0.042700634985857487 0.080276225090787481 0 -0.068718803463526268 0.08793600255453965 0 -0.042700634985857487 0.080276225090787481 0 -0.068718803463526268 0.08793600255453965 0 -0.063048194754677142 0.075142762922748074 0 -0.042700634985857487 0.080276225090787481 0 -0.050238426504539732 0.092436525094638164 0 -0.068718803463526268 0.08793600255453965 0 -0.055339306484280537 0.067136746271780096 0 -0.074793953009655453 0.064993101038928053 0 -0.051195425581355702 0.060451653584498818 0 -0.035884659958905718 0.069280391504632 0 -0.055339306484280537 0.067136746271780096 0 -0.051195425581355702 0.060451653584498818 0 -0.042700634985857487 0.080276225090787481 0 -0.055339306484280537 0.067136746271780096 0 -0.063048194754677142 0.075142762922748074 0 -0.043296598986927719 0.1252311927607494 0 -0.022339160959092969 0.1192184259262921 0 -0.042052190260315793 0.1091905431824976 0 -0.034783158561823221 0.092018683524881073 0 -0.050238426504539732 0.092436525094638164 0 -0.042052190260315793 0.1091905431824976 0 -0.022339160959092969 0.1192184259262921 0 -0.034783158561823221 0.092018683524881073 0 -0.042052190260315793 0.1091905431824976 0 -0.050238426504539732 0.092436525094638164 0 -0.055197532936232488 0.1037607647482361 0 -0.068718803463526268 0.08793600255453965 0 -0.050238426504539732 0.092436525094638164 0 -0.042052190260315793 0.1091905431824976 0 -0.055197532936232488 0.1037607647482361 0 -0.043296598986927719 0.1252311927607494 0 -0.042052190260315793 0.1091905431824976 0 -0.057241684391317597 0.11889775305528461 0 -0.055197532936232488 0.1037607647482361 0 -0.057241684391317597 0.11889775305528461 0 -0.067005210901473933 0.1077879133952777 0 -0.042052190260315793 0.1091905431824976 0 -0.055197532936232488 0.1037607647482361 0 -0.057241684391317597 0.11889775305528461 0 -0.068451934850009277 0.1311807054156269 0 -0.057241684391317597 0.11889775305528461 0 -0.072308681266802843 0.12006084568152101 0 -0.057241684391317597 0.11889775305528461 0 -0.072308681266802843 0.12006084568152101 0 -0.067005210901473933 0.1077879133952777 0 -0.072308681266802843 0.12006084568152101 0 -0.080716659731458085 0.1053147771520072 0 -0.067005210901473933 0.1077879133952777 0 -0.079119924600213776 0.12813268639280359 0 -0.072308681266802843 0.12006084568152101 0 -0.084402678968613865 0.12032923123529531 0 -0.072308681266802843 0.12006084568152101 0 -0.084402678968613865 0.12032923123529531 0 -0.080716659731458085 0.1053147771520072 0 -0.084402678968613865 0.12032923123529531 0 -0.091571459367253472 0.11244781688203311 0 -0.080716659731458085 0.1053147771520072 0 -0.09316345007512529 0.12787552256921189 0 -0.084402678968613865 0.12032923123529531 0 -0.091571459367253472 0.11244781688203311 0 -0.091571459367253472 0.11244781688203311 0 -0.080716659731458085 0.1053147771520072 0 -0.094736971941195819 0.095595780018289112 0 -0.080716659731458085 0.1053147771520072 0 -0.068718803463526268 0.08793600255453965 0 -0.094736971941195819 0.095595780018289112 0 -0.055197532936232488 0.1037607647482361 0 -0.067005210901473933 0.1077879133952777 0 -0.068718803463526268 0.08793600255453965 0 -0.080716659731458085 0.1053147771520072 0 -0.067005210901473933 0.1077879133952777 0 -0.068718803463526268 0.08793600255453965 0 -0.068718803463526268 0.08793600255453965 0 -0.073688275830064279 0.075371739657705286 0 -0.086063470669467013 0.080544237302010588 0 -0.068718803463526268 0.08793600255453965 0 -0.063048194754677142 0.075142762922748074 0 -0.073688275830064279 0.075371739657705286 0 -0.074793953009655453 0.064993101038928053 0 -0.051195425581355702 0.060451653584498818 0 -0.055339306484280537 0.067136746271780096 0 -0.074793953009655453 0.064993101038928053 0 -0.055339306484280537 0.067136746271780096 0 -0.063048194754677142 0.075142762922748074 0 -0.074793953009655453 0.064993101038928053 0 -0.063048194754677142 0.075142762922748074 0 -0.073688275830064279 0.075371739657705286 0 -0.074793953009655453 0.064993101038928053 0 -0.073688275830064279 0.075371739657705286 0 -0.074793953009655453 0.064993101038928053 0 -0.076964271490551406 0.064753960591982129 0 -0.074793953009655453 0.064993101038928053 0 -0.076964271490551406 0.064753960591982129 0 -0.076964271490551406 0.064753960591982129 0 -0.1019982944246185 0.061995541730360718 0 -0.076964271490551406 0.064753960591982129 0 -0.086063470669467013 0.080544237302010588 0 -0.1038056271467698 0.070576288127995129 0 -0.076964271490551406 0.064753960591982129 0 -0.086063470669467013 0.080544237302010588 0 -0.073688275830064279 0.075371739657705286 0 -0.076964271490551406 0.064753960591982129 0 -0.086063470669467013 0.080544237302010588 0 -0.076964271490551406 0.064753960591982129 0 -0.1038056271467698 0.070576288127995129 0 -0.068718803463526268 0.08793600255453965 0 -0.086063470669467013 0.080544237302010588 0 -0.094736971941195819 0.095595780018289112 0 -0.068718803463526268 0.08793600255453965 0 -0.094736971941195819 0.095595780018289112 0 -0.086063470669467013 0.080544237302010588 0 -0.094736971941195819 0.095595780018289112 0 -0.086063470669467013 0.080544237302010588 0 -0.1038056271467698 0.070576288127995129 0 -0.109405193362358 0.085914246699531571 0 -0.086063470669467013 0.080544237302010588 0 -0.109405193362358 0.085914246699531571 0 -0.094736971941195819 0.095595780018289112 0 -0.076964271490551406 0.064753960591982129 0 -0.1038056271467698 0.070576288127995129 0 -0.1019982944246185 0.061995541730360718 0 -0.13022128489580259 0.075659881670257001 0 -0.1038056271467698 0.070576288127995129 0 -0.109405193362358 0.085914246699531571 0 -0.13022128489580259 0.075659881670257001 0 -0.127032317358686 0.059237122868742942 0 -0.1038056271467698 0.070576288127995129 0 -0.13022128489580259 0.075659881670257001 0 -0.1038056271467698 0.070576288127995129 0 -0.127032317358686 0.059237122868742942 0 -0.1038056271467698 0.070576288127995129 0 -0.1019982944246185 0.061995541730360718 0 -0.12648490221554301 0.093182677969538608 0 -0.13022128489580259 0.075659881670257001 0 -0.109405193362358 0.085914246699531571 0 -0.12648490221554301 0.093182677969538608 0 -0.109405193362358 0.085914246699531571 0 -0.11413360457299419 0.1013061700341451 0 -0.13353023720479301 0.1070165600499997 0 -0.11413360457299419 0.1013061700341451 0 -0.11720615843901611 0.1137246367104372 0 -0.13353023720479301 0.1070165600499997 0 -0.11413360457299419 0.1013061700341451 0 -0.13353023720479301 0.1070165600499997 0 -0.12648490221554301 0.093182677969538608 0 -0.11413360457299419 0.1013061700341451 0 -0.1103311508786855 0.1267962204314145 0 -0.11720615843901611 0.1137246367104372 0 -0.1245516134801372 0.1235398944364224 0 -0.1103311508786855 0.1267962204314145 0 -0.11720615843901611 0.1137246367104372 0 -0.1048375361198733 0.1131237734353623 0 -0.11413360457299419 0.1013061700341451 0 -0.11720615843901611 0.1137246367104372 0 -0.1048375361198733 0.1131237734353623 0 -0.1103311508786855 0.1267962204314145 0 -0.09316345007512529 0.12787552256921189 0 -0.1048375361198733 0.1131237734353623 0 -0.09316345007512529 0.12787552256921189 0 -0.091571459367253472 0.11244781688203311 0 -0.1048375361198733 0.1131237734353623 0 -0.109405193362358 0.085914246699531571 0 -0.11413360457299419 0.1013061700341451 0 -0.094736971941195819 0.095595780018289112 0 -0.1048375361198733 0.1131237734353623 0 -0.094736971941195819 0.095595780018289112 0 -0.091571459367253472 0.11244781688203311 0 -0.1048375361198733 0.1131237734353623 0 -0.094736971941195819 0.095595780018289112 0 -0.11413360457299419 0.1013061700341451 0 -0.094736971941195819 0.095595780018289112 0 -0.11413360457299419 0.1013061700341451 0 -0.1048375361198733 0.1131237734353623 0 -0.094736971941195819 0.095595780018289112 0 -0.108671652447627 0.028532571541767131 0 -0.092976030080821809 0.035159906804242518 0 -0.08359917816415588 0.016215177317880108 0 -0.10870783169930651 -0.00026522707265157561 0 -0.08359917816415588 0.016215177317880108 0 -0.10870783169930651 -0.00026522707265157561 0 -0.108671652447627 0.028532571541767131 0 -0.08359917816415588 0.016215177317880108 0 -0.10870783169930651 -0.00026522707265157561 0 -0.12871323843160851 0.013123773824541321 0 -0.108671652447627 0.028532571541767131 0 -0.12934916427595389 0.040253564639695323 0 -0.12871323843160851 0.013123773824541321 0 -0.108671652447627 0.028532571541767131 0 -0.12934916427595389 0.040253564639695323 0 -0.108671652447627 0.028532571541767131 0 -0.11355912293490469 0.048071631469371191 0 -0.127032317358686 0.059237122868742942 0 -0.1019982944246185 0.061995541730360718 0 -0.127032317358686 0.059237122868742942 0 -0.12934916427595389 0.040253564639695323 0 -0.11355912293490469 0.048071631469371191 0 -0.127032317358686 0.059237122868742942 0 -0.11355912293490469 0.048071631469371191 0 -0.1019982944246185 0.061995541730360718 0 -0.1019982944246185 0.061995541730360718 0 -0.093757275411422522 0.053935704625200302 0 -0.1002284740791754 0.046209720676089777 0 -0.11355912293490469 0.048071631469371191 0 -0.1019982944246185 0.061995541730360718 0 -0.1002284740791754 0.046209720676089777 0 -0.093757275411422522 0.053935704625200302 0 -0.1002284740791754 0.046209720676089777 0 -0.0881845159510279 0.047770767421090071 0 -0.1019982944246185 0.061995541730360718 0 -0.093757275411422522 0.053935704625200302 0 -0.087051923962855077 0.057137859501293131 0 -0.108671652447627 0.028532571541767131 0 -0.1002284740791754 0.046209720676089777 0 -0.092976030080821809 0.035159906804242518 0 -0.108671652447627 0.028532571541767131 0 -0.11355912293490469 0.048071631469371191 0 -0.1002284740791754 0.046209720676089777 0 -0.1002284740791754 0.046209720676089777 0 -0.092976030080821809 0.035159906804242518 0 -0.0881845159510279 0.047770767421090071 0 -0.092976030080821809 0.035159906804242518 0 -0.078623377710925452 0.038861036132953088 0 -0.0881845159510279 0.047770767421090071 0 -0.078623377710925452 0.038861036132953088 0 -0.0881845159510279 0.047770767421090071 0 -0.079223476080629907 0.051975464793896781 0 -0.076964271490551406 0.064753960591982129 0 -0.1019982944246185 0.061995541730360718 0 -0.087051923962855077 0.057137859501293131 0 -0.093757275411422522 0.053935704625200302 0 -0.087051923962855077 0.057137859501293131 0 -0.0881845159510279 0.047770767421090071 0 -0.087051923962855077 0.057137859501293131 0 -0.0881845159510279 0.047770767421090071 0 -0.079223476080629907 0.051975464793896781 0 -0.076964271490551406 0.064753960591982129 0 -0.087051923962855077 0.057137859501293131 0 -0.079223476080629907 0.051975464793896781 0 -0.074793953009655453 0.064993101038928053 0 -0.076964271490551406 0.064753960591982129 0 -0.067727398059777733 0.048724771150197237 0 -0.074793953009655453 0.064993101038928053 0 -0.067727398059777733 0.048724771150197237 0 -0.051195425581355702 0.060451653584498818 0 -0.076964271490551406 0.064753960591982129 0 -0.067727398059777733 0.048724771150197237 0 -0.076964271490551406 0.064753960591982129 0 -0.079223476080629907 0.051975464793896781 0 -0.067727398059777733 0.048724771150197237 0 -0.078623377710925452 0.038861036132953088 0 -0.067727398059777733 0.048724771150197237 0 -0.058490524629005343 0.032695581708411602 0 -0.067727398059777733 0.048724771150197237 0 -0.058490524629005343 0.032695581708411602 0 -0.078623377710925452 0.038861036132953088 0 -0.079223476080629907 0.051975464793896781 0 -0.067727398059777733 0.048724771150197237 0 -0.078623377710925452 0.038861036132953088 0 -0.08359917816415588 0.016215177317880108 0 -0.058490524629005343 0.032695581708411602 0 -0.08359917816415588 0.016215177317880108 0 -0.058490524629005343 0.032695581708411602 0 -0.08359917816415588 0.016215177317880108 0 -0.063272448375526313 0.013560038746614021 0 -0.058490524629005343 0.032695581708411602 0 -0.092976030080821809 0.035159906804242518 0 -0.078623377710925452 0.038861036132953088 0 -0.08359917816415588 0.016215177317880108 0 -0.063004941211177848 -0.0061621375804896154 0 -0.08359917816415588 0.016215177317880108 0 -0.063272448375526313 0.013560038746614021 0 -0.063004941211177848 -0.0061621375804896154 0 -0.063272448375526313 0.013560038746614021 0 -0.044318579115875903 0.008102325008387725 0 -0.044318579115875903 0.008102325008387725 0 -0.058490524629005343 0.032695581708411602 0 -0.063272448375526313 0.013560038746614021 0 -0.044318579115875903 0.008102325008387725 0 -0.058490524629005343 0.032695581708411602 0 -0.031760293155850612 0.02740454718338256 0 -0.044318579115875903 0.008102325008387725 0 -0.02050889440475458 0.01191857247459167 0 -0.031760293155850612 0.02740454718338256 0 -0.044318579115875903 0.008102325008387725 0 -0.058490524629005343 0.032695581708411602 0 -0.067727398059777733 0.048724771150197237 0 -0.051195425581355702 0.060451653584498818 0 -0.042396644832638511 0.04325901741337379 0 -0.067727398059777733 0.048724771150197237 0 -0.058490524629005343 0.032695581708411602 0 -0.042396644832638511 0.04325901741337379 0 -0.058490524629005343 0.032695581708411602 0 -0.042396644832638511 0.04325901741337379 0 -0.031760293155850612 0.02740454718338256 0 -0.058490524629005343 0.032695581708411602 0 -0.042396644832638511 0.04325901741337379 0 -0.042396644832638511 0.04325901741337379 0 -0.026302765036271769 0.053822453118335993 0 -0.02852089250741599 0.039463577376362288 0 -0.031760293155850612 0.02740454718338256 0 -0.042396644832638511 0.04325901741337379 0 -0.02852089250741599 0.039463577376362288 0 -0.051195425581355702 0.060451653584498818 0 -0.027596898153055958 0.05591020613006998 0 -0.051195425581355702 0.060451653584498818 0 -0.042396644832638511 0.04325901741337379 0 -0.027596898153055958 0.05591020613006998 0 -0.042396644832638511 0.04325901741337379 0 -0.026302765036271769 0.053822453118335993 0 -0.035884659958905718 0.069280391504632 0 -0.051195425581355702 0.060451653584498818 0 -0.027596898153055958 0.05591020613006998 0 -0.042396644832638511 0.04325901741337379 0 -0.027596898153055958 0.05591020613006998 0 -0.026302765036271769 0.053822453118335993 0 -0.01366648930583881 0.071728540615999994 0 -0.027596898153055958 0.05591020613006998 0 -0.024136552897330441 0.055244275757902889 0 -0.01770318221929448 0.056299027778606722 0 -0.024136552897330441 0.055244275757902889 0 -0.01274638214222233 0.059674076602244421 0 -0.01770318221929448 0.056299027778606722 0 -0.016684051925141701 0.051110268799226227 0 -0.01274638214222233 0.059674076602244421 0 -0.027596898153055958 0.05591020613006998 0 -0.024136552897330441 0.055244275757902889 0 -0.027596898153055958 0.05591020613006998 0 -0.026302765036271769 0.053822453118335993 0 -0.027596898153055958 0.05591020613006998 0 -0.024136552897330441 0.055244275757902889 0 -0.026302765036271769 0.053822453118335993 0 -0.024136552897330441 0.055244275757902889 0 -0.026302765036271769 0.053822453118335993 0 -0.024136552897330441 0.055244275757902889 0 -0.026302765036271769 0.053822453118335993 0 -0.016684051925141701 0.051110268799226227 0 -0.01770318221929448 0.056299027778606722 0 -0.024136552897330441 0.055244275757902889 0 -0.016684051925141701 0.051110268799226227 0 -0.026302765036271769 0.053822453118335993 0 -0.01362386700490314 0.033368291790356927 0 -0.026302765036271769 0.053822453118335993 0 -0.016684051925141701 0.051110268799226227 0 -0.01362386700490314 0.033368291790356927 0 -0.026302765036271769 0.053822453118335993 0 -0.02852089250741599 0.039463577376362288 0 -0.01362386700490314 0.033368291790356927 0 -0.031760293155850612 0.02740454718338256 0 -0.02852089250741599 0.039463577376362288 0 -0.01362386700490314 0.033368291790356927 0 -0.016684051925141701 0.051110268799226227 0 -0.01362386700490314 0.033368291790356927 0 -0.0061415812785175156 0.048359336831964569 0 -0.01362386700490314 0.033368291790356927 0 -0.0061415812785175156 0.048359336831964569 0 0.0058221923607010501 0.034166004381424087 0 -0.004553599416321219 0.068097812172203259 0 -0.024136552897330441 0.055244275757902889 0 -0.004553599416321219 0.068097812172203259 0 -0.024136552897330441 0.055244275757902889 0 -0.01274638214222233 0.059674076602244421 0 -0.016684051925141701 0.051110268799226227 0 -0.0061415812785175156 0.048359336831964569 0 -0.01274638214222233 0.059674076602244421 0 -0.0061415812785175156 0.048359336831964569 0 -0.0034907294980709449 0.058868134135229032 0 0.0059378929256279512 0.052685294341231231 0 -0.0061415812785175156 0.048359336831964569 0 -0.0034907294980709449 0.058868134135229032 0 -0.01274638214222233 0.059674076602244421 0 -0.004553599416321219 0.068097812172203259 0 -0.0034907294980709449 0.058868134135229032 0 -0.01274638214222233 0.059674076602244421 0 -0.026021923604767402 -0.00073962999182732459 0 -0.044318579115875903 0.008102325008387725 0 -0.02050889440475458 0.01191857247459167 0 -0.026021923604767402 -0.00073962999182732459 0 -0.0091135872956926781 -0.0064884857586527227 0 -0.02050889440475458 0.01191857247459167 0 -0.031760293155850612 0.02740454718338256 0 -0.01362386700490314 0.033368291790356927 0 -0.02050889440475458 0.01191857247459167 0 -0.01362386700490314 0.033368291790356927 0 -0.00094496897352987219 0.012914130462380781 0 -0.01362386700490314 0.033368291790356927 0 -0.02050889440475458 0.01191857247459167 0 -0.00094496897352987219 0.012914130462380781 0 -0.01362386700490314 0.033368291790356927 0 -0.00094496897352987219 0.012914130462380781 0 0.0058221923607010501 0.034166004381424087 0 -0.0091135872956926781 -0.0064884857586527227 0 -0.02050889440475458 0.01191857247459167 0 -0.00094496897352987219 0.012914130462380781 0 -0.0091135872956926781 -0.0064884857586527227 0 -0.00094496897352987219 0.012914130462380781 0 0.0119194590113617 0.003513960174329206 0 -0.00094496897352987219 0.012914130462380781 0 0.0119194590113617 0.003513960174329206 0 0.014222881781660261 0.018659517100341059 0 -0.00094496897352987219 0.012914130462380781 0 0.014222881781660261 0.018659517100341059 0 0.0058221923607010501 0.034166004381424087 0 0.014222881781660261 0.018659517100341059 0 0.021365221191352431 0.029187084376260119 0 0.0058221923607010501 0.034166004381424087 0 0.014222881781660261 0.018659517100341059 0 0.021365221191352431 0.029187084376260119 0 0.032952505318415967 0.01351640610731109 0 0.021365221191352431 0.029187084376260119 0 0.038277057217145589 0.033213489113111332 0 0.032952505318415967 0.01351640610731109 0 0.0119194590113617 0.003513960174329206 0 0.032952505318415967 0.01351640610731109 0 0.0119194590113617 0.003513960174329206 0 0.032952505318415967 0.01351640610731109 0 0.026669856371053929 -0.001868688990480078 0 0.0119194590113617 0.003513960174329206 0 0.014222881781660261 0.018659517100341059 0 0.032952505318415967 0.01351640610731109 0 0.0059378929256279512 0.052685294341231231 0 0.023275335621816849 0.047043683653894122 0 0.01655740305819469 0.060876991205568637 0 0.0059378929256279512 0.052685294341231231 0 0.01655740305819469 0.060876991205568637 0 0.0049573368763592167 0.06253138299556911 0 -0.0034907294980709449 0.058868134135229032 0 0.0059378929256279512 0.052685294341231231 0 0.0049573368763592167 0.06253138299556911 0 0.0059378929256279512 0.052685294341231231 0 0.0058221923607010501 0.034166004381424087 0 0.023275335621816849 0.047043683653894122 0 -0.0061415812785175156 0.048359336831964569 0 0.0059378929256279512 0.052685294341231231 0 0.0058221923607010501 0.034166004381424087 0 0.021365221191352431 0.029187084376260119 0 0.0058221923607010501 0.034166004381424087 0 0.023275335621816849 0.047043683653894122 0 0.021365221191352431 0.029187084376260119 0 0.023275335621816849 0.047043683653894122 0 0.038277057217145589 0.033213489113111332 0 0.023275335621816849 0.047043683653894122 0 0.01655740305819469 0.060876991205568637 0 0.032115202526255243 0.058959992489591911 0 0.023275335621816849 0.047043683653894122 0 0.045192165922219647 0.048562335704216503 0 0.032115202526255243 0.058959992489591911 0 0.045192165922219647 0.048562335704216503 0 0.032115202526255243 0.058959992489591911 0 0.046768071862878603 0.06532307377109374 0 0.023275335621816849 0.047043683653894122 0 0.045192165922219647 0.048562335704216503 0 0.038277057217145589 0.033213489113111332 0 0.045192165922219647 0.048562335704216503 0 0.038277057217145589 0.033213489113111332 0 0.058668064439136858 0.038373004004787853 0 0.045192165922219647 0.048562335704216503 0 0.062340330583677162 0.057341392265620961 0 0.046768071862878603 0.06532307377109374 0 0.045192165922219647 0.048562335704216503 0 0.058668064439136858 0.038373004004787853 0 0.062340330583677162 0.057341392265620961 0 0.032952505318415967 0.01351640610731109 0 0.026669856371053929 -0.001868688990480078 0 0.045313929399375619 -0.0037494574130846488 0 0.032952505318415967 0.01351640610731109 0 0.052931196833718532 0.018836763268177709 0 0.045313929399375619 -0.0037494574130846488 0 0.038277057217145589 0.033213489113111332 0 0.032952505318415967 0.01351640610731109 0 0.052931196833718532 0.018836763268177709 0 0.038277057217145589 0.033213489113111332 0 0.058668064439136858 0.038373004004787853 0 0.052931196833718532 0.018836763268177709 0 0.058668064439136858 0.038373004004787853 0 0.052931196833718532 0.018836763268177709 0 0.074047436144949075 0.026895300041561439 0 0.052931196833718532 0.018836763268177709 0 0.067233990164689603 0.0045101081110712534 0 0.045313929399375619 -0.0037494574130846488 0 0.067233990164689603 0.0045101081110712534 0 0.084502021209579961 0.01375285249802719 0 0.074047436144949075 0.026895300041561439 0 0.067233990164689603 0.0045101081110712534 0 0.084502021209579961 0.01375285249802719 0 0.085144050071697161 -0.011962341956641099 0 0.084502021209579961 0.01375285249802719 0 0.097524786463171559 0.00344412669915293 0 0.085144050071697161 -0.011962341956641099 0 0.084502021209579961 0.01375285249802719 0 0.097524786463171559 0.00344412669915293 0 0.09901907718398209 0.016799322476938459 0 0.084502021209579961 0.01375285249802719 0 0.092096779063204806 0.027912384295668849 0 0.074047436144949075 0.026895300041561439 0 0.084502021209579961 0.01375285249802719 0 0.092096779063204806 0.027912384295668849 0 0.09901907718398209 0.016799322476938459 0 0.052931196833718532 0.018836763268177709 0 0.067233990164689603 0.0045101081110712534 0 0.074047436144949075 0.026895300041561439 0 0.074047436144949075 0.026895300041561439 0 0.073678530296075531 0.04521138431988718 0 0.086557258340763832 0.039504199398029488 0 0.058668064439136858 0.038373004004787853 0 0.074047436144949075 0.026895300041561439 0 0.073678530296075531 0.04521138431988718 0 0.058668064439136858 0.038373004004787853 0 0.062340330583677162 0.057341392265620961 0 0.073678530296075531 0.04521138431988718 0 0.062340330583677162 0.057341392265620961 0 0.075387763354300308 0.056946984773686093 0 0.072428878900193283 0.068071664054859773 0 0.062340330583677162 0.057341392265620961 0 0.073678530296075531 0.04521138431988718 0 0.075387763354300308 0.056946984773686093 0 0.073678530296075531 0.04521138431988718 0 0.075387763354300308 0.056946984773686093 0 0.084728928197513764 0.051332715069275961 0 0.075387763354300308 0.056946984773686093 0 0.084728928197513764 0.051332715069275961 0 0.083762148794041813 0.062777768158786579 0 0.084728928197513764 0.051332715069275961 0 0.095595117031298305 0.057081046054469869 0 0.094225068767283926 0.047228287864273341 0 0.084728928197513764 0.051332715069275961 0 0.095595117031298305 0.057081046054469869 0 0.083762148794041813 0.062777768158786579 0 0.092096779063204806 0.027912384295668849 0 0.074047436144949075 0.026895300041561439 0 0.086557258340763832 0.039504199398029488 0 0.073678530296075531 0.04521138431988718 0 0.084728928197513764 0.051332715069275961 0 0.086557258340763832 0.039504199398029488 0 0.084728928197513764 0.051332715069275961 0 0.086557258340763832 0.039504199398029488 0 0.094225068767283926 0.047228287864273341 0 0.092096779063204806 0.027912384295668849 0 0.086557258340763832 0.039504199398029488 0 0.10117503797971281 0.03798179783766769 0 0.10117503797971281 0.03798179783766769 0 0.094225068767283926 0.047228287864273341 0 0.10273289416278859 0.047974986067966068 0 0.086557258340763832 0.039504199398029488 0 0.10117503797971281 0.03798179783766769 0 0.094225068767283926 0.047228287864273341 0 0.10117503797971281 0.03798179783766769 0 0.10273289416278859 0.047974986067966068 0 0.1117871713350745 0.045772579991045233 0 0.10117503797971281 0.03798179783766769 0 0.11086284844466721 0.036691252737413957 0 0.1117871713350745 0.045772579991045233 0 0.10117503797971281 0.03798179783766769 0 0.11086284844466721 0.036691252737413957 0 0.11042858701637551 0.026448926171174749 0 0.095595117031298305 0.057081046054469869 0 0.094225068767283926 0.047228287864273341 0 0.10273289416278859 0.047974986067966068 0 0.10273289416278859 0.047974986067966068 0 0.1069122657272331 0.055997703233247959 0 0.1117871713350745 0.045772579991045233 0 0.095595117031298305 0.057081046054469869 0 0.10273289416278859 0.047974986067966068 0 0.1069122657272331 0.055997703233247959 0 0.095595117031298305 0.057081046054469869 0 0.1069122657272331 0.055997703233247959 0 0.1035787658552825 0.065305428758746703 0 0.1069122657272331 0.055997703233247959 0 0.1124490803251134 0.063109543917371544 0 0.1035787658552825 0.065305428758746703 0 0.1156116261380353 0.054558275287143958 0 0.12219669470671519 0.05963031946461108 0 0.1124490803251134 0.063109543917371544 0 0.1069122657272331 0.055997703233247959 0 0.1156116261380353 0.054558275287143958 0 0.1124490803251134 0.063109543917371544 0 0.1156116261380353 0.054558275287143958 0 0.1201371984308051 0.046993652425495913 0 0.1117871713350745 0.045772579991045233 0 0.1069122657272331 0.055997703233247959 0 0.1156116261380353 0.054558275287143958 0 0.1117871713350745 0.045772579991045233 0 0.1201371984308051 0.046993652425495913 0 0.12157777947060221 0.054237122817751712 0 0.1273364843073064 0.051731614006749173 0 0.1156116261380353 0.054558275287143958 0 0.1201371984308051 0.046993652425495913 0 0.12157777947060221 0.054237122817751712 0 0.12157777947060221 0.054237122817751712 0 0.12219669470671519 0.05963031946461108 0 0.1273364843073064 0.051731614006749173 0 0.1156116261380353 0.054558275287143958 0 0.12157777947060221 0.054237122817751712 0 0.12219669470671519 0.05963031946461108 0 0.11086284844466721 0.036691252737413957 0 0.1200605974475062 0.036561706949768208 0 0.11042858701637551 0.026448926171174749 0 0.11086284844466721 0.036691252737413957 0 0.1117871713350745 0.045772579991045233 0 0.1200605974475062 0.036561706949768208 0 0.1201371984308051 0.046993652425495913 0 0.1117871713350745 0.045772579991045233 0 0.1200605974475062 0.036561706949768208 0 0.1201371984308051 0.046993652425495913 0 0.1200605974475062 0.036561706949768208 0 0.13175175119405841 0.042416967530628499 0 0.1200605974475062 0.036561706949768208 0 0.11042858701637551 0.026448926171174749 0 0.12299584720260991 0.02173750441434109 0 0.11042858701637551 0.026448926171174749 0 0.12299584720260991 0.02173750441434109 0 0.11054321216757861 0.01243832272066857 0 0.12299584720260991 0.02173750441434109 0 0.1228416977593057 0.0082945083367616263 0 0.11054321216757861 0.01243832272066857 0 0.1228416977593057 0.0082945083367616263 0 0.1226802507548381 -0.0019164014345253279 0 0.1116929663085572 -0.0018049306385004059 0 0.1228416977593057 0.0082945083367616263 0 0.11054321216757861 0.01243832272066857 0 0.1116929663085572 -0.0018049306385004059 0 0.11054321216757861 0.01243832272066857 0 0.097524786463171559 0.00344412669915293 0 0.09901907718398209 0.016799322476938459 0 0.11054321216757861 0.01243832272066857 0 0.097524786463171559 0.00344412669915293 0 0.1116929663085572 -0.0018049306385004059 0 0.092096779063204806 0.027912384295668849 0 0.10117503797971281 0.03798179783766769 0 0.11042858701637551 0.026448926171174749 0 0.092096779063204806 0.027912384295668849 0 0.11042858701637551 0.026448926171174749 0 0.09901907718398209 0.016799322476938459 0 0.11042858701637551 0.026448926171174749 0 0.11054321216757861 0.01243832272066857 0 0.09901907718398209 0.016799322476938459 0 0.096902654736414684 0.099998662154933249 0 0.1134959130281112 0.1009397771455615 0 0.1101804826932541 0.084639952123018808 0 0.11437019827350101 0.11071142570072449 0 0.1134959130281112 0.1009397771455615 0 0.09164677499795669 0.111896535558532 0 0.096902654736414684 0.099998662154933249 0 0.1134959130281112 0.1009397771455615 0 0.09164677499795669 0.111896535558532 0 0.1134959130281112 0.1009397771455615 0 0.09164677499795669 0.111896535558532 0 0.096902654736414684 0.099998662154933249 0 0.1134959130281112 0.1009397771455615 0 0.09164677499795669 0.111896535558532 0 0.10877354066152051 0.13646340620887801 0 0.10948637917263659 0.12540430696501481 0 0.10816969866758221 0.1178097331221387 0 0.11437019827350101 0.11071142570072449 0 0.09164677499795669 0.111896535558532 0 0.09164677499795669 0.111896535558532 0 0.10877354066152051 0.13646340620887801 0 0.10816969866758221 0.1178097331221387 0 0.09164677499795669 0.111896535558532 0 0.10948637917263659 0.12540430696501481 0 0.10816969866758221 0.1178097331221387 0 0.11437019827350101 0.11071142570072449 0 0.1171378506713591 0.1197076203708128 0 0.10816969866758221 0.1178097331221387 0 0.1171378506713591 0.1197076203708128 0 0.10948637917263659 0.12540430696501481 0 0.1171378506713591 0.1197076203708128 0 0.10948637917263659 0.12540430696501481 0 0.11850254933348379 0.12820304585725181 0 0.1171378506713591 0.1197076203708128 0 0.11850254933348379 0.12820304585725181 0 0.1262289268777724 0.1207081556182063 0 0.1171378506713591 0.1197076203708128 0 0.1249617282073653 0.11138841526182761 0 0.1262289268777724 0.1207081556182063 0 0.11437019827350101 0.11071142570072449 0 0.1171378506713591 0.1197076203708128 0 0.1249617282073653 0.11138841526182761 0 0.1134959130281112 0.1009397771455615 0 0.1362271698310327 0.089540659758457902 0 0.11437019827350101 0.11071142570072449 0 0.1249617282073653 0.11138841526182761 0 0.1134959130281112 0.1009397771455615 0 0.1134959130281112 0.1009397771455615 0 0.121835820738507 0.08129736859239832 0 0.1101804826932541 0.084639952123018808 0 0.1134959130281112 0.1009397771455615 0 0.121835820738507 0.08129736859239832 0 0.1362271698310327 0.089540659758457902 0 0.121835820738507 0.08129736859239832 0 0.1101804826932541 0.084639952123018808 0 0.1234583106500939 0.069281242091104617 0 0.12219669470671519 0.05963031946461108 0 0.1234583106500939 0.069281242091104617 0 0.11541516741994121 0.069619474606782319 0 0.121835820738507 0.08129736859239832 0 0.1234583106500939 0.069281242091104617 0 0.12951034755995039 0.071854779490956214 0 0.1101804826932541 0.084639952123018808 0 0.1234583106500939 0.069281242091104617 0 0.11541516741994121 0.069619474606782319 0 0.1101804826932541 0.084639952123018808 0 0.11541516741994121 0.069619474606782319 0 0.1087912687245291 0.071436315437805584 0 0.1101804826932541 0.084639952123018808 0 0.1234583106500939 0.069281242091104617 0 0.11541516741994121 0.069619474606782319 0 0.1124490803251134 0.063109543917371544 0 0.1087912687245291 0.071436315437805584 0 0.12219669470671519 0.05963031946461108 0 0.11541516741994121 0.069619474606782319 0 0.1124490803251134 0.063109543917371544 0 0.1124490803251134 0.063109543917371544 0 0.1035787658552825 0.065305428758746703 0 0.1087912687245291 0.071436315437805584 0 0.1101804826932541 0.084639952123018808 0 0.1087912687245291 0.071436315437805584 0 0.101102653710728 0.074953788298850632 0 0.1035787658552825 0.065305428758746703 0 0.1087912687245291 0.071436315437805584 0 0.101102653710728 0.074953788298850632 0 0.101102653710728 0.074953788298850632 0 0.093190752831038726 0.078536439818450737 0 0.093378724681791592 0.068967207718791515 0 0.095595117031298305 0.057081046054469869 0 0.1035787658552825 0.065305428758746703 0 0.093378724681791592 0.068967207718791515 0 0.1035787658552825 0.065305428758746703 0 0.101102653710728 0.074953788298850632 0 0.093378724681791592 0.068967207718791515 0 0.096902654736414684 0.099998662154933249 0 0.1101804826932541 0.084639952123018808 0 0.096902654736414684 0.099998662154933249 0 0.1101804826932541 0.084639952123018808 0 0.098914162744354522 0.085055098787686356 0 0.1101804826932541 0.084639952123018808 0 0.101102653710728 0.074953788298850632 0 0.098914162744354522 0.085055098787686356 0 0.101102653710728 0.074953788298850632 0 0.098914162744354522 0.085055098787686356 0 0.093190752831038726 0.078536439818450737 0 0.098914162744354522 0.085055098787686356 0 0.093466354414902947 0.084727463680507625 0 0.093190752831038726 0.078536439818450737 0 0.098914162744354522 0.085055098787686356 0 0.092280102743838383 0.090372130301191914 0 0.093466354414902947 0.084727463680507625 0 0.096902654736414684 0.099998662154933249 0 0.098914162744354522 0.085055098787686356 0 0.092280102743838383 0.090372130301191914 0 0.082498083587680987 0.087677790604521022 0 0.071454067327959864 0.081955764084054458 0 0.083717655501087881 0.099250852399089456 0 0.092280102743838383 0.090372130301191914 0 0.08684959111869682 0.090221675747244934 0 0.08437456854737041 0.097551310722636647 0 0.092280102743838383 0.090372130301191914 0 0.08684959111869682 0.090221675747244934 0 0.088723208249804869 0.08464999101363152 0 0.08684959111869682 0.090221675747244934 0 0.088723208249804869 0.08464999101363152 0 0.082498083587680987 0.087677790604521022 0 0.092280102743838383 0.090372130301191914 0 0.093466354414902947 0.084727463680507625 0 0.088723208249804869 0.08464999101363152 0 0.093190752831038726 0.078536439818450737 0 0.088723208249804869 0.08464999101363152 0 0.083581120371061871 0.076179324179204144 0 0.093466354414902947 0.084727463680507625 0 0.093190752831038726 0.078536439818450737 0 0.088723208249804869 0.08464999101363152 0 0.088723208249804869 0.08464999101363152 0 0.082498083587680987 0.087677790604521022 0 0.083581120371061871 0.076179324179204144 0 0.082498083587680987 0.087677790604521022 0 0.083581120371061871 0.076179324179204144 0 0.071454067327959864 0.081955764084054458 0 0.08684959111869682 0.090221675747244934 0 0.082498083587680987 0.087677790604521022 0 0.08437456854737041 0.097551310722636647 0 0.095595117031298305 0.057081046054469869 0 0.093378724681791592 0.068967207718791515 0 0.083762148794041813 0.062777768158786579 0 0.093378724681791592 0.068967207718791515 0 0.083581120371061871 0.076179324179204144 0 0.083762148794041813 0.062777768158786579 0 0.093190752831038726 0.078536439818450737 0 0.093378724681791592 0.068967207718791515 0 0.083581120371061871 0.076179324179204144 0 0.083581120371061871 0.076179324179204144 0 0.083762148794041813 0.062777768158786579 0 0.072428878900193283 0.068071664054859773 0 0.062340330583677162 0.057341392265620961 0 0.072428878900193283 0.068071664054859773 0 0.058880160368799922 0.073982131021283218 0 0.075387763354300308 0.056946984773686093 0 0.083762148794041813 0.062777768158786579 0 0.072428878900193283 0.068071664054859773 0 0.083581120371061871 0.076179324179204144 0 0.072428878900193283 0.068071664054859773 0 0.071454067327959864 0.081955764084054458 0 0.072428878900193283 0.068071664054859773 0 0.071454067327959864 0.081955764084054458 0 0.058880160368799922 0.073982131021283218 0 0.071454067327959864 0.081955764084054458 0 0.083717655501087881 0.099250852399089456 0 0.058893875968888128 0.097842929335932499 0 0.071454067327959864 0.081955764084054458 0 0.058893875968888128 0.097842929335932499 0 0.058880160368799922 0.073982131021283218 0 0.069070877681715784 0.108252439040721 0 0.083717655501087881 0.099250852399089456 0 0.058893875968888128 0.097842929335932499 0 0.083717655501087881 0.099250852399089456 0 0.058893875968888128 0.097842929335932499 0 0.069070877681715784 0.108252439040721 0 0.083717655501087881 0.099250852399089456 0 0.075748149040650747 0.1198692713008699 0 0.083717655501087881 0.099250852399089456 0 0.088107514448147434 0.1068197710465961 0 0.075748149040650747 0.1198692713008699 0 0.082498083587680987 0.087677790604521022 0 0.08437456854737041 0.097551310722636647 0 0.083717655501087881 0.099250852399089456 0 0.08437456854737041 0.097551310722636647 0 0.083717655501087881 0.099250852399089456 0 0.096902654736414684 0.099998662154933249 0 0.089415748245086357 0.10865890584916831 0 0.09164677499795669 0.111896535558532 0 0.096902654736414684 0.099998662154933249 0 0.083717655501087881 0.099250852399089456 0 0.088107514448147434 0.1068197710465961 0 0.096902654736414684 0.099998662154933249 0 0.088107514448147434 0.1068197710465961 0 0.089415748245086357 0.10865890584916831 0 0.096902654736414684 0.099998662154933249 0 0.089415748245086357 0.10865890584916831 0 0.088107514448147434 0.1068197710465961 0 0.089415748245086357 0.10865890584916831 0 0.096902654736414684 0.099998662154933249 0 0.092280102743838383 0.090372130301191914 0 0.08437456854737041 0.097551310722636647 0 0.096902654736414684 0.099998662154933249 0 0.08437456854737041 0.097551310722636647 0 0.083717655501087881 0.099250852399089456 0 0.096902654736414684 0.099998662154933249 0 0.083717655501087881 0.099250852399089456 0 0.09164677499795669 0.111896535558532 0 0.075748149040650747 0.1198692713008699 0 0.089415748245086357 0.10865890584916831 0 0.09164677499795669 0.111896535558532 0 0.075748149040650747 0.1198692713008699 0 0.09164677499795669 0.111896535558532 0 0.075748149040650747 0.1198692713008699 0 0.088346205634002556 0.13094435060572299 0 0.083717655501087881 0.099250852399089456 0 0.075748149040650747 0.1198692713008699 0 0.089415748245086357 0.10865890584916831 0 0.09164677499795669 0.111896535558532 0 0.088107514448147434 0.1068197710465961 0 0.089415748245086357 0.10865890584916831 0 0.075748149040650747 0.1198692713008699 0 0.069070877681715784 0.108252439040721 0 0.075748149040650747 0.1198692713008699 0 0.05792383021623633 0.1160467031269924 0 0.075748149040650747 0.1198692713008699 0 0.05792383021623633 0.1160467031269924 0 0.050326310527479552 0.13261764346172511 0 0.05792383021623633 0.1160467031269924 0 0.044241812574155159 0.1087515148534651 0 0.050326310527479552 0.13261764346172511 0 0.069070877681715784 0.108252439040721 0 0.05792383021623633 0.1160467031269924 0 0.058893875968888128 0.097842929335932499 0 0.05792383021623633 0.1160467031269924 0 0.058893875968888128 0.097842929335932499 0 0.044241812574155159 0.1087515148534651 0 0.044241812574155159 0.1087515148534651 0 0.034612307545701083 0.093804885000797866 0 0.029370267936554111 0.1172331097944851 0 0.058893875968888128 0.097842929335932499 0 0.044241812574155159 0.1087515148534651 0 0.034612307545701083 0.093804885000797866 0 0.044241812574155159 0.1087515148534651 0 0.029370267936554111 0.1172331097944851 0 0.050326310527479552 0.13261764346172511 0 0.058880160368799922 0.073982131021283218 0 0.044826118572792367 0.081104060260441826 0 0.046768071862878603 0.06532307377109374 0 0.062340330583677162 0.057341392265620961 0 0.058880160368799922 0.073982131021283218 0 0.046768071862878603 0.06532307377109374 0 0.058893875968888128 0.097842929335932499 0 0.058880160368799922 0.073982131021283218 0 0.044826118572792367 0.081104060260441826 0 0.058893875968888128 0.097842929335932499 0 0.034612307545701083 0.093804885000797866 0 0.044826118572792367 0.081104060260441826 0 0.034612307545701083 0.093804885000797866 0 0.044826118572792367 0.081104060260441826 0 0.02878303616616645 0.072993878113186597 0 0.032115202526255243 0.058959992489591911 0 0.046768071862878603 0.06532307377109374 0 0.02878303616616645 0.072993878113186597 0 0.044826118572792367 0.081104060260441826 0 0.046768071862878603 0.06532307377109374 0 0.02878303616616645 0.072993878113186597 0 0.02878303616616645 0.072993878113186597 0 0.01502935406468995 0.080951348586500577 0 0.012154706149817821 0.069090282614605633 0 0.01655740305819469 0.060876991205568637 0 0.02878303616616645 0.072993878113186597 0 0.012154706149817821 0.069090282614605633 0 0.01655740305819469 0.060876991205568637 0 0.032115202526255243 0.058959992489591911 0 0.02878303616616645 0.072993878113186597 0 0.034612307545701083 0.093804885000797866 0 0.01502935406468995 0.080951348586500577 0 0.034612307545701083 0.093804885000797866 0 0.01502935406468995 0.080951348586500577 0 0.014606377518400651 0.1005608920124313 0 0.034612307545701083 0.093804885000797866 0 0.02878303616616645 0.072993878113186597 0 0.01502935406468995 0.080951348586500577 0 0.003602597882473428 0.087375721075588414 0 0.01502935406468995 0.080951348586500577 0 0.014606377518400651 0.1005608920124313 0 0.003602597882473428 0.087375721075588414 0 0.01502935406468995 0.080951348586500577 0 7.9005042563778938e-06 0.073235277862053666 0 -0.004553599416321219 0.068097812172203259 0 0.01502935406468995 0.080951348586500577 0 -0.004553599416321219 0.068097812172203259 0 0.01502935406468995 0.080951348586500577 0 7.9005042563778938e-06 0.073235277862053666 0 -0.004553599416321219 0.068097812172203259 0 0.01502935406468995 0.080951348586500577 0 0.012154706149817821 0.069090282614605633 0 -0.004553599416321219 0.068097812172203259 0 0.0049573368763592167 0.06253138299556911 0 0.012154706149817821 0.069090282614605633 0 0.01655740305819469 0.060876991205568637 0 0.0049573368763592167 0.06253138299556911 0 0.012154706149817821 0.069090282614605633 0 0.029370267936554111 0.1172331097944851 0 0.014606377518400651 0.1005608920124313 0 0.0069279925411233276 0.12286986882733621 0 0.034612307545701083 0.093804885000797866 0 0.029370267936554111 0.1172331097944851 0 0.014606377518400651 0.1005608920124313 0 -0.0037841361478036929 0.1004174717702209 0 0.003602597882473428 0.087375721075588414 0 0.014606377518400651 0.1005608920124313 0 -0.0037841361478036929 0.1004174717702209 0 0.014606377518400651 0.1005608920124313 0 0.0069279925411233276 0.12286986882733621 0 -0.0051874254262917448 0.13252577252147241 0 0.0069279925411233276 0.12286986882733621 0 0.0045566300691653842 0.14159662700455791 0 0.0069279925411233276 0.12286986882733621 0 0.024904472014308419 0.14536601562258039 0 0.0045566300691653842 0.14159662700455791 0 0.029370267936554111 0.1172331097944851 0 0.0069279925411233276 0.12286986882733621 0 0.024904472014308419 0.14536601562258039 0 0.024904472014308419 0.14536601562258039 0 0.027922247465832061 0.15707953390897031 0 0.039365405081572602 0.1503990170916383 0 0.024904472014308419 0.14536601562258039 0 0.017397573119789501 0.16095964519761749 0 0.027922247465832061 0.15707953390897031 0 -0.00051736649886272024 0.1581143877834357 0 0.024904472014308419 0.14536601562258039 0 -0.00051736649886272024 0.1581143877834357 0 0.024904472014308419 0.14536601562258039 0 0.017397573119789501 0.16095964519761749 0 -0.00051736649886272024 0.1581143877834357 0 0.024904472014308419 0.14536601562258039 0 0.0045566300691653842 0.14159662700455791 0 -0.00051736649886272024 0.1581143877834357 0 0.01059122274605781 0.16879296392499521 0 0.017397573119789501 0.16095964519761749 0 -0.00051736649886272024 0.1581143877834357 0 0.01059122274605781 0.16879296392499521 0 0.002548834246367523 0.17361791072911431 0 -0.012531751640030311 0.18840732198988031 0 0.002548834246367523 0.17361791072911431 0 0.01036760616793082 0.17816900360433299 0 0.0020887413519905858 0.18729136112933481 0 0.01036760616793082 0.17816900360433299 0 0.01011265630831999 0.18381662600052659 0 0.01059122274605781 0.16879296392499521 0 0.01036760616793082 0.17816900360433299 0 0.018536829681177092 0.17047564685680211 0 0.01059122274605781 0.16879296392499521 0 0.002548834246367523 0.17361791072911431 0 0.01036760616793082 0.17816900360433299 0 0.0020887413519905858 0.18729136112933481 0 0.01011265630831999 0.18381662600052659 0 0.014531431882524339 0.18752716180684409 0 0.01036760616793082 0.17816900360433299 0 0.01359045462024362 0.18220530897424461 0 0.01011265630831999 0.18381662600052659 0 0.01359045462024362 0.18220530897424461 0 0.01011265630831999 0.18381662600052659 0 0.014531431882524339 0.18752716180684409 0 0.01359045462024362 0.18220530897424461 0 0.014531431882524339 0.18752716180684409 0 0.01036760616793082 0.17816900360433299 0 0.01359045462024362 0.18220530897424461 0 0.033266963975891982 0.16793068521878571 0 0.01036760616793082 0.17816900360433299 0 0.018536829681177092 0.17047564685680211 0 0.033266963975891982 0.16793068521878571 0 0.03589918755528107 0.17760517021190811 0 0.014531431882524339 0.18752716180684409 0 0.03117309827880933 0.18880066227389761 0 0.037100065894575637 0.17449830120156101 0 0.014531431882524339 0.18752716180684409 0 0.01359045462024362 0.18220530897424461 0 0.033266963975891982 0.16793068521878571 0 0.037100065894575637 0.17449830120156101 0 0.01359045462024362 0.18220530897424461 0 0.037100065894575637 0.17449830120156101 0 0.014531431882524339 0.18752716180684409 0 0.03589918755528107 0.17760517021190811 0 0.014531431882524339 0.18752716180684409 0 0.01036760616793082 0.17816900360433299 0 0.033266963975891982 0.16793068521878571 0 0.037100065894575637 0.17449830120156101 0 0.03589918755528107 0.17760517021190811 0 0.014531431882524339 0.18752716180684409 0 0.017397573119789501 0.16095964519761749 0 0.027922247465832061 0.15707953390897031 0 0.02420195684856 0.16379785468198271 0 0.017397573119789501 0.16095964519761749 0 0.019921525834827751 0.16700993467909439 0 0.02420195684856 0.16379785468198271 0 0.01059122274605781 0.16879296392499521 0 0.017397573119789501 0.16095964519761749 0 0.019921525834827751 0.16700993467909439 0 0.01059122274605781 0.16879296392499521 0 0.018536829681177092 0.17047564685680211 0 0.019921525834827751 0.16700993467909439 0 0.018536829681177092 0.17047564685680211 0 0.019921525834827751 0.16700993467909439 0 0.033266963975891982 0.16793068521878571 0 0.019921525834827751 0.16700993467909439 0 0.02420195684856 0.16379785468198271 0 0.033266963975891982 0.16793068521878571 0 0.027922247465832061 0.15707953390897031 0 0.02420195684856 0.16379785468198271 0 0.033266963975891982 0.16793068521878571 0 0.033266963975891982 0.16793068521878571 0 0.056166321783853099 0.15769236683323831 0 0.033266963975891982 0.16793068521878571 0 0.045109964313692873 0.1555411335286255 0 0.039365405081572602 0.1503990170916383 0 0.033266963975891982 0.16793068521878571 0 0.056166321783853099 0.15769236683323831 0 0.045109964313692873 0.1555411335286255 0 0.027922247465832061 0.15707953390897031 0 0.033266963975891982 0.16793068521878571 0 0.039365405081572602 0.1503990170916383 0 0.033266963975891982 0.16793068521878571 0 0.037100065894575637 0.17449830120156101 0 0.056166321783853099 0.15769236683323831 0 0.037100065894575637 0.17449830120156101 0 0.03589918755528107 0.17760517021190811 0 0.057266943228037798 0.1676831786169721 0 0.03589918755528107 0.17760517021190811 0 0.057266943228037798 0.1676831786169721 0 0.03589918755528107 0.17760517021190811 0 0.044587903382378329 0.18528525536360491 0 0.055381657296761422 0.1725607221980783 0 0.03589918755528107 0.17760517021190811 0 0.044587903382378329 0.18528525536360491 0 0.03117309827880933 0.18880066227389761 0 0.03589918755528107 0.17760517021190811 0 0.055381657296761422 0.1725607221980783 0 0.057266943228037798 0.1676831786169721 0 0.044587903382378329 0.18528525536360491 0 0.055381657296761422 0.1725607221980783 0 0.054717239345197018 0.1815164352267146 0 0.044587903382378329 0.18528525536360491 0 0.054717239345197018 0.1815164352267146 0 0.055145563127899692 0.18864294736567361 0 0.055381657296761422 0.1725607221980783 0 0.0591639601548343 0.1766757480118962 0 0.057266943228037798 0.1676831786169721 0 0.055381657296761422 0.1725607221980783 0 0.0591639601548343 0.1766757480118962 0 0.054717239345197018 0.1815164352267146 0 0.0591639601548343 0.1766757480118962 0 0.057266943228037798 0.1676831786169721 0 0.066822349741455955 0.17422205877229019 0 0.05935570566738977 0.18375578499152759 0 0.055145563127899692 0.18864294736567361 0 0.064033518452651733 0.18817704612137751 0 0.0591639601548343 0.1766757480118962 0 0.054717239345197018 0.1815164352267146 0 0.05935570566738977 0.18375578499152759 0 0.0591639601548343 0.1766757480118962 0 0.05935570566738977 0.18375578499152759 0 0.063951493192102471 0.18059050085857151 0 0.05935570566738977 0.18375578499152759 0 0.064033518452651733 0.18817704612137751 0 0.063951493192102471 0.18059050085857151 0 0.054717239345197018 0.1815164352267146 0 0.05935570566738977 0.18375578499152759 0 0.055145563127899692 0.18864294736567361 0 0.037100065894575637 0.17449830120156101 0 0.056166321783853099 0.15769236683323831 0 0.05966869990662807 0.16146944059627991 0 0.037100065894575637 0.17449830120156101 0 0.05966869990662807 0.16146944059627991 0 0.037100065894575637 0.17449830120156101 0 0.057266943228037798 0.1676831786169721 0 0.05966869990662807 0.16146944059627991 0 0.057266943228037798 0.1676831786169721 0 0.05966869990662807 0.16146944059627991 0 0.055381657296761422 0.1725607221980783 0 0.057266943228037798 0.1676831786169721 0 0.051641166413453829 0.14614246497083969 0 0.050326310527479552 0.13261764346172511 0 0.039365405081572602 0.1503990170916383 0 0.056166321783853099 0.15769236683323831 0 0.05966869990662807 0.16146944059627991 0 0.067708424473640685 0.14066935594857541 0 0.056166321783853099 0.15769236683323831 0 0.051641166413453829 0.14614246497083969 0 0.067708424473640685 0.14066935594857541 0 0.056166321783853099 0.15769236683323831 0 0.051641166413453829 0.14614246497083969 0 0.045109964313692873 0.1555411335286255 0 0.051641166413453829 0.14614246497083969 0 0.050326310527479552 0.13261764346172511 0 0.067708424473640685 0.14066935594857541 0 0.024904472014308419 0.14536601562258039 0 0.050326310527479552 0.13261764346172511 0 0.029370267936554111 0.1172331097944851 0 0.024904472014308419 0.14536601562258039 0 0.050326310527479552 0.13261764346172511 0 0.024904472014308419 0.14536601562258039 0 0.050326310527479552 0.13261764346172511 0 0.039365405081572602 0.1503990170916383 0 0.051641166413453829 0.14614246497083969 0 0.045109964313692873 0.1555411335286255 0 0.039365405081572602 0.1503990170916383 0 0.023181768578885861 0.24601689761072679 0 0.02056269866470008 0.22859206794768161 0 0.023181768578885861 0.24601689761072679 0 0.02056269866470008 0.22859206794768161 0 0.013176580255378181 0.25008264657648638 0 0.02056269866470008 0.22859206794768161 0 0.013176580255378181 0.25008264657648638 0 0.03057631100938505 0.23879473188882919 0 0.023181768578885861 0.24601689761072679 0 0.02056269866470008 0.22859206794768161 0 0.03057631100938505 0.23879473188882919 0 0.023181768578885861 0.24601689761072679 0 0.03414632622249833 0.24860301180512709 0 -0.0057084941087844204 0.23009832530746829 0 0.013176580255378181 0.25008264657648638 0 -0.004688707870413332 0.2558135020850828 0 -0.0057084941087844204 0.23009832530746829 0 0.013176580255378181 0.25008264657648638 0 -0.0057084941087844204 0.23009832530746829 0 0.02056269866470008 0.22859206794768161 0 0.013176580255378181 0.25008264657648638 0 -0.0057084941087844204 0.23009832530746829 0 0.02056269866470008 0.22859206794768161 0 0.0016356939700863671 0.21461609658767691 0 0.02056269866470008 0.22859206794768161 0 0.026061555215848919 0.21259264815339829 0 0.032923721388376827 0.22170916529610341 0 0.02056269866470008 0.22859206794768161 0 0.026061555215848919 0.21259264815339829 0 0.03057631100938505 0.23879473188882919 0 0.02056269866470008 0.22859206794768161 0 0.037184858596067058 0.23138413049370779 0 0.02056269866470008 0.22859206794768161 0 0.032923721388376827 0.22170916529610341 0 0.037184858596067058 0.23138413049370779 0 0.02056269866470008 0.22859206794768161 0 0.026061555215848919 0.21259264815339829 0 0.017481648553017749 0.20809365624487319 0 0.02056269866470008 0.22859206794768161 0 0.017481648553017749 0.20809365624487319 0 0.026061555215848919 0.21259264815339829 0 0.02792352964941984 0.2044433397126246 0 0.035227475904369712 0.20794467017772039 0 0.026061555215848919 0.21259264815339829 0 0.02792352964941984 0.2044433397126246 0 0.017481648553017749 0.20809365624487319 0 0.02056269866470008 0.22859206794768161 0 0.017481648553017749 0.20809365624487319 0 0.0016356939700863671 0.21461609658767691 0 -0.0050948726899160968 0.19885741716632241 0 0.017481648553017749 0.20809365624487319 0 0.0016356939700863671 0.21461609658767691 0 -0.0050948726899160968 0.19885741716632241 0 0.014531431882524339 0.18752716180684409 0 -0.0050948726899160968 0.19885741716632241 0 0.017481648553017749 0.20809365624487319 0 0.014531431882524339 0.18752716180684409 0 -0.0056325988397643058 0.19689021080509089 0 0.0020887413519905858 0.18729136112933481 0 0.014531431882524339 0.18752716180684409 0 -0.0056325988397643058 0.19689021080509089 0 0.014531431882524339 0.18752716180684409 0 -0.0050948726899160968 0.19885741716632241 0 -0.0056325988397643058 0.19689021080509089 0 0.014531431882524339 0.18752716180684409 0 0.017481648553017749 0.20809365624487319 0 0.014531431882524339 0.18752716180684409 0 0.02404988829313999 0.19569734882064629 0 0.017481648553017749 0.20809365624487319 0 0.014531431882524339 0.18752716180684409 0 0.014531431882524339 0.18752716180684409 0 0.02404988829313999 0.19569734882064629 0 0.03117309827880933 0.18880066227389761 0 0.02792352964941984 0.2044433397126246 0 0.017481648553017749 0.20809365624487319 0 0.02404988829313999 0.19569734882064629 0 0.02792352964941984 0.2044433397126246 0 0.02404988829313999 0.19569734882064629 0 0.036797080280722837 0.19788837516648469 0 0.02404988829313999 0.19569734882064629 0 0.03117309827880933 0.18880066227389761 0 0.036797080280722837 0.19788837516648469 0 0.044587903382378329 0.18528525536360491 0 0.03117309827880933 0.18880066227389761 0 0.036797080280722837 0.19788837516648469 0 0.036797080280722837 0.19788837516648469 0 0.048796360762704737 0.19744354905985001 0 0.042369417174658031 0.20469986566898329 0 0.044587903382378329 0.18528525536360491 0 0.036797080280722837 0.19788837516648469 0 0.048796360762704737 0.19744354905985001 0 0.044587903382378329 0.18528525536360491 0 0.055145563127899692 0.18864294736567361 0 0.048796360762704737 0.19744354905985001 0 0.055145563127899692 0.18864294736567361 0 0.057337785510509769 0.1953713814077265 0 0.048796360762704737 0.19744354905985001 0 0.055145563127899692 0.18864294736567361 0 0.057337785510509769 0.1953713814077265 0 0.064033518452651733 0.18817704612137751 0 0.057337785510509769 0.1953713814077265 0 0.063684874342753911 0.1963670896644544 0 0.064033518452651733 0.18817704612137751 0 0.057337785510509769 0.1953713814077265 0 0.057463075358263588 0.20356953207319731 0 0.063684874342753911 0.1963670896644544 0 0.057463075358263588 0.20356953207319731 0 0.065820249714028542 0.20368257738252701 0 0.063684874342753911 0.1963670896644544 0 0.048796360762704737 0.19744354905985001 0 0.049556955705170477 0.20618546947825689 0 0.042369417174658031 0.20469986566898329 0 0.057337785510509769 0.1953713814077265 0 0.048796360762704737 0.19744354905985001 0 0.057463075358263588 0.20356953207319731 0 0.048796360762704737 0.19744354905985001 0 0.049556955705170477 0.20618546947825689 0 0.057463075358263588 0.20356953207319731 0 0.049556955705170477 0.20618546947825689 0 0.057463075358263588 0.20356953207319731 0 0.054882203792129977 0.21215689309790739 0 0.049556955705170477 0.20618546947825689 0 0.054882203792129977 0.21215689309790739 0 0.044194610122631907 0.2122986120299282 0 0.061776257470040417 0.21026353999161351 0 0.057463075358263588 0.20356953207319731 0 0.065820249714028542 0.20368257738252701 0 0.061776257470040417 0.21026353999161351 0 0.057463075358263588 0.20356953207319731 0 0.054882203792129977 0.21215689309790739 0 0.054882203792129977 0.21215689309790739 0 0.060761729236882542 0.2183123787269719 0 0.051238632128217568 0.21987377157202539 0 0.061776257470040417 0.21026353999161351 0 0.054882203792129977 0.21215689309790739 0 0.060761729236882542 0.2183123787269719 0 0.054882203792129977 0.21215689309790739 0 0.044194610122631907 0.2122986120299282 0 0.051238632128217568 0.21987377157202539 0 0.044194610122631907 0.2122986120299282 0 0.03589394403175681 0.21518396865618891 0 0.041062357527556673 0.22137474762379389 0 0.044194610122631907 0.2122986120299282 0 0.041062357527556673 0.22137474762379389 0 0.051238632128217568 0.21987377157202539 0 0.044194610122631907 0.2122986120299282 0 0.042369417174658031 0.20469986566898329 0 0.035227475904369712 0.20794467017772039 0 0.049556955705170477 0.20618546947825689 0 0.044194610122631907 0.2122986120299282 0 0.042369417174658031 0.20469986566898329 0 0.036797080280722837 0.19788837516648469 0 0.042369417174658031 0.20469986566898329 0 0.035227475904369712 0.20794467017772039 0 0.02792352964941984 0.2044433397126246 0 0.036797080280722837 0.19788837516648469 0 0.035227475904369712 0.20794467017772039 0 0.026061555215848919 0.21259264815339829 0 0.03589394403175681 0.21518396865618891 0 0.032923721388376827 0.22170916529610341 0 0.026061555215848919 0.21259264815339829 0 0.035227475904369712 0.20794467017772039 0 0.03589394403175681 0.21518396865618891 0 0.044194610122631907 0.2122986120299282 0 0.035227475904369712 0.20794467017772039 0 0.03589394403175681 0.21518396865618891 0 0.032923721388376827 0.22170916529610341 0 0.037184858596067058 0.23138413049370779 0 0.041062357527556673 0.22137474762379389 0 0.03589394403175681 0.21518396865618891 0 0.032923721388376827 0.22170916529610341 0 0.041062357527556673 0.22137474762379389 0 0.037184858596067058 0.23138413049370779 0 0.041062357527556673 0.22137474762379389 0 0.04786931439887343 0.22814202511410661 0 0.037184858596067058 0.23138413049370779 0 0.04786931439887343 0.22814202511410661 0 0.046964095464894308 0.23599249707691231 0 0.041062357527556673 0.22137474762379389 0 0.051238632128217568 0.21987377157202539 0 0.04786931439887343 0.22814202511410661 0 0.051238632128217568 0.21987377157202539 0 0.057910359547200231 0.22639998140875331 0 0.04786931439887343 0.22814202511410661 0 0.060761729236882542 0.2183123787269719 0 0.051238632128217568 0.21987377157202539 0 0.057910359547200231 0.22639998140875331 0 0.060761729236882542 0.2183123787269719 0 0.057910359547200231 0.22639998140875331 0 0.066828304189251342 0.22394346677903881 0 0.057910359547200231 0.22639998140875331 0 0.056024990598231517 0.23443966611390041 0 0.064338186174258002 0.23315504641971829 0 0.04786931439887343 0.22814202511410661 0 0.046964095464894308 0.23599249707691231 0 0.056024990598231517 0.23443966611390041 0 0.057910359547200231 0.22639998140875331 0 0.04786931439887343 0.22814202511410661 0 0.056024990598231517 0.23443966611390041 0 0.046964095464894308 0.23599249707691231 0 0.056024990598231517 0.23443966611390041 0 0.052226573295490762 0.2423636649148827 0 0.056024990598231517 0.23443966611390041 0 0.063972336569716293 0.243420699852781 0 0.064338186174258002 0.23315504641971829 0 0.056024990598231517 0.23443966611390041 0 0.052226573295490762 0.2423636649148827 0 0.063972336569716293 0.243420699852781 0 0.057266071322044892 0.2487458052560243 0 0.063972336569716293 0.243420699852781 0 0.063544856319773371 0.25406896456140438 0 0.057266071322044892 0.2487458052560243 0 0.052226573295490762 0.2423636649148827 0 0.063972336569716293 0.243420699852781 0 0.052226573295490762 0.2423636649148827 0 0.042337009920640052 0.24954965189858661 0 0.050186543669688437 0.25248304460155779 0 0.057266071322044892 0.2487458052560243 0 0.052226573295490762 0.2423636649148827 0 0.050186543669688437 0.25248304460155779 0 0.052226573295490762 0.2423636649148827 0 0.042337009920640052 0.24954965189858661 0 0.040624450585339839 0.24097856341886481 0 0.037184858596067058 0.23138413049370779 0 0.046964095464894308 0.23599249707691231 0 0.040624450585339839 0.24097856341886481 0 0.046964095464894308 0.23599249707691231 0 0.052226573295490762 0.2423636649148827 0 0.040624450585339839 0.24097856341886481 0 0.03057631100938505 0.23879473188882919 0 0.037184858596067058 0.23138413049370779 0 0.040624450585339839 0.24097856341886481 0 0.03057631100938505 0.23879473188882919 0 0.040624450585339839 0.24097856341886481 0 0.03414632622249833 0.24860301180512709 0 0.042337009920640052 0.24954965189858661 0 0.040624450585339839 0.24097856341886481 0 0.03414632622249833 0.24860301180512709 0 0.092803330709362503 0.240126449467266 0 0.082537205839584571 0.24200956300513621 0 0.086440945610867612 0.25059492796667582 0 0.092803330709362503 0.240126449467266 0 0.086440945610867612 0.25059492796667582 0 0.096311035480508303 0.2518508295387068 0 0.092803330709362503 0.240126449467266 0 0.082537205839584571 0.24200956300513621 0 0.083237322958871804 0.23276962129461651 0 0.092803330709362503 0.240126449467266 0 0.083237322958871804 0.23276962129461651 0 0.092302570538665862 0.23023564315767769 0 0.082537205839584571 0.24200956300513621 0 0.077088515759937026 0.23711525450925339 0 0.083237322958871804 0.23276962129461651 0 0.082537205839584571 0.24200956300513621 0 0.078313800111639437 0.24935717424229911 0 0.074485249187740105 0.24420911330632861 0 0.082537205839584571 0.24200956300513621 0 0.078313800111639437 0.24935717424229911 0 0.086440945610867612 0.25059492796667582 0 0.078313800111639437 0.24935717424229911 0 0.074485249187740105 0.24420911330632861 0 0.0710986218483107 0.25191811171017792 0 0.063972336569716293 0.243420699852781 0 0.063544856319773371 0.25406896456140438 0 0.0710986218483107 0.25191811171017792 0 0.074485249187740105 0.24420911330632861 0 0.063972336569716293 0.243420699852781 0 0.0710986218483107 0.25191811171017792 0 0.063972336569716293 0.243420699852781 0 0.070755199813420253 0.23760232932286041 0 0.064338186174258002 0.23315504641971829 0 0.074485249187740105 0.24420911330632861 0 0.063972336569716293 0.243420699852781 0 0.070755199813420253 0.23760232932286041 0 0.070755199813420253 0.23760232932286041 0 0.077088515759937026 0.23711525450925339 0 0.073750687790023917 0.23040781855487719 0 0.082537205839584571 0.24200956300513621 0 0.074485249187740105 0.24420911330632861 0 0.077088515759937026 0.23711525450925339 0 0.074485249187740105 0.24420911330632861 0 0.070755199813420253 0.23760232932286041 0 0.077088515759937026 0.23711525450925339 0 0.077088515759937026 0.23711525450925339 0 0.073750687790023917 0.23040781855487719 0 0.083237322958871804 0.23276962129461651 0 0.057910359547200231 0.22639998140875331 0 0.064338186174258002 0.23315504641971829 0 0.066828304189251342 0.22394346677903881 0 0.070755199813420253 0.23760232932286041 0 0.073750687790023917 0.23040781855487719 0 0.064338186174258002 0.23315504641971829 0 0.073750687790023917 0.23040781855487719 0 0.064338186174258002 0.23315504641971829 0 0.066828304189251342 0.22394346677903881 0 0.066828304189251342 0.22394346677903881 0 0.07444404234373421 0.22081517549601609 0 0.068802418705440238 0.21328991912367601 0 0.073750687790023917 0.23040781855487719 0 0.066828304189251342 0.22394346677903881 0 0.07444404234373421 0.22081517549601609 0 0.073750687790023917 0.23040781855487719 0 0.07444404234373421 0.22081517549601609 0 0.083422030005108214 0.22323210393717099 0 0.07444404234373421 0.22081517549601609 0 0.083422030005108214 0.22323210393717099 0 0.077904228203597659 0.21320050097080981 0 0.073750687790023917 0.23040781855487719 0 0.083422030005108214 0.22323210393717099 0 0.083237322958871804 0.23276962129461651 0 0.083422030005108214 0.22323210393717099 0 0.083237322958871804 0.23276962129461651 0 0.092302570538665862 0.23023564315767769 0 0.083422030005108214 0.22323210393717099 0 0.086175513364259215 0.21428612916083739 0 0.095966574759215842 0.22054780456110301 0 0.083422030005108214 0.22323210393717099 0 0.092302570538665862 0.23023564315767769 0 0.095966574759215842 0.22054780456110301 0 0.086175513364259215 0.21428612916083739 0 0.091772146813032571 0.2083699438513883 0 0.095966574759215842 0.22054780456110301 0 0.091772146813032571 0.2083699438513883 0 0.082642455840749932 0.20466092003505421 0 0.089256857685982849 0.20077093656214501 0 0.086175513364259215 0.21428612916083739 0 0.091772146813032571 0.2083699438513883 0 0.082642455840749932 0.20466092003505421 0 0.086175513364259215 0.21428612916083739 0 0.082642455840749932 0.20466092003505421 0 0.077904228203597659 0.21320050097080981 0 0.083422030005108214 0.22323210393717099 0 0.086175513364259215 0.21428612916083739 0 0.077904228203597659 0.21320050097080981 0 0.07444404234373421 0.22081517549601609 0 0.077904228203597659 0.21320050097080981 0 0.068802418705440238 0.21328991912367601 0 0.060761729236882542 0.2183123787269719 0 0.066828304189251342 0.22394346677903881 0 0.068802418705440238 0.21328991912367601 0 0.061776257470040417 0.21026353999161351 0 0.060761729236882542 0.2183123787269719 0 0.068802418705440238 0.21328991912367601 0 0.068802418705440238 0.21328991912367601 0 0.065820249714028542 0.20368257738252701 0 0.073360143501936745 0.20375359020208669 0 0.061776257470040417 0.21026353999161351 0 0.068802418705440238 0.21328991912367601 0 0.065820249714028542 0.20368257738252701 0 0.082642455840749932 0.20466092003505421 0 0.077904228203597659 0.21320050097080981 0 0.073360143501936745 0.20375359020208669 0 0.077904228203597659 0.21320050097080981 0 0.068802418705440238 0.21328991912367601 0 0.073360143501936745 0.20375359020208669 0 0.073360143501936745 0.20375359020208669 0 0.070187924225417586 0.19460324577354299 0 0.076982000732248451 0.19529716302841221 0 0.082642455840749932 0.20466092003505421 0 0.073360143501936745 0.20375359020208669 0 0.076982000732248451 0.19529716302841221 0 0.065820249714028542 0.20368257738252701 0 0.063684874342753911 0.1963670896644544 0 0.070187924225417586 0.19460324577354299 0 0.065820249714028542 0.20368257738252701 0 0.073360143501936745 0.20375359020208669 0 0.070187924225417586 0.19460324577354299 0 0.063684874342753911 0.1963670896644544 0 0.064033518452651733 0.18817704612137751 0 0.070187924225417586 0.19460324577354299 0 0.064033518452651733 0.18817704612137751 0 0.070187924225417586 0.19460324577354299 0 0.071763176316200536 0.1877213540250853 0 0.070187924225417586 0.19460324577354299 0 0.071763176316200536 0.1877213540250853 0 0.076982000732248451 0.19529716302841221 0 0.071763176316200536 0.1877213540250853 0 0.076982000732248451 0.19529716302841221 0 0.078093006283645919 0.18893910712182749 0 0.076982000732248451 0.19529716302841221 0 0.078093006283645919 0.18893910712182749 0 0.084340863194265217 0.18977664189308949 0 0.076982000732248451 0.19529716302841221 0 0.084340863194265217 0.18977664189308949 0 0.084575149920751047 0.19687832799208679 0 0.082642455840749932 0.20466092003505421 0 0.076982000732248451 0.19529716302841221 0 0.084575149920751047 0.19687832799208679 0 0.082642455840749932 0.20466092003505421 0 0.084575149920751047 0.19687832799208679 0 0.089256857685982849 0.20077093656214501 0 0.089256857685982849 0.20077093656214501 0 0.090968886554490841 0.19388816234260181 0 0.098094911792283745 0.19830860519510379 0 0.091772146813032571 0.2083699438513883 0 0.089256857685982849 0.20077093656214501 0 0.098094911792283745 0.19830860519510379 0 0.084575149920751047 0.19687832799208679 0 0.089256857685982849 0.20077093656214501 0 0.090968886554490841 0.19388816234260181 0 0.084340863194265217 0.18977664189308949 0 0.090968886554490841 0.19388816234260181 0 0.090506104564758688 0.18262059873330311 0 0.090968886554490841 0.19388816234260181 0 0.097062891439115687 0.18902006224742901 0 0.090506104564758688 0.18262059873330311 0 0.084340863194265217 0.18977664189308949 0 0.084575149920751047 0.19687832799208679 0 0.090968886554490841 0.19388816234260181 0 0.090968886554490841 0.19388816234260181 0 0.097062891439115687 0.18902006224742901 0 0.098094911792283745 0.19830860519510379 0 0.097062891439115687 0.18902006224742901 0 0.098094911792283745 0.19830860519510379 0 0.10467563668908079 0.188990448950908 0 0.098094911792283745 0.19830860519510379 0 0.1049527354209132 0.20279561733748949 0 0.1070791107190666 0.1962196263720476 0 0.1049527354209132 0.20279561733748949 0 0.1070791107190666 0.1962196263720476 0 0.1123745008382212 0.19999919490518861 0 0.1070791107190666 0.1962196263720476 0 0.10467563668908079 0.188990448950908 0 0.1127047694348409 0.1916709272769308 0 0.098094911792283745 0.19830860519510379 0 0.1070791107190666 0.1962196263720476 0 0.10467563668908079 0.188990448950908 0 0.10467563668908079 0.188990448950908 0 0.1127047694348409 0.1916709272769308 0 0.11107306916241361 0.18388202415503849 0 0.1209984724842765 0.19542664675733901 0 0.1200465015128263 0.1859546686636781 0 0.1304339396700489 0.18925704224811399 0 0.1127047694348409 0.1916709272769308 0 0.1209984724842765 0.19542664675733901 0 0.1200465015128263 0.1859546686636781 0 0.1209984724842765 0.19542664675733901 0 0.1123745008382212 0.19999919490518861 0 0.11887232261771399 0.2045896828037351 0 0.1209984724842765 0.19542664675733901 0 0.11887232261771399 0.2045896828037351 0 0.12882009102191169 0.20125815281230969 0 0.1127047694348409 0.1916709272769308 0 0.1209984724842765 0.19542664675733901 0 0.1123745008382212 0.19999919490518861 0 0.1070791107190666 0.1962196263720476 0 0.1127047694348409 0.1916709272769308 0 0.1123745008382212 0.19999919490518861 0 0.1123745008382212 0.19999919490518861 0 0.1099869843440546 0.20808358528507129 0 0.11887232261771399 0.2045896828037351 0 0.1099869843440546 0.20808358528507129 0 0.11887232261771399 0.2045896828037351 0 0.11663473616560061 0.21433830137100759 0 0.11887232261771399 0.2045896828037351 0 0.12441915085221961 0.2084322156914942 0 0.11663473616560061 0.21433830137100759 0 0.11887232261771399 0.2045896828037351 0 0.12441915085221961 0.2084322156914942 0 0.12882009102191169 0.20125815281230969 0 0.12441915085221961 0.2084322156914942 0 0.1225562810981516 0.21717335542984861 0 0.11663473616560061 0.21433830137100759 0 0.11663473616560061 0.21433830137100759 0 0.1066590952605167 0.2160929019666597 0 0.1115612582440802 0.2241686965471606 0 0.1099869843440546 0.20808358528507129 0 0.11663473616560061 0.21433830137100759 0 0.1066590952605167 0.2160929019666597 0 0.1099869843440546 0.20808358528507129 0 0.1066590952605167 0.2160929019666597 0 0.10010367123567281 0.20923305361657171 0 0.1049527354209132 0.20279561733748949 0 0.1099869843440546 0.20808358528507129 0 0.10010367123567281 0.20923305361657171 0 0.1049527354209132 0.20279561733748949 0 0.1123745008382212 0.19999919490518861 0 0.1099869843440546 0.20808358528507129 0 0.091772146813032571 0.2083699438513883 0 0.098094911792283745 0.19830860519510379 0 0.10010367123567281 0.20923305361657171 0 0.098094911792283745 0.19830860519510379 0 0.1049527354209132 0.20279561733748949 0 0.10010367123567281 0.20923305361657171 0 0.091772146813032571 0.2083699438513883 0 0.10010367123567281 0.20923305361657171 0 0.095966574759215842 0.22054780456110301 0 0.1066590952605167 0.2160929019666597 0 0.10010367123567281 0.20923305361657171 0 0.095966574759215842 0.22054780456110301 0 0.095966574759215842 0.22054780456110301 0 0.1024094288100182 0.23109480731982171 0 0.10406664904493421 0.22320742803020591 0 0.092803330709362503 0.240126449467266 0 0.092302570538665862 0.23023564315767769 0 0.1024094288100182 0.23109480731982171 0 0.092302570538665862 0.23023564315767769 0 0.095966574759215842 0.22054780456110301 0 0.1024094288100182 0.23109480731982171 0 0.1024094288100182 0.23109480731982171 0 0.1115612582440802 0.2241686965471606 0 0.1129587922966032 0.2337101828428737 0 0.1066590952605167 0.2160929019666597 0 0.10406664904493421 0.22320742803020591 0 0.1115612582440802 0.2241686965471606 0 0.1024094288100182 0.23109480731982171 0 0.10406664904493421 0.22320742803020591 0 0.1115612582440802 0.2241686965471606 0 0.1066590952605167 0.2160929019666597 0 0.095966574759215842 0.22054780456110301 0 0.10406664904493421 0.22320742803020591 0 0.11663473616560061 0.21433830137100759 0 0.1115612582440802 0.2241686965471606 0 0.1194816406589929 0.22545403295524141 0 0.1194816406589929 0.22545403295524141 0 0.12173795991278449 0.24438483842122541 0 0.1296895967157933 0.22046887170165119 0 0.1225562810981516 0.21717335542984861 0 0.1194816406589929 0.22545403295524141 0 0.1296895967157933 0.22046887170165119 0 0.1225562810981516 0.21717335542984861 0 0.11663473616560061 0.21433830137100759 0 0.1194816406589929 0.22545403295524141 0 0.1115612582440802 0.2241686965471606 0 0.1194816406589929 0.22545403295524141 0 0.1129587922966032 0.2337101828428737 0 0.1129587922966032 0.2337101828428737 0 0.12173795991278449 0.24438483842122541 0 0.1055845189268857 0.2424028812725525 0 0.12173795991278449 0.24438483842122541 0 0.1055845189268857 0.2424028812725525 0 0.1066275710365521 0.25394453207898432 0 0.1194816406589929 0.22545403295524141 0 0.1129587922966032 0.2337101828428737 0 0.12173795991278449 0.24438483842122541 0 0.1055845189268857 0.2424028812725525 0 0.1066275710365521 0.25394453207898432 0 0.096311035480508303 0.2518508295387068 0 0.1024094288100182 0.23109480731982171 0 0.1129587922966032 0.2337101828428737 0 0.1055845189268857 0.2424028812725525 0 0.092803330709362503 0.240126449467266 0 0.1024094288100182 0.23109480731982171 0 0.1055845189268857 0.2424028812725525 0 0.092803330709362503 0.240126449467266 0 0.1055845189268857 0.2424028812725525 0 0.096311035480508303 0.2518508295387068 0 0.08156122964992088 0.1488308946315523 0 0.091199982010073968 0.13824497087216961 0 0.1034537593932147 0.1361923486668265 0 0.08156122964992088 0.1488308946315523 0 0.1034537593932147 0.1361923486668265 0 0.08156122964992088 0.1488308946315523 0 0.092665773875130308 0.15082284596375031 0 0.098437611804477701 0.14558004258224649 0 0.08156122964992088 0.1488308946315523 0 0.086105629001739681 0.13838331845271509 0 0.079981908487075037 0.1363699507440021 0 0.08156122964992088 0.1488308946315523 0 0.087151223146325368 0.1548007572359989 0 0.076288528630979818 0.15885061737934139 0 0.08156122964992088 0.1488308946315523 0 0.092665773875130308 0.15082284596375031 0 0.087151223146325368 0.1548007572359989 0 0.092665773875130308 0.15082284596375031 0 0.087151223146325368 0.1548007572359989 0 0.095505785706623297 0.15611660198540961 0 0.08156122964992088 0.1488308946315523 0 0.091199982010073968 0.13824497087216961 0 0.086105629001739681 0.13838331845271509 0 0.075748149040650747 0.1198692713008699 0 0.088346205634002556 0.13094435060572299 0 0.079981908487075037 0.1363699507440021 0 0.091199982010073968 0.13824497087216961 0 0.086105629001739681 0.13838331845271509 0 0.088346205634002556 0.13094435060572299 0 0.086105629001739681 0.13838331845271509 0 0.088346205634002556 0.13094435060572299 0 0.079981908487075037 0.1363699507440021 0 0.075748149040650747 0.1198692713008699 0 0.050326310527479552 0.13261764346172511 0 0.075748149040650747 0.1198692713008699 0 0.067708424473640685 0.14066935594857541 0 0.075748149040650747 0.1198692713008699 0 0.050326310527479552 0.13261764346172511 0 0.067708424473640685 0.14066935594857541 0 0.075748149040650747 0.1198692713008699 0 0.079981908487075037 0.1363699507440021 0 0.067708424473640685 0.14066935594857541 0 0.05966869990662807 0.16146944059627991 0 0.08156122964992088 0.1488308946315523 0 0.05966869990662807 0.16146944059627991 0 0.08156122964992088 0.1488308946315523 0 0.067708424473640685 0.14066935594857541 0 0.05966869990662807 0.16146944059627991 0 0.067708424473640685 0.14066935594857541 0 0.08156122964992088 0.1488308946315523 0 0.079981908487075037 0.1363699507440021 0 0.067708424473640685 0.14066935594857541 0 0.057266943228037798 0.1676831786169721 0 0.076288528630979818 0.15885061737934139 0 0.057266943228037798 0.1676831786169721 0 0.074050534132635876 0.1674551738590899 0 0.076288528630979818 0.15885061737934139 0 0.05966869990662807 0.16146944059627991 0 0.08156122964992088 0.1488308946315523 0 0.076288528630979818 0.15885061737934139 0 0.057266943228037798 0.1676831786169721 0 0.074050534132635876 0.1674551738590899 0 0.066822349741455955 0.17422205877229019 0 0.057266943228037798 0.1676831786169721 0 0.05966869990662807 0.16146944059627991 0 0.076288528630979818 0.15885061737934139 0 0.074050534132635876 0.1674551738590899 0 0.076288528630979818 0.15885061737934139 0 0.083174631266796237 0.16130630815616331 0 0.071763176316200536 0.1877213540250853 0 0.06769262503863703 0.1841621758919374 0 0.071022312193593395 0.18015980256271549 0 0.064033518452651733 0.18817704612137751 0 0.071763176316200536 0.1877213540250853 0 0.06769262503863703 0.1841621758919374 0 0.064033518452651733 0.18817704612137751 0 0.06769262503863703 0.1841621758919374 0 0.063951493192102471 0.18059050085857151 0 0.06769262503863703 0.1841621758919374 0 0.063951493192102471 0.18059050085857151 0 0.071022312193593395 0.18015980256271549 0 0.063951493192102471 0.18059050085857151 0 0.066822349741455955 0.17422205877229019 0 0.071022312193593395 0.18015980256271549 0 0.0591639601548343 0.1766757480118962 0 0.063951493192102471 0.18059050085857151 0 0.066822349741455955 0.17422205877229019 0 0.074050534132635876 0.1674551738590899 0 0.066822349741455955 0.17422205877229019 0 0.076230240760593343 0.1740915941692735 0 0.066822349741455955 0.17422205877229019 0 0.076230240760593343 0.1740915941692735 0 0.071022312193593395 0.18015980256271549 0 0.076230240760593343 0.1740915941692735 0 0.071022312193593395 0.18015980256271549 0 0.079285984891869471 0.182961269540723 0 0.071763176316200536 0.1877213540250853 0 0.071022312193593395 0.18015980256271549 0 0.079285984891869471 0.182961269540723 0 0.071763176316200536 0.1877213540250853 0 0.078093006283645919 0.18893910712182749 0 0.079285984891869471 0.182961269540723 0 0.084340863194265217 0.18977664189308949 0 0.079285984891869471 0.182961269540723 0 0.090506104564758688 0.18262059873330311 0 0.079285984891869471 0.182961269540723 0 0.083783782941020873 0.17657959646604959 0 0.090506104564758688 0.18262059873330311 0 0.078093006283645919 0.18893910712182749 0 0.084340863194265217 0.18977664189308949 0 0.079285984891869471 0.182961269540723 0 0.076230240760593343 0.1740915941692735 0 0.083783782941020873 0.17657959646604959 0 0.084290921019045673 0.16890300993220561 0 0.076230240760593343 0.1740915941692735 0 0.079285984891869471 0.182961269540723 0 0.083783782941020873 0.17657959646604959 0 0.083783782941020873 0.17657959646604959 0 0.089882622334356718 0.17482567276101621 0 0.084290921019045673 0.16890300993220561 0 0.089882622334356718 0.17482567276101621 0 0.093305935121645159 0.16856825315160021 0 0.09589794710438676 0.1748611879882048 0 0.089882622334356718 0.17482567276101621 0 0.090506104564758688 0.18262059873330311 0 0.09589794710438676 0.1748611879882048 0 0.083783782941020873 0.17657959646604959 0 0.089882622334356718 0.17482567276101621 0 0.090506104564758688 0.18262059873330311 0 0.087151223146325368 0.1548007572359989 0 0.076288528630979818 0.15885061737934139 0 0.083174631266796237 0.16130630815616331 0 0.074050534132635876 0.1674551738590899 0 0.083174631266796237 0.16130630815616331 0 0.084290921019045673 0.16890300993220561 0 0.074050534132635876 0.1674551738590899 0 0.076230240760593343 0.1740915941692735 0 0.084290921019045673 0.16890300993220561 0 0.089882622334356718 0.17482567276101621 0 0.084290921019045673 0.16890300993220561 0 0.093305935121645159 0.16856825315160021 0 0.084290921019045673 0.16890300993220561 0 0.093305935121645159 0.16856825315160021 0 0.090829932569330904 0.16114986714338911 0 0.087151223146325368 0.1548007572359989 0 0.090829932569330904 0.16114986714338911 0 0.095505785706623297 0.15611660198540961 0 0.083174631266796237 0.16130630815616331 0 0.084290921019045673 0.16890300993220561 0 0.090829932569330904 0.16114986714338911 0 0.087151223146325368 0.1548007572359989 0 0.083174631266796237 0.16130630815616331 0 0.090829932569330904 0.16114986714338911 0 0.093305935121645159 0.16856825315160021 0 0.090829932569330904 0.16114986714338911 0 0.098716158317143435 0.16199815162773479 0 0.090829932569330904 0.16114986714338911 0 0.098716158317143435 0.16199815162773479 0 0.095505785706623297 0.15611660198540961 0 0.098716158317143435 0.16199815162773479 0 0.1048295236469249 0.15720162458234521 0 0.095505785706623297 0.15611660198540961 0 0.093305935121645159 0.16856825315160021 0 0.1011008791794186 0.16920219852942861 0 0.09589794710438676 0.1748611879882048 0 0.093305935121645159 0.16856825315160021 0 0.098716158317143435 0.16199815162773479 0 0.1011008791794186 0.16920219852942861 0 0.098716158317143435 0.16199815162773479 0 0.1011008791794186 0.16920219852942861 0 0.10860164978499461 0.16357570516436681 0 0.1011008791794186 0.16920219852942861 0 0.1074047780870285 0.17075004006478131 0 0.10860164978499461 0.16357570516436681 0 0.098716158317143435 0.16199815162773479 0 0.10860164978499461 0.16357570516436681 0 0.1048295236469249 0.15720162458234521 0 0.10860164978499461 0.16357570516436681 0 0.1048295236469249 0.15720162458234521 0 0.1101664552568752 0.1571978620773791 0 0.097062891439115687 0.18902006224742901 0 0.090506104564758688 0.18262059873330311 0 0.1022344806608928 0.17951933929521949 0 0.097062891439115687 0.18902006224742901 0 0.10467563668908079 0.188990448950908 0 0.1022344806608928 0.17951933929521949 0 0.1011008791794186 0.16920219852942861 0 0.09589794710438676 0.1748611879882048 0 0.1022344806608928 0.17951933929521949 0 0.090506104564758688 0.18262059873330311 0 0.09589794710438676 0.1748611879882048 0 0.1022344806608928 0.17951933929521949 0 0.1011008791794186 0.16920219852942861 0 0.1074047780870285 0.17075004006478131 0 0.1022344806608928 0.17951933929521949 0 0.1074047780870285 0.17075004006478131 0 0.1022344806608928 0.17951933929521949 0 0.1106122435143095 0.17604081586898029 0 0.10467563668908079 0.188990448950908 0 0.1022344806608928 0.17951933929521949 0 0.11107306916241361 0.18388202415503849 0 0.1022344806608928 0.17951933929521949 0 0.11107306916241361 0.18388202415503849 0 0.1106122435143095 0.17604081586898029 0 0.11107306916241361 0.18388202415503849 0 0.1172989797618752 0.1773834516006533 0 0.1200465015128263 0.1859546686636781 0 0.1127047694348409 0.1916709272769308 0 0.11107306916241361 0.18388202415503849 0 0.1200465015128263 0.1859546686636781 0 0.1106122435143095 0.17604081586898029 0 0.1172989797618752 0.1773834516006533 0 0.1151244270759969 0.16909112614155331 0 0.11107306916241361 0.18388202415503849 0 0.1106122435143095 0.17604081586898029 0 0.1172989797618752 0.1773834516006533 0 0.1074047780870285 0.17075004006478131 0 0.1106122435143095 0.17604081586898029 0 0.1151244270759969 0.16909112614155331 0 0.1172989797618752 0.1773834516006533 0 0.1219168794454691 0.17008048671063949 0 0.12678006445439491 0.17814394531296321 0 0.1172989797618752 0.1773834516006533 0 0.1151244270759969 0.16909112614155331 0 0.1219168794454691 0.17008048671063949 0 0.1172989797618752 0.1773834516006533 0 0.1200465015128263 0.1859546686636781 0 0.12678006445439491 0.17814394531296321 0 0.1219168794454691 0.17008048671063949 0 0.12590030632508459 0.16103027685922369 0 0.12678006445439491 0.17814394531296321 0 0.1170455542242303 0.1614170238664665 0 0.1101664552568752 0.1571978620773791 0 0.1123346747543946 0.15103148065588709 0 0.10860164978499461 0.16357570516436681 0 0.1170455542242303 0.1614170238664665 0 0.1101664552568752 0.1571978620773791 0 0.10860164978499461 0.16357570516436681 0 0.1170455542242303 0.1614170238664665 0 0.1151244270759969 0.16909112614155331 0 0.1074047780870285 0.17075004006478131 0 0.10860164978499461 0.16357570516436681 0 0.1151244270759969 0.16909112614155331 0 0.1199967917676952 0.16540472839447071 0 0.1219168794454691 0.17008048671063949 0 0.12590030632508459 0.16103027685922369 0 0.1170455542242303 0.1614170238664665 0 0.1151244270759969 0.16909112614155331 0 0.1199967917676952 0.16540472839447071 0 0.1151244270759969 0.16909112614155331 0 0.1199967917676952 0.16540472839447071 0 0.1219168794454691 0.17008048671063949 0 0.1170455542242303 0.1614170238664665 0 0.1123346747543946 0.15103148065588709 0 0.12590030632508459 0.16103027685922369 0 0.1170455542242303 0.1614170238664665 0 0.1199967917676952 0.16540472839447071 0 0.12590030632508459 0.16103027685922369 0 0.1123346747543946 0.15103148065588709 0 0.10877354066152051 0.13646340620887801 0 0.12590030632508459 0.16103027685922369 0 0.10877354066152051 0.13646340620887801 0 0.12590030632508459 0.16103027685922369 0 0.12201729382463 0.14626519602840651 0 0.10877354066152051 0.13646340620887801 0 0.12590030632508459 0.16103027685922369 0 0.12201729382463 0.14626519602840651 0 0.11732759094216599 0.13811876402132439 0 0.1230111206555317 0.14043914865332829 0 0.1101664552568752 0.1571978620773791 0 0.1123346747543946 0.15103148065588709 0 0.10802087387383159 0.15276347611783 0 0.1048295236469249 0.15720162458234521 0 0.1101664552568752 0.1571978620773791 0 0.10802087387383159 0.15276347611783 0 0.08156122964992088 0.1488308946315523 0 0.098437611804477701 0.14558004258224649 0 0.1034537593932147 0.1361923486668265 0 0.1048295236469249 0.15720162458234521 0 0.10802087387383159 0.15276347611783 0 0.100687835953543 0.15171100717486541 0 0.10802087387383159 0.15276347611783 0 0.1060811518058225 0.14778692650959349 0 0.100687835953543 0.15171100717486541 0 0.1123346747543946 0.15103148065588709 0 0.10802087387383159 0.15276347611783 0 0.1060811518058225 0.14778692650959349 0 0.1123346747543946 0.15103148065588709 0 0.1060811518058225 0.14778692650959349 0 0.1058584227184529 0.14300289201544791 0 0.1058584227184529 0.14300289201544791 0 0.098437611804477701 0.14558004258224649 0 0.1034537593932147 0.1361923486668265 0 0.1123346747543946 0.15103148065588709 0 0.1058584227184529 0.14300289201544791 0 0.10877354066152051 0.13646340620887801 0 0.1060811518058225 0.14778692650959349 0 0.1058584227184529 0.14300289201544791 0 0.098437611804477701 0.14558004258224649 0 0.1060811518058225 0.14778692650959349 0 0.098437611804477701 0.14558004258224649 0 0.100687835953543 0.15171100717486541 0 0.092665773875130308 0.15082284596375031 0 0.098437611804477701 0.14558004258224649 0 0.100687835953543 0.15171100717486541 0 0.1048295236469249 0.15720162458234521 0 0.095505785706623297 0.15611660198540961 0 0.100687835953543 0.15171100717486541 0 0.092665773875130308 0.15082284596375031 0 0.095505785706623297 0.15611660198540961 0 0.100687835953543 0.15171100717486541 0 0.09164677499795669 0.111896535558532 0 0.1034537593932147 0.1361923486668265 0 0.10877354066152051 0.13646340620887801 0 0.09164677499795669 0.111896535558532 0 0.088346205634002556 0.13094435060572299 0 0.1034537593932147 0.1361923486668265 0 0.091199982010073968 0.13824497087216961 0 0.088346205634002556 0.13094435060572299 0 0.1034537593932147 0.1361923486668265 0 0.1058584227184529 0.14300289201544791 0 0.1034537593932147 0.1361923486668265 0 0.10877354066152051 0.13646340620887801 0 0.10877354066152051 0.13646340620887801 0 0.10948637917263659 0.12540430696501481 0 0.11437034061424289 0.13268956969824519 0 0.10948637917263659 0.12540430696501481 0 0.11437034061424289 0.13268956969824519 0 0.11850254933348379 0.12820304585725181 0 0.10877354066152051 0.13646340620887801 0 0.11437034061424289 0.13268956969824519 0 0.11732759094216599 0.13811876402132439 0 0.12201729382463 0.14626519602840651 0 0.10877354066152051 0.13646340620887801 0 0.11732759094216599 0.13811876402132439 0 0.11732759094216599 0.13811876402132439 0 0.121254994153627 0.13444819856944509 0 0.1230111206555317 0.14043914865332829 0 0.11437034061424289 0.13268956969824519 0 0.11732759094216599 0.13811876402132439 0 0.121254994153627 0.13444819856944509 0 0.121254994153627 0.13444819856944509 0 0.1230111206555317 0.14043914865332829 0 0.1269252266859619 0.137649192971117 0 0.11850254933348379 0.12820304585725181 0 0.12739313669037591 0.1295894702154041 0 0.1262289268777724 0.1207081556182063 0 0.121254994153627 0.13444819856944509 0 0.11850254933348379 0.12820304585725181 0 0.12739313669037591 0.1295894702154041 0 0.11437034061424289 0.13268956969824519 0 0.121254994153627 0.13444819856944509 0 0.11850254933348379 0.12820304585725181 0 0.12739313669037591 0.1295894702154041 0 0.13559372318309179 0.12948380804096599 0 0.13431919878086571 0.1220128830501261 0 0.12739313669037591 0.1295894702154041 0 0.1352895647376415 0.13561719611188769 0 0.13559372318309179 0.12948380804096599 0 0.1269252266859619 0.137649192971117 0 0.1352895647376415 0.13561719611188769 0 0.1302458702637303 0.14457340866044441 0 0.12739313669037591 0.1295894702154041 0 0.1269252266859619 0.137649192971117 0 0.1352895647376415 0.13561719611188769 0 0.121254994153627 0.13444819856944509 0 0.12739313669037591 0.1295894702154041 0 0.1269252266859619 0.137649192971117 0 0.1352895647376415 0.13561719611188769 0 0.13559372318309179 0.12948380804096599 0 0.14335571151211879 0.13127793558453321 0 0.1539383236386164 0.12740193319586379 0 0.14690644870312039 0.14213525404854679 0 0.16568162940814241 0.12950464042691251 0 0.13559372318309179 0.12948380804096599 0 0.14335571151211879 0.13127793558453321 0 0.1450504972981238 0.1217514865254016 0 0.14335571151211879 0.13127793558453321 0 0.1539383236386164 0.12740193319586379 0 0.1450504972981238 0.1217514865254016 0 0.1352895647376415 0.13561719611188769 0 0.14335571151211879 0.13127793558453321 0 0.14690644870312039 0.14213525404854679 0 0.14335571151211879 0.13127793558453321 0 0.1539383236386164 0.12740193319586379 0 0.14690644870312039 0.14213525404854679 0 0.14690644870312039 0.14213525404854679 0 0.14571590106218801 0.15372138988291639 0 0.16135191341275801 0.14333838679126751 0 0.14690644870312039 0.14213525404854679 0 0.1302458702637303 0.14457340866044441 0 0.12813126799809851 0.15476586767018119 0 0.14690644870312039 0.14213525404854679 0 0.14571590106218801 0.15372138988291639 0 0.12813126799809851 0.15476586767018119 0 0.14690644870312039 0.14213525404854679 0 0.12813126799809851 0.15476586767018119 0 0.1352895647376415 0.13561719611188769 0 0.14690644870312039 0.14213525404854679 0 0.1302458702637303 0.14457340866044441 0 0.12201729382463 0.14626519602840651 0 0.1230111206555317 0.14043914865332829 0 0.1302458702637303 0.14457340866044441 0 0.1230111206555317 0.14043914865332829 0 0.1269252266859619 0.137649192971117 0 0.1302458702637303 0.14457340866044441 0 0.12201729382463 0.14626519602840651 0 0.1302458702637303 0.14457340866044441 0 0.12813126799809851 0.15476586767018119 0 0.12201729382463 0.14626519602840651 0 0.12813126799809851 0.15476586767018119 0 0.12590030632508459 0.16103027685922369 0 0.12590030632508459 0.16103027685922369 0 0.13965435455670591 0.16568029334669371 0 0.1430270719886485 0.18559714750956921 0 0.14571590106218801 0.15372138988291639 0 0.12813126799809851 0.15476586767018119 0 0.13965435455670591 0.16568029334669371 0 0.12813126799809851 0.15476586767018119 0 0.12590030632508459 0.16103027685922369 0 0.13965435455670591 0.16568029334669371 0 0.12590030632508459 0.16103027685922369 0 0.12678006445439491 0.17814394531296321 0 0.13153534560954419 0.1785071029824675 0 0.12590030632508459 0.16103027685922369 0 0.13153534560954419 0.1785071029824675 0 0.1430270719886485 0.18559714750956921 0 0.12590030632508459 0.16103027685922369 0 0.1430270719886485 0.18559714750956921 0 0.12678006445439491 0.17814394531296321 0 0.13153534560954419 0.1785071029824675 0 0.1304339396700489 0.18925704224811399 0 0.1200465015128263 0.1859546686636781 0 0.12678006445439491 0.17814394531296321 0 0.1304339396700489 0.18925704224811399 0 0.13153534560954419 0.1785071029824675 0 0.1430270719886485 0.18559714750956921 0 0.1304339396700489 0.18925704224811399 0 0.13965435455670591 0.16568029334669371 0 0.1430270719886485 0.18559714750956921 0 0.14993493075571529 0.1727797301226919 0 0.1430270719886485 0.18559714750956921 0 0.14993493075571529 0.1727797301226919 0 0.1560915234726552 0.1855661757105512 0 0.14571590106218801 0.15372138988291639 0 0.14690067064423509 0.1636232373519256 0 0.1647987414321985 0.1574181011235396 0 0.14993493075571529 0.1727797301226919 0 0.14690067064423509 0.1636232373519256 0 0.1647987414321985 0.1574181011235396 0 0.14571590106218801 0.15372138988291639 0 0.13965435455670591 0.16568029334669371 0 0.14690067064423509 0.1636232373519256 0 0.13965435455670591 0.16568029334669371 0 0.14993493075571529 0.1727797301226919 0 0.14690067064423509 0.1636232373519256 0 0.1560915234726552 0.1855661757105512 0 0.1647987414321985 0.1574181011235396 0 0.17019472091080631 0.17211677050353419 0 0.1560915234726552 0.1855661757105512 0 0.1647987414321985 0.1574181011235396 0 0.14993493075571529 0.1727797301226919 0 0.1560915234726552 0.1855661757105512 0 0.1647987414321985 0.1574181011235396 0 0.17019472091080631 0.17211677050353419 0 0.16804419889815711 0.18351188626195461 0 0.17691171265533931 0.18330288015710289 0 0.16804419889815711 0.18351188626195461 0 0.17691171265533931 0.18330288015710289 0 0.1689788385538275 0.19306171867663011 0 0.1560915234726552 0.1855661757105512 0 0.16804419889815711 0.18351188626195461 0 0.1689788385538275 0.19306171867663011 0 0.1560915234726552 0.1855661757105512 0 0.17019472091080631 0.17211677050353419 0 0.16804419889815711 0.18351188626195461 0 0.17019472091080631 0.17211677050353419 0 0.17691171265533931 0.18330288015710289 0 0.18574240390036251 0.17085124036757379 0 0.17691171265533931 0.18330288015710289 0 0.18574240390036251 0.17085124036757379 0 0.19227202705611049 0.1860574637212212 0 0.1647987414321985 0.1574181011235396 0 0.17019472091080631 0.17211677050353419 0 0.18166684719313919 0.15888397012180369 0 0.17019472091080631 0.17211677050353419 0 0.18574240390036251 0.17085124036757379 0 0.18166684719313919 0.15888397012180369 0 0.18166684719313919 0.15888397012180369 0 0.17999343026381601 0.14421979062348381 0 0.19213703868468399 0.14691446001460159 0 0.1647987414321985 0.1574181011235396 0 0.18166684719313919 0.15888397012180369 0 0.17999343026381601 0.14421979062348381 0 0.1647987414321985 0.1574181011235396 0 0.17999343026381601 0.14421979062348381 0 0.17350595939174179 0.12927002653652811 0 0.17999343026381601 0.14421979062348381 0 0.18830013750987351 0.13277603552464859 0 0.19213703868468399 0.14691446001460159 0 0.17350595939174179 0.12927002653652811 0 0.16568162940814241 0.12950464042691251 0 0.1844568101131642 0.11687402680527791 0 0.17350595939174179 0.12927002653652811 0 0.18830013750987351 0.13277603552464859 0 0.1844568101131642 0.11687402680527791 0 0.17999343026381601 0.14421979062348381 0 0.17350595939174179 0.12927002653652811 0 0.18830013750987351 0.13277603552464859 0 0.17350595939174179 0.12927002653652811 0 0.16568162940814241 0.12950464042691251 0 0.16135191341275801 0.14333838679126751 0 0.14690644870312039 0.14213525404854679 0 0.16568162940814241 0.12950464042691251 0 0.14690644870312039 0.14213525404854679 0 0.16568162940814241 0.12950464042691251 0 0.16135191341275801 0.14333838679126751 0 0.1539383236386164 0.12740193319586379 0 0.16568162940814241 0.12950464042691251 0 0.1620681681850592 0.122159867119615 0 0.1647987414321985 0.1574181011235396 0 0.17350595939174179 0.12927002653652811 0 0.14571590106218801 0.15372138988291639 0 0.1647987414321985 0.1574181011235396 0 0.16135191341275801 0.14333838679126751 0 0.1647987414321985 0.1574181011235396 0 0.17350595939174179 0.12927002653652811 0 0.16135191341275801 0.14333838679126751 0 0.1527293109647406 0.2496888402585469 0 0.1509992044617475 0.24031921604616491 0 0.1585735765385029 0.2438264976433136 0 0.1509992044617475 0.24031921604616491 0 0.15012286874481989 0.23083232091871181 0 0.1573483015433603 0.2340887654365624 0 0.1509992044617475 0.24031921604616491 0 0.1573483015433603 0.2340887654365624 0 0.1585735765385029 0.2438264976433136 0 0.1509992044617475 0.24031921604616491 0 0.13867708755356789 0.24186232488457371 0 0.15012286874481989 0.23083232091871181 0 0.1527293109647406 0.2496888402585469 0 0.1509992044617475 0.24031921604616491 0 0.13867708755356789 0.24186232488457371 0 0.12173795991278449 0.24438483842122541 0 0.13867708755356789 0.24186232488457371 0 0.13732611472270259 0.22546187105492221 0 0.12173795991278449 0.24438483842122541 0 0.13867708755356789 0.24186232488457371 0 0.1332696696938378 0.25934304053290802 0 0.12173795991278449 0.24438483842122541 0 0.1296895967157933 0.22046887170165119 0 0.12173795991278449 0.24438483842122541 0 0.13732611472270259 0.22546187105492221 0 0.1296895967157933 0.22046887170165119 0 0.13867708755356789 0.24186232488457371 0 0.13732611472270259 0.22546187105492221 0 0.15012286874481989 0.23083232091871181 0 0.15620544465231201 0.2241770479286955 0 0.14738430551311191 0.21371425029756261 0 0.13867708755356789 0.24186232488457371 0 0.14738430551311191 0.21371425029756261 0 0.13867708755356789 0.24186232488457371 0 0.15012286874481989 0.23083232091871181 0 0.14738430551311191 0.21371425029756261 0 0.13867708755356789 0.24186232488457371 0 0.13732611472270259 0.22546187105492221 0 0.14738430551311191 0.21371425029756261 0 0.15012286874481989 0.23083232091871181 0 0.15620544465231201 0.2241770479286955 0 0.1573483015433603 0.2340887654365624 0 0.1420367786464839 0.20343812716091461 0 0.14738430551311191 0.21371425029756261 0 0.14578196863772411 0.19624521113402449 0 0.15620544465231201 0.2241770479286955 0 0.14738430551311191 0.21371425029756261 0 0.1609317994891496 0.2147554031537609 0 0.1420367786464839 0.20343812716091461 0 0.14738430551311191 0.21371425029756261 0 0.13597514189183821 0.20906141722527061 0 0.1296895967157933 0.22046887170165119 0 0.1376412335188022 0.19655290498207689 0 0.12882009102191169 0.20125815281230969 0 0.1296895967157933 0.22046887170165119 0 0.13597514189183821 0.20906141722527061 0 0.1376412335188022 0.19655290498207689 0 0.1296895967157933 0.22046887170165119 0 0.1376412335188022 0.19655290498207689 0 0.13732611472270259 0.22546187105492221 0 0.1296895967157933 0.22046887170165119 0 0.13597514189183821 0.20906141722527061 0 0.12441915085221961 0.2084322156914942 0 0.1296895967157933 0.22046887170165119 0 0.12882009102191169 0.20125815281230969 0 0.13732611472270259 0.22546187105492221 0 0.13597514189183821 0.20906141722527061 0 0.13732611472270259 0.22546187105492221 0 0.14738430551311191 0.21371425029756261 0 0.13597514189183821 0.20906141722527061 0 0.12441915085221961 0.2084322156914942 0 0.1225562810981516 0.21717335542984861 0 0.1296895967157933 0.22046887170165119 0 0.1420367786464839 0.20343812716091461 0 0.13597514189183821 0.20906141722527061 0 0.1376412335188022 0.19655290498207689 0 0.1209984724842765 0.19542664675733901 0 0.12882009102191169 0.20125815281230969 0 0.1304339396700489 0.18925704224811399 0 0.1376412335188022 0.19655290498207689 0 0.12882009102191169 0.20125815281230969 0 0.1304339396700489 0.18925704224811399 0 0.1430270719886485 0.18559714750956921 0 0.1376412335188022 0.19655290498207689 0 0.1304339396700489 0.18925704224811399 0 0.1560915234726552 0.1855661757105512 0 0.14738430551311191 0.21371425029756261 0 0.16100437494411179 0.2029641503355181 0 0.1430270719886485 0.18559714750956921 0 0.1560915234726552 0.1855661757105512 0 0.14578196863772411 0.19624521113402449 0 0.1560915234726552 0.1855661757105512 0 0.14738430551311191 0.21371425029756261 0 0.1430270719886485 0.18559714750956921 0 0.1376412335188022 0.19655290498207689 0 0.14578196863772411 0.19624521113402449 0 0.1560915234726552 0.1855661757105512 0 0.14738430551311191 0.21371425029756261 0 0.14578196863772411 0.19624521113402449 0 0.1420367786464839 0.20343812716091461 0 0.1376412335188022 0.19655290498207689 0 0.14578196863772411 0.19624521113402449 0 0.1560915234726552 0.1855661757105512 0 0.16100437494411179 0.2029641503355181 0 0.1689788385538275 0.19306171867663011 0 0.16100437494411179 0.2029641503355181 0 0.1689788385538275 0.19306171867663011 0 0.17198349242514699 0.20719099627146639 0 0.17691171265533931 0.18330288015710289 0 0.1689788385538275 0.19306171867663011 0 0.18270085012646739 0.1969872045730312 0 0.17691171265533931 0.18330288015710289 0 0.18270085012646739 0.1969872045730312 0 0.19227202705611049 0.1860574637212212 0 0.1689788385538275 0.19306171867663011 0 0.18270085012646739 0.1969872045730312 0 0.17198349242514699 0.20719099627146639 0 0.18270085012646739 0.1969872045730312 0 0.17198349242514699 0.20719099627146639 0 0.18662210895416981 0.2088101383455655 0 0.18662210895416981 0.2088101383455655 0 0.17850355414762711 0.21835680931732429 0 0.18941959446246029 0.21995909916838949 0 0.17198349242514699 0.20719099627146639 0 0.18662210895416981 0.2088101383455655 0 0.17850355414762711 0.21835680931732429 0 0.17198349242514699 0.20719099627146639 0 0.17850355414762711 0.21835680931732429 0 0.16977847926732401 0.21662509437257879 0 0.17198349242514699 0.20719099627146639 0 0.16977847926732401 0.21662509437257879 0 0.1609317994891496 0.2147554031537609 0 0.16100437494411179 0.2029641503355181 0 0.17198349242514699 0.20719099627146639 0 0.1609317994891496 0.2147554031537609 0 0.14738430551311191 0.21371425029756261 0 0.16100437494411179 0.2029641503355181 0 0.1609317994891496 0.2147554031537609 0 0.15620544465231201 0.2241770479286955 0 0.1609317994891496 0.2147554031537609 0 0.16769507100737219 0.22619716874776361 0 0.1573483015433603 0.2340887654365624 0 0.16769507100737219 0.22619716874776361 0 0.16668628632199459 0.2372418792911074 0 0.15620544465231201 0.2241770479286955 0 0.1573483015433603 0.2340887654365624 0 0.16769507100737219 0.22619716874776361 0 0.16769507100737219 0.22619716874776361 0 0.17809424135199381 0.23417115484815429 0 0.16668628632199459 0.2372418792911074 0 0.16977847926732401 0.21662509437257879 0 0.1609317994891496 0.2147554031537609 0 0.16769507100737219 0.22619716874776361 0 0.17850355414762711 0.21835680931732429 0 0.16977847926732401 0.21662509437257879 0 0.16769507100737219 0.22619716874776361 0 0.17809424135199381 0.23417115484815429 0 0.19633888835653929 0.2346428930968506 0 0.18761808970463181 0.2295532946527154 0 0.17850355414762711 0.21835680931732429 0 0.16769507100737219 0.22619716874776361 0 0.17984199102903051 0.22649142958997201 0 0.17984199102903051 0.22649142958997201 0 0.18761808970463181 0.2295532946527154 0 0.18941959446246029 0.21995909916838949 0 0.17850355414762711 0.21835680931732429 0 0.17984199102903051 0.22649142958997201 0 0.18941959446246029 0.21995909916838949 0 0.17984199102903051 0.22649142958997201 0 0.17809424135199381 0.23417115484815429 0 0.18761808970463181 0.2295532946527154 0 0.16769507100737219 0.22619716874776361 0 0.17984199102903051 0.22649142958997201 0 0.17809424135199381 0.23417115484815429 0 0.17809424135199381 0.23417115484815429 0 0.17562439366976659 0.2480003082359496 0 0.16668628632199459 0.2372418792911074 0 0.17809424135199381 0.23417115484815429 0 0.17562439366976659 0.2480003082359496 0 0.19633888835653929 0.2346428930968506 0 0.17562439366976659 0.2480003082359496 0 0.19571728637305991 0.25124460125098053 0 0.17562439366976659 0.2480003082359496 0 0.19633888835653929 0.2346428930968506 0 0.17562439366976659 0.2480003082359496 0 0.16640384974087649 0.24651151582039041 0 0.16668628632199459 0.2372418792911074 0 0.17562439366976659 0.2480003082359496 0 0.16640384974087649 0.24651151582039041 0 0.1573483015433603 0.2340887654365624 0 0.16668628632199459 0.2372418792911074 0 0.1585735765385029 0.2438264976433136 0 0.16640384974087649 0.24651151582039041 0 0.16668628632199459 0.2372418792911074 0 0.1585735765385029 0.2438264976433136 0 0.16640384974087649 0.24651151582039041 0 0.1585735765385029 0.2438264976433136 0 0.1624975560905107 0.25646494238034878 0 0.1527293109647406 0.2496888402585469 0 0.1585735765385029 0.2438264976433136 0 0.1624975560905107 0.25646494238034878 0 0.21612098006809299 0.24618804018894669 0 0.19633888835653929 0.2346428930968506 0 0.21612098006809299 0.24618804018894669 0 0.19633888835653929 0.2346428930968506 0 0.19571728637305991 0.25124460125098053 0 0.17562439366976659 0.2480003082359496 0 0.19633888835653929 0.2346428930968506 0 0.19571728637305991 0.25124460125098053 0 0.19633888835653929 0.2346428930968506 0 0.18941959446246029 0.21995909916838949 0 0.20053748389944701 0.2174326400608326 0 0.19633888835653929 0.2346428930968506 0 0.18761808970463181 0.2295532946527154 0 0.18941959446246029 0.21995909916838949 0 0.19633888835653929 0.2346428930968506 0 0.18761808970463181 0.2295532946527154 0 0.19633888835653929 0.2346428930968506 0 0.22115079695264869 0.21864332523275379 0 0.19633888835653929 0.2346428930968506 0 0.20053748389944701 0.2174326400608326 0 0.22115079695264869 0.21864332523275379 0 0.21612098006809299 0.24618804018894669 0 0.19633888835653929 0.2346428930968506 0 0.22115079695264869 0.21864332523275379 0 0.20053748389944701 0.2174326400608326 0 0.20056233108496399 0.2013184337466839 0 0.22115079695264869 0.21864332523275379 0 0.20056233108496399 0.2013184337466839 0 0.2170229743268981 0.19579915689424049 0 0.22115079695264869 0.21864332523275379 0 0.18662210895416981 0.2088101383455655 0 0.20053748389944701 0.2174326400608326 0 0.20056233108496399 0.2013184337466839 0 0.18662210895416981 0.2088101383455655 0 0.18941959446246029 0.21995909916838949 0 0.20053748389944701 0.2174326400608326 0 0.18270085012646739 0.1969872045730312 0 0.18662210895416981 0.2088101383455655 0 0.20056233108496399 0.2013184337466839 0 0.18270085012646739 0.1969872045730312 0 0.20056233108496399 0.2013184337466839 0 0.19227202705611049 0.1860574637212212 0 0.20056233108496399 0.2013184337466839 0 0.2058776026311312 0.18816152451207599 0 0.19227202705611049 0.1860574637212212 0 0.20056233108496399 0.2013184337466839 0 0.2170229743268981 0.19579915689424049 0 0.2058776026311312 0.18816152451207599 0 0.2170229743268981 0.19579915689424049 0 0.2318253108220128 0.19368571740867821 0 0.221642521737273 0.1779989069111238 0 0.2170229743268981 0.19579915689424049 0 0.2318253108220128 0.19368571740867821 0 0.22115079695264869 0.21864332523275379 0 0.2318253108220128 0.19368571740867821 0 0.2459627055487574 0.2026437573686555 0 0.23942614539043369 0.178415579126427 0 0.2459627055487574 0.2026437573686555 0 0.23942614539043369 0.178415579126427 0 0.25052941350297298 0.18971531408661929 0 0.2459627055487574 0.2026437573686555 0 0.23942614539043369 0.178415579126427 0 0.2459627055487574 0.2026437573686555 0 0.25002767978558532 0.2000225228547507 0 0.25052941350297298 0.18971531408661929 0 0.2459627055487574 0.2026437573686555 0 0.25002767978558532 0.2000225228547507 0 0.2459627055487574 0.2026437573686555 0 0.25023138274302892 0.21846588237266501 0 0.2459627055487574 0.2026437573686555 0 0.25023138274302892 0.21846588237266501 0 0.25002767978558532 0.2000225228547507 0 0.2459627055487574 0.2026437573686555 0 0.22115079695264869 0.21864332523275379 0 0.25023138274302892 0.21846588237266501 0 0.2318253108220128 0.19368571740867821 0 0.2459627055487574 0.2026437573686555 0 0.22115079695264869 0.21864332523275379 0 0.2459627055487574 0.2026437573686555 0 0.22115079695264869 0.21864332523275379 0 0.22115079695264869 0.21864332523275379 0 0.23517285379689551 0.2297390026617559 0 0.22982550330875201 0.24206279021263399 0 0.22115079695264869 0.21864332523275379 0 0.23517285379689551 0.2297390026617559 0 0.25023138274302892 0.21846588237266501 0 0.24620720171794441 0.231027062253818 0 0.23517285379689551 0.2297390026617559 0 0.25023138274302892 0.21846588237266501 0 0.24620720171794441 0.231027062253818 0 0.23517285379689551 0.2297390026617559 0 0.2408950366641027 0.23657512510204251 0 0.23517285379689551 0.2297390026617559 0 0.2408950366641027 0.23657512510204251 0 0.22982550330875201 0.24206279021263399 0 0.2408950366641027 0.23657512510204251 0 0.24236029680872229 0.24493962465880259 0 0.22982550330875201 0.24206279021263399 0 0.2408950366641027 0.23657512510204251 0 0.2457950644747621 0.24012132536776809 0 0.24236029680872229 0.24493962465880259 0 0.2408950366641027 0.23657512510204251 0 0.2457950644747621 0.24012132536776809 0 0.25023667544839739 0.23606729375595131 0 0.24620720171794441 0.231027062253818 0 0.2408950366641027 0.23657512510204251 0 0.25023667544839739 0.23606729375595131 0 0.2457950644747621 0.24012132536776809 0 0.2496882489778261 0.24290325795427631 0 0.25023667544839739 0.23606729375595131 0 0.2468507990765075 0.24988320060761271 0 0.2496882489778261 0.24290325795427631 0 0.24236029680872229 0.24493962465880259 0 0.2457950644747621 0.24012132536776809 0 0.2496882489778261 0.24290325795427631 0 0.24236029680872229 0.24493962465880259 0 0.2468507990765075 0.24988320060761271 0 0.24236029680872229 0.24493962465880259 0 0.23963233792909289 0.25070674833000889 0 0.24236029680872229 0.24493962465880259 0 0.22982550330875201 0.24206279021263399 0 0.23963233792909289 0.25070674833000889 0 0.21612098006809299 0.24618804018894669 0 0.22115079695264869 0.21864332523275379 0 0.22982550330875201 0.24206279021263399 0 0.21612098006809299 0.24618804018894669 0 0.22982550330875201 0.24206279021263399 0 0.23590307177964609 0.25773318728104377 0 0.20600984826678001 0.1519197756597235 0 0.20275647323417051 0.13812593107394749 0 0.21943442235629981 0.14494672928665289 0 0.20600984826678001 0.1519197756597235 0 0.21485451122060861 0.16279383285459351 0 0.21943442235629981 0.14494672928665289 0 0.21504754301213341 0.1292245567520463 0 0.20275647323417051 0.13812593107394749 0 0.21943442235629981 0.14494672928665289 0 0.21504754301213341 0.1292245567520463 0 0.19975217656264879 0.123049291778662 0 0.21504754301213341 0.1292245567520463 0 0.20275647323417051 0.13812593107394749 0 0.19975217656264879 0.123049291778662 0 0.20275647323417051 0.13812593107394749 0 0.18830013750987351 0.13277603552464859 0 0.19975217656264879 0.123049291778662 0 0.20275647323417051 0.13812593107394749 0 0.18830013750987351 0.13277603552464859 0 0.19213703868468399 0.14691446001460159 0 0.20600984826678001 0.1519197756597235 0 0.20275647323417051 0.13812593107394749 0 0.19213703868468399 0.14691446001460159 0 0.20600984826678001 0.1519197756597235 0 0.19213703868468399 0.14691446001460159 0 0.19713474796696839 0.16178345809808939 0 0.18166684719313919 0.15888397012180369 0 0.19213703868468399 0.14691446001460159 0 0.19713474796696839 0.16178345809808939 0 0.18574240390036251 0.17085124036757379 0 0.18166684719313919 0.15888397012180369 0 0.19713474796696839 0.16178345809808939 0 0.18574240390036251 0.17085124036757379 0 0.19713474796696839 0.16178345809808939 0 0.2028764995668163 0.17469450888763521 0 0.18574240390036251 0.17085124036757379 0 0.19227202705611049 0.1860574637212212 0 0.2028764995668163 0.17469450888763521 0 0.2058776026311312 0.18816152451207599 0 0.19227202705611049 0.1860574637212212 0 0.2028764995668163 0.17469450888763521 0 0.2058776026311312 0.18816152451207599 0 0.2028764995668163 0.17469450888763521 0 0.221642521737273 0.1779989069111238 0 0.2170229743268981 0.19579915689424049 0 0.2058776026311312 0.18816152451207599 0 0.221642521737273 0.1779989069111238 0 0.2028764995668163 0.17469450888763521 0 0.21485451122060861 0.16279383285459351 0 0.221642521737273 0.1779989069111238 0 0.19713474796696839 0.16178345809808939 0 0.2028764995668163 0.17469450888763521 0 0.21485451122060861 0.16279383285459351 0 0.20600984826678001 0.1519197756597235 0 0.19713474796696839 0.16178345809808939 0 0.21485451122060861 0.16279383285459351 0 0.21485451122060861 0.16279383285459351 0 0.221642521737273 0.1779989069111238 0 0.23288958523210729 0.1541874008841993 0 0.221642521737273 0.1779989069111238 0 0.23942614539043369 0.178415579126427 0 0.23288958523210729 0.1541874008841993 0 0.2318253108220128 0.19368571740867821 0 0.221642521737273 0.1779989069111238 0 0.23942614539043369 0.178415579126427 0 0.23942614539043369 0.178415579126427 0 0.25653760632375439 0.17092289481248321 0 0.25052941350297298 0.18971531408661929 0 0.23942614539043369 0.178415579126427 0 0.24574744319262781 0.15923880285475339 0 0.25653760632375439 0.17092289481248321 0 0.23942614539043369 0.178415579126427 0 0.23288958523210729 0.1541874008841993 0 0.23942614539043369 0.178415579126427 0 0.24574744319262781 0.15923880285475339 0 0.23288958523210729 0.1541874008841993 0 0.24574744319262781 0.15923880285475339 0 0.2400832438497518 0.1462679391758013 0 0.25238228218117409 0.1452739733541856 0 0.2400832438497518 0.1462679391758013 0 0.22871731695546579 0.14584632310032969 0 0.23441355408495521 0.13846158994784161 0 0.24574744319262781 0.15923880285475339 0 0.2400832438497518 0.1462679391758013 0 0.23288958523210729 0.1541874008841993 0 0.21485451122060861 0.16279383285459351 0 0.23288958523210729 0.1541874008841993 0 0.21943442235629981 0.14494672928665289 0 0.2400832438497518 0.1462679391758013 0 0.23288958523210729 0.1541874008841993 0 0.22871731695546579 0.14584632310032969 0 0.23288958523210729 0.1541874008841993 0 0.22871731695546579 0.14584632310032969 0 0.21943442235629981 0.14494672928665289 0 0.22871731695546579 0.14584632310032969 0 0.21943442235629981 0.14494672928665289 0 0.23441355408495521 0.13846158994784161 0 0.21504754301213341 0.1292245567520463 0 0.23019904094570109 0.13534173706233679 0 0.23441355408495521 0.13846158994784161 0 0.21504754301213341 0.1292245567520463 0 0.23441355408495521 0.13846158994784161 0 0.21504754301213341 0.1292245567520463 0 0.21943442235629981 0.14494672928665289 0 0.23441355408495521 0.13846158994784161 0 0.21504754301213341 0.1292245567520463 0 0.22541837548521521 0.1252383942444007 0 0.23019904094570109 0.13534173706233679 0 0.21504754301213341 0.1292245567520463 0 0.23019904094570109 0.13534173706233679 0 0.22541837548521521 0.1252383942444007 0 0.23019904094570109 0.13534173706233679 0 0.23863371327979849 0.12993594989620011 0 0.2400832438497518 0.1462679391758013 0 0.23863371327979849 0.12993594989620011 0 0.25238228218117409 0.1452739733541856 0 0.2400832438497518 0.1462679391758013 0 0.23863371327979849 0.12993594989620011 0 0.23441355408495521 0.13846158994784161 0 0.23863371327979849 0.12993594989620011 0 0.24822695803859379 0.119625051895888 0 0.25238228218117409 0.1452739733541856 0 0.23019904094570109 0.13534173706233679 0 0.23863371327979849 0.12993594989620011 0 0.23441355408495521 0.13846158994784161 0 0.23863371327979849 0.12993594989620011 0 0.24822695803859379 0.119625051895888 0 0.2299189007069449 0.1143137749900391 0 0.24822695803859379 0.119625051895888 0 0.24407163389601341 0.093976130437590316 0 0.2299189007069449 0.1143137749900391 0 0.24822695803859379 0.119625051895888 0 0.24407163389601341 0.093976130437590316 0 0.22685861675358859 0.096386267466676057 0 0.2299189007069449 0.1143137749900391 0 0.21369069288793721 0.1049308309557879 0 0.24407163389601341 0.093976130437590316 0 0.22685861675358859 0.096386267466676057 0 0.2299189007069449 0.1143137749900391 0 0.2299189007069449 0.1143137749900391 0 0.214467236009136 0.11753970966816921 0 0.21369069288793721 0.1049308309557879 0 0.22541837548521521 0.1252383942444007 0 0.23863371327979849 0.12993594989620011 0 0.2299189007069449 0.1143137749900391 0 0.22541837548521521 0.1252383942444007 0 0.2299189007069449 0.1143137749900391 0 0.214467236009136 0.11753970966816921 0 0.21504754301213341 0.1292245567520463 0 0.22541837548521521 0.1252383942444007 0 0.214467236009136 0.11753970966816921 0 0.21504754301213341 0.1292245567520463 0 0.214467236009136 0.11753970966816921 0 0.19975217656264879 0.123049291778662 0 0.214467236009136 0.11753970966816921 0 0.20200139795669431 0.109136869223787 0 0.19975217656264879 0.123049291778662 0 0.214467236009136 0.11753970966816921 0 0.21369069288793721 0.1049308309557879 0 0.20200139795669431 0.109136869223787 0 0.22685861675358859 0.096386267466676057 0 0.21369069288793721 0.1049308309557879 0 0.2144209729214851 0.087920711893879025 0 0.21369069288793721 0.1049308309557879 0 0.19979681846631361 0.095040628295827795 0 0.2144209729214851 0.087920711893879025 0 0.21369069288793721 0.1049308309557879 0 0.20200139795669431 0.109136869223787 0 0.19979681846631361 0.095040628295827795 0 0.20200139795669431 0.109136869223787 0 0.19979681846631361 0.095040628295827795 0 0.1913665906850025 0.10378253945516321 0 0.1899211683291844 0.096492144816818254 0 0.1913665906850025 0.10378253945516321 0 0.18217430609913179 0.1030709901634366 0 0.19979681846631361 0.095040628295827795 0 0.1899211683291844 0.096492144816818254 0 0.1913665906850025 0.10378253945516321 0 0.1913665906850025 0.10378253945516321 0 0.192150686110829 0.1116981312170523 0 0.18457696955713429 0.1082716910329506 0 0.20200139795669431 0.109136869223787 0 0.1913665906850025 0.10378253945516321 0 0.192150686110829 0.1116981312170523 0 0.192150686110829 0.1116981312170523 0 0.18640546899964899 0.1155631069338639 0 0.18457696955713429 0.1082716910329506 0 0.18830013750987351 0.13277603552464859 0 0.19975217656264879 0.123049291778662 0 0.1844568101131642 0.11687402680527791 0 0.192150686110829 0.1116981312170523 0 0.19975217656264879 0.123049291778662 0 0.18640546899964899 0.1155631069338639 0 0.192150686110829 0.1116981312170523 0 0.18640546899964899 0.1155631069338639 0 0.19975217656264879 0.123049291778662 0 0.18640546899964899 0.1155631069338639 0 0.1844568101131642 0.11687402680527791 0 0.19975217656264879 0.123049291778662 0 0.1844568101131642 0.11687402680527791 0 0.19975217656264879 0.123049291778662 0 0.18640546899964899 0.1155631069338639 0 0.20200139795669431 0.109136869223787 0 0.192150686110829 0.1116981312170523 0 0.19975217656264879 0.123049291778662 0 0.20289053434421589 0.0605044563650117 0 0.18634695806628979 0.084074421352845444 0 0.20399489199488849 0.07947830971790959 0 0.20289053434421589 0.0605044563650117 0 0.18634695806628979 0.084074421352845444 0 0.20289053434421589 0.0605044563650117 0 0.18634695806628979 0.084074421352845444 0 0.181689683436876 0.066742424984251481 0 0.19979681846631361 0.095040628295827795 0 0.20399489199488849 0.07947830971790959 0 0.18634695806628979 0.084074421352845444 0 0.19979681846631361 0.095040628295827795 0 0.1899211683291844 0.096492144816818254 0 0.18634695806628979 0.084074421352845444 0 0.20399489199488849 0.07947830971790959 0 0.2144209729214851 0.087920711893879025 0 0.21745603984425771 0.070969846063346234 0 0.19979681846631361 0.095040628295827795 0 0.20399489199488849 0.07947830971790959 0 0.2144209729214851 0.087920711893879025 0 0.20399489199488849 0.07947830971790959 0 0.21745603984425771 0.070969846063346234 0 0.20289053434421589 0.0605044563650117 0 0.21745603984425771 0.070969846063346234 0 0.2334408150729603 0.063748605476065312 0 0.22134073987334901 0.054557162499826423 0 0.21745603984425771 0.070969846063346234 0 0.2334408150729603 0.063748605476065312 0 0.2311850730204961 0.081545784345609135 0 0.2144209729214851 0.087920711893879025 0 0.21745603984425771 0.070969846063346234 0 0.2311850730204961 0.081545784345609135 0 0.22685861675358859 0.096386267466676057 0 0.2144209729214851 0.087920711893879025 0 0.2311850730204961 0.081545784345609135 0 0.24407163389601341 0.093976130437590316 0 0.22685861675358859 0.096386267466676057 0 0.2311850730204961 0.081545784345609135 0 0.24407163389601341 0.093976130437590316 0 0.2311850730204961 0.081545784345609135 0 0.24783375955663281 0.07805906859882511 0 0.2334408150729603 0.063748605476065312 0 0.2311850730204961 0.081545784345609135 0 0.24783375955663281 0.07805906859882511 0 0.2334408150729603 0.063748605476065312 0 0.24783375955663281 0.07805906859882511 0 0.2496150297495873 0.059439042563006972 0 0.2334408150729603 0.063748605476065312 0 0.2496150297495873 0.059439042563006972 0 0.24056739647699929 0.042988530474928142 0 0.24056739647699929 0.042988530474928142 0 0.2194341106221421 0.036934491377177942 0 0.22134073987334901 0.054557162499826423 0 0.2334408150729603 0.063748605476065312 0 0.24056739647699929 0.042988530474928142 0 0.22134073987334901 0.054557162499826423 0 0.23597768690006829 0.01336452638934422 0 0.25252126317799439 -0.010205438598489529 0 0.2307709394487055 -0.0025905816995888641 0 0.23597768690006829 0.01336452638934422 0 0.26105612840742859 0.019766071588512159 0 0.25252126317799439 -0.010205438598489529 0 0.23597768690006829 0.01336452638934422 0 0.25252126317799439 -0.010205438598489529 0 0.24056739647699929 0.042988530474928142 0 0.23597768690006829 0.01336452638934422 0 0.26105612840742859 0.019766071588512159 0 0.2194341106221421 0.036934491377177942 0 0.23597768690006829 0.01336452638934422 0 0.24056739647699929 0.042988530474928142 0 0.2194341106221421 0.036934491377177942 0 0.23597768690006829 0.01336452638934422 0 0.2194341106221421 0.036934491377177942 0 0.23597768690006829 0.01336452638934422 0 0.21051614081975961 0.022669637188172869 0 0.23597768690006829 0.01336452638934422 0 0.21626581299006789 0.0074153659625795874 0 0.2307709394487055 -0.0025905816995888641 0 0.23597768690006829 0.01336452638934422 0 0.21626581299006789 0.0074153659625795874 0 0.21051614081975961 0.022669637188172869 0 0.21626581299006789 0.0074153659625795874 0 0.21051614081975961 0.022669637188172869 0 0.19908994105964001 0.014115553016472099 0 0.20423515365630601 0.00091409910843910202 0 0.21626581299006789 0.0074153659625795874 0 0.19908994105964001 0.014115553016472099 0 0.20423515365630601 0.00091409910843910202 0 0.21626581299006789 0.0074153659625795874 0 0.2173473683237315 -0.0071058875394326981 0 0.1908728383528023 0.028131738845634281 0 0.19908994105964001 0.014115553016472099 0 0.1829079366766678 0.01744171759495089 0 0.21051614081975961 0.022669637188172869 0 0.1908728383528023 0.028131738845634281 0 0.19908994105964001 0.014115553016472099 0 0.21051614081975961 0.022669637188172869 0 0.1908728383528023 0.028131738845634281 0 0.20145645499383691 0.036056147537829118 0 0.19908994105964001 0.014115553016472099 0 0.18909223906183151 0.002610795077842325 0 0.1829079366766678 0.01744171759495089 0 0.20423515365630601 0.00091409910843910202 0 0.19908994105964001 0.014115553016472099 0 0.18909223906183151 0.002610795077842325 0 0.2194341106221421 0.036934491377177942 0 0.20289053434421589 0.0605044563650117 0 0.2194341106221421 0.036934491377177942 0 0.22134073987334901 0.054557162499826423 0 0.20289053434421589 0.0605044563650117 0 0.2194341106221421 0.036934491377177942 0 0.20442094023979759 0.055343307597148277 0 0.20289053434421589 0.0605044563650117 0 0.21745603984425771 0.070969846063346234 0 0.22134073987334901 0.054557162499826423 0 0.20289053434421589 0.0605044563650117 0 0.2194341106221421 0.036934491377177942 0 0.20442094023979759 0.055343307597148277 0 0.19859867181082941 0.046269777865921312 0 0.2194341106221421 0.036934491377177942 0 0.19859867181082941 0.046269777865921312 0 0.20145645499383691 0.036056147537829118 0 0.2194341106221421 0.036934491377177942 0 0.21051614081975961 0.022669637188172869 0 0.20145645499383691 0.036056147537829118 0 0.19859867181082941 0.046269777865921312 0 0.20145645499383691 0.036056147537829118 0 0.18926926685271719 0.041353436962331021 0 0.1908728383528023 0.028131738845634281 0 0.20145645499383691 0.036056147537829118 0 0.18926926685271719 0.041353436962331021 0 0.19859867181082941 0.046269777865921312 0 0.18926926685271719 0.041353436962331021 0 0.18832470145407351 0.051609441243167867 0 0.20442094023979759 0.055343307597148277 0 0.19859867181082941 0.046269777865921312 0 0.18832470145407351 0.051609441243167867 0 0.20442094023979759 0.055343307597148277 0 0.18832470145407351 0.051609441243167867 0 0.181689683436876 0.066742424984251481 0 0.20442094023979759 0.055343307597148277 0 0.181689683436876 0.066742424984251481 0 0.20442094023979759 0.055343307597148277 0 0.20289053434421589 0.0605044563650117 0 0.181689683436876 0.066742424984251481 0 0.18832470145407351 0.051609441243167867 0 0.17455930535341041 0.056246499627953167 0 0.181689683436876 0.066742424984251481 0 0.17455930535341041 0.056246499627953167 0 0.181689683436876 0.066742424984251481 0 0.16492483064348479 0.063117555788485047 0 0.18832470145407351 0.051609441243167867 0 0.17455930535341041 0.056246499627953167 0 0.17657681785398871 0.047078586863031388 0 0.18926926685271719 0.041353436962331021 0 0.17657681785398871 0.047078586863031388 0 0.18020655538243149 0.036854128755256843 0 0.18926926685271719 0.041353436962331021 0 0.18832470145407351 0.051609441243167867 0 0.17657681785398871 0.047078586863031388 0 0.1908728383528023 0.028131738845634281 0 0.18926926685271719 0.041353436962331021 0 0.18020655538243149 0.036854128755256843 0 0.18020655538243149 0.036854128755256843 0 0.16569451655613249 0.037100700553365201 0 0.1731304259277654 0.026751725211580341 0 0.17657681785398871 0.047078586863031388 0 0.18020655538243149 0.036854128755256843 0 0.16569451655613249 0.037100700553365201 0 0.16569451655613249 0.037100700553365201 0 0.1731304259277654 0.026751725211580341 0 0.1514403917896385 0.031749644358252588 0 0.17657681785398871 0.047078586863031388 0 0.16569451655613249 0.037100700553365201 0 0.16404294625975041 0.05223629406066236 0 0.16569451655613249 0.037100700553365201 0 0.15979742497924779 0.044115124949501441 0 0.1514403917896385 0.031749644358252588 0 0.16569451655613249 0.037100700553365201 0 0.15979742497924779 0.044115124949501441 0 0.16404294625975041 0.05223629406066236 0 0.15979742497924779 0.044115124949501441 0 0.16404294625975041 0.05223629406066236 0 0.15206587937475499 0.048960467071345909 0 0.16404294625975041 0.05223629406066236 0 0.1508986972956767 0.061324627497868239 0 0.16492483064348479 0.063117555788485047 0 0.17455930535341041 0.056246499627953167 0 0.16404294625975041 0.05223629406066236 0 0.16492483064348479 0.063117555788485047 0 0.17455930535341041 0.056246499627953167 0 0.17657681785398871 0.047078586863031388 0 0.16404294625975041 0.05223629406066236 0 0.18909223906183151 0.002610795077842325 0 0.1829079366766678 0.01744171759495089 0 0.16614464497234349 0.0095767566573148177 0 0.1829079366766678 0.01744171759495089 0 0.1731304259277654 0.026751725211580341 0 0.16614464497234349 0.0095767566573148177 0 0.1908728383528023 0.028131738845634281 0 0.18020655538243149 0.036854128755256843 0 0.1731304259277654 0.026751725211580341 0 0.1908728383528023 0.028131738845634281 0 0.1829079366766678 0.01744171759495089 0 0.1731304259277654 0.026751725211580341 0 0.16614464497234349 0.0095767566573148177 0 0.151473661872736 0.01174376481424102 0 0.1514403917896385 0.031749644358252588 0 0.1731304259277654 0.026751725211580341 0 0.16614464497234349 0.0095767566573148177 0 0.1514403917896385 0.031749644358252588 0 0.16614464497234349 0.0095767566573148177 0 0.1514403917896385 0.031749644358252588 0 0.16614464497234349 0.0095767566573148177 0 0.151473661872736 0.01174376481424102 0 0.15580959766538949 -0.00062738618753850292 0 0.1445140487957588 0.0031503328159685892 0 0.151473661872736 0.01174376481424102 0 0.15580959766538949 -0.00062738618753850292 0 0.1445140487957588 0.0031503328159685892 0 0.151473661872736 0.01174376481424102 0 0.13712663954614021 0.015389693747583109 0 0.151473661872736 0.01174376481424102 0 0.13712663954614021 0.015389693747583109 0 0.1514403917896385 0.031749644358252588 0 0.132665441999992 0.030820393218553319 0 0.13712663954614021 0.015389693747583109 0 0.1514403917896385 0.031749644358252588 0 0.1200605974475062 0.036561706949768208 0 0.12299584720260991 0.02173750441434109 0 0.132665441999992 0.030820393218553319 0 0.12299584720260991 0.02173750441434109 0 0.132665441999992 0.030820393218553319 0 0.13712663954614021 0.015389693747583109 0 0.1228416977593057 0.0082945083367616263 0 0.13712663954614021 0.015389693747583109 0 0.13257781506382421 0.00033959186381871809 0 0.12299584720260991 0.02173750441434109 0 0.1228416977593057 0.0082945083367616263 0 0.13712663954614021 0.015389693747583109 0 0.1228416977593057 0.0082945083367616263 0 0.13257781506382421 0.00033959186381871809 0 0.1226802507548381 -0.0019164014345253279 0 0.1445140487957588 0.0031503328159685892 0 0.13712663954614021 0.015389693747583109 0 0.13257781506382421 0.00033959186381871809 0 0.1415269193761324 0.04838094702737878 0 0.14443622660218969 0.055423243187807343 0 0.15206587937475499 0.048960467071345909 0 0.1415269193761324 0.04838094702737878 0 0.14443622660218969 0.055423243187807343 0 0.13673613860693359 0.053922532059190377 0 0.14443622660218969 0.055423243187807343 0 0.1508986972956767 0.061324627497868239 0 0.1404481584656623 0.063461799590043971 0 0.14443622660218969 0.055423243187807343 0 0.1508986972956767 0.061324627497868239 0 0.15206587937475499 0.048960467071345909 0 0.16404294625975041 0.05223629406066236 0 0.1508986972956767 0.061324627497868239 0 0.15206587937475499 0.048960467071345909 0 0.15979742497924779 0.044115124949501441 0 0.15206587937475499 0.048960467071345909 0 0.1514403917896385 0.031749644358252588 0 0.1415269193761324 0.04838094702737878 0 0.15206587937475499 0.048960467071345909 0 0.1514403917896385 0.031749644358252588 0 0.1415269193761324 0.04838094702737878 0 0.1514403917896385 0.031749644358252588 0 0.13673613860693359 0.053922532059190377 0 0.1514403917896385 0.031749644358252588 0 0.13673613860693359 0.053922532059190377 0 0.1514403917896385 0.031749644358252588 0 0.13175175119405841 0.042416967530628499 0 0.13673613860693359 0.053922532059190377 0 0.132665441999992 0.030820393218553319 0 0.1514403917896385 0.031749644358252588 0 0.13175175119405841 0.042416967530628499 0 0.1200605974475062 0.036561706949768208 0 0.132665441999992 0.030820393218553319 0 0.13175175119405841 0.042416967530628499 0 0.1201371984308051 0.046993652425495913 0 0.13175175119405841 0.042416967530628499 0 0.1273364843073064 0.051731614006749173 0 0.13175175119405841 0.042416967530628499 0 0.1273364843073064 0.051731614006749173 0 0.13673613860693359 0.053922532059190377 0 0.1415269193761324 0.04838094702737878 0 0.13673613860693359 0.053922532059190377 0 0.14443622660218969 0.055423243187807343 0 0.13673613860693359 0.053922532059190377 0 0.1404481584656623 0.063461799590043971 0 0.13673613860693359 0.053922532059190377 0 0.12920057336619811 0.065285587344612372 0 0.1404481584656623 0.063461799590043971 0 0.13673613860693359 0.053922532059190377 0 0.12920057336619811 0.065285587344612372 0 0.12219669470671519 0.05963031946461108 0 0.1234583106500939 0.069281242091104617 0 0.13673613860693359 0.053922532059190377 0 0.12219669470671519 0.05963031946461108 0 0.1273364843073064 0.051731614006749173 0 0.13673613860693359 0.053922532059190377 0 0.1234583106500939 0.069281242091104617 0 0.13673613860693359 0.053922532059190377 0 0.1234583106500939 0.069281242091104617 0 0.13673613860693359 0.053922532059190377 0 0.12920057336619811 0.065285587344612372 0 0.1234583106500939 0.069281242091104617 0 0.12920057336619811 0.065285587344612372 0 0.12951034755995039 0.071854779490956214 0 0.12920057336619811 0.065285587344612372 0 0.12951034755995039 0.071854779490956214 0 0.13529765624666279 0.070373563735429509 0 0.121835820738507 0.08129736859239832 0 0.12951034755995039 0.071854779490956214 0 0.13374759662131441 0.077394938789198661 0 0.13374759662131441 0.077394938789198661 0 0.13529765624666279 0.070373563735429509 0 0.14358160522018909 0.073870713462336396 0 0.12951034755995039 0.071854779490956214 0 0.13374759662131441 0.077394938789198661 0 0.13529765624666279 0.070373563735429509 0 0.13529765624666279 0.070373563735429509 0 0.1404481584656623 0.063461799590043971 0 0.14358160522018909 0.073870713462336396 0 0.12920057336619811 0.065285587344612372 0 0.13529765624666279 0.070373563735429509 0 0.1404481584656623 0.063461799590043971 0 0.1508986972956767 0.061324627497868239 0 0.14358160522018909 0.073870713462336396 0 0.1589584266339544 0.078141542371354678 0 0.1508986972956767 0.061324627497868239 0 0.1404481584656623 0.063461799590043971 0 0.14358160522018909 0.073870713462336396 0 0.14358160522018909 0.073870713462336396 0 0.1362271698310327 0.089540659758457902 0 0.1589584266339544 0.078141542371354678 0 0.1362271698310327 0.089540659758457902 0 0.15028838930452981 0.096745642029814283 0 0.1589584266339544 0.078141542371354678 0 0.1362271698310327 0.089540659758457902 0 0.1589584266339544 0.078141542371354678 0 0.13374759662131441 0.077394938789198661 0 0.14358160522018909 0.073870713462336396 0 0.1362271698310327 0.089540659758457902 0 0.121835820738507 0.08129736859239832 0 0.13374759662131441 0.077394938789198661 0 0.1362271698310327 0.089540659758457902 0 0.1134959130281112 0.1009397771455615 0 0.14111548920064931 0.1025062685912938 0 0.1134959130281112 0.1009397771455615 0 0.1362271698310327 0.089540659758457902 0 0.14111548920064931 0.1025062685912938 0 0.1249617282073653 0.11138841526182761 0 0.13731614032355091 0.11337300869905741 0 0.14111548920064931 0.1025062685912938 0 0.1249617282073653 0.11138841526182761 0 0.1134959130281112 0.1009397771455615 0 0.14111548920064931 0.1025062685912938 0 0.12739313669037591 0.1295894702154041 0 0.1262289268777724 0.1207081556182063 0 0.13431919878086571 0.1220128830501261 0 0.1262289268777724 0.1207081556182063 0 0.13731614032355091 0.11337300869905741 0 0.13431919878086571 0.1220128830501261 0 0.1249617282073653 0.11138841526182761 0 0.1262289268777724 0.1207081556182063 0 0.13731614032355091 0.11337300869905741 0 0.13731614032355091 0.11337300869905741 0 0.13431919878086571 0.1220128830501261 0 0.1450504972981238 0.1217514865254016 0 0.13559372318309179 0.12948380804096599 0 0.13431919878086571 0.1220128830501261 0 0.1450504972981238 0.1217514865254016 0 0.13731614032355091 0.11337300869905741 0 0.1504761008335313 0.11304873025321591 0 0.1471450916442277 0.1062544793088944 0 0.13731614032355091 0.11337300869905741 0 0.1450504972981238 0.1217514865254016 0 0.1504761008335313 0.11304873025321591 0 0.1504761008335313 0.11304873025321591 0 0.1565293385588773 0.1055987469710907 0 0.15695233915606949 0.1132513204203162 0 0.1504761008335313 0.11304873025321591 0 0.15621861840234591 0.11880022504019409 0 0.15695233915606949 0.1132513204203162 0 0.1450504972981238 0.1217514865254016 0 0.1504761008335313 0.11304873025321591 0 0.15621861840234591 0.11880022504019409 0 0.1539383236386164 0.12740193319586379 0 0.1450504972981238 0.1217514865254016 0 0.15621861840234591 0.11880022504019409 0 0.1362271698310327 0.089540659758457902 0 0.14111548920064931 0.1025062685912938 0 0.15028838930452981 0.096745642029814283 0 0.1471450916442277 0.1062544793088944 0 0.14111548920064931 0.1025062685912938 0 0.15028838930452981 0.096745642029814283 0 0.13731614032355091 0.11337300869905741 0 0.1471450916442277 0.1062544793088944 0 0.14111548920064931 0.1025062685912938 0 0.1471450916442277 0.1062544793088944 0 0.15028838930452981 0.096745642029814283 0 0.1565293385588773 0.1055987469710907 0 0.1504761008335313 0.11304873025321591 0 0.1471450916442277 0.1062544793088944 0 0.1565293385588773 0.1055987469710907 0 0.15028838930452981 0.096745642029814283 0 0.16006954259622211 0.099968226039514982 0 0.1565293385588773 0.1055987469710907 0 0.15028838930452981 0.096745642029814283 0 0.16006954259622211 0.099968226039514982 0 0.1615765523557893 0.093027610798463584 0 0.16006954259622211 0.099968226039514982 0 0.16613153210949369 0.099712358395003808 0 0.1615765523557893 0.093027610798463584 0 0.1565293385588773 0.1055987469710907 0 0.1681438985101634 0.1102879438913036 0 0.1565293385588773 0.1055987469710907 0 0.16491308809742061 0.1053118561675562 0 0.1681438985101634 0.1102879438913036 0 0.16006954259622211 0.099968226039514982 0 0.1565293385588773 0.1055987469710907 0 0.16491308809742061 0.1053118561675562 0 0.16006954259622211 0.099968226039514982 0 0.16491308809742061 0.1053118561675562 0 0.16613153210949369 0.099712358395003808 0 0.16491308809742061 0.1053118561675562 0 0.16980338178836391 0.1076443863406793 0 0.16613153210949369 0.099712358395003808 0 0.16491308809742061 0.1053118561675562 0 0.16980338178836391 0.1076443863406793 0 0.16491308809742061 0.1053118561675562 0 0.16980338178836391 0.1076443863406793 0 0.1681438985101634 0.1102879438913036 0 0.16980338178836391 0.1076443863406793 0 0.1681438985101634 0.1102879438913036 0 0.16613153210949369 0.099712358395003808 0 0.17384068943217271 0.092887254710981693 0 0.1615765523557893 0.093027610798463584 0 0.16980338178836391 0.1076443863406793 0 0.16613153210949369 0.099712358395003808 0 0.17384068943217271 0.092887254710981693 0 0.15621861840234591 0.11880022504019409 0 0.1620681681850592 0.122159867119615 0 0.1645852988295235 0.1155575794167643 0 0.1539383236386164 0.12740193319586379 0 0.15621861840234591 0.11880022504019409 0 0.1620681681850592 0.122159867119615 0 0.15621861840234591 0.11880022504019409 0 0.15695233915606949 0.1132513204203162 0 0.1645852988295235 0.1155575794167643 0 0.1565293385588773 0.1055987469710907 0 0.1645852988295235 0.1155575794167643 0 0.1681438985101634 0.1102879438913036 0 0.1565293385588773 0.1055987469710907 0 0.15695233915606949 0.1132513204203162 0 0.1645852988295235 0.1155575794167643 0 0.16568162940814241 0.12950464042691251 0 0.1620681681850592 0.122159867119615 0 0.169948094823579 0.12068383091331519 0 0.1620681681850592 0.122159867119615 0 0.1645852988295235 0.1155575794167643 0 0.169948094823579 0.12068383091331519 0 0.16980338178836391 0.1076443863406793 0 0.1681438985101634 0.1102879438913036 0 0.1844568101131642 0.11687402680527791 0 0.16568162940814241 0.12950464042691251 0 0.169948094823579 0.12068383091331519 0 0.1844568101131642 0.11687402680527791 0 0.1645852988295235 0.1155575794167643 0 0.169948094823579 0.12068383091331519 0 0.1844568101131642 0.11687402680527791 0 0.16980338178836391 0.1076443863406793 0 0.18640546899964899 0.1155631069338639 0 0.1844568101131642 0.11687402680527791 0 0.16980338178836391 0.1076443863406793 0 0.18640546899964899 0.1155631069338639 0 0.16980338178836391 0.1076443863406793 0 0.18640546899964899 0.1155631069338639 0 0.18457696955713429 0.1082716910329506 0 0.1681438985101634 0.1102879438913036 0 0.1844568101131642 0.11687402680527791 0 0.16568162940814241 0.12950464042691251 0 0.1844568101131642 0.11687402680527791 0 0.1645852988295235 0.1155575794167643 0 0.1681438985101634 0.1102879438913036 0 0.1844568101131642 0.11687402680527791 0 0.18640546899964899 0.1155631069338639 0 0.1844568101131642 0.11687402680527791 0 0.1899211683291844 0.096492144816818254 0 0.18217430609913179 0.1030709901634366 0 0.18634695806628979 0.084074421352845444 0 0.16980338178836391 0.1076443863406793 0 0.18634695806628979 0.084074421352845444 0 0.16980338178836391 0.1076443863406793 0 0.18217430609913179 0.1030709901634366 0 0.18634695806628979 0.084074421352845444 0 0.16980338178836391 0.1076443863406793 0 0.17384068943217271 0.092887254710981693 0 0.18634695806628979 0.084074421352845444 0 0.16980338178836391 0.1076443863406793 0 0.18217430609913179 0.1030709901634366 0 0.18457696955713429 0.1082716910329506 0 0.1913665906850025 0.10378253945516321 0 0.18217430609913179 0.1030709901634366 0 0.18457696955713429 0.1082716910329506 0 0.17384068943217271 0.092887254710981693 0 0.18634695806628979 0.084074421352845444 0 0.1589584266339544 0.078141542371354678 0 0.18634695806628979 0.084074421352845444 0 0.181689683436876 0.066742424984251481 0 0.1589584266339544 0.078141542371354678 0 0.181689683436876 0.066742424984251481 0 0.1589584266339544 0.078141542371354678 0 0.181689683436876 0.066742424984251481 0 0.16492483064348479 0.063117555788485047 0 0.1589584266339544 0.078141542371354678 0 0.1508986972956767 0.061324627497868239 0 0.16492483064348479 0.063117555788485047 0 0.1589584266339544 0.078141542371354678 0 0.15028838930452981 0.096745642029814283 0 0.1589584266339544 0.078141542371354678 0 0.1615765523557893 0.093027610798463584 0 0.17384068943217271 0.092887254710981693 0 0.1589584266339544 0.078141542371354678 0 0.1615765523557893 0.093027610798463584 0 0.095830984036428646 0.47718422123064708 0 0.10742498713812031 0.48682407640207748 0 0.1183039608549063 0.47413811303567072 0 0.095830984036428646 0.47718422123064708 0 0.097158831741291043 0.4999999999999985 0 0.10742498713812031 0.48682407640207748 0 0.097158831741291043 0.4999999999999985 0 0.10742498713812031 0.48682407640207748 0 0.123253179751682 0.5 0 0.10742498713812031 0.48682407640207748 0 0.123253179751682 0.5 0 0.1183039608549063 0.47413811303567072 0 0.1183039608549063 0.47413811303567072 0 0.1227989211907968 0.44853505645094688 0 0.1037994730927486 0.45216194867968318 0 0.1227989211907968 0.44853505645094688 0 0.1037994730927486 0.45216194867968318 0 0.1073235098453387 0.43511897886154582 0 0.1037994730927486 0.45216194867968318 0 0.090346806207219937 0.42976802175858231 0 0.1073235098453387 0.43511897886154582 0 0.095830984036428646 0.47718422123064708 0 0.1183039608549063 0.47413811303567072 0 0.1037994730927486 0.45216194867968318 0 0.095830984036428646 0.47718422123064708 0 0.1037994730927486 0.45216194867968318 0 0.08833102033395003 0.46104748318249339 0 0.08833102033395003 0.46104748318249339 0 0.079357591749391415 0.44504915370834841 0 0.071934059373113077 0.4660839807873064 0 0.1037994730927486 0.45216194867968318 0 0.079357591749391415 0.44504915370834841 0 0.1037994730927486 0.45216194867968318 0 0.08833102033395003 0.46104748318249339 0 0.079357591749391415 0.44504915370834841 0 0.1037994730927486 0.45216194867968318 0 0.079357591749391415 0.44504915370834841 0 0.090346806207219937 0.42976802175858231 0 0.079357591749391415 0.44504915370834841 0 0.062724309503795234 0.45352551762211268 0 0.054915710406034268 0.43793635873701359 0 0.079357591749391415 0.44504915370834841 0 0.054915710406034268 0.43793635873701359 0 0.079357591749391415 0.44504915370834841 0 0.062724309503795234 0.45352551762211268 0 0.071934059373113077 0.4660839807873064 0 0.071934059373113077 0.4660839807873064 0 0.06728584734836901 0.47948935614687699 0 0.052325219097049798 0.46847437635505551 0 0.071934059373113077 0.4660839807873064 0 0.06728584734836901 0.47948935614687699 0 0.081714543262264641 0.48080418043962042 0 0.095830984036428646 0.47718422123064708 0 0.08833102033395003 0.46104748318249339 0 0.081714543262264641 0.48080418043962042 0 0.08833102033395003 0.46104748318249339 0 0.071934059373113077 0.4660839807873064 0 0.081714543262264641 0.48080418043962042 0 0.097158831741291043 0.4999999999999985 0 0.081714543262264641 0.48080418043962042 0 0.076247637871231427 0.49359859946360107 0 0.097158831741291043 0.4999999999999985 0 0.076247637871231427 0.49359859946360107 0 0.097158831741291043 0.4999999999999985 0 0.069382236116342144 0.5 0 0.076247637871231427 0.49359859946360107 0 0.095830984036428646 0.47718422123064708 0 0.097158831741291043 0.4999999999999985 0 0.081714543262264641 0.48080418043962042 0 0.076247637871231427 0.49359859946360107 0 0.055336444001171409 0.48719719892720498 0 0.06728584734836901 0.47948935614687699 0 0.076247637871231427 0.49359859946360107 0 0.055336444001171409 0.48719719892720498 0 0.069382236116342144 0.5 0 0.076247637871231427 0.49359859946360107 0 0.055336444001171409 0.48719719892720498 0 0.06728584734836901 0.47948935614687699 0 0.081714543262264641 0.48080418043962042 0 0.076247637871231427 0.49359859946360107 0 0.069382236116342144 0.5 0 0.055336444001171409 0.48719719892720498 0 0.041605640491393203 0.5 0 0.06728584734836901 0.47948935614687699 0 0.055336444001171409 0.48719719892720498 0 0.052325219097049798 0.46847437635505551 0 0.055336444001171409 0.48719719892720498 0 0.034425250131111328 0.48079579839080899 0 0.052325219097049798 0.46847437635505551 0 0.034425250131111328 0.48079579839080899 0 0.027982289730903179 0.45850784828177038 0 0.052325219097049798 0.46847437635505551 0 0.055336444001171409 0.48719719892720498 0 0.034425250131111328 0.48079579839080899 0 0.055336444001171409 0.48719719892720498 0 0.034425250131111328 0.48079579839080899 0 0.041605640491393203 0.5 0 0.034425250131111328 0.48079579839080899 0 0.0098370932449210607 0.47853771561760389 0 0.01382904486644426 0.5 0 0.034425250131111328 0.48079579839080899 0 0.041605640491393203 0.5 0 0.01382904486644426 0.5 0 0.034425250131111328 0.48079579839080899 0 0.0098370932449210607 0.47853771561760389 0 0.027982289730903179 0.45850784828177038 0 -0.01072829015554656 0.47276361289802232 0 0.0098370932449210607 0.47853771561760389 0 0.0074618156551188993 0.4591590341350224 0 -0.013947550758504731 0.5 0 0.0098370932449210607 0.47853771561760389 0 0.01382904486644426 0.5 0 -0.0069543589259730403 0.44297919860842278 0 0.01299910464840922 0.44303608271704759 0 0.0074618156551188993 0.4591590341350224 0 0.0098370932449210607 0.47853771561760389 0 0.0074618156551188993 0.4591590341350224 0 0.027982289730903179 0.45850784828177038 0 0.01299910464840922 0.44303608271704759 0 0.0074618156551188993 0.4591590341350224 0 0.027982289730903179 0.45850784828177038 0 0.01299910464840922 0.44303608271704759 0 0.027982289730903179 0.45850784828177038 0 0.030473829062677111 0.43082356376567887 0 0.043528520020128428 0.4503206542886059 0 0.054915710406034268 0.43793635873701359 0 0.030473829062677111 0.43082356376567887 0 0.027982289730903179 0.45850784828177038 0 0.043528520020128428 0.4503206542886059 0 0.030473829062677111 0.43082356376567887 0 0.027982289730903179 0.45850784828177038 0 0.043528520020128428 0.4503206542886059 0 0.052325219097049798 0.46847437635505551 0 0.062724309503795234 0.45352551762211268 0 0.071934059373113077 0.4660839807873064 0 0.052325219097049798 0.46847437635505551 0 0.062724309503795234 0.45352551762211268 0 0.043528520020128428 0.4503206542886059 0 0.052325219097049798 0.46847437635505551 0 0.062724309503795234 0.45352551762211268 0 0.043528520020128428 0.4503206542886059 0 0.054915710406034268 0.43793635873701359 0 0.054915710406034268 0.43793635873701359 0 0.046404195017176512 0.42163316720200988 0 0.067579421369946338 0.4207700196992511 0 0.046404195017176512 0.42163316720200988 0 0.048283654852292419 0.40298295196145678 0 0.067579421369946338 0.4207700196992511 0 0.048283654852292419 0.40298295196145678 0 0.069006349440075346 0.39831547935389738 0 0.067579421369946338 0.4207700196992511 0 0.046404195017176512 0.42163316720200988 0 0.028643764212885819 0.40930836555909628 0 0.048283654852292419 0.40298295196145678 0 0.046404195017176512 0.42163316720200988 0 0.030473829062677111 0.43082356376567887 0 0.028643764212885819 0.40930836555909628 0 0.054915710406034268 0.43793635873701359 0 0.046404195017176512 0.42163316720200988 0 0.030473829062677111 0.43082356376567887 0 0.054915710406034268 0.43793635873701359 0 0.030473829062677111 0.43082356376567887 0 0.01299910464840922 0.44303608271704759 0 0.030473829062677111 0.43082356376567887 0 0.0060319477193199467 0.42371076879434411 0 0.030473829062677111 0.43082356376567887 0 0.0060319477193199467 0.42371076879434411 0 0.030473829062677111 0.43082356376567887 0 0.028643764212885819 0.40930836555909628 0 0.0060319477193199467 0.42371076879434411 0 0.028643764212885819 0.40930836555909628 0 0.0060319477193199467 0.42371076879434411 0 0.01171694418722268 0.39631764660348101 0 -0.010079249672031819 0.39893449676820197 0 0.0060319477193199467 0.42371076879434411 0 0.01171694418722268 0.39631764660348101 0 -0.0069543589259730403 0.44297919860842278 0 0.01299910464840922 0.44303608271704759 0 0.0060319477193199467 0.42371076879434411 0 -0.010079249672031819 0.39893449676820197 0 0.01171694418722268 0.39631764660348101 0 0.0055573678519514856 0.37321293642611858 0 0.01171694418722268 0.39631764660348101 0 0.029473138053264569 0.38434252458556989 0 0.0055573678519514856 0.37321293642611858 0 0.028643764212885819 0.40930836555909628 0 0.01171694418722268 0.39631764660348101 0 0.029473138053264569 0.38434252458556989 0 0.029473138053264569 0.38434252458556989 0 0.0055573678519514856 0.37321293642611858 0 0.029473138053264569 0.38434252458556989 0 0.053680701174092259 0.38473700799461219 0 0.042582521654286387 0.3719278293459356 0 0.029473138053264569 0.38434252458556989 0 0.048283654852292419 0.40298295196145678 0 0.053680701174092259 0.38473700799461219 0 0.028643764212885819 0.40930836555909628 0 0.029473138053264569 0.38434252458556989 0 0.048283654852292419 0.40298295196145678 0 0.048283654852292419 0.40298295196145678 0 0.053680701174092259 0.38473700799461219 0 0.069006349440075346 0.39831547935389738 0 0.053680701174092259 0.38473700799461219 0 0.072520931498505969 0.38002822536395242 0 0.058874721788970748 0.36615288810215307 0 0.053680701174092259 0.38473700799461219 0 0.072520931498505969 0.38002822536395242 0 0.069006349440075346 0.39831547935389738 0 0.072520931498505969 0.38002822536395242 0 0.083242485077032441 0.39179019351927608 0 0.069006349440075346 0.39831547935389738 0 0.072520931498505969 0.38002822536395242 0 0.092205608853154708 0.3792666150086545 0 0.088610183261412248 0.36778263877546652 0 0.072520931498505969 0.38002822536395242 0 0.092205608853154708 0.3792666150086545 0 0.083242485077032441 0.39179019351927608 0 0.072520931498505969 0.38002822536395242 0 0.092205608853154708 0.3792666150086545 0 0.092205608853154708 0.3792666150086545 0 0.083242485077032441 0.39179019351927608 0 0.096492477076024541 0.3977744445347618 0 0.083242485077032441 0.39179019351927608 0 0.069006349440075346 0.39831547935389738 0 0.084460277462985164 0.40999865957830689 0 0.083242485077032441 0.39179019351927608 0 0.084460277462985164 0.40999865957830689 0 0.096492477076024541 0.3977744445347618 0 0.069006349440075346 0.39831547935389738 0 0.067579421369946338 0.4207700196992511 0 0.084460277462985164 0.40999865957830689 0 0.079357591749391415 0.44504915370834841 0 0.054915710406034268 0.43793635873701359 0 0.067579421369946338 0.4207700196992511 0 0.079357591749391415 0.44504915370834841 0 0.067579421369946338 0.4207700196992511 0 0.090346806207219937 0.42976802175858231 0 0.090346806207219937 0.42976802175858231 0 0.084460277462985164 0.40999865957830689 0 0.1039006446292586 0.41630646930533499 0 0.067579421369946338 0.4207700196992511 0 0.090346806207219937 0.42976802175858231 0 0.084460277462985164 0.40999865957830689 0 0.084460277462985164 0.40999865957830689 0 0.1039006446292586 0.41630646930533499 0 0.096492477076024541 0.3977744445347618 0 0.090346806207219937 0.42976802175858231 0 0.1039006446292586 0.41630646930533499 0 0.1073235098453387 0.43511897886154582 0 0.1227989211907968 0.44853505645094688 0 0.1073235098453387 0.43511897886154582 0 0.1201868399237437 0.4277138478848197 0 0.1039006446292586 0.41630646930533499 0 0.1073235098453387 0.43511897886154582 0 0.1201868399237437 0.4277138478848197 0 0.1039006446292586 0.41630646930533499 0 0.11708713818214971 0.41435251180041921 0 0.1152830197920266 0.40057310445797761 0 0.1039006446292586 0.41630646930533499 0 0.1201868399237437 0.4277138478848197 0 0.11708713818214971 0.41435251180041921 0 0.1201868399237437 0.4277138478848197 0 0.11708713818214971 0.41435251180041921 0 0.12897804838356969 0.41281662555354481 0 0.11708713818214971 0.41435251180041921 0 0.1152830197920266 0.40057310445797761 0 0.12897804838356969 0.41281662555354481 0 0.1152830197920266 0.40057310445797761 0 0.12798662465619129 0.39482108051241571 0 0.12897804838356969 0.41281662555354481 0 0.1152830197920266 0.40057310445797761 0 0.1118902862078035 0.37850500465335662 0 0.12798662465619129 0.39482108051241571 0 0.1152830197920266 0.40057310445797761 0 0.1118902862078035 0.37850500465335662 0 0.092205608853154708 0.3792666150086545 0 0.1118902862078035 0.37850500465335662 0 0.1004745867969575 0.36904665844545709 0 0.092205608853154708 0.3792666150086545 0 0.1118902862078035 0.37850500465335662 0 0.092205608853154708 0.3792666150086545 0 0.1118902862078035 0.37850500465335662 0 0.096492477076024541 0.3977744445347618 0 0.1039006446292586 0.41630646930533499 0 0.1152830197920266 0.40057310445797761 0 0.096492477076024541 0.3977744445347618 0 0.1152830197920266 0.40057310445797761 0 0.1118902862078035 0.37850500465335662 0 0.096492477076024541 0.3977744445347618 0 0.1088097424847025 0.35846754970846512 0 0.1057291987616001 0.33843009476357372 0 0.095433116290109338 0.35787020314157281 0 0.1057291987616001 0.33843009476357372 0 0.094216953866977621 0.3423737163397807 0 0.095433116290109338 0.35787020314157281 0 0.1057291987616001 0.33843009476357372 0 0.1088097424847025 0.35846754970846512 0 0.095433116290109338 0.35787020314157281 0 0.1057291987616001 0.33843009476357372 0 0.1118902862078035 0.37850500465335662 0 0.1088097424847025 0.35846754970846512 0 0.1004745867969575 0.36904665844545709 0 0.095433116290109338 0.35787020314157281 0 0.1004745867969575 0.36904665844545709 0 0.088610183261412248 0.36778263877546652 0 0.092205608853154708 0.3792666150086545 0 0.1004745867969575 0.36904665844545709 0 0.088610183261412248 0.36778263877546652 0 0.1088097424847025 0.35846754970846512 0 0.095433116290109338 0.35787020314157281 0 0.1004745867969575 0.36904665844545709 0 0.1118902862078035 0.37850500465335662 0 0.1088097424847025 0.35846754970846512 0 0.12504342468660801 0.365096132935816 0 0.1118902862078035 0.37850500465335662 0 0.1088097424847025 0.35846754970846512 0 0.1088097424847025 0.35846754970846512 0 0.1199024945286857 0.35492938894419218 0 0.12504342468660801 0.365096132935816 0 0.1088097424847025 0.35846754970846512 0 0.11661040284116531 0.34575795275965648 0 0.1057291987616001 0.33843009476357372 0 0.1199024945286857 0.35492938894419218 0 0.12869865027132979 0.34900306273210979 0 0.12504342468660801 0.365096132935816 0 0.1088097424847025 0.35846754970846512 0 0.1199024945286857 0.35492938894419218 0 0.11661040284116531 0.34575795275965648 0 0.1199024945286857 0.35492938894419218 0 0.11661040284116531 0.34575795275965648 0 0.12869865027132979 0.34900306273210979 0 0.11661040284116531 0.34575795275965648 0 0.12240894308319281 0.33745063657379182 0 0.12869865027132979 0.34900306273210979 0 0.11661040284116531 0.34575795275965648 0 0.12240894308319281 0.33745063657379182 0 0.1145569167417687 0.33597653503566027 0 0.12240894308319281 0.33745063657379182 0 0.1177205734820547 0.33007568806388071 0 0.1145569167417687 0.33597653503566027 0 0.12240894308319281 0.33745063657379182 0 0.1245715791867013 0.32898786126024959 0 0.1177205734820547 0.33007568806388071 0 0.1145569167417687 0.33597653503566027 0 0.1122065671835137 0.32620012822290811 0 0.1057291987616001 0.33843009476357372 0 0.1177205734820547 0.33007568806388071 0 0.1145569167417687 0.33597653503566027 0 0.1122065671835137 0.32620012822290811 0 0.1177205734820547 0.33007568806388071 0 0.1122065671835137 0.32620012822290811 0 0.11661040284116531 0.34575795275965648 0 0.1145569167417687 0.33597653503566027 0 0.1057291987616001 0.33843009476357372 0 0.1122065671835137 0.32620012822290811 0 0.10247520046843631 0.31726440128514433 0 0.1218465126223218 0.30799887695988082 0 0.1122065671835137 0.32620012822290811 0 0.1218465126223218 0.30799887695988082 0 0.1212539019304235 0.32289102312992268 0 0.1122065671835137 0.32620012822290811 0 0.1218465126223218 0.30799887695988082 0 0.1212539019304235 0.32289102312992268 0 0.1218465126223218 0.30799887695988082 0 0.12992427717752619 0.32119256114269462 0 0.1245715791867013 0.32898786126024959 0 0.1177205734820547 0.33007568806388071 0 0.1212539019304235 0.32289102312992268 0 0.1177205734820547 0.33007568806388071 0 0.1212539019304235 0.32289102312992268 0 0.1122065671835137 0.32620012822290811 0 0.1122065671835137 0.32620012822290811 0 0.1028364701345832 0.31961428666547609 0 0.1057291987616001 0.33843009476357372 0 0.10247520046843631 0.31726440128514433 0 0.1028364701345832 0.31961428666547609 0 0.1122065671835137 0.32620012822290811 0 0.1028364701345832 0.31961428666547609 0 0.1122065671835137 0.32620012822290811 0 0.10247520046843631 0.31726440128514433 0 0.1028364701345832 0.31961428666547609 0 0.097883049503757258 0.31613273857994811 0 0.093351140493877188 0.32976326368333791 0 0.1028364701345832 0.31961428666547609 0 0.097883049503757258 0.31613273857994811 0 0.093351140493877188 0.32976326368333791 0 0.10247520046843631 0.31726440128514433 0 0.1028364701345832 0.31961428666547609 0 0.097883049503757258 0.31613273857994811 0 0.1028364701345832 0.31961428666547609 0 0.097883049503757258 0.31613273857994811 0 0.1028364701345832 0.31961428666547609 0 0.1057291987616001 0.33843009476357372 0 0.1028364701345832 0.31961428666547609 0 0.1057291987616001 0.33843009476357372 0 0.093351140493877188 0.32976326368333791 0 0.1122065671835137 0.32620012822290811 0 0.1057291987616001 0.33843009476357372 0 0.1057291987616001 0.33843009476357372 0 0.094216953866977621 0.3423737163397807 0 0.093351140493877188 0.32976326368333791 0 0.094216953866977621 0.3423737163397807 0 0.093351140493877188 0.32976326368333791 0 0.082354359922324899 0.34343130377063907 0 0.093351140493877188 0.32976326368333791 0 0.082241045689506298 0.33008176800569278 0 0.082354359922324899 0.34343130377063907 0 0.082241045689506298 0.33008176800569278 0 0.082354359922324899 0.34343130377063907 0 0.069898709488232305 0.32842629652107669 0 0.097883049503757258 0.31613273857994811 0 0.082432386389010792 0.31963080921285009 0 0.080145740245014002 0.30366594044293771 0 0.097883049503757258 0.31613273857994811 0 0.093351140493877188 0.32976326368333791 0 0.082432386389010792 0.31963080921285009 0 0.093351140493877188 0.32976326368333791 0 0.082241045689506298 0.33008176800569278 0 0.082432386389010792 0.31963080921285009 0 0.082241045689506298 0.33008176800569278 0 0.082432386389010792 0.31963080921285009 0 0.069898709488232305 0.32842629652107669 0 0.082432386389010792 0.31963080921285009 0 0.069898709488232305 0.32842629652107669 0 0.067064680581924732 0.31104966627383812 0 0.069898709488232305 0.32842629652107669 0 0.052862917676290609 0.31594287170865909 0 0.067064680581924732 0.31104966627383812 0 0.069898709488232305 0.32842629652107669 0 0.064318049374343794 0.34669920209906341 0 0.056076575486551837 0.33306034682842672 0 0.082354359922324899 0.34343130377063907 0 0.069898709488232305 0.32842629652107669 0 0.064318049374343794 0.34669920209906341 0 0.064318049374343794 0.34669920209906341 0 0.07678324696764896 0.36029636682101729 0 0.058874721788970748 0.36615288810215307 0 0.082354359922324899 0.34343130377063907 0 0.064318049374343794 0.34669920209906341 0 0.07678324696764896 0.36029636682101729 0 0.095433116290109338 0.35787020314157281 0 0.082354359922324899 0.34343130377063907 0 0.07678324696764896 0.36029636682101729 0 0.095433116290109338 0.35787020314157281 0 0.094216953866977621 0.3423737163397807 0 0.082354359922324899 0.34343130377063907 0 0.095433116290109338 0.35787020314157281 0 0.088610183261412248 0.36778263877546652 0 0.07678324696764896 0.36029636682101729 0 0.072520931498505969 0.38002822536395242 0 0.088610183261412248 0.36778263877546652 0 0.07678324696764896 0.36029636682101729 0 0.072520931498505969 0.38002822536395242 0 0.07678324696764896 0.36029636682101729 0 0.058874721788970748 0.36615288810215307 0 0.058874721788970748 0.36615288810215307 0 0.048699355617093459 0.35229677491626488 0 0.042582521654286387 0.3719278293459356 0 0.053680701174092259 0.38473700799461219 0 0.058874721788970748 0.36615288810215307 0 0.042582521654286387 0.3719278293459356 0 0.064318049374343794 0.34669920209906341 0 0.058874721788970748 0.36615288810215307 0 0.048699355617093459 0.35229677491626488 0 0.064318049374343794 0.34669920209906341 0 0.048699355617093459 0.35229677491626488 0 0.056076575486551837 0.33306034682842672 0 0.048699355617093459 0.35229677491626488 0 0.031139955521187378 0.35906741702448508 0 0.039834607166295513 0.33595499494700531 0 0.048699355617093459 0.35229677491626488 0 0.042582521654286387 0.3719278293459356 0 0.031139955521187378 0.35906741702448508 0 0.029473138053264569 0.38434252458556989 0 0.042582521654286387 0.3719278293459356 0 0.031139955521187378 0.35906741702448508 0 0.029473138053264569 0.38434252458556989 0 0.031139955521187378 0.35906741702448508 0 0.0055573678519514856 0.37321293642611858 0 0.031139955521187378 0.35906741702448508 0 0.01502077366774526 0.33588050434482142 0 0.031139955521187378 0.35906741702448508 0 0.0081512274939709948 0.35400479806035851 0 0.01502077366774526 0.33588050434482142 0 -0.0071078859541612973 0.3420532230972958 0 0.0081512274939709948 0.35400479806035851 0 0.01502077366774526 0.33588050434482142 0 0.031139955521187378 0.35906741702448508 0 0.0081512274939709948 0.35400479806035851 0 0.0055573678519514856 0.37321293642611858 0 -0.0010984081856968699 0.31269359166515759 0 0.01502077366774526 0.33588050434482142 0 -0.0010984081856968699 0.31269359166515759 0 -0.0094166299445115342 0.32628581684788749 0 0.01502077366774526 0.33588050434482142 0 -0.0010984081856968699 0.31269359166515759 0 0.01502077366774526 0.33588050434482142 0 0.017338828621849801 0.31179278582944492 0 0.031139955521187378 0.35906741702448508 0 0.01502077366774526 0.33588050434482142 0 0.039834607166295513 0.33595499494700531 0 0.01502077366774526 0.33588050434482142 0 0.033722452524079113 0.31881516597009241 0 0.039834607166295513 0.33595499494700531 0 0.01502077366774526 0.33588050434482142 0 0.033722452524079113 0.31881516597009241 0 0.017338828621849801 0.31179278582944492 0 0.033722452524079113 0.31881516597009241 0 0.039834607166295513 0.33595499494700531 0 0.052862917676290609 0.31594287170865909 0 0.033722452524079113 0.31881516597009241 0 0.052862917676290609 0.31594287170865909 0 0.043703225085686928 0.30647980914238132 0 0.039834607166295513 0.33595499494700531 0 0.056076575486551837 0.33306034682842672 0 0.052862917676290609 0.31594287170865909 0 0.048699355617093459 0.35229677491626488 0 0.039834607166295513 0.33595499494700531 0 0.056076575486551837 0.33306034682842672 0 0.069898709488232305 0.32842629652107669 0 0.056076575486551837 0.33306034682842672 0 0.052862917676290609 0.31594287170865909 0 0.052862917676290609 0.31594287170865909 0 0.055064904063383643 0.30306992777489161 0 0.067064680581924732 0.31104966627383812 0 0.055064904063383643 0.30306992777489161 0 0.062408430986270788 0.29119914230592697 0 0.067064680581924732 0.31104966627383812 0 0.055064904063383643 0.30306992777489161 0 0.050455318577600952 0.28953127509492471 0 0.043703225085686928 0.30647980914238132 0 0.052862917676290609 0.31594287170865909 0 0.055064904063383643 0.30306992777489161 0 0.043703225085686928 0.30647980914238132 0 0.062408430986270788 0.29119914230592697 0 0.044671121727527602 0.27873234416891651 0 0.052912550594839132 0.27932821248070089 0 0.062408430986270788 0.29119914230592697 0 0.044671121727527602 0.27873234416891651 0 0.062408430986270788 0.29119914230592697 0 0.050455318577600952 0.28953127509492471 0 0.044671121727527602 0.27873234416891651 0 0.062408430986270788 0.29119914230592697 0 0.052912550594839132 0.27932821248070089 0 0.060036909449648047 0.28061562551263453 0 0.055064904063383643 0.30306992777489161 0 0.062408430986270788 0.29119914230592697 0 0.050455318577600952 0.28953127509492471 0 0.050455318577600952 0.28953127509492471 0 0.034295032894287147 0.2861012656705284 0 0.03812807853533591 0.27648650118434831 0 0.050455318577600952 0.28953127509492471 0 0.034295032894287147 0.2861012656705284 0 0.032026785023188259 0.29953480828944468 0 0.050455318577600952 0.28953127509492471 0 0.03812807853533591 0.27648650118434831 0 0.044671121727527602 0.27873234416891651 0 0.050455318577600952 0.28953127509492471 0 0.03812807853533591 0.27648650118434831 0 0.033722452524079113 0.31881516597009241 0 0.043703225085686928 0.30647980914238132 0 0.032026785023188259 0.29953480828944468 0 0.050455318577600952 0.28953127509492471 0 0.043703225085686928 0.30647980914238132 0 0.032026785023188259 0.29953480828944468 0 0.032026785023188259 0.29953480828944468 0 0.017338828621849801 0.31179278582944492 0 0.0070225400799332413 0.292039858877708 0 0.033722452524079113 0.31881516597009241 0 0.032026785023188259 0.29953480828944468 0 0.017338828621849801 0.31179278582944492 0 0.032026785023188259 0.29953480828944468 0 0.01890192334847483 0.28783886232794392 0 0.0070225400799332413 0.292039858877708 0 0.032026785023188259 0.29953480828944468 0 0.025323838467700061 0.28489811524130609 0 0.01890192334847483 0.28783886232794392 0 0.032026785023188259 0.29953480828944468 0 0.0070225400799332413 0.292039858877708 0 0.034295032894287147 0.2861012656705284 0 0.032026785023188259 0.29953480828944468 0 0.025323838467700061 0.28489811524130609 0 0.034295032894287147 0.2861012656705284 0 0.025323838467700061 0.28489811524130609 0 0.02858942039155608 0.27676936176154582 0 0.025323838467700061 0.28489811524130609 0 0.01890192334847483 0.28783886232794392 0 0.018706557039192481 0.28131402139785222 0 0.025323838467700061 0.28489811524130609 0 0.018706557039192481 0.28131402139785222 0 0.022993814204224569 0.27794731846689502 0 0.01890192334847483 0.28783886232794392 0 0.018706557039192481 0.28131402139785222 0 0.011429896132360109 0.28140750783340829 0 0.01890192334847483 0.28783886232794392 0 0.011429896132360109 0.28140750783340829 0 0.0070225400799332413 0.292039858877708 0 0.011429896132360109 0.28140750783340829 0 0.0010085689623396241 0.28548657445276199 0 0.0070225400799332413 0.292039858877708 0 -0.0010984081856968699 0.31269359166515759 0 0.017338828621849801 0.31179278582944492 0 0.0070225400799332413 0.292039858877708 0 0.013176580255378181 0.25008264657648638 0 0.0070925746088588556 0.2677846105146241 0 0.018221788604129579 0.2666452805299469 0 -0.004688707870413332 0.2558135020850828 0 0.013176580255378181 0.25008264657648638 0 0.0070925746088588556 0.2677846105146241 0 0.013176580255378181 0.25008264657648638 0 0.0070925746088588556 0.2677846105146241 0 0.0010085689623396241 0.28548657445276199 0 0.0070925746088588556 0.2677846105146241 0 -0.0026730804511828099 0.27560396698430911 0 0.0010085689623396241 0.28548657445276199 0 0.0070925746088588556 0.2677846105146241 0 0.011429896132360109 0.28140750783340829 0 0.0010085689623396241 0.28548657445276199 0 0.0070925746088588556 0.2677846105146241 0 0.011429896132360109 0.28140750783340829 0 0.0070925746088588556 0.2677846105146241 0 0.017752621833946311 0.2746187737740709 0 0.0070925746088588556 0.2677846105146241 0 0.018221788604129579 0.2666452805299469 0 0.017752621833946311 0.2746187737740709 0 0.018221788604129579 0.2666452805299469 0 0.022886555121368581 0.27269726927061749 0 0.026407705872411751 0.26747925244857229 0 0.018221788604129579 0.2666452805299469 0 0.022886555121368581 0.27269726927061749 0 0.017752621833946311 0.2746187737740709 0 0.018706557039192481 0.28131402139785222 0 0.011429896132360109 0.28140750783340829 0 0.017752621833946311 0.2746187737740709 0 0.022886555121368581 0.27269726927061749 0 0.017752621833946311 0.2746187737740709 0 0.022993814204224569 0.27794731846689502 0 0.018706557039192481 0.28131402139785222 0 0.017752621833946311 0.2746187737740709 0 0.022993814204224569 0.27794731846689502 0 0.02858942039155608 0.27676936176154582 0 0.026407705872411751 0.26747925244857229 0 0.03812807853533591 0.27648650118434831 0 0.025323838467700061 0.28489811524130609 0 0.022993814204224569 0.27794731846689502 0 0.02858942039155608 0.27676936176154582 0 0.022886555121368581 0.27269726927061749 0 0.022993814204224569 0.27794731846689502 0 0.02858942039155608 0.27676936176154582 0 0.018221788604129579 0.2666452805299469 0 0.026407705872411751 0.26747925244857229 0 0.025800838493070719 0.26344172727377207 0 0.022886555121368581 0.27269726927061749 0 0.02858942039155608 0.27676936176154582 0 0.026407705872411751 0.26747925244857229 0 0.026407705872411751 0.26747925244857229 0 0.025800838493070719 0.26344172727377207 0 0.03812807853533591 0.27648650118434831 0 0.023181768578885861 0.24601689761072679 0 0.025800838493070719 0.26344172727377207 0 0.013176580255378181 0.25008264657648638 0 0.018221788604129579 0.2666452805299469 0 0.025800838493070719 0.26344172727377207 0 0.023181768578885861 0.24601689761072679 0 0.025800838493070719 0.26344172727377207 0 0.03145939418529041 0.25601163310414049 0 0.023181768578885861 0.24601689761072679 0 0.013176580255378181 0.25008264657648638 0 0.025800838493070719 0.26344172727377207 0 0.026407705872411751 0.26747925244857229 0 0.025800838493070719 0.26344172727377207 0 0.013176580255378181 0.25008264657648638 0 0.025800838493070719 0.26344172727377207 0 0.023181768578885861 0.24601689761072679 0 0.03414632622249833 0.24860301180512709 0 0.03145939418529041 0.25601163310414049 0 0.03414632622249833 0.24860301180512709 0 0.037477286312428422 0.25638724013938052 0 0.03145939418529041 0.25601163310414049 0 0.042337009920640052 0.24954965189858661 0 0.03414632622249833 0.24860301180512709 0 0.037477286312428422 0.25638724013938052 0 0.037477286312428422 0.25638724013938052 0 0.03145939418529041 0.25601163310414049 0 0.036690751319568497 0.26560928869169631 0 0.025800838493070719 0.26344172727377207 0 0.03145939418529041 0.25601163310414049 0 0.036690751319568497 0.26560928869169631 0 0.036690751319568497 0.26560928869169631 0 0.044322902304470557 0.25827229035276472 0 0.04553148377310684 0.26557158507250922 0 0.037477286312428422 0.25638724013938052 0 0.036690751319568497 0.26560928869169631 0 0.044322902304470557 0.25827229035276472 0 0.042337009920640052 0.24954965189858661 0 0.044322902304470557 0.25827229035276472 0 0.050186543669688437 0.25248304460155779 0 0.042337009920640052 0.24954965189858661 0 0.037477286312428422 0.25638724013938052 0 0.044322902304470557 0.25827229035276472 0 0.034295032894287147 0.2861012656705284 0 0.02858942039155608 0.27676936176154582 0 0.03812807853533591 0.27648650118434831 0 0.025800838493070719 0.26344172727377207 0 0.036690751319568497 0.26560928869169631 0 0.03812807853533591 0.27648650118434831 0 0.025800838493070719 0.26344172727377207 0 0.03812807853533591 0.27648650118434831 0 0.036690751319568497 0.26560928869169631 0 0.04553148377310684 0.26557158507250922 0 0.042785871148026212 0.271760106966977 0 0.036690751319568497 0.26560928869169631 0 0.03812807853533591 0.27648650118434831 0 0.042785871148026212 0.271760106966977 0 0.04553148377310684 0.26557158507250922 0 0.042785871148026212 0.271760106966977 0 0.048907920384592157 0.27240081571741459 0 0.03812807853533591 0.27648650118434831 0 0.042785871148026212 0.271760106966977 0 0.044671121727527602 0.27873234416891651 0 0.042785871148026212 0.271760106966977 0 0.044671121727527602 0.27873234416891651 0 0.048907920384592157 0.27240081571741459 0 0.044671121727527602 0.27873234416891651 0 0.052912550594839132 0.27932821248070089 0 0.048907920384592157 0.27240081571741459 0 0.052912550594839132 0.27932821248070089 0 0.048907920384592157 0.27240081571741459 0 0.058413745672994427 0.27190370991148732 0 0.048907920384592157 0.27240081571741459 0 0.051818658198064103 0.26738027802742392 0 0.058413745672994427 0.27190370991148732 0 0.04553148377310684 0.26557158507250922 0 0.048907920384592157 0.27240081571741459 0 0.051818658198064103 0.26738027802742392 0 0.051818658198064103 0.26738027802742392 0 0.058413745672994427 0.27190370991148732 0 0.054693231996337577 0.26057919857532291 0 0.058413745672994427 0.27190370991148732 0 0.060036909449648047 0.28061562551263453 0 0.066412910544487891 0.28003143735242297 0 0.052912550594839132 0.27932821248070089 0 0.058413745672994427 0.27190370991148732 0 0.060036909449648047 0.28061562551263453 0 0.044322902304470557 0.25827229035276472 0 0.050186543669688437 0.25248304460155779 0 0.054693231996337577 0.26057919857532291 0 0.057266071322044892 0.2487458052560243 0 0.050186543669688437 0.25248304460155779 0 0.054693231996337577 0.26057919857532291 0 0.044322902304470557 0.25827229035276472 0 0.04553148377310684 0.26557158507250922 0 0.054693231996337577 0.26057919857532291 0 0.04553148377310684 0.26557158507250922 0 0.051818658198064103 0.26738027802742392 0 0.054693231996337577 0.26057919857532291 0 0.054693231996337577 0.26057919857532291 0 0.063544856319773371 0.25406896456140438 0 0.064672753750909778 0.26150948988626249 0 0.058413745672994427 0.27190370991148732 0 0.054693231996337577 0.26057919857532291 0 0.064672753750909778 0.26150948988626249 0 0.057266071322044892 0.2487458052560243 0 0.054693231996337577 0.26057919857532291 0 0.063544856319773371 0.25406896456140438 0 0.063544856319773371 0.25406896456140438 0 0.064672753750909778 0.26150948988626249 0 0.0710986218483107 0.25191811171017792 0 0.064672753750909778 0.26150948988626249 0 0.07700697807169421 0.25805415522317737 0 0.069534746433502354 0.26909516760652608 0 0.064672753750909778 0.26150948988626249 0 0.07700697807169421 0.25805415522317737 0 0.0710986218483107 0.25191811171017792 0 0.078313800111639437 0.24935717424229911 0 0.07700697807169421 0.25805415522317737 0 0.0710986218483107 0.25191811171017792 0 0.078313800111639437 0.24935717424229911 0 0.07700697807169421 0.25805415522317737 0 0.086440945610867612 0.25059492796667582 0 0.07700697807169421 0.25805415522317737 0 0.091319254922059098 0.2614512926487681 0 0.086440945610867612 0.25059492796667582 0 0.07700697807169421 0.25805415522317737 0 0.091319254922059098 0.2614512926487681 0 0.081965874427467084 0.26989754554148321 0 0.091319254922059098 0.2614512926487681 0 0.086440945610867612 0.25059492796667582 0 0.096311035480508303 0.2518508295387068 0 0.081965874427467084 0.26989754554148321 0 0.085684340002543102 0.28351883216314427 0 0.098449523215913076 0.27451411313000779 0 0.091319254922059098 0.2614512926487681 0 0.081965874427467084 0.26989754554148321 0 0.098449523215913076 0.27451411313000779 0 0.081965874427467084 0.26989754554148321 0 0.075476680698051718 0.27785387478935458 0 0.085684340002543102 0.28351883216314427 0 0.075476680698051718 0.27785387478935458 0 0.069534746433502354 0.26909516760652608 0 0.066412910544487891 0.28003143735242297 0 0.07700697807169421 0.25805415522317737 0 0.081965874427467084 0.26989754554148321 0 0.069534746433502354 0.26909516760652608 0 0.081965874427467084 0.26989754554148321 0 0.075476680698051718 0.27785387478935458 0 0.069534746433502354 0.26909516760652608 0 0.058413745672994427 0.27190370991148732 0 0.064672753750909778 0.26150948988626249 0 0.069534746433502354 0.26909516760652608 0 0.058413745672994427 0.27190370991148732 0 0.069534746433502354 0.26909516760652608 0 0.066412910544487891 0.28003143735242297 0 0.062408430986270788 0.29119914230592697 0 0.066412910544487891 0.28003143735242297 0 0.07378553208225816 0.28672639128319671 0 0.062408430986270788 0.29119914230592697 0 0.060036909449648047 0.28061562551263453 0 0.066412910544487891 0.28003143735242297 0 0.062408430986270788 0.29119914230592697 0 0.07378553208225816 0.28672639128319671 0 0.080145740245014002 0.30366594044293771 0 0.075476680698051718 0.27785387478935458 0 0.066412910544487891 0.28003143735242297 0 0.07378553208225816 0.28672639128319671 0 0.062408430986270788 0.29119914230592697 0 0.067064680581924732 0.31104966627383812 0 0.080145740245014002 0.30366594044293771 0 0.082432386389010792 0.31963080921285009 0 0.067064680581924732 0.31104966627383812 0 0.080145740245014002 0.30366594044293771 0 0.062408430986270788 0.29119914230592697 0 0.080145740245014002 0.30366594044293771 0 0.097883049503757258 0.31613273857994811 0 0.092386954014520295 0.29888357076160099 0 0.080145740245014002 0.30366594044293771 0 0.097883049503757258 0.31613273857994811 0 0.080145740245014002 0.30366594044293771 0 0.092386954014520295 0.29888357076160099 0 0.080145740245014002 0.30366594044293771 0 0.085684340002543102 0.28351883216314427 0 0.07378553208225816 0.28672639128319671 0 0.080145740245014002 0.30366594044293771 0 0.085684340002543102 0.28351883216314427 0 0.075476680698051718 0.27785387478935458 0 0.07378553208225816 0.28672639128319671 0 0.085684340002543102 0.28351883216314427 0 0.092386954014520295 0.29888357076160099 0 0.085684340002543102 0.28351883216314427 0 0.1058346863067668 0.29221677186037398 0 0.085684340002543102 0.28351883216314427 0 0.1058346863067668 0.29221677186037398 0 0.098449523215913076 0.27451411313000779 0 0.10247520046843631 0.31726440128514433 0 0.097883049503757258 0.31613273857994811 0 0.1058346863067668 0.29221677186037398 0 0.097883049503757258 0.31613273857994811 0 0.092386954014520295 0.29888357076160099 0 0.1058346863067668 0.29221677186037398 0 0.097883049503757258 0.31613273857994811 0 0.1058346863067668 0.29221677186037398 0 0.10247520046843631 0.31726440128514433 0 0.1058346863067668 0.29221677186037398 0 0.1218465126223218 0.30799887695988082 0 0.1058346863067668 0.29221677186037398 0 0.1218465126223218 0.30799887695988082 0 0.11921932367919801 0.28677207465031529 0 0.1218465126223218 0.30799887695988082 0 0.11921932367919801 0.28677207465031529 0 0.1314864580611301 0.28979762569685352 0 0.1058346863067668 0.29221677186037398 0 0.11921932367919801 0.28677207465031529 0 0.1137863231097757 0.26830080514079968 0 0.11921932367919801 0.28677207465031529 0 0.1137863231097757 0.26830080514079968 0 0.12786225183410679 0.27682375618124211 0 0.1058346863067668 0.29221677186037398 0 0.1137863231097757 0.26830080514079968 0 0.1137863231097757 0.26830080514079968 0 0.1241640511376262 0.2622131100690438 0 0.12786225183410679 0.27682375618124211 0 0.12173795991278449 0.24438483842122541 0 0.1137863231097757 0.26830080514079968 0 0.1241640511376262 0.2622131100690438 0 0.12173795991278449 0.24438483842122541 0 0.1137863231097757 0.26830080514079968 0 0.1066275710365521 0.25394453207898432 0 0.12173795991278449 0.24438483842122541 0 0.1137863231097757 0.26830080514079968 0 0.1137863231097757 0.26830080514079968 0 0.1019357200233145 0.26373585615807033 0 0.1066275710365521 0.25394453207898432 0 0.1019357200233145 0.26373585615807033 0 0.1066275710365521 0.25394453207898432 0 0.096311035480508303 0.2518508295387068 0 0.091319254922059098 0.2614512926487681 0 0.1019357200233145 0.26373585615807033 0 0.096311035480508303 0.2518508295387068 0 0.091319254922059098 0.2614512926487681 0 0.1019357200233145 0.26373585615807033 0 0.098449523215913076 0.27451411313000779 0 0.1058346863067668 0.29221677186037398 0 0.1137863231097757 0.26830080514079968 0 0.098449523215913076 0.27451411313000779 0 0.1137863231097757 0.26830080514079968 0 0.1019357200233145 0.26373585615807033 0 0.098449523215913076 0.27451411313000779 0 0.14112640349993641 0.27159637443382523 0 0.15032940748595641 0.27702294483909212 0 0.1493707185112543 0.26492957652474752 0 0.15032940748595641 0.27702294483909212 0 0.15662290995667591 0.28342102913358869 0 0.16138952249343011 0.2691573953702045 0 0.15032940748595641 0.27702294483909212 0 0.1493707185112543 0.26492957652474752 0 0.16138952249343011 0.2691573953702045 0 0.1527293109647406 0.2496888402585469 0 0.13867708755356789 0.24186232488457371 0 0.14112640349993641 0.27159637443382523 0 0.1527293109647406 0.2496888402585469 0 0.14112640349993641 0.27159637443382523 0 0.1493707185112543 0.26492957652474752 0 0.1527293109647406 0.2496888402585469 0 0.14112640349993641 0.27159637443382523 0 0.1493707185112543 0.26492957652474752 0 0.1624975560905107 0.25646494238034878 0 0.1527293109647406 0.2496888402585469 0 0.1493707185112543 0.26492957652474752 0 0.1624975560905107 0.25646494238034878 0 0.13867708755356789 0.24186232488457371 0 0.14112640349993641 0.27159637443382523 0 0.13867708755356789 0.24186232488457371 0 0.1332696696938378 0.25934304053290802 0 0.13867708755356789 0.24186232488457371 0 0.14112640349993641 0.27159637443382523 0 0.1332696696938378 0.25934304053290802 0 0.12173795991278449 0.24438483842122541 0 0.1241640511376262 0.2622131100690438 0 0.1332696696938378 0.25934304053290802 0 0.14112640349993641 0.27159637443382523 0 0.1314864580611301 0.28979762569685352 0 0.14112640349993641 0.27159637443382523 0 0.1332696696938378 0.25934304053290802 0 0.12786225183410679 0.27682375618124211 0 0.14112640349993641 0.27159637443382523 0 0.12786225183410679 0.27682375618124211 0 0.1314864580611301 0.28979762569685352 0 0.1241640511376262 0.2622131100690438 0 0.1332696696938378 0.25934304053290802 0 0.12786225183410679 0.27682375618124211 0 0.1332696696938378 0.25934304053290802 0 0.12786225183410679 0.27682375618124211 0 0.11921932367919801 0.28677207465031529 0 0.12786225183410679 0.27682375618124211 0 0.1314864580611301 0.28979762569685352 0 0.14112640349993641 0.27159637443382523 0 0.1314864580611301 0.28979762569685352 0 0.14313748296848511 0.29601034873309479 0 0.1314864580611301 0.28979762569685352 0 0.13341083062668491 0.30090724970476113 0 0.14313748296848511 0.29601034873309479 0 0.1218465126223218 0.30799887695988082 0 0.1314864580611301 0.28979762569685352 0 0.13341083062668491 0.30090724970476113 0 0.1218465126223218 0.30799887695988082 0 0.1314864580611301 0.28979762569685352 0 0.1218465126223218 0.30799887695988082 0 0.13341083062668491 0.30090724970476113 0 0.13717286885480251 0.30982214742921549 0 0.13341083062668491 0.30090724970476113 0 0.13717286885480251 0.30982214742921549 0 0.14313748296848511 0.29601034873309479 0 0.13717286885480251 0.30982214742921549 0 0.14313748296848511 0.29601034873309479 0 0.15121342543511981 0.31299737799442329 0 0.14313748296848511 0.29601034873309479 0 0.16052551909253271 0.2987321722498954 0 0.15121342543511981 0.31299737799442329 0 0.14112640349993641 0.27159637443382523 0 0.15032940748595641 0.27702294483909212 0 0.14313748296848511 0.29601034873309479 0 0.15032940748595641 0.27702294483909212 0 0.14313748296848511 0.29601034873309479 0 0.15662290995667591 0.28342102913358869 0 0.14313748296848511 0.29601034873309479 0 0.15662290995667591 0.28342102913358869 0 0.16052551909253271 0.2987321722498954 0 0.14112640349993641 0.27159637443382523 0 0.14313748296848511 0.29601034873309479 0 0.1694445786729101 0.28262854812902449 0 0.16052551909253271 0.2987321722498954 0 0.1745312640425572 0.2990291532653519 0 0.15662290995667591 0.28342102913358869 0 0.1694445786729101 0.28262854812902449 0 0.16052551909253271 0.2987321722498954 0 0.16052551909253271 0.2987321722498954 0 0.167911258792834 0.32094756787764772 0 0.15121342543511981 0.31299737799442329 0 0.16052551909253271 0.2987321722498954 0 0.1745312640425572 0.2990291532653519 0 0.167911258792834 0.32094756787764772 0 0.1866611076125482 0.30616640717958021 0 0.1745312640425572 0.2990291532653519 0 0.18811385604196099 0.2866710708906115 0 0.1866611076125482 0.30616640717958021 0 0.1745312640425572 0.2990291532653519 0 0.167911258792834 0.32094756787764772 0 0.1694445786729101 0.28262854812902449 0 0.1745312640425572 0.2990291532653519 0 0.18811385604196099 0.2866710708906115 0 0.1694445786729101 0.28262854812902449 0 0.1809249518278552 0.2698947658710521 0 0.18811385604196099 0.2866710708906115 0 0.1809249518278552 0.2698947658710521 0 0.16138952249343011 0.2691573953702045 0 0.17523074209092451 0.2589524026217071 0 0.1694445786729101 0.28262854812902449 0 0.1809249518278552 0.2698947658710521 0 0.16138952249343011 0.2691573953702045 0 0.15662290995667591 0.28342102913358869 0 0.1694445786729101 0.28262854812902449 0 0.16138952249343011 0.2691573953702045 0 0.1493707185112543 0.26492957652474752 0 0.16138952249343011 0.2691573953702045 0 0.1624975560905107 0.25646494238034878 0 0.16138952249343011 0.2691573953702045 0 0.1624975560905107 0.25646494238034878 0 0.17523074209092451 0.2589524026217071 0 0.17562439366976659 0.2480003082359496 0 0.1624975560905107 0.25646494238034878 0 0.17523074209092451 0.2589524026217071 0 0.17562439366976659 0.2480003082359496 0 0.16640384974087649 0.24651151582039041 0 0.1624975560905107 0.25646494238034878 0 0.17562439366976659 0.2480003082359496 0 0.1624975560905107 0.25646494238034878 0 0.1809249518278552 0.2698947658710521 0 0.17523074209092451 0.2589524026217071 0 0.19571728637305991 0.25124460125098053 0 0.17562439366976659 0.2480003082359496 0 0.17523074209092451 0.2589524026217071 0 0.19571728637305991 0.25124460125098053 0 0.1809249518278552 0.2698947658710521 0 0.19571728637305991 0.25124460125098053 0 0.20496477828594339 0.27058384444940908 0 0.1809249518278552 0.2698947658710521 0 0.20496477828594339 0.27058384444940908 0 0.18811385604196099 0.2866710708906115 0 0.20496477828594339 0.27058384444940908 0 0.22474989769312231 0.26424658737305867 0 0.22416080525197629 0.27660408578344542 0 0.20496477828594339 0.27058384444940908 0 0.22416080525197629 0.27660408578344542 0 0.20541095643226229 0.29138524648151282 0 0.19571728637305991 0.25124460125098053 0 0.20496477828594339 0.27058384444940908 0 0.215810179076353 0.25448889426601218 0 0.21612098006809299 0.24618804018894669 0 0.19571728637305991 0.25124460125098053 0 0.215810179076353 0.25448889426601218 0 0.19571728637305991 0.25124460125098053 0 0.215810179076353 0.25448889426601218 0 0.20496477828594339 0.27058384444940908 0 0.215810179076353 0.25448889426601218 0 0.22474989769312231 0.26424658737305867 0 0.215810179076353 0.25448889426601218 0 0.22474989769312231 0.26424658737305867 0 0.23590307177964609 0.25773318728104377 0 0.21612098006809299 0.24618804018894669 0 0.215810179076353 0.25448889426601218 0 0.23590307177964609 0.25773318728104377 0 0.215810179076353 0.25448889426601218 0 0.23590307177964609 0.25773318728104377 0 0.21612098006809299 0.24618804018894669 0 0.23590307177964609 0.25773318728104377 0 0.22416080525197629 0.27660408578344542 0 0.24291065407169329 0.26182292508538169 0 0.22474989769312231 0.26424658737305867 0 0.22416080525197629 0.27660408578344542 0 0.24291065407169329 0.26182292508538169 0 0.22416080525197629 0.27660408578344542 0 0.24291065407169329 0.26182292508538169 0 0.23848540496370871 0.29193398086764089 0 0.24291065407169329 0.26182292508538169 0 0.23848540496370871 0.29193398086764089 0 0.25219810148588018 0.26724322886672169 0 0.23848540496370871 0.29193398086764089 0 0.25219810148588018 0.26724322886672169 0 0.24291065407169329 0.26182292508538169 0 0.24322201867183671 0.25891493888995137 0 0.25859327421991551 0.2494597678777338 0 0.22982550330875201 0.24206279021263399 0 0.23963233792909289 0.25070674833000889 0 0.23590307177964609 0.25773318728104377 0 0.22474989769312231 0.26424658737305867 0 0.24291065407169329 0.26182292508538169 0 0.23590307177964609 0.25773318728104377 0 0.24291065407169329 0.26182292508538169 0 0.25219810148588018 0.26724322886672169 0 0.2468507990765075 0.24988320060761271 0 0.24322201867183671 0.25891493888995137 0 0.23963233792909289 0.25070674833000889 0 0.2468507990765075 0.24988320060761271 0 0.24322201867183671 0.25891493888995137 0 0.25859327421991551 0.2494597678777338 0 0.24322201867183671 0.25891493888995137 0 0.23963233792909289 0.25070674833000889 0 0.23590307177964609 0.25773318728104377 0 0.24291065407169329 0.26182292508538169 0 0.24322201867183671 0.25891493888995137 0 0.23590307177964609 0.25773318728104377 0 0.24291065407169329 0.26182292508538169 0 0.23590307177964609 0.25773318728104377 0 0.24322201867183671 0.25891493888995137 0 0.23590307177964609 0.25773318728104377 0 0.2422144148352007 0.30840559904210912 0 0.23848540496370871 0.29193398086764089 0 0.25193110116939837 0.29058190837511277 0 0.2422144148352007 0.30840559904210912 0 0.25193110116939837 0.29058190837511277 0 0.2422144148352007 0.30840559904210912 0 0.23848540496370871 0.29193398086764089 0 0.22477270844153641 0.3166247328685598 0 0.23848540496370871 0.29193398086764089 0 0.25193110116939837 0.29058190837511277 0 0.25219810148588018 0.26724322886672169 0 0.22416080525197629 0.27660408578344542 0 0.23848540496370871 0.29193398086764089 0 0.2187663614304789 0.30118617957591032 0 0.23848540496370871 0.29193398086764089 0 0.22477270844153641 0.3166247328685598 0 0.23848540496370871 0.29193398086764089 0 0.2187663614304789 0.30118617957591032 0 0.22477270844153641 0.3166247328685598 0 0.2187663614304789 0.30118617957591032 0 0.21016989843184039 0.31420578525232662 0 0.22477270844153641 0.3166247328685598 0 0.2187663614304789 0.30118617957591032 0 0.20517648533375751 0.30685357373254768 0 0.21016989843184039 0.31420578525232662 0 0.2187663614304789 0.30118617957591032 0 0.20517648533375751 0.30685357373254768 0 0.20541095643226229 0.29138524648151282 0 0.22416080525197629 0.27660408578344542 0 0.2187663614304789 0.30118617957591032 0 0.20541095643226229 0.29138524648151282 0 0.22416080525197629 0.27660408578344542 0 0.20541095643226229 0.29138524648151282 0 0.1866611076125482 0.30616640717958021 0 0.20541095643226229 0.29138524648151282 0 0.18811385604196099 0.2866710708906115 0 0.20496477828594339 0.27058384444940908 0 0.20541095643226229 0.29138524648151282 0 0.18811385604196099 0.2866710708906115 0 0.1866611076125482 0.30616640717958021 0 0.20517648533375751 0.30685357373254768 0 0.20056342193417889 0.31880603315339312 0 0.1866611076125482 0.30616640717958021 0 0.20517648533375751 0.30685357373254768 0 0.20541095643226229 0.29138524648151282 0 0.1866611076125482 0.30616640717958021 0 0.20541095643226229 0.29138524648151282 0 0.18967605122714459 0.3278076747396898 0 0.20056342193417889 0.31880603315339312 0 0.1841619387390277 0.32078110174812441 0 0.1866611076125482 0.30616640717958021 0 0.20056342193417889 0.31880603315339312 0 0.1841619387390277 0.32078110174812441 0 0.18967605122714459 0.3278076747396898 0 0.1982464843305391 0.32680377276430661 0 0.20056342193417889 0.31880603315339312 0 0.20157051501924991 0.32755840693122179 0 0.1982464843305391 0.32680377276430661 0 0.20056342193417889 0.31880603315339312 0 0.1982464843305391 0.32680377276430661 0 0.19477073396900879 0.34824088224487332 0 0.1982464843305391 0.32680377276430661 0 0.20584939766919561 0.33476991759121921 0 0.19477073396900879 0.34824088224487332 0 0.1982464843305391 0.32680377276430661 0 0.19477073396900879 0.34824088224487332 0 0.18682583138087261 0.33595239017878648 0 0.19477073396900879 0.34824088224487332 0 0.18472431638269049 0.34602364940889502 0 0.18682583138087261 0.33595239017878648 0 0.18967605122714459 0.3278076747396898 0 0.1982464843305391 0.32680377276430661 0 0.18682583138087261 0.33595239017878648 0 0.20157051501924991 0.32755840693122179 0 0.1982464843305391 0.32680377276430661 0 0.20584939766919561 0.33476991759121921 0 0.20584939766919561 0.33476991759121921 0 0.20837523226191529 0.34418648905298022 0 0.19477073396900879 0.34824088224487332 0 0.20584939766919561 0.33476991759121921 0 0.2147938459652014 0.33723190179714102 0 0.20837523226191529 0.34418648905298022 0 0.20157051501924991 0.32755840693122179 0 0.20584939766919561 0.33476991759121921 0 0.21212506670332529 0.32700536608452963 0 0.20584939766919561 0.33476991759121921 0 0.21290193660637249 0.33247954799961921 0 0.21212506670332529 0.32700536608452963 0 0.20584939766919561 0.33476991759121921 0 0.21290193660637249 0.33247954799961921 0 0.2147938459652014 0.33723190179714102 0 0.21290193660637249 0.33247954799961921 0 0.21212506670332529 0.32700536608452963 0 0.2188394360877679 0.33091100652558719 0 0.21290193660637249 0.33247954799961921 0 0.2147938459652014 0.33723190179714102 0 0.2188394360877679 0.33091100652558719 0 0.2147938459652014 0.33723190179714102 0 0.2188394360877679 0.33091100652558719 0 0.22245554606621931 0.33752431827393331 0 0.2147938459652014 0.33723190179714102 0 0.2181201994044667 0.34578535459482762 0 0.20837523226191529 0.34418648905298022 0 0.2147938459652014 0.33723190179714102 0 0.22245554606621931 0.33752431827393331 0 0.2181201994044667 0.34578535459482762 0 0.20157051501924991 0.32755840693122179 0 0.21212506670332529 0.32700536608452963 0 0.22477270844153641 0.3166247328685598 0 0.20157051501924991 0.32755840693122179 0 0.22477270844153641 0.3166247328685598 0 0.20157051501924991 0.32755840693122179 0 0.21016989843184039 0.31420578525232662 0 0.22477270844153641 0.3166247328685598 0 0.20517648533375751 0.30685357373254768 0 0.20056342193417889 0.31880603315339312 0 0.21016989843184039 0.31420578525232662 0 0.20157051501924991 0.32755840693122179 0 0.20056342193417889 0.31880603315339312 0 0.21016989843184039 0.31420578525232662 0 0.21212506670332529 0.32700536608452963 0 0.22160392655975411 0.32233036541585369 0 0.2188394360877679 0.33091100652558719 0 0.2422144148352007 0.30840559904210912 0 0.22477270844153641 0.3166247328685598 0 0.2422144148352007 0.30840559904210912 0 0.22477270844153641 0.3166247328685598 0 0.23518944646063891 0.32129176814822968 0 0.22477270844153641 0.3166247328685598 0 0.22160392655975411 0.32233036541585369 0 0.22477270844153641 0.3166247328685598 0 0.2288923638621746 0.32829484518165791 0 0.23518944646063891 0.32129176814822968 0 0.22477270844153641 0.3166247328685598 0 0.22160392655975411 0.32233036541585369 0 0.2288923638621746 0.32829484518165791 0 0.21212506670332529 0.32700536608452963 0 0.22477270844153641 0.3166247328685598 0 0.22160392655975411 0.32233036541585369 0 0.22160392655975411 0.32233036541585369 0 0.2188394360877679 0.33091100652558719 0 0.2288923638621746 0.32829484518165791 0 0.22245554606621931 0.33752431827393331 0 0.2288923638621746 0.32829484518165791 0 0.23011490962405901 0.34402637906079192 0 0.2188394360877679 0.33091100652558719 0 0.22245554606621931 0.33752431827393331 0 0.2288923638621746 0.32829484518165791 0 0.2288923638621746 0.32829484518165791 0 0.23963072734300389 0.33303770323320647 0 0.23011490962405901 0.34402637906079192 0 0.22245554606621931 0.33752431827393331 0 0.23011490962405901 0.34402637906079192 0 0.2181201994044667 0.34578535459482762 0 0.23963072734300389 0.33303770323320647 0 0.24245458021815861 0.34807196438065968 0 0.23011490962405901 0.34402637906079192 0 0.23963072734300389 0.33303770323320647 0 0.24245458021815861 0.34807196438065968 0 0.25334434943086531 0.33817461409465849 0 0.23963072734300389 0.33303770323320647 0 0.24990084266874429 0.32367317630407949 0 0.25334434943086531 0.33817461409465849 0 0.2422144148352007 0.30840559904210912 0 0.24990084266874429 0.32367317630407949 0 0.23518944646063891 0.32129176814822968 0 0.2422144148352007 0.30840559904210912 0 0.23518944646063891 0.32129176814822968 0 0.23963072734300389 0.33303770323320647 0 0.24990084266874429 0.32367317630407949 0 0.23518944646063891 0.32129176814822968 0 0.2288923638621746 0.32829484518165791 0 0.23963072734300389 0.33303770323320647 0 0.23518944646063891 0.32129176814822968 0 0.23793511617045451 0.36040731550714661 0 0.24286449722361661 0.3792236641459521 0 0.25715691338117619 0.37069804294421133 0 0.23793511617045451 0.36040731550714661 0 0.22535506731443339 0.37093622217456179 0 0.24286449722361661 0.3792236641459521 0 0.23793511617045451 0.36040731550714661 0 0.24245458021815861 0.34807196438065968 0 0.23011490962405901 0.34402637906079192 0 0.23793511617045451 0.36040731550714661 0 0.24245458021815861 0.34807196438065968 0 0.2549174677925593 0.35400984449820649 0 0.23793511617045451 0.36040731550714661 0 0.23011490962405901 0.34402637906079192 0 0.22197868721832259 0.35700814885627852 0 0.23011490962405901 0.34402637906079192 0 0.22197868721832259 0.35700814885627852 0 0.2181201994044667 0.34578535459482762 0 0.22197868721832259 0.35700814885627852 0 0.22535506731443339 0.37093622217456179 0 0.2150069444071688 0.36786998886645272 0 0.23793511617045451 0.36040731550714661 0 0.22197868721832259 0.35700814885627852 0 0.22535506731443339 0.37093622217456179 0 0.21024448759736961 0.35404883842301049 0 0.20197117833580791 0.36543791164110528 0 0.20171329825865611 0.37712230697898791 0 0.21024448759736961 0.35404883842301049 0 0.20171329825865611 0.37712230697898791 0 0.22535506731443339 0.37093622217456179 0 0.2150069444071688 0.36786998886645272 0 0.21574318164706219 0.38023442789942491 0 0.2150069444071688 0.36786998886645272 0 0.21024448759736961 0.35404883842301049 0 0.20171329825865611 0.37712230697898791 0 0.22197868721832259 0.35700814885627852 0 0.2150069444071688 0.36786998886645272 0 0.21024448759736961 0.35404883842301049 0 0.2181201994044667 0.34578535459482762 0 0.21024448759736961 0.35404883842301049 0 0.20837523226191529 0.34418648905298022 0 0.22197868721832259 0.35700814885627852 0 0.2181201994044667 0.34578535459482762 0 0.21024448759736961 0.35404883842301049 0 0.21024448759736961 0.35404883842301049 0 0.20837523226191529 0.34418648905298022 0 0.19477073396900879 0.34824088224487332 0 0.19477073396900879 0.34824088224487332 0 0.19129498360747929 0.36967799172544019 0 0.1858376228523532 0.35776712435732527 0 0.21024448759736961 0.35404883842301049 0 0.19477073396900879 0.34824088224487332 0 0.20197117833580791 0.36543791164110528 0 0.19477073396900879 0.34824088224487332 0 0.19129498360747929 0.36967799172544019 0 0.19477073396900879 0.34824088224487332 0 0.1858376228523532 0.35776712435732527 0 0.18472431638269049 0.34602364940889502 0 0.19477073396900879 0.34824088224487332 0 0.20197117833580791 0.36543791164110528 0 0.19129498360747929 0.36967799172544019 0 0.20197117833580791 0.36543791164110528 0 0.19129498360747929 0.36967799172544019 0 0.20171329825865611 0.37712230697898791 0 0.20197117833580791 0.36543791164110528 0 0.19129498360747929 0.36967799172544019 0 0.19129498360747929 0.36967799172544019 0 0.18384121662204281 0.36516003675558267 0 0.1783566627331731 0.36964062784805879 0 0.19129498360747929 0.36967799172544019 0 0.17019219729038371 0.37805902132109959 0 0.19129498360747929 0.36967799172544019 0 0.1783566627331731 0.36964062784805879 0 0.17019219729038371 0.37805902132109959 0 0.19129498360747929 0.36967799172544019 0 0.18384121662204281 0.36516003675558267 0 0.1858376228523532 0.35776712435732527 0 0.18384121662204281 0.36516003675558267 0 0.17733060828177069 0.36245777388194811 0 0.1858376228523532 0.35776712435732527 0 0.18384121662204281 0.36516003675558267 0 0.17733060828177069 0.36245777388194811 0 0.1783566627331731 0.36964062784805879 0 0.17733060828177069 0.36245777388194811 0 0.17279346204931309 0.36822454174690489 0 0.16934558173200179 0.36452692642970769 0 0.17733060828177069 0.36245777388194811 0 0.1783566627331731 0.36964062784805879 0 0.17279346204931309 0.36822454174690489 0 0.1783566627331731 0.36964062784805879 0 0.17152065632840671 0.37268680435399482 0 0.17019219729038371 0.37805902132109959 0 0.1783566627331731 0.36964062784805879 0 0.17279346204931309 0.36822454174690489 0 0.17152065632840671 0.37268680435399482 0 0.17152065632840671 0.37268680435399482 0 0.16755074648487209 0.37049483339088263 0 0.1673906913261072 0.37635766525328518 0 0.16755074648487209 0.37049483339088263 0 0.16341926190937339 0.37147111112354952 0 0.1673906913261072 0.37635766525328518 0 0.16755074648487209 0.37049483339088263 0 0.16123191987329261 0.36595742631445338 0 0.16341926190937339 0.37147111112354952 0 0.17279346204931309 0.36822454174690489 0 0.17152065632840671 0.37268680435399482 0 0.16755074648487209 0.37049483339088263 0 0.17279346204931309 0.36822454174690489 0 0.16755074648487209 0.37049483339088263 0 0.16934558173200179 0.36452692642970769 0 0.16755074648487209 0.37049483339088263 0 0.16934558173200179 0.36452692642970769 0 0.16123191987329261 0.36595742631445338 0 0.16934558173200179 0.36452692642970769 0 0.16123191987329261 0.36595742631445338 0 0.1678211719707603 0.35550005681434937 0 0.17733060828177069 0.36245777388194811 0 0.16934558173200179 0.36452692642970769 0 0.1678211719707603 0.35550005681434937 0 0.1575036899532217 0.37307451953557658 0 0.16341926190937339 0.37147111112354952 0 0.1673906913261072 0.37635766525328518 0 0.16123191987329261 0.36595742631445338 0 0.1575036899532217 0.37307451953557658 0 0.15046439008654719 0.36672923255218742 0 0.16123191987329261 0.36595742631445338 0 0.1575036899532217 0.37307451953557658 0 0.16341926190937339 0.37147111112354952 0 0.1678211719707603 0.35550005681434937 0 0.16230901559942701 0.34269329287386358 0 0.15353210121447 0.35610691980359183 0 0.16123191987329261 0.36595742631445338 0 0.1678211719707603 0.35550005681434937 0 0.15353210121447 0.35610691980359183 0 0.1678211719707603 0.35550005681434937 0 0.175464006862701 0.34367303192330789 0 0.16230901559942701 0.34269329287386358 0 0.1782659357637992 0.35356101662104628 0 0.18472431638269049 0.34602364940889502 0 0.175464006862701 0.34367303192330789 0 0.1678211719707603 0.35550005681434937 0 0.1782659357637992 0.35356101662104628 0 0.175464006862701 0.34367303192330789 0 0.17733060828177069 0.36245777388194811 0 0.1678211719707603 0.35550005681434937 0 0.1782659357637992 0.35356101662104628 0 0.1782659357637992 0.35356101662104628 0 0.1858376228523532 0.35776712435732527 0 0.18472431638269049 0.34602364940889502 0 0.17733060828177069 0.36245777388194811 0 0.1782659357637992 0.35356101662104628 0 0.1858376228523532 0.35776712435732527 0 0.18472431638269049 0.34602364940889502 0 0.18682583138087261 0.33595239017878648 0 0.175464006862701 0.34367303192330789 0 0.18967605122714459 0.3278076747396898 0 0.18682583138087261 0.33595239017878648 0 0.1759978541284328 0.33017782579031069 0 0.18682583138087261 0.33595239017878648 0 0.1759978541284328 0.33017782579031069 0 0.175464006862701 0.34367303192330789 0 0.1759978541284328 0.33017782579031069 0 0.1841619387390277 0.32078110174812441 0 0.167911258792834 0.32094756787764772 0 0.1866611076125482 0.30616640717958021 0 0.1841619387390277 0.32078110174812441 0 0.167911258792834 0.32094756787764772 0 0.1866611076125482 0.30616640717958021 0 0.167911258792834 0.32094756787764772 0 0.18967605122714459 0.3278076747396898 0 0.1759978541284328 0.33017782579031069 0 0.1841619387390277 0.32078110174812441 0 0.1759978541284328 0.33017782579031069 0 0.167911258792834 0.32094756787764772 0 0.157238231504645 0.32898565287947318 0 0.167911258792834 0.32094756787764772 0 0.157238231504645 0.32898565287947318 0 0.15121342543511981 0.31299737799442329 0 0.1759978541284328 0.33017782579031069 0 0.157238231504645 0.32898565287947318 0 0.16230901559942701 0.34269329287386358 0 0.1759978541284328 0.33017782579031069 0 0.175464006862701 0.34367303192330789 0 0.16230901559942701 0.34269329287386358 0 0.157238231504645 0.32898565287947318 0 0.16230901559942701 0.34269329287386358 0 0.14439403071059179 0.34233776393057708 0 0.157238231504645 0.32898565287947318 0 0.14439403071059179 0.34233776393057708 0 0.14160380436146469 0.32476008881001711 0 0.157238231504645 0.32898565287947318 0 0.15121342543511981 0.31299737799442329 0 0.14160380436146469 0.32476008881001711 0 0.13717286885480251 0.30982214742921549 0 0.15121342543511981 0.31299737799442329 0 0.14160380436146469 0.32476008881001711 0 0.13717286885480251 0.30982214742921549 0 0.14160380436146469 0.32476008881001711 0 0.12992427717752619 0.32119256114269462 0 0.14160380436146469 0.32476008881001711 0 0.12992427717752619 0.32119256114269462 0 0.1319789807793384 0.33390044420364912 0 0.1245715791867013 0.32898786126024959 0 0.1212539019304235 0.32289102312992268 0 0.12992427717752619 0.32119256114269462 0 0.1245715791867013 0.32898786126024959 0 0.12992427717752619 0.32119256114269462 0 0.1319789807793384 0.33390044420364912 0 0.1218465126223218 0.30799887695988082 0 0.13717286885480251 0.30982214742921549 0 0.12992427717752619 0.32119256114269462 0 0.14439403071059179 0.34233776393057708 0 0.1319789807793384 0.33390044420364912 0 0.12869865027132979 0.34900306273210979 0 0.14439403071059179 0.34233776393057708 0 0.14160380436146469 0.32476008881001711 0 0.1319789807793384 0.33390044420364912 0 0.12240894308319281 0.33745063657379182 0 0.1245715791867013 0.32898786126024959 0 0.1319789807793384 0.33390044420364912 0 0.12240894308319281 0.33745063657379182 0 0.1319789807793384 0.33390044420364912 0 0.12869865027132979 0.34900306273210979 0 0.14439403071059179 0.34233776393057708 0 0.12869865027132979 0.34900306273210979 0 0.14000564733825521 0.36071645206049552 0 0.12869865027132979 0.34900306273210979 0 0.12504342468660801 0.365096132935816 0 0.14000564733825521 0.36071645206049552 0 0.1118902862078035 0.37850500465335662 0 0.12504342468660801 0.365096132935816 0 0.13964048876695531 0.37743133495332087 0 0.12504342468660801 0.365096132935816 0 0.14000564733825521 0.36071645206049552 0 0.13964048876695531 0.37743133495332087 0 0.14000564733825521 0.36071645206049552 0 0.15046439008654719 0.36672923255218742 0 0.15353210121447 0.35610691980359183 0 0.1575036899532217 0.37307451953557658 0 0.15046439008654719 0.36672923255218742 0 0.13964048876695531 0.37743133495332087 0 0.14000564733825521 0.36071645206049552 0 0.15046439008654719 0.36672923255218742 0 0.13964048876695531 0.37743133495332087 0 0.16123191987329261 0.36595742631445338 0 0.15046439008654719 0.36672923255218742 0 0.15353210121447 0.35610691980359183 0 0.16230901559942701 0.34269329287386358 0 0.14439403071059179 0.34233776393057708 0 0.15353210121447 0.35610691980359183 0 0.14439403071059179 0.34233776393057708 0 0.14000564733825521 0.36071645206049552 0 0.15353210121447 0.35610691980359183 0 0.14503710540002521 0.40322254790348078 0 0.14908941097328751 0.38644005091675759 0 0.12798662465619129 0.39482108051241571 0 0.14503710540002521 0.40322254790348078 0 0.14908941097328751 0.38644005091675759 0 0.15627271181560121 0.39722741407083489 0 0.14503710540002521 0.40322254790348078 0 0.15793916583737061 0.40719056404598403 0 0.15627271181560121 0.39722741407083489 0 0.1575036899532217 0.37307451953557658 0 0.13964048876695531 0.37743133495332087 0 0.1673906913261072 0.37635766525328518 0 0.14908941097328751 0.38644005091675759 0 0.13964048876695531 0.37743133495332087 0 0.1673906913261072 0.37635766525328518 0 0.13964048876695531 0.37743133495332087 0 0.1673906913261072 0.37635766525328518 0 0.1118902862078035 0.37850500465335662 0 0.13964048876695531 0.37743133495332087 0 0.12798662465619129 0.39482108051241571 0 0.1118902862078035 0.37850500465335662 0 0.13964048876695531 0.37743133495332087 0 0.14908941097328751 0.38644005091675759 0 0.13964048876695531 0.37743133495332087 0 0.12798662465619129 0.39482108051241571 0 0.14908941097328751 0.38644005091675759 0 0.12798662465619129 0.39482108051241571 0 0.14503710540002521 0.40322254790348078 0 0.12798662465619129 0.39482108051241571 0 0.12897804838356969 0.41281662555354481 0 0.1201868399237437 0.4277138478848197 0 0.12897804838356969 0.41281662555354481 0 0.13724734189001661 0.43508617232299002 0 0.12897804838356969 0.41281662555354481 0 0.13724734189001661 0.43508617232299002 0 0.15201797165318981 0.42124295758987279 0 0.1227989211907968 0.44853505645094688 0 0.1201868399237437 0.4277138478848197 0 0.13724734189001661 0.43508617232299002 0 0.13724734189001661 0.43508617232299002 0 0.15201797165318981 0.42124295758987279 0 0.1568227773259066 0.44150953447992208 0 0.14503710540002521 0.40322254790348078 0 0.15201797165318981 0.42124295758987279 0 0.15793916583737061 0.40719056404598403 0 0.14503710540002521 0.40322254790348078 0 0.12897804838356969 0.41281662555354481 0 0.15201797165318981 0.42124295758987279 0 0.15201797165318981 0.42124295758987279 0 0.15793916583737061 0.40719056404598403 0 0.1700237463087361 0.4143992261458489 0 0.15201797165318981 0.42124295758987279 0 0.1700237463087361 0.4143992261458489 0 0.16792702902231549 0.42935273499070142 0 0.15793916583737061 0.40719056404598403 0 0.1700237463087361 0.4143992261458489 0 0.1663442940093007 0.39986067451988272 0 0.15201797165318981 0.42124295758987279 0 0.16792702902231549 0.42935273499070142 0 0.1568227773259066 0.44150953447992208 0 0.16792702902231549 0.42935273499070142 0 0.18465091958122931 0.42326924409094269 0 0.17611973024251579 0.44634271264692021 0 0.1700237463087361 0.4143992261458489 0 0.16792702902231549 0.42935273499070142 0 0.18465091958122931 0.42326924409094269 0 0.18465091958122931 0.42326924409094269 0 0.1923494498589858 0.43922959655829158 0 0.17611973024251579 0.44634271264692021 0 0.18465091958122931 0.42326924409094269 0 0.17611973024251579 0.44634271264692021 0 0.1700237463087361 0.4143992261458489 0 0.18480561370121071 0.40970196314763208 0 0.17525720470561551 0.40170469763678252 0 0.1700237463087361 0.4143992261458489 0 0.18465091958122931 0.42326924409094269 0 0.18480561370121071 0.40970196314763208 0 0.18480561370121071 0.40970196314763208 0 0.18027353907121529 0.39595710332944201 0 0.17525720470561551 0.40170469763678252 0 0.18480561370121071 0.40970196314763208 0 0.18805029865434461 0.38968997743653611 0 0.18480561370121071 0.40970196314763208 0 0.18027353907121529 0.39595710332944201 0 0.18805029865434461 0.38968997743653611 0 0.18027353907121529 0.39595710332944201 0 0.17983176548752761 0.38786691021480652 0 0.18805029865434461 0.38968997743653611 0 0.18027353907121529 0.39595710332944201 0 0.17342281280737809 0.39082196821145271 0 0.17983176548752761 0.38786691021480652 0 0.18027353907121529 0.39595710332944201 0 0.17342281280737809 0.39082196821145271 0 0.17525720470561551 0.40170469763678252 0 0.1700237463087361 0.4143992261458489 0 0.17525720470561551 0.40170469763678252 0 0.1663442940093007 0.39986067451988272 0 0.17342281280737809 0.39082196821145271 0 0.1663442940093007 0.39986067451988272 0 0.16385598882325009 0.38774020276910082 0 0.17342281280737809 0.39082196821145271 0 0.17525720470561551 0.40170469763678252 0 0.1663442940093007 0.39986067451988272 0 0.1663442940093007 0.39986067451988272 0 0.15627271181560121 0.39722741407083489 0 0.16385598882325009 0.38774020276910082 0 0.15793916583737061 0.40719056404598403 0 0.1663442940093007 0.39986067451988272 0 0.15627271181560121 0.39722741407083489 0 0.14908941097328751 0.38644005091675759 0 0.16385598882325009 0.38774020276910082 0 0.17019219729038371 0.37805902132109959 0 0.14908941097328751 0.38644005091675759 0 0.1673906913261072 0.37635766525328518 0 0.17019219729038371 0.37805902132109959 0 0.14908941097328751 0.38644005091675759 0 0.17019219729038371 0.37805902132109959 0 0.14908941097328751 0.38644005091675759 0 0.15627271181560121 0.39722741407083489 0 0.16385598882325009 0.38774020276910082 0 0.17342281280737809 0.39082196821145271 0 0.16385598882325009 0.38774020276910082 0 0.17057677088138459 0.38517563384246473 0 0.16385598882325009 0.38774020276910082 0 0.17057677088138459 0.38517563384246473 0 0.17019219729038371 0.37805902132109959 0 0.17057677088138459 0.38517563384246473 0 0.17019219729038371 0.37805902132109959 0 0.17483608460452671 0.38408134306820579 0 0.17152065632840671 0.37268680435399482 0 0.1673906913261072 0.37635766525328518 0 0.17019219729038371 0.37805902132109959 0 0.19129498360747929 0.36967799172544019 0 0.18116007466993631 0.3810016061987419 0 0.18805029865434461 0.38968997743653611 0 0.17019219729038371 0.37805902132109959 0 0.17483608460452671 0.38408134306820579 0 0.18116007466993631 0.3810016061987419 0 0.19129498360747929 0.36967799172544019 0 0.17019219729038371 0.37805902132109959 0 0.18116007466993631 0.3810016061987419 0 0.17342281280737809 0.39082196821145271 0 0.17057677088138459 0.38517563384246473 0 0.17483608460452671 0.38408134306820579 0 0.17483608460452671 0.38408134306820579 0 0.17983176548752761 0.38786691021480652 0 0.18116007466993631 0.3810016061987419 0 0.17342281280737809 0.39082196821145271 0 0.17483608460452671 0.38408134306820579 0 0.17983176548752761 0.38786691021480652 0 0.17983176548752761 0.38786691021480652 0 0.18116007466993631 0.3810016061987419 0 0.18805029865434461 0.38968997743653611 0 0.20171329825865611 0.37712230697898791 0 0.1931821089199427 0.40019577553496533 0 0.20171329825865611 0.37712230697898791 0 0.1931821089199427 0.40019577553496533 0 0.207878605354786 0.39097053174460189 0 0.18805029865434461 0.38968997743653611 0 0.20171329825865611 0.37712230697898791 0 0.1931821089199427 0.40019577553496533 0 0.19129498360747929 0.36967799172544019 0 0.18805029865434461 0.38968997743653611 0 0.20171329825865611 0.37712230697898791 0 0.19129498360747929 0.36967799172544019 0 0.18805029865434461 0.38968997743653611 0 0.18480561370121071 0.40970196314763208 0 0.18805029865434461 0.38968997743653611 0 0.1931821089199427 0.40019577553496533 0 0.1931821089199427 0.40019577553496533 0 0.207878605354786 0.39097053174460189 0 0.21275151661337269 0.40734919128703889 0 0.207878605354786 0.39097053174460189 0 0.21865848769323989 0.39217535800033831 0 0.21275151661337269 0.40734919128703889 0 0.20171329825865611 0.37712230697898791 0 0.207878605354786 0.39097053174460189 0 0.21574318164706219 0.38023442789942491 0 0.2150069444071688 0.36786998886645272 0 0.20171329825865611 0.37712230697898791 0 0.21574318164706219 0.38023442789942491 0 0.207878605354786 0.39097053174460189 0 0.21865848769323989 0.39217535800033831 0 0.21574318164706219 0.38023442789942491 0 0.22535506731443339 0.37093622217456179 0 0.21574318164706219 0.38023442789942491 0 0.22884878476643969 0.38421291573455651 0 0.22535506731443339 0.37093622217456179 0 0.22884878476643969 0.38421291573455651 0 0.24286449722361661 0.3792236641459521 0 0.21865848769323989 0.39217535800033831 0 0.21574318164706219 0.38023442789942491 0 0.22884878476643969 0.38421291573455651 0 0.21865848769323989 0.39217535800033831 0 0.22884878476643969 0.38421291573455651 0 0.23547276040395321 0.39903697276908462 0 0.21865848769323989 0.39217535800033831 0 0.23547276040395321 0.39903697276908462 0 0.21275151661337269 0.40734919128703889 0 0.23547276040395321 0.39903697276908462 0 0.25440614107901682 0.40739542965516917 0 0.25693803295924073 0.38968393527188272 0 0.22884878476643969 0.38421291573455651 0 0.23547276040395321 0.39903697276908462 0 0.24286449722361661 0.3792236641459521 0 0.23547276040395321 0.39903697276908462 0 0.24286449722361661 0.3792236641459521 0 0.25693803295924073 0.38968393527188272 0 0.2338780058947581 0.42325242518660899 0 0.23262892383638439 0.44524543054661858 0 0.25500449517614349 0.43915565908617921 0 0.2338780058947581 0.42325242518660899 0 0.25500449517614349 0.43915565908617921 0 0.23547276040395321 0.39903697276908462 0 0.2338780058947581 0.42325242518660899 0 0.25440614107901682 0.40739542965516917 0 0.2338780058947581 0.42325242518660899 0 0.21275151661337269 0.40734919128703889 0 0.23547276040395321 0.39903697276908462 0 0.2338780058947581 0.42325242518660899 0 0.21275151661337269 0.40734919128703889 0 0.2338780058947581 0.42325242518660899 0 0.20926811852706789 0.43396092786314672 0 0.23262892383638439 0.44524543054661858 0 0.2338780058947581 0.42325242518660899 0 0.20926811852706789 0.43396092786314672 0 0.21275151661337269 0.40734919128703889 0 0.20926811852706789 0.43396092786314672 0 0.21275151661337269 0.40734919128703889 0 0.1986551133143527 0.41677720817025221 0 0.18465091958122931 0.42326924409094269 0 0.18480561370121071 0.40970196314763208 0 0.1931821089199427 0.40019577553496533 0 0.18465091958122931 0.42326924409094269 0 0.1931821089199427 0.40019577553496533 0 0.18465091958122931 0.42326924409094269 0 0.1931821089199427 0.40019577553496533 0 0.1986551133143527 0.41677720817025221 0 0.1931821089199427 0.40019577553496533 0 0.21275151661337269 0.40734919128703889 0 0.1986551133143527 0.41677720817025221 0 0.18465091958122931 0.42326924409094269 0 0.1986551133143527 0.41677720817025221 0 0.1923494498589858 0.43922959655829158 0 0.20926811852706789 0.43396092786314672 0 0.1986551133143527 0.41677720817025221 0 0.1923494498589858 0.43922959655829158 0 0.20926811852706789 0.43396092786314672 0 0.1923494498589858 0.43922959655829158 0 0.19686114342410879 0.45475711585495032 0 0.1923494498589858 0.43922959655829158 0 0.19686114342410879 0.45475711585495032 0 0.17611973024251579 0.44634271264692021 0 0.19686114342410879 0.45475711585495032 0 0.21640004175712399 0.46195609653170627 0 0.18807350597338399 0.47249696348910142 0 0.20926811852706789 0.43396092786314672 0 0.19686114342410879 0.45475711585495032 0 0.21640004175712399 0.46195609653170627 0 0.20926811852706789 0.43396092786314672 0 0.21640004175712399 0.46195609653170627 0 0.23262892383638439 0.44524543054661858 0 0.21640004175712399 0.46195609653170627 0 0.23262892383638439 0.44524543054661858 0 0.24590487777104431 0.4635515563732871 0 0.23262892383638439 0.44524543054661858 0 0.24590487777104431 0.4635515563732871 0 0.25500449517614349 0.43915565908617921 0 0.23531261160026559 0.48194425525061713 0 0.22763057179324611 0.5 0 0.25372491980363721 0.5 0 0.24590487777104431 0.4635515563732871 0 0.23531261160026559 0.48194425525061713 0 0.26218229685143229 0.47965144449391939 0 0.21640004175712399 0.46195609653170627 0 0.24590487777104431 0.4635515563732871 0 0.23531261160026559 0.48194425525061713 0 0.21640004175712399 0.46195609653170627 0 0.23531261160026559 0.48194425525061713 0 0.21396795810164759 0.48283731026029658 0 0.23531261160026559 0.48194425525061713 0 0.22763057179324611 0.5 0 0.21396795810164759 0.48283731026029658 0 0.22763057179324611 0.5 0 0.21396795810164759 0.48283731026029658 0 0.2015362237828551 0.5 0 0.21640004175712399 0.46195609653170627 0 0.21396795810164759 0.48283731026029658 0 0.18807350597338399 0.47249696348910142 0 0.21396795810164759 0.48283731026029658 0 0.18807350597338399 0.47249696348910142 0 0.2015362237828551 0.5 0 0.18807350597338399 0.47249696348910142 0 0.2015362237828551 0.5 0 0.17544187577246409 0.5 0 0.17544187577246409 0.5 0 0.15958895389018549 0.47814263108556732 0 0.14934752776207311 0.5 0 0.18807350597338399 0.47249696348910142 0 0.15958895389018549 0.47814263108556732 0 0.16465689205897699 0.45943817073606902 0 0.18807350597338399 0.47249696348910142 0 0.17544187577246409 0.5 0 0.15958895389018549 0.47814263108556732 0 0.18807350597338399 0.47249696348910142 0 0.17611973024251579 0.44634271264692021 0 0.16465689205897699 0.45943817073606902 0 0.19686114342410879 0.45475711585495032 0 0.18807350597338399 0.47249696348910142 0 0.17611973024251579 0.44634271264692021 0 0.17611973024251579 0.44634271264692021 0 0.1568227773259066 0.44150953447992208 0 0.16465689205897699 0.45943817073606902 0 0.16792702902231549 0.42935273499070142 0 0.17611973024251579 0.44634271264692021 0 0.1568227773259066 0.44150953447992208 0 0.1568227773259066 0.44150953447992208 0 0.16465689205897699 0.45943817073606902 0 0.14267949286289319 0.45869901197883389 0 0.15958895389018549 0.47814263108556732 0 0.16465689205897699 0.45943817073606902 0 0.14267949286289319 0.45869901197883389 0 0.13724734189001661 0.43508617232299002 0 0.1568227773259066 0.44150953447992208 0 0.14267949286289319 0.45869901197883389 0 0.1227989211907968 0.44853505645094688 0 0.13724734189001661 0.43508617232299002 0 0.14267949286289319 0.45869901197883389 0 0.1183039608549063 0.47413811303567072 0 0.1227989211907968 0.44853505645094688 0 0.14267949286289319 0.45869901197883389 0 0.1183039608549063 0.47413811303567072 0 0.14267949286289319 0.45869901197883389 0 0.1392823528358996 0.48075325321815432 0 0.123253179751682 0.5 0 0.1392823528358996 0.48075325321815432 0 0.14934752776207311 0.5 0 0.123253179751682 0.5 0 0.1183039608549063 0.47413811303567072 0 0.1392823528358996 0.48075325321815432 0 0.15958895389018549 0.47814263108556732 0 0.1392823528358996 0.48075325321815432 0 0.14934752776207311 0.5 0 0.15958895389018549 0.47814263108556732 0 0.14267949286289319 0.45869901197883389 0 0.1392823528358996 0.48075325321815432 0 0.3466119474657392 0.47435710074620291 0 0.36955953445411149 0.48141991283557128 0 0.36103979365723499 0.46185601712742402 0 0.3466119474657392 0.47435710074620291 0 0.35844428657063693 0.5 0 0.36955953445411149 0.48141991283557128 0 0.3466119474657392 0.47435710074620291 0 0.35844428657063693 0.5 0 0.3404149305030717 0.48837622892907051 0 0.35844428657063693 0.5 0 0.36955953445411149 0.48141991283557128 0 0.38646498490708159 0.5 0 0.36955953445411149 0.48141991283557128 0 0.36103979365723499 0.46185601712742402 0 0.38093761547121879 0.46480004200353908 0 0.36103979365723499 0.46185601712742402 0 0.37339696152701402 0.44208754989350779 0 0.38093761547121879 0.46480004200353908 0 0.36103979365723499 0.46185601712742402 0 0.37339696152701402 0.44208754989350779 0 0.35043907611261932 0.44637647142601278 0 0.3466119474657392 0.47435710074620291 0 0.36103979365723499 0.46185601712742402 0 0.34219953427806621 0.45986992318946912 0 0.36103979365723499 0.46185601712742402 0 0.35043907611261932 0.44637647142601278 0 0.34219953427806621 0.45986992318946912 0 0.3466119474657392 0.47435710074620291 0 0.34219953427806621 0.45986992318946912 0 0.3320771544104173 0.46769378541840978 0 0.34219953427806621 0.45986992318946912 0 0.33027573701613161 0.45769844503064178 0 0.33836703605783908 0.45177307476996248 0 0.34219953427806621 0.45986992318946912 0 0.33027573701613161 0.45769844503064178 0 0.3320771544104173 0.46769378541840978 0 0.35043907611261932 0.44637647142601278 0 0.33836703605783908 0.45177307476996248 0 0.33055379682453939 0.44314745943372658 0 0.35043907611261932 0.44637647142601278 0 0.33055379682453939 0.44314745943372658 0 0.33612880091492559 0.43414283426999267 0 0.35043907611261932 0.44637647142601278 0 0.34219953427806621 0.45986992318946912 0 0.33836703605783908 0.45177307476996248 0 0.33027573701613161 0.45769844503064178 0 0.33836703605783908 0.45177307476996248 0 0.33055379682453939 0.44314745943372658 0 0.33055379682453939 0.44314745943372658 0 0.31735895654795981 0.4560952228466616 0 0.33612880091492559 0.43414283426999267 0 0.32206360743829088 0.4411172788871775 0 0.31735895654795981 0.4560952228466616 0 0.33612880091492559 0.43414283426999267 0 0.31735895654795981 0.4560952228466616 0 0.33612880091492559 0.43414283426999267 0 0.33055379682453939 0.44314745943372658 0 0.3211701611822757 0.46209830628915161 0 0.32206360743829088 0.4411172788871775 0 0.31437221141459187 0.44813164881602929 0 0.31735895654795981 0.4560952228466616 0 0.31437221141459187 0.44813164881602929 0 0.31735895654795981 0.4560952228466616 0 0.30911044941567051 0.45218166007787741 0 0.32206360743829088 0.4411172788871775 0 0.30895583225644641 0.443132433452401 0 0.30767655093949842 0.42905330117373841 0 0.32206360743829088 0.4411172788871775 0 0.31437221141459187 0.44813164881602929 0 0.30895583225644641 0.443132433452401 0 0.33055379682453939 0.44314745943372658 0 0.3211701611822757 0.46209830628915161 0 0.31735895654795981 0.4560952228466616 0 0.33027573701613161 0.45769844503064178 0 0.33055379682453939 0.44314745943372658 0 0.3211701611822757 0.46209830628915161 0 0.33027573701613161 0.45769844503064178 0 0.3320771544104173 0.46769378541840978 0 0.3211701611822757 0.46209830628915161 0 0.3320771544104173 0.46769378541840978 0 0.3211701611822757 0.46209830628915161 0 0.32388165568391092 0.47279691694440262 0 0.32388165568391092 0.47279691694440262 0 0.33049278160293871 0.48034642292547208 0 0.31178652554001202 0.48104915314457658 0 0.3211701611822757 0.46209830628915161 0 0.31178652554001202 0.48104915314457658 0 0.3211701611822757 0.46209830628915161 0 0.32388165568391092 0.47279691694440262 0 0.31178652554001202 0.48104915314457658 0 0.3466119474657392 0.47435710074620291 0 0.3320771544104173 0.46769378541840978 0 0.33049278160293871 0.48034642292547208 0 0.3320771544104173 0.46769378541840978 0 0.32388165568391092 0.47279691694440262 0 0.33049278160293871 0.48034642292547208 0 0.3466119474657392 0.47435710074620291 0 0.33049278160293871 0.48034642292547208 0 0.3404149305030717 0.48837622892907051 0 0.35844428657063693 0.5 0 0.33042358823419232 0.5 0 0.3404149305030717 0.48837622892907051 0 0.33049278160293871 0.48034642292547208 0 0.33042358823419232 0.5 0 0.3404149305030717 0.48837622892907051 0 0.33042358823419232 0.5 0 0.30240288989774761 0.50000000000000133 0 0.31178652554001202 0.48104915314457658 0 0.33049278160293871 0.48034642292547208 0 0.33042358823419232 0.5 0 0.31178652554001202 0.48104915314457658 0 0.30240288989774761 0.50000000000000133 0 0.31178652554001202 0.48104915314457658 0 0.29858911218099388 0.47804761142333041 0 0.30240288989774761 0.50000000000000133 0 0.31178652554001202 0.48104915314457658 0 0.29725747373891409 0.47096212688531919 0 0.29858911218099388 0.47804761142333041 0 0.30394549120614872 0.46162163170145309 0 0.3211701611822757 0.46209830628915161 0 0.31178652554001202 0.48104915314457658 0 0.29858911218099388 0.47804761142333041 0 0.29725747373891409 0.47096212688531919 0 0.29858911218099388 0.47804761142333041 0 0.28220111966208949 0.47735396235386302 0 0.29858911218099388 0.47804761142333041 0 0.27981926781402833 0.49999999999999939 0 0.29858911218099388 0.47804761142333041 0 0.28220111966208949 0.47735396235386302 0 0.27981926781402833 0.49999999999999939 0 0.30240288989774761 0.50000000000000133 0 0.29858911218099388 0.47804761142333041 0 0.27981926781402833 0.49999999999999939 0 0.28220111966208949 0.47735396235386302 0 0.27981926781402833 0.49999999999999939 0 0.26218229685143229 0.47965144449391939 0 0.28220111966208949 0.47735396235386302 0 0.26218229685143229 0.47965144449391939 0 0.27613098445752893 0.4550588929857492 0 0.23531261160026559 0.48194425525061713 0 0.26218229685143229 0.47965144449391939 0 0.25372491980363721 0.5 0 0.27981926781402833 0.49999999999999939 0 0.26218229685143229 0.47965144449391939 0 0.25372491980363721 0.5 0 0.25500449517614349 0.43915565908617921 0 0.27613098445752893 0.4550588929857492 0 0.26734494259474612 0.42343895336183768 0 0.24590487777104431 0.4635515563732871 0 0.25500449517614349 0.43915565908617921 0 0.27613098445752893 0.4550588929857492 0 0.25500449517614349 0.43915565908617921 0 0.27613098445752893 0.4550588929857492 0 0.24590487777104431 0.4635515563732871 0 0.26218229685143229 0.47965144449391939 0 0.27613098445752893 0.4550588929857492 0 0.30070663495474709 0.43766865088546281 0 0.29689887691674288 0.44945424935861261 0 0.28929527970630098 0.42903461955709921 0 0.27613098445752893 0.4550588929857492 0 0.29689887691674288 0.44945424935861261 0 0.28929527970630098 0.42903461955709921 0 0.29725747373891409 0.47096212688531919 0 0.27613098445752893 0.4550588929857492 0 0.29725747373891409 0.47096212688531919 0 0.28220111966208949 0.47735396235386302 0 0.27613098445752893 0.4550588929857492 0 0.29725747373891409 0.47096212688531919 0 0.27613098445752893 0.4550588929857492 0 0.29689887691674288 0.44945424935861261 0 0.3211701611822757 0.46209830628915161 0 0.31735895654795981 0.4560952228466616 0 0.29858911218099388 0.47804761142333041 0 0.31735895654795981 0.4560952228466616 0 0.29858911218099388 0.47804761142333041 0 0.31735895654795981 0.4560952228466616 0 0.29858911218099388 0.47804761142333041 0 0.30394549120614872 0.46162163170145309 0 0.29725747373891409 0.47096212688531919 0 0.30394549120614872 0.46162163170145309 0 0.29689887691674288 0.44945424935861261 0 0.30394549120614872 0.46162163170145309 0 0.29689887691674288 0.44945424935861261 0 0.30911044941567051 0.45218166007787741 0 0.31735895654795981 0.4560952228466616 0 0.30394549120614872 0.46162163170145309 0 0.30911044941567051 0.45218166007787741 0 0.30070663495474709 0.43766865088546281 0 0.29689887691674288 0.44945424935861261 0 0.30895583225644641 0.443132433452401 0 0.29689887691674288 0.44945424935861261 0 0.30911044941567051 0.45218166007787741 0 0.30895583225644641 0.443132433452401 0 0.31437221141459187 0.44813164881602929 0 0.30911044941567051 0.45218166007787741 0 0.30895583225644641 0.443132433452401 0 0.30767655093949842 0.42905330117373841 0 0.29814378320479767 0.40762111018928587 0 0.28929527970630098 0.42903461955709921 0 0.30070663495474709 0.43766865088546281 0 0.30895583225644641 0.443132433452401 0 0.30767655093949842 0.42905330117373841 0 0.30070663495474709 0.43766865088546281 0 0.30767655093949842 0.42905330117373841 0 0.28929527970630098 0.42903461955709921 0 0.29814378320479767 0.40762111018928587 0 0.31526661054477739 0.40145988752310757 0 0.31374305470740332 0.41450678878344038 0 0.30767655093949842 0.42905330117373841 0 0.29814378320479767 0.40762111018928587 0 0.31374305470740332 0.41450678878344038 0 0.29814378320479767 0.40762111018928587 0 0.28929527970630098 0.42903461955709921 0 0.27630240611508422 0.4036576396530418 0 0.27613098445752893 0.4550588929857492 0 0.28929527970630098 0.42903461955709921 0 0.26734494259474612 0.42343895336183768 0 0.2338780058947581 0.42325242518660899 0 0.25500449517614349 0.43915565908617921 0 0.26734494259474612 0.42343895336183768 0 0.2338780058947581 0.42325242518660899 0 0.26734494259474612 0.42343895336183768 0 0.25440614107901682 0.40739542965516917 0 0.28929527970630098 0.42903461955709921 0 0.26734494259474612 0.42343895336183768 0 0.27630240611508422 0.4036576396530418 0 0.26734494259474612 0.42343895336183768 0 0.25440614107901682 0.40739542965516917 0 0.27630240611508422 0.4036576396530418 0 0.24286449722361661 0.3792236641459521 0 0.25693803295924073 0.38968393527188272 0 0.25715691338117619 0.37069804294421133 0 0.25693803295924073 0.38968393527188272 0 0.27619309981883439 0.38025090324414529 0 0.25715691338117619 0.37069804294421133 0 0.25440614107901682 0.40739542965516917 0 0.25693803295924073 0.38968393527188272 0 0.27630240611508422 0.4036576396530418 0 0.25693803295924073 0.38968393527188272 0 0.27630240611508422 0.4036576396530418 0 0.27619309981883439 0.38025090324414529 0 0.27619309981883439 0.38025090324414529 0 0.29192220956415899 0.38910549810377382 0 0.2965213462350561 0.3680850790348496 0 0.27630240611508422 0.4036576396530418 0 0.27619309981883439 0.38025090324414529 0 0.29192220956415899 0.38910549810377382 0 0.29814378320479767 0.40762111018928587 0 0.27630240611508422 0.4036576396530418 0 0.29192220956415899 0.38910549810377382 0 0.29814378320479767 0.40762111018928587 0 0.30970548856526181 0.38630165248160708 0 0.29814378320479767 0.40762111018928587 0 0.30970548856526181 0.38630165248160708 0 0.31526661054477739 0.40145988752310757 0 0.29814378320479767 0.40762111018928587 0 0.29192220956415899 0.38910549810377382 0 0.30970548856526181 0.38630165248160708 0 0.29192220956415899 0.38910549810377382 0 0.30970548856526181 0.38630165248160708 0 0.2965213462350561 0.3680850790348496 0 0.30970548856526181 0.38630165248160708 0 0.32126719392572578 0.36498219477392851 0 0.30970548856526181 0.38630165248160708 0 0.32842244605259518 0.38959005820445142 0 0.32126719392572578 0.36498219477392851 0 0.32842244605259518 0.38959005820445142 0 0.34202193887440901 0.37621313862622541 0 0.32126719392572578 0.36498219477392851 0 0.32842244605259518 0.38959005820445142 0 0.34202193887440901 0.37621313862622541 0 0.34125596736992908 0.40165592289314189 0 0.32842244605259518 0.38959005820445142 0 0.34125596736992908 0.40165592289314189 0 0.32631828019382891 0.40927982795675311 0 0.30970548856526181 0.38630165248160708 0 0.32842244605259518 0.38959005820445142 0 0.31526661054477739 0.40145988752310757 0 0.32842244605259518 0.38959005820445142 0 0.31526661054477739 0.40145988752310757 0 0.32631828019382891 0.40927982795675311 0 0.31374305470740332 0.41450678878344038 0 0.32631828019382891 0.40927982795675311 0 0.32372483283707199 0.42545233459364812 0 0.31526661054477739 0.40145988752310757 0 0.31374305470740332 0.41450678878344038 0 0.32631828019382891 0.40927982795675311 0 0.32206360743829088 0.4411172788871775 0 0.32372483283707199 0.42545233459364812 0 0.33612880091492559 0.43414283426999267 0 0.30767655093949842 0.42905330117373841 0 0.31374305470740332 0.41450678878344038 0 0.32372483283707199 0.42545233459364812 0 0.32206360743829088 0.4411172788871775 0 0.30767655093949842 0.42905330117373841 0 0.32372483283707199 0.42545233459364812 0 0.32372483283707199 0.42545233459364812 0 0.33612880091492559 0.43414283426999267 0 0.33677291868720582 0.41846632002953349 0 0.33612880091492559 0.43414283426999267 0 0.33677291868720582 0.41846632002953349 0 0.35481309884138512 0.42092088798930027 0 0.32631828019382891 0.40927982795675311 0 0.32372483283707199 0.42545233459364812 0 0.33677291868720582 0.41846632002953349 0 0.34125596736992908 0.40165592289314189 0 0.32631828019382891 0.40927982795675311 0 0.33677291868720582 0.41846632002953349 0 0.35481309884138512 0.42092088798930027 0 0.35918712157015109 0.39546530455258783 0 0.34125596736992908 0.40165592289314189 0 0.33677291868720582 0.41846632002953349 0 0.35481309884138512 0.42092088798930027 0 0.35043907611261932 0.44637647142601278 0 0.35481309884138512 0.42092088798930027 0 0.35043907611261932 0.44637647142601278 0 0.33612880091492559 0.43414283426999267 0 0.35481309884138512 0.42092088798930027 0 0.37339696152701402 0.44208754989350779 0 0.35481309884138512 0.42092088798930027 0 0.37548462739454758 0.414948727731144 0 0.37339696152701402 0.44208754989350779 0 0.35043907611261932 0.44637647142601278 0 0.35481309884138512 0.42092088798930027 0 0.35481309884138512 0.42092088798930027 0 0.35918712157015109 0.39546530455258783 0 0.37548462739454758 0.414948727731144 0 0.35918712157015109 0.39546530455258783 0 0.37587030772319491 0.38911498699501551 0 0.37548462739454758 0.414948727731144 0 0.35918712157015109 0.39546530455258783 0 0.36356114429891689 0.37000972111587521 0 0.37587030772319491 0.38911498699501551 0 0.35918712157015109 0.39546530455258783 0 0.36356114429891689 0.37000972111587521 0 0.36356114429891689 0.37000972111587521 0 0.37925862339361788 0.36859874143749149 0 0.37587030772319491 0.38911498699501551 0 0.34202193887440901 0.37621313862622541 0 0.35918712157015109 0.39546530455258783 0 0.36356114429891689 0.37000972111587521 0 0.34202193887440901 0.37621313862622541 0 0.34125596736992908 0.40165592289314189 0 0.35918712157015109 0.39546530455258783 0 0.34125596736992908 0.40165592289314189 0 0.35481309884138512 0.42092088798930027 0 0.35918712157015109 0.39546530455258783 0 0.34979617018310449 0.35544600566648621 0 0.36793516702768292 0.34455413767916249 0 0.3508687583786923 0.33898019500123672 0 0.34979617018310449 0.35544600566648621 0 0.3508687583786923 0.33898019500123672 0 0.33282889928618981 0.34366273706624972 0 0.34202193887440901 0.37621313862622541 0 0.34979617018310449 0.35544600566648621 0 0.36356114429891689 0.37000972111587521 0 0.36356114429891689 0.37000972111587521 0 0.36553683500632311 0.35851175625237192 0 0.36356114429891689 0.37000972111587521 0 0.36553683500632311 0.35851175625237192 0 0.37925862339361788 0.36859874143749149 0 0.34979617018310449 0.35544600566648621 0 0.36356114429891689 0.37000972111587521 0 0.36553683500632311 0.35851175625237192 0 0.36553683500632311 0.35851175625237192 0 0.37716757539731799 0.35699376570784741 0 0.37925862339361788 0.36859874143749149 0 0.36553683500632311 0.35851175625237192 0 0.37478911394279663 0.33397524985268912 0 0.34979617018310449 0.35544600566648621 0 0.36553683500632311 0.35851175625237192 0 0.36793516702768292 0.34455413767916249 0 0.36553683500632311 0.35851175625237192 0 0.37893109631740751 0.34874911958917693 0 0.37716757539731799 0.35699376570784741 0 0.36553683500632311 0.35851175625237192 0 0.37478911394279663 0.33397524985268912 0 0.37893109631740751 0.34874911958917693 0 0.36553683500632311 0.35851175625237192 0 0.36793516702768292 0.34455413767916249 0 0.37478911394279663 0.33397524985268912 0 0.36553683500632311 0.35851175625237192 0 0.36793516702768292 0.34455413767916249 0 0.36793516702768292 0.34455413767916249 0 0.37478911394279663 0.33397524985268912 0 0.37230918975644889 0.31909855424244982 0 0.36793516702768292 0.34455413767916249 0 0.35939295074983041 0.32889481523571418 0 0.37230918975644889 0.31909855424244982 0 0.36793516702768292 0.34455413767916249 0 0.37230918975644889 0.31909855424244982 0 0.36793516702768292 0.34455413767916249 0 0.35939295074983041 0.32889481523571418 0 0.3508687583786923 0.33898019500123672 0 0.35939295074983041 0.32889481523571418 0 0.37230918975644889 0.31909855424244982 0 0.35789909005818821 0.31067869813905752 0 0.35939295074983041 0.32889481523571418 0 0.34439060464665378 0.32234327935857099 0 0.35789909005818821 0.31067869813905752 0 0.35939295074983041 0.32889481523571418 0 0.34439060464665378 0.32234327935857099 0 0.3508687583786923 0.33898019500123672 0 0.34439060464665378 0.32234327935857099 0 0.33282889928618981 0.34366273706624972 0 0.34439060464665378 0.32234327935857099 0 0.33282889928618981 0.34366273706624972 0 0.32307621582225232 0.3252270821592303 0 0.34439060464665378 0.32234327935857099 0 0.3508687583786923 0.33898019500123672 0 0.33282889928618981 0.34366273706624972 0 0.34439060464665378 0.32234327935857099 0 0.32307621582225232 0.3252270821592303 0 0.33243843618521179 0.30564985912806653 0 0.32307621582225232 0.3252270821592303 0 0.31238203812722942 0.30798890485322261 0 0.33243843618521179 0.30564985912806653 0 0.33282889928618981 0.34366273706624972 0 0.32307621582225232 0.3252270821592303 0 0.311001807136428 0.34653894044201228 0 0.33282889928618981 0.34366273706624972 0 0.32126719392572578 0.36498219477392851 0 0.311001807136428 0.34653894044201228 0 0.33282889928618981 0.34366273706624972 0 0.32126719392572578 0.36498219477392851 0 0.33282889928618981 0.34366273706624972 0 0.33634933699338071 0.36064731331902211 0 0.32126719392572578 0.36498219477392851 0 0.34979617018310449 0.35544600566648621 0 0.33282889928618981 0.34366273706624972 0 0.33634933699338071 0.36064731331902211 0 0.34202193887440901 0.37621313862622541 0 0.34979617018310449 0.35544600566648621 0 0.33634933699338071 0.36064731331902211 0 0.34202193887440901 0.37621313862622541 0 0.33634933699338071 0.36064731331902211 0 0.32126719392572578 0.36498219477392851 0 0.30970548856526181 0.38630165248160708 0 0.32126719392572578 0.36498219477392851 0 0.2965213462350561 0.3680850790348496 0 0.32126719392572578 0.36498219477392851 0 0.311001807136428 0.34653894044201228 0 0.2965213462350561 0.3680850790348496 0 0.311001807136428 0.34653894044201228 0 0.29075077899048618 0.34885473146080298 0 0.2965213462350561 0.3680850790348496 0 0.29075077899048618 0.34885473146080298 0 0.2965213462350561 0.3680850790348496 0 0.27441310809995068 0.36151219532306311 0 0.27619309981883439 0.38025090324414529 0 0.2965213462350561 0.3680850790348496 0 0.27441310809995068 0.36151219532306311 0 0.27619309981883439 0.38025090324414529 0 0.27441310809995068 0.36151219532306311 0 0.25715691338117619 0.37069804294421133 0 0.27441310809995068 0.36151219532306311 0 0.26911792135377738 0.34488189757901522 0 0.2549174677925593 0.35400984449820649 0 0.29075077899048618 0.34885473146080298 0 0.27441310809995068 0.36151219532306311 0 0.26911792135377738 0.34488189757901522 0 0.24245458021815861 0.34807196438065968 0 0.2549174677925593 0.35400984449820649 0 0.25334434943086531 0.33817461409465849 0 0.26911792135377738 0.34488189757901522 0 0.2549174677925593 0.35400984449820649 0 0.25334434943086531 0.33817461409465849 0 0.23793511617045451 0.36040731550714661 0 0.2549174677925593 0.35400984449820649 0 0.25715691338117619 0.37069804294421133 0 0.27441310809995068 0.36151219532306311 0 0.2549174677925593 0.35400984449820649 0 0.25715691338117619 0.37069804294421133 0 0.2422144148352007 0.30840559904210912 0 0.24990084266874429 0.32367317630407949 0 0.26053922699804788 0.31505883873888191 0 0.24990084266874429 0.32367317630407949 0 0.26053922699804788 0.31505883873888191 0 0.26570137339406352 0.32956758335975322 0 0.24990084266874429 0.32367317630407949 0 0.25334434943086531 0.33817461409465849 0 0.26570137339406352 0.32956758335975322 0 0.26911792135377738 0.34488189757901522 0 0.25334434943086531 0.33817461409465849 0 0.26570137339406352 0.32956758335975322 0 0.29075077899048618 0.34885473146080298 0 0.26911792135377738 0.34488189757901522 0 0.28130691332509211 0.33361627537131661 0 0.26911792135377738 0.34488189757901522 0 0.26570137339406352 0.32956758335975322 0 0.28130691332509211 0.33361627537131661 0 0.26570137339406352 0.32956758335975322 0 0.28039226191687838 0.31573796064612852 0 0.28130691332509211 0.33361627537131661 0 0.26053922699804788 0.31505883873888191 0 0.26570137339406352 0.32956758335975322 0 0.28039226191687838 0.31573796064612852 0 0.28039226191687838 0.31573796064612852 0 0.28130691332509211 0.33361627537131661 0 0.3015664085588578 0.32842181815701271 0 0.28039226191687838 0.31573796064612852 0 0.3015664085588578 0.32842181815701271 0 0.29733240111912529 0.30770415112582578 0 0.29075077899048618 0.34885473146080298 0 0.28130691332509211 0.33361627537131661 0 0.3015664085588578 0.32842181815701271 0 0.29075077899048618 0.34885473146080298 0 0.3015664085588578 0.32842181815701271 0 0.32307621582225232 0.3252270821592303 0 0.311001807136428 0.34653894044201228 0 0.3015664085588578 0.32842181815701271 0 0.311001807136428 0.34653894044201228 0 0.29075077899048618 0.34885473146080298 0 0.3015664085588578 0.32842181815701271 0 0.32307621582225232 0.3252270821592303 0 0.3015664085588578 0.32842181815701271 0 0.31238203812722942 0.30798890485322261 0 0.3015664085588578 0.32842181815701271 0 0.31238203812722942 0.30798890485322261 0 0.3015664085588578 0.32842181815701271 0 0.31238203812722942 0.30798890485322261 0 0.29733240111912529 0.30770415112582578 0 0.31238203812722942 0.30798890485322261 0 0.29733240111912529 0.30770415112582578 0 0.3074106909938244 0.29400742131152952 0 0.29733240111912529 0.30770415112582578 0 0.3074106909938244 0.29400742131152952 0 0.29645817164033827 0.29307411812204381 0 0.3074106909938244 0.29400742131152952 0 0.30042658553445101 0.2853728736848567 0 0.3083006019872418 0.28075650968009491 0 0.3074106909938244 0.29400742131152952 0 0.30042658553445101 0.2853728736848567 0 0.29645817164033827 0.29307411812204381 0 0.30042658553445101 0.2853728736848567 0 0.29176889071183948 0.28505382028050508 0 0.29730519254043231 0.27345333268771471 0 0.29176889071183948 0.28505382028050508 0 0.29645817164033827 0.29307411812204381 0 0.28676006951550609 0.2874141496425715 0 0.30042658553445101 0.2853728736848567 0 0.29176889071183948 0.28505382028050508 0 0.29645817164033827 0.29307411812204381 0 0.29176889071183948 0.28505382028050508 0 0.28676006951550609 0.2874141496425715 0 0.29645817164033827 0.29307411812204381 0 0.28676006951550609 0.2874141496425715 0 0.29645817164033827 0.29307411812204381 0 0.28676006951550609 0.2874141496425715 0 0.2850860292734399 0.3003680507757821 0 0.29176889071183948 0.28505382028050508 0 0.28676006951550609 0.2874141496425715 0 0.28710972280600061 0.27774439211481522 0 0.28039226191687838 0.31573796064612852 0 0.29733240111912529 0.30770415112582578 0 0.2850860292734399 0.3003680507757821 0 0.29733240111912529 0.30770415112582578 0 0.29645817164033827 0.29307411812204381 0 0.2850860292734399 0.3003680507757821 0 0.28039226191687838 0.31573796064612852 0 0.2850860292734399 0.3003680507757821 0 0.26448724217535258 0.29790987434233868 0 0.26053922699804788 0.31505883873888191 0 0.28039226191687838 0.31573796064612852 0 0.26448724217535258 0.29790987434233868 0 0.28676006951550609 0.2874141496425715 0 0.26541451967718699 0.28663077599929021 0 0.26448724217535258 0.29790987434233868 0 0.28676006951550609 0.2874141496425715 0 0.26448724217535258 0.29790987434233868 0 0.28676006951550609 0.2874141496425715 0 0.26541451967718699 0.28663077599929021 0 0.26164778750359552 0.27275821770811598 0 0.28676006951550609 0.2874141496425715 0 0.2850860292734399 0.3003680507757821 0 0.26448724217535258 0.29790987434233868 0 0.25193110116939837 0.29058190837511277 0 0.26164778750359552 0.27275821770811598 0 0.26541451967718699 0.28663077599929021 0 0.25193110116939837 0.29058190837511277 0 0.26448724217535258 0.29790987434233868 0 0.26541451967718699 0.28663077599929021 0 0.25193110116939837 0.29058190837511277 0 0.26164778750359552 0.27275821770811598 0 0.2422144148352007 0.30840559904210912 0 0.26053922699804788 0.31505883873888191 0 0.26448724217535258 0.29790987434233868 0 0.2422144148352007 0.30840559904210912 0 0.26448724217535258 0.29790987434233868 0 0.2422144148352007 0.30840559904210912 0 0.25193110116939837 0.29058190837511277 0 0.26448724217535258 0.29790987434233868 0 0.24291065407169329 0.26182292508538169 0 0.25973151778068893 0.25367874042682947 0 0.25859327421991551 0.2494597678777338 0 0.24291065407169329 0.26182292508538169 0 0.25859327421991551 0.2494597678777338 0 0.24291065407169329 0.26182292508538169 0 0.25973151778068893 0.25367874042682947 0 0.25219810148588018 0.26724322886672169 0 0.25973151778068893 0.25367874042682947 0 0.26380929483464222 0.26879328185262669 0 0.2657844840571153 0.25392006059086852 0 0.25973151778068893 0.25367874042682947 0 0.25219810148588018 0.26724322886672169 0 0.26380929483464222 0.26879328185262669 0 0.25973151778068893 0.25367874042682947 0 0.26380929483464222 0.26879328185262669 0 0.25973151778068893 0.25367874042682947 0 0.2657844840571153 0.25392006059086852 0 0.26266022157239621 0.24840538672223431 0 0.25973151778068893 0.25367874042682947 0 0.26266022157239621 0.24840538672223431 0 0.25973151778068893 0.25367874042682947 0 0.25859327421991551 0.2494597678777338 0 0.25973151778068893 0.25367874042682947 0 0.26266022157239621 0.24840538672223431 0 0.25859327421991551 0.2494597678777338 0 0.25973151778068893 0.25367874042682947 0 0.25219810148588018 0.26724322886672169 0 0.25219810148588018 0.26724322886672169 0 0.26164778750359552 0.27275821770811598 0 0.25193110116939837 0.29058190837511277 0 0.25219810148588018 0.26724322886672169 0 0.26164778750359552 0.27275821770811598 0 0.25219810148588018 0.26724322886672169 0 0.26164778750359552 0.27275821770811598 0 0.26380929483464222 0.26879328185262669 0 0.26516680915633978 0.27382499549953282 0 0.26164778750359552 0.27275821770811598 0 0.26380929483464222 0.26879328185262669 0 0.26516680915633978 0.27382499549953282 0 0.26380929483464222 0.26879328185262669 0 0.26164778750359552 0.27275821770811598 0 0.26380929483464222 0.26879328185262669 0 0.26516680915633978 0.27382499549953282 0 0.26975115179103748 0.26875776194029899 0 0.2778987838412928 0.27404881191656472 0 0.28676006951550609 0.2874141496425715 0 0.26516680915633978 0.27382499549953282 0 0.2778987838412928 0.27404881191656472 0 0.28676006951550609 0.2874141496425715 0 0.26516680915633978 0.27382499549953282 0 0.26164778750359552 0.27275821770811598 0 0.28676006951550609 0.2874141496425715 0 0.26164778750359552 0.27275821770811598 0 0.26516680915633978 0.27382499549953282 0 0.26380929483464222 0.26879328185262669 0 0.26975115179103748 0.26875776194029899 0 0.2778987838412928 0.27404881191656472 0 0.27497684629303282 0.26706580293302978 0 0.28475881927146862 0.26804927532936912 0 0.26975115179103748 0.26875776194029899 0 0.2778987838412928 0.27404881191656472 0 0.27497684629303282 0.26706580293302978 0 0.26380929483464222 0.26879328185262669 0 0.27233146060088798 0.25316074610884981 0 0.26380929483464222 0.26879328185262669 0 0.27233146060088798 0.25316074610884981 0 0.2657844840571153 0.25392006059086852 0 0.27497684629303282 0.26706580293302978 0 0.28258890277642112 0.25851618897480427 0 0.28475881927146862 0.26804927532936912 0 0.27497684629303282 0.26706580293302978 0 0.27233146060088798 0.25316074610884981 0 0.28258890277642112 0.25851618897480427 0 0.26380929483464222 0.26879328185262669 0 0.26975115179103748 0.26875776194029899 0 0.27233146060088798 0.25316074610884981 0 0.26975115179103748 0.26875776194029899 0 0.27497684629303282 0.26706580293302978 0 0.27233146060088798 0.25316074610884981 0 0.27233146060088798 0.25316074610884981 0 0.2657844840571153 0.25392006059086852 0 0.27038992549696139 0.2455621478438022 0 0.27233146060088798 0.25316074610884981 0 0.28258890277642112 0.25851618897480427 0 0.28504550834992343 0.24884756898793101 0 0.29630545597748881 0.25461063337801759 0 0.28475881927146862 0.26804927532936912 0 0.29730519254043231 0.27345333268771471 0 0.28258890277642112 0.25851618897480427 0 0.29630545597748881 0.25461063337801759 0 0.28504550834992343 0.24884756898793101 0 0.28258890277642112 0.25851618897480427 0 0.29630545597748881 0.25461063337801759 0 0.28475881927146862 0.26804927532936912 0 0.28676006951550609 0.2874141496425715 0 0.2778987838412928 0.27404881191656472 0 0.28710972280600061 0.27774439211481522 0 0.2778987838412928 0.27404881191656472 0 0.28710972280600061 0.27774439211481522 0 0.28475881927146862 0.26804927532936912 0 0.28710972280600061 0.27774439211481522 0 0.28475881927146862 0.26804927532936912 0 0.29730519254043231 0.27345333268771471 0 0.29176889071183948 0.28505382028050508 0 0.28710972280600061 0.27774439211481522 0 0.29730519254043231 0.27345333268771471 0 0.29730519254043231 0.27345333268771471 0 0.3083006019872418 0.28075650968009491 0 0.31497460046591008 0.26310967504609412 0 0.30042658553445101 0.2853728736848567 0 0.29730519254043231 0.27345333268771471 0 0.3083006019872418 0.28075650968009491 0 0.29630545597748881 0.25461063337801759 0 0.31497460046591008 0.26310967504609412 0 0.31816215134194809 0.23474533714592391 0 0.29630545597748881 0.25461063337801759 0 0.29730519254043231 0.27345333268771471 0 0.31497460046591008 0.26310967504609412 0 0.31497460046591008 0.26310967504609412 0 0.33387916702828763 0.25056691403351689 0 0.33401329726397239 0.26712307824564219 0 0.33387916702828763 0.25056691403351689 0 0.33401329726397239 0.26712307824564219 0 0.35081428384065189 0.25367106851290039 0 0.33401329726397239 0.26712307824564219 0 0.32319766769560088 0.2875559915494324 0 0.31497460046591008 0.26310967504609412 0 0.33401329726397239 0.26712307824564219 0 0.32319766769560088 0.2875559915494324 0 0.3083006019872418 0.28075650968009491 0 0.31497460046591008 0.26310967504609412 0 0.32319766769560088 0.2875559915494324 0 0.31238203812722942 0.30798890485322261 0 0.3074106909938244 0.29400742131152952 0 0.32319766769560088 0.2875559915494324 0 0.3074106909938244 0.29400742131152952 0 0.3083006019872418 0.28075650968009491 0 0.32319766769560088 0.2875559915494324 0 0.31238203812722942 0.30798890485322261 0 0.32319766769560088 0.2875559915494324 0 0.31238203812722942 0.30798890485322261 0 0.32319766769560088 0.2875559915494324 0 0.33243843618521179 0.30564985912806653 0 0.33243843618521179 0.30564985912806653 0 0.3442437998168647 0.28925548386291938 0 0.3466340444292596 0.30347262018282262 0 0.34439060464665378 0.32234327935857099 0 0.33243843618521179 0.30564985912806653 0 0.3466340444292596 0.30347262018282262 0 0.33401329726397239 0.26712307824564219 0 0.32319766769560088 0.2875559915494324 0 0.3442437998168647 0.28925548386291938 0 0.32319766769560088 0.2875559915494324 0 0.33243843618521179 0.30564985912806653 0 0.3442437998168647 0.28925548386291938 0 0.3442437998168647 0.28925548386291938 0 0.36056062267741001 0.29399026144527568 0 0.35535556145395991 0.27727391644989052 0 0.3442437998168647 0.28925548386291938 0 0.3466340444292596 0.30347262018282262 0 0.36056062267741001 0.29399026144527568 0 0.3442437998168647 0.28925548386291938 0 0.35535556145395991 0.27727391644989052 0 0.34439060464665378 0.32234327935857099 0 0.3466340444292596 0.30347262018282262 0 0.35789909005818821 0.31067869813905752 0 0.3466340444292596 0.30347262018282262 0 0.35789909005818821 0.31067869813905752 0 0.36056062267741001 0.29399026144527568 0 0.37230918975644889 0.31909855424244982 0 0.37668321248521469 0.29364297080573709 0 0.37230918975644889 0.31909855424244982 0 0.35789909005818821 0.31067869813905752 0 0.37668321248521469 0.29364297080573709 0 0.35789909005818821 0.31067869813905752 0 0.36056062267741001 0.29399026144527568 0 0.37668321248521469 0.29364297080573709 0 0.36056062267741001 0.29399026144527568 0 0.37119209836691469 0.28027824216422448 0 0.37668321248521469 0.29364297080573709 0 0.36056062267741001 0.29399026144527568 0 0.36646732309105429 0.26529234903686078 0 0.35535556145395991 0.27727391644989052 0 0.36056062267741001 0.29399026144527568 0 0.37119209836691469 0.28027824216422448 0 0.36646732309105429 0.26529234903686078 0 0.36056062267741001 0.29399026144527568 0 0.36646732309105429 0.26529234903686078 0 0.36646732309105429 0.26529234903686078 0 0.35535556145395991 0.27727391644989052 0 0.37119209836691469 0.28027824216422448 0 0.36646732309105429 0.26529234903686078 0 0.38105723521398072 0.26818738736902442 0 0.36646732309105429 0.26529234903686078 0 0.36978443397455302 0.24917604874782129 0 0.38200224297838992 0.24854138767131839 0 0.36646732309105429 0.26529234903686078 0 0.36978443397455302 0.24917604874782129 0 0.36646732309105429 0.26529234903686078 0 0.38200224297838992 0.24854138767131839 0 0.36646732309105429 0.26529234903686078 0 0.35081428384065189 0.25367106851290039 0 0.36978443397455302 0.24917604874782129 0 0.36646732309105429 0.26529234903686078 0 0.35437774250290688 0.26522374902959012 0 0.35081428384065189 0.25367106851290039 0 0.33401329726397239 0.26712307824564219 0 0.35437774250290688 0.26522374902959012 0 0.35081428384065189 0.25367106851290039 0 0.33401329726397239 0.26712307824564219 0 0.35437774250290688 0.26522374902959012 0 0.35535556145395991 0.27727391644989052 0 0.33401329726397239 0.26712307824564219 0 0.3442437998168647 0.28925548386291938 0 0.35535556145395991 0.27727391644989052 0 0.36646732309105429 0.26529234903686078 0 0.35437774250290688 0.26522374902959012 0 0.35535556145395991 0.27727391644989052 0 0.40095602858256041 0.26009253496263057 0 0.38105723521398072 0.26818738736902442 0 0.39223372370263931 0.28472010659265018 0 0.40133468974489123 0.27336059709845878 0 0.40095602858256041 0.26009253496263057 0 0.39223372370263931 0.28472010659265018 0 0.40095602858256041 0.26009253496263057 0 0.39223372370263931 0.28472010659265018 0 0.40133468974489123 0.27336059709845878 0 0.40095602858256041 0.26009253496263057 0 0.40133468974489123 0.27336059709845878 0 0.40095602858256041 0.26009253496263057 0 0.41165520165146557 0.26302518258458651 0 0.40095602858256041 0.26009253496263057 0 0.40626169246956778 0.24511190550505879 0 0.40095602858256041 0.26009253496263057 0 0.40951848413196817 0.25471329605294057 0 0.40626169246956778 0.24511190550505879 0 0.40095602858256041 0.26009253496263057 0 0.38105723521398072 0.26818738736902442 0 0.38200224297838992 0.24854138767131839 0 0.36646732309105429 0.26529234903686078 0 0.38105723521398072 0.26818738736902442 0 0.38200224297838992 0.24854138767131839 0 0.37119209836691469 0.28027824216422448 0 0.38105723521398072 0.26818738736902442 0 0.37668321248521469 0.29364297080573709 0 0.38105723521398072 0.26818738736902442 0 0.37668321248521469 0.29364297080573709 0 0.37668321248521469 0.29364297080573709 0 0.38351141882271789 0.30934767822266968 0 0.39223372370263931 0.28472010659265018 0 0.38105723521398072 0.26818738736902442 0 0.37668321248521469 0.29364297080573709 0 0.39223372370263931 0.28472010659265018 0 0.38351141882271789 0.30934767822266968 0 0.39223372370263931 0.28472010659265018 0 0.37230918975644889 0.31909855424244982 0 0.37668321248521469 0.29364297080573709 0 0.38351141882271789 0.30934767822266968 0 0.38351141882271789 0.30934767822266968 0 0.39839033493454717 0.29982776702775649 0 0.39223372370263931 0.28472010659265018 0 0.38351141882271789 0.30934767822266968 0 0.39839033493454717 0.29982776702775649 0 0.3985540211375877 0.31441500376178411 0 0.39839033493454717 0.29982776702775649 0 0.41031844969237619 0.30294270843212878 0 0.3985540211375877 0.31441500376178411 0 0.39839033493454717 0.29982776702775649 0 0.39223372370263931 0.28472010659265018 0 0.40733406131741501 0.28771333812954969 0 0.39839033493454717 0.29982776702775649 0 0.40733406131741501 0.28771333812954969 0 0.41031844969237619 0.30294270843212878 0 0.40133468974489123 0.27336059709845878 0 0.39223372370263931 0.28472010659265018 0 0.40733406131741501 0.28771333812954969 0 0.40733406131741501 0.28771333812954969 0 0.42038176556206341 0.28862110531423418 0 0.41031844969237619 0.30294270843212878 0 0.40733406131741501 0.28771333812954969 0 0.42038176556206341 0.28862110531423418 0 0.41871161316811539 0.27425979753788438 0 0.41031844969237619 0.30294270843212878 0 0.41516939882387932 0.31772479140802418 0 0.3985540211375877 0.31441500376178411 0 0.42038176556206341 0.28862110531423418 0 0.41031844969237619 0.30294270843212878 0 0.43155476657532738 0.30314497200079399 0 0.41031844969237619 0.30294270843212878 0 0.43155476657532738 0.30314497200079399 0 0.41516939882387932 0.31772479140802418 0 0.43155476657532738 0.30314497200079399 0 0.43398993705708527 0.27504471047081441 0 0.43155476657532738 0.30314497200079399 0 0.43398993705708527 0.27504471047081441 0 0.44258492883738559 0.29947073746928748 0 0.42038176556206341 0.28862110531423418 0 0.43155476657532738 0.30314497200079399 0 0.43398993705708527 0.27504471047081441 0 0.43398993705708527 0.27504471047081441 0 0.43076168811460669 0.26587037990221463 0 0.43398993705708527 0.27504471047081441 0 0.43076168811460669 0.26587037990221463 0 0.41871161316811539 0.27425979753788438 0 0.43076168811460669 0.26587037990221463 0 0.41871161316811539 0.27425979753788438 0 0.42138634997800428 0.26273140556742702 0 0.42038176556206341 0.28862110531423418 0 0.43398993705708527 0.27504471047081441 0 0.41871161316811539 0.27425979753788438 0 0.40133468974489123 0.27336059709845878 0 0.41871161316811539 0.27425979753788438 0 0.41165520165146557 0.26302518258458651 0 0.40133468974489123 0.27336059709845878 0 0.40733406131741501 0.28771333812954969 0 0.41871161316811539 0.27425979753788438 0 0.41871161316811539 0.27425979753788438 0 0.41165520165146557 0.26302518258458651 0 0.42138634997800428 0.26273140556742702 0 0.40951848413196817 0.25471329605294057 0 0.41758883224828108 0.25248379089286138 0 0.40626169246956778 0.24511190550505879 0 0.40951848413196817 0.25471329605294057 0 0.41165520165146557 0.26302518258458651 0 0.41758883224828108 0.25248379089286138 0 0.40095602858256041 0.26009253496263057 0 0.40951848413196817 0.25471329605294057 0 0.41165520165146557 0.26302518258458651 0 0.41165520165146557 0.26302518258458651 0 0.42138634997800428 0.26273140556742702 0 0.41758883224828108 0.25248379089286138 0 0.42138634997800428 0.26273140556742702 0 0.41758883224828108 0.25248379089286138 0 0.42650703831058251 0.25608120995774442 0 0.43398993705708527 0.27504471047081441 0 0.43575639483054618 0.25466095262392802 0 0.43398993705708527 0.27504471047081441 0 0.43076168811460669 0.26587037990221463 0 0.43575639483054618 0.25466095262392802 0 0.41758883224828108 0.25248379089286138 0 0.42650703831058251 0.25608120995774442 0 0.42704192638147398 0.24465952080229089 0 0.43076168811460669 0.26587037990221463 0 0.42138634997800428 0.26273140556742702 0 0.42650703831058251 0.25608120995774442 0 0.43076168811460669 0.26587037990221463 0 0.42650703831058251 0.25608120995774442 0 0.43575639483054618 0.25466095262392802 0 0.42650703831058251 0.25608120995774442 0 0.43575639483054618 0.25466095262392802 0 0.42704192638147398 0.24465952080229089 0 0.43575639483054618 0.25466095262392802 0 0.45200872137413051 0.26493014997908088 0 0.45960743701738099 0.2422192360151087 0 0.43398993705708527 0.27504471047081441 0 0.43575639483054618 0.25466095262392802 0 0.45200872137413051 0.26493014997908088 0 0.43398993705708527 0.27504471047081441 0 0.45200872137413051 0.26493014997908088 0 0.4501227603642397 0.2825049645308027 0 0.45200872137413051 0.26493014997908088 0 0.4654882409698976 0.27748513470453218 0 0.46845839290030739 0.26084319525920202 0 0.45200872137413051 0.26493014997908088 0 0.4654882409698976 0.27748513470453218 0 0.4501227603642397 0.2825049645308027 0 0.45200872137413051 0.26493014997908088 0 0.46845839290030739 0.26084319525920202 0 0.45960743701738099 0.2422192360151087 0 0.46845839290030739 0.26084319525920202 0 0.48169202143075018 0.25016127725317611 0 0.45960743701738099 0.2422192360151087 0 0.46845839290030739 0.26084319525920202 0 0.48169202143075018 0.25016127725317611 0 0.48279361116438207 0.26956305818821208 0 0.4654882409698976 0.27748513470453218 0 0.46845839290030739 0.26084319525920202 0 0.48279361116438207 0.26956305818821208 0 0.4654882409698976 0.27748513470453218 0 0.48279361116438207 0.26956305818821208 0 0.48022713709877812 0.29006008509322978 0 0.48279361116438207 0.26956305818821208 0 0.5 0.25659808598344241 0 0.5 0.28310506344613728 0 0.48279361116438207 0.26956305818821208 0 0.5 0.28310506344613728 0 0.48022713709877812 0.29006008509322978 0 0.48169202143075018 0.25016127725317611 0 0.48279361116438207 0.26956305818821208 0 0.5 0.25659808598344241 0 0.5 0.30961204090883221 0 0.5 0.28310506344613728 0 0.48022713709877812 0.29006008509322978 0 0.48022713709877812 0.29006008509322978 0 0.47124775439331901 0.30973456026169971 0 0.46014179038021708 0.29719204108788549 0 0.5 0.30961204090883221 0 0.48022713709877812 0.29006008509322978 0 0.47124775439331901 0.30973456026169971 0 0.47124775439331901 0.30973456026169971 0 0.46014179038021708 0.29719204108788549 0 0.45117992061768342 0.3238967644677615 0 0.4654882409698976 0.27748513470453218 0 0.48022713709877812 0.29006008509322978 0 0.46014179038021708 0.29719204108788549 0 0.4654882409698976 0.27748513470453218 0 0.46014179038021708 0.29719204108788549 0 0.4501227603642397 0.2825049645308027 0 0.43398993705708527 0.27504471047081441 0 0.4501227603642397 0.2825049645308027 0 0.44258492883738559 0.29947073746928748 0 0.43398993705708527 0.27504471047081441 0 0.44258492883738559 0.29947073746928748 0 0.46014179038021708 0.29719204108788549 0 0.4501227603642397 0.2825049645308027 0 0.44258492883738559 0.29947073746928748 0 0.44258492883738559 0.29947073746928748 0 0.45117992061768342 0.3238967644677615 0 0.43155476657532738 0.30314497200079399 0 0.44258492883738559 0.29947073746928748 0 0.45117992061768342 0.3238967644677615 0 0.46014179038021708 0.29719204108788549 0 0.44258492883738559 0.29947073746928748 0 0.45117992061768342 0.3238967644677615 0 0.45117992061768342 0.3238967644677615 0 0.44562635997178879 0.34235987465953238 0 0.42911959609357209 0.33124523353077379 0 0.45117992061768342 0.3238967644677615 0 0.44562635997178879 0.34235987465953238 0 0.45977491239798107 0.34832279146623552 0 0.44562635997178879 0.34235987465953238 0 0.43915379632505869 0.35212487481416771 0 0.42911959609357209 0.33124523353077379 0 0.45117992061768342 0.3238967644677615 0 0.46500303716043451 0.34344666444024952 0 0.46990980993251302 0.32824751106345218 0 0.45117992061768342 0.3238967644677615 0 0.45977491239798107 0.34832279146623552 0 0.45117992061768342 0.3238967644677615 0 0.46500303716043451 0.34344666444024952 0 0.45977491239798107 0.34832279146623552 0 0.47124775439331901 0.30973456026169971 0 0.45117992061768342 0.3238967644677615 0 0.46990980993251302 0.32824751106345218 0 0.47124775439331901 0.30973456026169971 0 0.48317469321308099 0.32480018711073289 0 0.46990980993251302 0.32824751106345218 0 0.46500303716043451 0.34344666444024952 0 0.46990980993251302 0.32824751106345218 0 0.47894364427804731 0.33935937903681751 0 0.46500303716043451 0.34344666444024952 0 0.47894364427804731 0.33935937903681751 0 0.47352587050890349 0.34677223246749023 0 0.48317469321308099 0.32480018711073289 0 0.46990980993251302 0.32824751106345218 0 0.47894364427804731 0.33935937903681751 0 0.48317469321308099 0.32480018711073289 0 0.47894364427804731 0.33935937903681751 0 0.5 0.33611901837152719 0 0.47894364427804731 0.33935937903681751 0 0.5 0.33611901837152719 0 0.48364668370984248 0.35355415092329828 0 0.5 0.30961204090883221 0 0.48317469321308099 0.32480018711073289 0 0.5 0.33611901837152719 0 0.5 0.30961204090883221 0 0.47124775439331901 0.30973456026169971 0 0.48317469321308099 0.32480018711073289 0 0.5 0.36262599583422223 0 0.48599479227607512 0.37081718972089828 0 0.48364668370984248 0.35355415092329828 0 0.5 0.36262599583422223 0 0.48599479227607512 0.37081718972089828 0 0.5 0.38913297329691687 0 0.5 0.33611901837152719 0 0.5 0.36262599583422223 0 0.48364668370984248 0.35355415092329828 0 0.48364668370984248 0.35355415092329828 0 0.47371855490818998 0.35572249547994389 0 0.47714444517002902 0.36444919492046601 0 0.46500303716043451 0.34344666444024952 0 0.47371855490818998 0.35572249547994389 0 0.46927273799174052 0.37039023464821569 0 0.48364668370984248 0.35355415092329828 0 0.47352587050890349 0.34677223246749023 0 0.47371855490818998 0.35572249547994389 0 0.47894364427804731 0.33935937903681751 0 0.48364668370984248 0.35355415092329828 0 0.47352587050890349 0.34677223246749023 0 0.46500303716043451 0.34344666444024952 0 0.47352587050890349 0.34677223246749023 0 0.47371855490818998 0.35572249547994389 0 0.48599479227607512 0.37081718972089828 0 0.48364668370984248 0.35355415092329828 0 0.47714444517002902 0.36444919492046601 0 0.47371855490818998 0.35572249547994389 0 0.47714444517002902 0.36444919492046601 0 0.46927273799174052 0.37039023464821569 0 0.48599479227607512 0.37081718972089828 0 0.47714444517002902 0.36444919492046601 0 0.47794165048787229 0.37177728807825572 0 0.48599479227607512 0.37081718972089828 0 0.47794165048787229 0.37177728807825572 0 0.47935462651364469 0.3814525330234429 0 0.47794165048787229 0.37177728807825572 0 0.46927273799174052 0.37039023464821569 0 0.47935462651364469 0.3814525330234429 0 0.47714444517002902 0.36444919492046601 0 0.47794165048787229 0.37177728807825572 0 0.46927273799174052 0.37039023464821569 0 0.46836990417827878 0.37274881846470947 0 0.45670467783032132 0.36432882569518282 0 0.45977491239798107 0.34832279146623552 0 0.46927273799174052 0.37039023464821569 0 0.46836990417827878 0.37274881846470947 0 0.45977491239798107 0.34832279146623552 0 0.46836990417827878 0.37274881846470947 0 0.45977491239798107 0.34832279146623552 0 0.46836990417827878 0.37274881846470947 0 0.45670467783032132 0.36432882569518282 0 0.45718768323462561 0.37902559427407939 0 0.45670467783032132 0.36432882569518282 0 0.44588662529794992 0.36506935608028712 0 0.45718768323462561 0.37902559427407939 0 0.45670467783032132 0.36432882569518282 0 0.45977491239798107 0.34832279146623552 0 0.44902241647056512 0.35452689172378449 0 0.46500303716043451 0.34344666444024952 0 0.46927273799174052 0.37039023464821569 0 0.46500303716043451 0.34344666444024952 0 0.46927273799174052 0.37039023464821569 0 0.45977491239798107 0.34832279146623552 0 0.44562635997178879 0.34235987465953238 0 0.45977491239798107 0.34832279146623552 0 0.44902241647056512 0.35452689172378449 0 0.44902241647056512 0.35452689172378449 0 0.43915379632505869 0.35212487481416771 0 0.44588662529794992 0.36506935608028712 0 0.44562635997178879 0.34235987465953238 0 0.44902241647056512 0.35452689172378449 0 0.43915379632505869 0.35212487481416771 0 0.44588662529794992 0.36506935608028712 0 0.42668442561181669 0.35934549506075369 0 0.44127825171053742 0.38130173858328159 0 0.45670467783032132 0.36432882569518282 0 0.44902241647056512 0.35452689172378449 0 0.44588662529794992 0.36506935608028712 0 0.42668442561181669 0.35934549506075369 0 0.4242492551300614 0.38744575659073349 0 0.4128756744519414 0.37301845582751852 0 0.42668442561181669 0.35934549506075369 0 0.4242492551300614 0.38744575659073349 0 0.4128756744519414 0.37301845582751852 0 0.42668442561181669 0.35934549506075369 0 0.40622665818265491 0.35091491321567703 0 0.42668442561181669 0.35934549506075369 0 0.42911959609357209 0.33124523353077379 0 0.40622665818265491 0.35091491321567703 0 0.42668442561181669 0.35934549506075369 0 0.42911959609357209 0.33124523353077379 0 0.43915379632505869 0.35212487481416771 0 0.44588662529794992 0.36506935608028712 0 0.42668442561181669 0.35934549506075369 0 0.43915379632505869 0.35212487481416771 0 0.42668442561181669 0.35934549506075369 0 0.42911959609357209 0.33124523353077379 0 0.43155476657532738 0.30314497200079399 0 0.42911959609357209 0.33124523353077379 0 0.41516939882387932 0.31772479140802418 0 0.43155476657532738 0.30314497200079399 0 0.45117992061768342 0.3238967644677615 0 0.42911959609357209 0.33124523353077379 0 0.43155476657532738 0.30314497200079399 0 0.42911959609357209 0.33124523353077379 0 0.42911959609357209 0.33124523353077379 0 0.41516939882387932 0.31772479140802418 0 0.40180741204216808 0.32968590652510982 0 0.42911959609357209 0.33124523353077379 0 0.40180741204216808 0.32968590652510982 0 0.40622665818265491 0.35091491321567703 0 0.40180741204216808 0.32968590652510982 0 0.38895856631171388 0.33948072941177942 0 0.40622665818265491 0.35091491321567703 0 0.40180741204216808 0.32968590652510982 0 0.38901959671332792 0.32507383042975252 0 0.38895856631171388 0.33948072941177942 0 0.41516939882387932 0.31772479140802418 0 0.40180741204216808 0.32968590652510982 0 0.3985540211375877 0.31441500376178411 0 0.40180741204216808 0.32968590652510982 0 0.3985540211375877 0.31441500376178411 0 0.38901959671332792 0.32507383042975252 0 0.37478911394279663 0.33397524985268912 0 0.37230918975644889 0.31909855424244982 0 0.38351141882271789 0.30934767822266968 0 0.38351141882271789 0.30934767822266968 0 0.3985540211375877 0.31441500376178411 0 0.38901959671332792 0.32507383042975252 0 0.37478911394279663 0.33397524985268912 0 0.38351141882271789 0.30934767822266968 0 0.38901959671332792 0.32507383042975252 0 0.37478911394279663 0.33397524985268912 0 0.38351141882271789 0.30934767822266968 0 0.37478911394279663 0.33397524985268912 0 0.38901959671332792 0.32507383042975252 0 0.38895856631171388 0.33948072941177942 0 0.37478911394279663 0.33397524985268912 0 0.38895856631171388 0.33948072941177942 0 0.37893109631740751 0.34874911958917693 0 0.38895856631171388 0.33948072941177942 0 0.37893109631740751 0.34874911958917693 0 0.38767341687233359 0.35469303149086001 0 0.37893109631740751 0.34874911958917693 0 0.38767341687233359 0.35469303149086001 0 0.37716757539731799 0.35699376570784741 0 0.37925862339361788 0.36859874143749149 0 0.39695377543394411 0.36956077751246841 0 0.38937014166980233 0.38435862250067221 0 0.38767341687233359 0.35469303149086001 0 0.37925862339361788 0.36859874143749149 0 0.39695377543394411 0.36956077751246841 0 0.38767341687233359 0.35469303149086001 0 0.37716757539731799 0.35699376570784741 0 0.37925862339361788 0.36859874143749149 0 0.4128756744519414 0.37301845582751852 0 0.39695377543394411 0.36956077751246841 0 0.40622665818265491 0.35091491321567703 0 0.38895856631171388 0.33948072941177942 0 0.38767341687233359 0.35469303149086001 0 0.40622665818265491 0.35091491321567703 0 0.38767341687233359 0.35469303149086001 0 0.39695377543394411 0.36956077751246841 0 0.40622665818265491 0.35091491321567703 0 0.40525125297645448 0.39260960938320888 0 0.38908213771150829 0.40012286449615497 0 0.40162151034860327 0.41672357042143993 0 0.40525125297645448 0.39260960938320888 0 0.38937014166980233 0.38435862250067221 0 0.38908213771150829 0.40012286449615497 0 0.4128756744519414 0.37301845582751852 0 0.39695377543394411 0.36956077751246841 0 0.40525125297645448 0.39260960938320888 0 0.39695377543394411 0.36956077751246841 0 0.40525125297645448 0.39260960938320888 0 0.38937014166980233 0.38435862250067221 0 0.37925862339361788 0.36859874143749149 0 0.37587030772319491 0.38911498699501551 0 0.38937014166980233 0.38435862250067221 0 0.37587030772319491 0.38911498699501551 0 0.38937014166980233 0.38435862250067221 0 0.38908213771150829 0.40012286449615497 0 0.37587030772319491 0.38911498699501551 0 0.38908213771150829 0.40012286449615497 0 0.37548462739454758 0.414948727731144 0 0.38908213771150829 0.40012286449615497 0 0.37548462739454758 0.414948727731144 0 0.40162151034860327 0.41672357042143993 0 0.37548462739454758 0.414948727731144 0 0.39310416815870369 0.43438031850593928 0 0.40162151034860327 0.41672357042143993 0 0.37339696152701402 0.44208754989350779 0 0.37548462739454758 0.414948727731144 0 0.39310416815870369 0.43438031850593928 0 0.39310416815870369 0.43438031850593928 0 0.40162151034860327 0.41672357042143993 0 0.41937891416655071 0.44364627965069331 0 0.40525125297645448 0.39260960938320888 0 0.40162151034860327 0.41672357042143993 0 0.42181408464830611 0.41554601812071351 0 0.42181408464830611 0.41554601812071351 0 0.41937891416655071 0.44364627965069331 0 0.40162151034860327 0.41672357042143993 0 0.42181408464830611 0.41554601812071351 0 0.41937891416655071 0.44364627965069331 0 0.42181408464830611 0.41554601812071351 0 0.43228962428391271 0.43336961223655768 0 0.41937891416655071 0.44364627965069331 0 0.42181408464830611 0.41554601812071351 0 0.43228962428391271 0.43336961223655768 0 0.43989986988472868 0.42020776133277898 0 0.42181408464830611 0.41554601812071351 0 0.43983197663552032 0.40222718308698652 0 0.43989986988472868 0.42020776133277898 0 0.42181408464830611 0.41554601812071351 0 0.4242492551300614 0.38744575659073349 0 0.42181408464830611 0.41554601812071351 0 0.4242492551300614 0.38744575659073349 0 0.43983197663552032 0.40222718308698652 0 0.40525125297645448 0.39260960938320888 0 0.42181408464830611 0.41554601812071351 0 0.4242492551300614 0.38744575659073349 0 0.4128756744519414 0.37301845582751852 0 0.40525125297645448 0.39260960938320888 0 0.4242492551300614 0.38744575659073349 0 0.4242492551300614 0.38744575659073349 0 0.44127825171053742 0.38130173858328159 0 0.43983197663552032 0.40222718308698652 0 0.42668442561181669 0.35934549506075369 0 0.4242492551300614 0.38744575659073349 0 0.44127825171053742 0.38130173858328159 0 0.44127825171053742 0.38130173858328159 0 0.45382954435325029 0.39469704640684949 0 0.45718768323462561 0.37902559427407939 0 0.44588662529794992 0.36506935608028712 0 0.44127825171053742 0.38130173858328159 0 0.45718768323462561 0.37902559427407939 0 0.44127825171053742 0.38130173858328159 0 0.43983197663552032 0.40222718308698652 0 0.45382954435325029 0.39469704640684949 0 0.43983197663552032 0.40222718308698652 0 0.45382954435325029 0.39469704640684949 0 0.45787207265232699 0.41498665634972448 0 0.45382954435325029 0.39469704640684949 0 0.47354243882304659 0.39733380485618203 0 0.45787207265232699 0.41498665634972448 0 0.46836990417827878 0.37274881846470947 0 0.45718768323462561 0.37902559427407939 0 0.47354243882304659 0.39733380485618203 0 0.45382954435325029 0.39469704640684949 0 0.45718768323462561 0.37902559427407939 0 0.47354243882304659 0.39733380485618203 0 0.46927273799174052 0.37039023464821569 0 0.46836990417827878 0.37274881846470947 0 0.47354243882304659 0.39733380485618203 0 0.46927273799174052 0.37039023464821569 0 0.47935462651364469 0.3814525330234429 0 0.47354243882304659 0.39733380485618203 0 0.47935462651364469 0.3814525330234429 0 0.47354243882304659 0.39733380485618203 0 0.5 0.38913297329691687 0 0.46927273799174052 0.37039023464821569 0 0.47354243882304659 0.39733380485618203 0 0.5 0.38913297329691687 0 0.48634116258800519 0.40795122737008749 0 0.5 0.41563995075961169 0 0.47354243882304659 0.39733380485618203 0 0.5 0.38913297329691687 0 0.48634116258800519 0.40795122737008749 0 0.48599479227607512 0.37081718972089828 0 0.47935462651364469 0.3814525330234429 0 0.5 0.38913297329691687 0 0.5 0.41563995075961169 0 0.47781213965435282 0.42427737506414842 0 0.50000000000000056 0.4421469282223065 0 0.48634116258800519 0.40795122737008749 0 0.5 0.41563995075961169 0 0.47781213965435282 0.42427737506414842 0 0.47354243882304659 0.39733380485618203 0 0.47781213965435282 0.42427737506414842 0 0.47354243882304659 0.39733380485618203 0 0.48634116258800519 0.40795122737008749 0 0.47781213965435282 0.42427737506414842 0 0.47354243882304659 0.39733380485618203 0 0.47781213965435282 0.42427737506414842 0 0.45787207265232699 0.41498665634972448 0 0.47781213965435282 0.42427737506414842 0 0.45787207265232699 0.41498665634972448 0 0.46452860583511602 0.44253334840878178 0 0.45787207265232699 0.41498665634972448 0 0.44769159120357771 0.43490933686991251 0 0.46452860583511602 0.44253334840878178 0 0.43983197663552032 0.40222718308698652 0 0.45787207265232699 0.41498665634972448 0 0.43989986988472868 0.42020776133277898 0 0.45787207265232699 0.41498665634972448 0 0.43989986988472868 0.42020776133277898 0 0.44769159120357771 0.43490933686991251 0 0.45787207265232699 0.41498665634972448 0 0.44769159120357771 0.43490933686991251 0 0.43228962428391271 0.43336961223655768 0 0.43989986988472868 0.42020776133277898 0 0.44769159120357771 0.43490933686991251 0 0.43228962428391271 0.43336961223655768 0 0.44769159120357771 0.43490933686991251 0 0.43358036138793771 0.45128262809819941 0 0.44769159120357771 0.43490933686991251 0 0.43751110975482921 0.45483201739010071 0 0.44769159120357771 0.43490933686991251 0 0.44764194101960569 0.45266146624851339 0 0.43751110975482921 0.45483201739010071 0 0.44769159120357771 0.43490933686991251 0 0.44764194101960569 0.45266146624851339 0 0.45295869756269391 0.44568095750174419 0 0.44769159120357771 0.43490933686991251 0 0.43751110975482921 0.45483201739010071 0 0.43358036138793771 0.45128262809819941 0 0.44764194101960569 0.45266146624851339 0 0.45295869756269391 0.44568095750174419 0 0.45525143995909501 0.45745013558426489 0 0.43751110975482921 0.45483201739010071 0 0.451721006704218 0.46766327784319739 0 0.43897703571728519 0.47443709210556612 0 0.43751110975482921 0.45483201739010071 0 0.451721006704218 0.46766327784319739 0 0.44764194101960569 0.45266146624851339 0 0.43751110975482921 0.45483201739010071 0 0.451721006704218 0.46766327784319739 0 0.44764194101960569 0.45266146624851339 0 0.451721006704218 0.46766327784319739 0 0.45525143995909501 0.45745013558426489 0 0.451721006704218 0.46766327784319739 0 0.46002472427640217 0.45951249436006503 0 0.46992557745745428 0.46861014097555048 0 0.45525143995909501 0.45745013558426489 0 0.46002472427640217 0.45951249436006503 0 0.46452860583511602 0.44253334840878178 0 0.451721006704218 0.46766327784319739 0 0.45525143995909501 0.45745013558426489 0 0.46002472427640217 0.45951249436006503 0 0.451721006704218 0.46766327784319739 0 0.45525143995909501 0.45745013558426489 0 0.46002472427640217 0.45951249436006503 0 0.46452860583511602 0.44253334840878178 0 0.48001236213820142 0.45082971129118588 0 0.44769159120357771 0.43490933686991251 0 0.45295869756269391 0.44568095750174419 0 0.46452860583511602 0.44253334840878178 0 0.45295869756269391 0.44568095750174419 0 0.45525143995909501 0.45745013558426489 0 0.46452860583511602 0.44253334840878178 0 0.47781213965435282 0.42427737506414842 0 0.46452860583511602 0.44253334840878178 0 0.48001236213820142 0.45082971129118588 0 0.48001236213820142 0.45082971129118588 0 0.50000000000000056 0.4421469282223065 0 0.48451609929887479 0.47423640323510702 0 0.48001236213820142 0.45082971129118588 0 0.46992557745745428 0.46861014097555048 0 0.48451609929887479 0.47423640323510702 0 0.46002472427640217 0.45951249436006503 0 0.48001236213820142 0.45082971129118588 0 0.46992557745745428 0.46861014097555048 0 0.46002472427640217 0.45951249436006503 0 0.48001236213820142 0.45082971129118588 0 0.47781213965435282 0.42427737506414842 0 0.48001236213820142 0.45082971129118588 0 0.50000000000000056 0.4421469282223065 0 0.48001236213820142 0.45082971129118588 0 0.50000000000000056 0.4421469282223065 0 0.50000000000000056 0.4421469282223065 0 0.5 0.5 0 0.48451609929887479 0.47423640323510702 0 0.4875321018969897 0.49999999999999989 0 0.5 0.5 0 0.48451609929887479 0.47423640323510702 0 0.46992557745745428 0.46861014097555048 0 0.48451609929887479 0.47423640323510702 0 0.46962655430060352 0.48383163892159908 0 0.4875321018969897 0.49999999999999989 0 0.48451609929887479 0.47423640323510702 0 0.46962655430060352 0.48383163892159908 0 0.4875321018969897 0.49999999999999989 0 0.46962655430060352 0.48383163892159908 0 0.4875321018969897 0.49999999999999989 0 0.46962655430060352 0.48383163892159908 0 0.46403754768727518 0.5 0 0.46962655430060352 0.48383163892159908 0 0.45697672181683208 0.48836402766267673 0 0.46403754768727518 0.5 0 0.45697672181683208 0.48836402766267673 0 0.46403754768727518 0.5 0 0.44054299347756082 0.50000000000000111 0 0.451721006704218 0.46766327784319739 0 0.46962655430060352 0.48383163892159908 0 0.451721006704218 0.46766327784319739 0 0.46992557745745428 0.46861014097555048 0 0.46962655430060352 0.48383163892159908 0 0.451721006704218 0.46766327784319739 0 0.46962655430060352 0.48383163892159908 0 0.45697672181683208 0.48836402766267673 0 0.451721006704218 0.46766327784319739 0 0.44613200009088971 0.48383163892159942 0 0.451721006704218 0.46766327784319739 0 0.45697672181683208 0.48836402766267673 0 0.44613200009088971 0.48383163892159942 0 0.451721006704218 0.46766327784319739 0 0.44613200009088971 0.48383163892159942 0 0.43897703571728519 0.47443709210556612 0 0.44613200009088971 0.48383163892159942 0 0.43897703571728519 0.47443709210556612 0 0.43343788919668641 0.48815533870202182 0 0.44613200009088971 0.48383163892159942 0 0.44054299347756082 0.50000000000000111 0 0.45697672181683208 0.48836402766267673 0 0.44613200009088971 0.48383163892159942 0 0.44054299347756082 0.50000000000000111 0 0.44613200009088971 0.48383163892159942 0 0.44054299347756082 0.50000000000000111 0 0.43343788919668641 0.48815533870202182 0 0.44054299347756082 0.50000000000000111 0 0.43343788919668641 0.48815533870202182 0 0.4144856832435263 0.49992340135533131 0 0.43343788919668641 0.48815533870202182 0 0.4144856832435263 0.49992340135533131 0 0.42600984147893223 0.47733941005037611 0 0.4144856832435263 0.49992340135533131 0 0.41694374368479542 0.47174654118067322 0 0.4144856832435263 0.49992340135533131 0 0.42600984147893223 0.47733941005037611 0 0.4144856832435263 0.49992340135533131 0 0.41694374368479542 0.47174654118067322 0 0.42600984147893223 0.47733941005037611 0 0.4144856832435263 0.49992340135533131 0 0.41694374368479542 0.47174654118067322 0 0.3959950231433868 0.47995452058669202 0 0.41694374368479542 0.47174654118067322 0 0.42600984147893223 0.47733941005037611 0 0.42668479409460908 0.45976937527400852 0 0.43751110975482921 0.45483201739010071 0 0.43897703571728519 0.47443709210556612 0 0.42600984147893223 0.47733941005037611 0 0.43897703571728519 0.47443709210556612 0 0.43343788919668641 0.48815533870202182 0 0.42600984147893223 0.47733941005037611 0 0.43751110975482921 0.45483201739010071 0 0.42600984147893223 0.47733941005037611 0 0.42668479409460908 0.45976937527400852 0 0.43751110975482921 0.45483201739010071 0 0.42600984147893223 0.47733941005037611 0 0.43751110975482921 0.45483201739010071 0 0.42668479409460908 0.45976937527400852 0 0.43358036138793771 0.45128262809819941 0 0.43228962428391271 0.43336961223655768 0 0.43358036138793771 0.45128262809819941 0 0.41937891416655071 0.44364627965069331 0 0.42668479409460908 0.45976937527400852 0 0.43358036138793771 0.45128262809819941 0 0.41937891416655071 0.44364627965069331 0 0.43751110975482921 0.45483201739010071 0 0.43358036138793771 0.45128262809819941 0 0.41694374368479542 0.47174654118067322 0 0.41937891416655071 0.44364627965069331 0 0.41694374368479542 0.47174654118067322 0 0.42668479409460908 0.45976937527400852 0 0.41937891416655071 0.44364627965069331 0 0.41694374368479542 0.47174654118067322 0 0.41937891416655071 0.44364627965069331 0 0.39715785039802048 0.45461565881677912 0 0.39715785039802048 0.45461565881677912 0 0.38093761547121879 0.46480004200353908 0 0.3959950231433868 0.47995452058669202 0 0.39310416815870369 0.43438031850593928 0 0.41937891416655071 0.44364627965069331 0 0.39715785039802048 0.45461565881677912 0 0.37339696152701402 0.44208754989350779 0 0.39310416815870369 0.43438031850593928 0 0.39715785039802048 0.45461565881677912 0 0.37339696152701402 0.44208754989350779 0 0.39715785039802048 0.45461565881677912 0 0.38093761547121879 0.46480004200353908 0 0.36955953445411149 0.48141991283557128 0 0.38093761547121879 0.46480004200353908 0 0.3959950231433868 0.47995452058669202 0 0.36955953445411149 0.48141991283557128 0 0.38646498490708159 0.5 0 0.3959950231433868 0.47995452058669202 0 0.4144856832435263 0.49992340135533131 0 0.38646498490708159 0.5 0 0.3959950231433868 0.47995452058669202 0 0.41694374368479542 0.47174654118067322 0 0.39715785039802048 0.45461565881677912 0 0.3959950231433868 0.47995452058669202 0 0.33451025935481138 0.089927750398108811 0 0.32097446003697849 0.07275118410308079 0 0.34545134118824061 0.065553253440852985 0 0.32097446003697849 0.07275118410308079 0 0.34545134118824061 0.065553253440852985 0 0.32111967364270588 0.056522259603768568 0 0.32097446003697849 0.07275118410308079 0 0.32111967364270588 0.056522259603768568 0 0.30895726259080558 0.060346681030832877 0 0.33451025935481138 0.089927750398108811 0 0.32097446003697849 0.07275118410308079 0 0.31287031497804912 0.091409336480511499 0 0.33451025935481138 0.089927750398108811 0 0.31287031497804912 0.091409336480511499 0 0.32033265659001903 0.1145348523438889 0 0.32033265659001903 0.1145348523438889 0 0.34497069081721837 0.10777856049118539 0 0.33553761455523651 0.13051028660321051 0 0.33451025935481138 0.089927750398108811 0 0.32033265659001903 0.1145348523438889 0 0.34497069081721837 0.10777856049118539 0 0.34497069081721837 0.10777856049118539 0 0.36438584739314012 0.1033910275151057 0 0.36133807530241219 0.085624966239992245 0 0.33451025935481138 0.089927750398108811 0 0.34497069081721837 0.10777856049118539 0 0.36133807530241219 0.085624966239992245 0 0.34497069081721837 0.10777856049118539 0 0.35371969170769119 0.12268247984680609 0 0.33553761455523651 0.13051028660321051 0 0.34497069081721837 0.10777856049118539 0 0.35371969170769119 0.12268247984680609 0 0.36438584739314012 0.1033910275151057 0 0.35371969170769119 0.12268247984680609 0 0.3703593611956521 0.1163842787056756 0 0.36869000497274218 0.13164616764447171 0 0.35371969170769119 0.12268247984680609 0 0.3703593611956521 0.1163842787056756 0 0.36438584739314012 0.1033910275151057 0 0.3703593611956521 0.1163842787056756 0 0.36438584739314012 0.1033910275151057 0 0.37937345398328498 0.099814108042449556 0 0.36438584739314012 0.1033910275151057 0 0.37527466291227979 0.089468568578773486 0 0.37937345398328498 0.099814108042449556 0 0.36133807530241219 0.085624966239992245 0 0.3782063942564946 0.078040830287928825 0 0.37527466291227979 0.089468568578773486 0 0.36438584739314012 0.1033910275151057 0 0.36133807530241219 0.085624966239992245 0 0.37527466291227979 0.089468568578773486 0 0.33451025935481138 0.089927750398108811 0 0.36133807530241219 0.085624966239992245 0 0.34545134118824061 0.065553253440852985 0 0.36133807530241219 0.085624966239992245 0 0.34545134118824061 0.065553253440852985 0 0.36133807530241219 0.085624966239992245 0 0.34545134118824061 0.065553253440852985 0 0.36495428360339338 0.061608261334142378 0 0.36133807530241219 0.085624966239992245 0 0.36495428360339338 0.061608261334142378 0 0.3782063942564946 0.078040830287928825 0 0.36495428360339338 0.061608261334142378 0 0.36443865548398918 0.038034977247014878 0 0.34989534466123728 0.04839900934312933 0 0.36495428360339338 0.061608261334142378 0 0.36443865548398918 0.038034977247014878 0 0.3788404532251749 0.051892278838948383 0 0.36443865548398918 0.038034977247014878 0 0.378519456349168 0.038666960034838917 0 0.3788404532251749 0.051892278838948383 0 0.36443865548398918 0.038034977247014878 0 0.38005006779316719 0.023272481257376888 0 0.378519456349168 0.038666960034838917 0 0.36443865548398918 0.038034977247014878 0 0.34690329779510259 0.032947027921113869 0 0.34989534466123728 0.04839900934312933 0 0.34545134118824061 0.065553253440852985 0 0.36495428360339338 0.061608261334142378 0 0.34989534466123728 0.04839900934312933 0 0.36424198851613532 0.020412515200514729 0 0.38158067923716771 0.0078780024799149622 0 0.36740822099193271 0.00739377240977011 0 0.36424198851613532 0.020412515200514729 0 0.38158067923716771 0.0078780024799149622 0 0.36740822099193271 0.00739377240977011 0 0.36424198851613532 0.020412515200514729 0 0.34735741688555649 0.014651714991830741 0 0.36740822099193271 0.00739377240977011 0 0.38158067923716771 0.0078780024799149622 0 0.37293823436178491 -0.0075236892011508686 0 0.36443865548398918 0.038034977247014878 0 0.36424198851613532 0.020412515200514729 0 0.38005006779316719 0.023272481257376888 0 0.34690329779510259 0.032947027921113869 0 0.36424198851613532 0.020412515200514729 0 0.34690329779510259 0.032947027921113869 0 0.36424198851613532 0.020412515200514729 0 0.34735741688555649 0.014651714991830741 0 0.36443865548398918 0.038034977247014878 0 0.34690329779510259 0.032947027921113869 0 0.36424198851613532 0.020412515200514729 0 0.34735741688555649 0.014651714991830741 0 0.33709463695305059 0.0011195889012099709 0 0.35856686411262972 -0.0033105511437120862 0 0.36740822099193271 0.00739377240977011 0 0.34735741688555649 0.014651714991830741 0 0.35856686411262972 -0.0033105511437120862 0 0.34735741688555649 0.014651714991830741 0 0.33709463695305059 0.0011195889012099709 0 0.32386403129311381 0.01348272082553861 0 0.34735741688555649 0.014651714991830741 0 0.33255323313670693 0.030174808804065961 0 0.32386403129311381 0.01348272082553861 0 0.34690329779510259 0.032947027921113869 0 0.34735741688555649 0.014651714991830741 0 0.33255323313670693 0.030174808804065961 0 0.31771962525312752 0.030516282740853998 0 0.32386403129311381 0.01348272082553861 0 0.30587464343218601 0.01555102483999429 0 0.33255323313670693 0.030174808804065961 0 0.31771962525312752 0.030516282740853998 0 0.32386403129311381 0.01348272082553861 0 0.33709463695305059 0.0011195889012099709 0 0.32386403129311381 0.01348272082553861 0 0.31109301432555653 -0.01004807443475985 0 0.32386403129311381 0.01348272082553861 0 0.30587464343218601 0.01555102483999429 0 0.31109301432555653 -0.01004807443475985 0 0.34545134118824061 0.065553253440852985 0 0.34989534466123728 0.04839900934312933 0 0.32956460707406993 0.045481540641713072 0 0.34545134118824061 0.065553253440852985 0 0.32956460707406993 0.045481540641713072 0 0.32111967364270588 0.056522259603768568 0 0.34545134118824061 0.065553253440852985 0 0.32956460707406993 0.045481540641713072 0 0.34690329779510259 0.032947027921113869 0 0.33255323313670693 0.030174808804065961 0 0.32956460707406993 0.045481540641713072 0 0.34690329779510259 0.032947027921113869 0 0.32956460707406993 0.045481540641713072 0 0.34690329779510259 0.032947027921113869 0 0.34989534466123728 0.04839900934312933 0 0.32956460707406993 0.045481540641713072 0 0.31771962525312752 0.030516282740853998 0 0.32956460707406993 0.045481540641713072 0 0.31899180167356012 0.042082500884694993 0 0.32956460707406993 0.045481540641713072 0 0.31899180167356012 0.042082500884694993 0 0.32019571876317759 0.047379054248788979 0 0.33255323313670693 0.030174808804065961 0 0.31771962525312752 0.030516282740853998 0 0.32956460707406993 0.045481540641713072 0 0.31771962525312752 0.030516282740853998 0 0.32956460707406993 0.045481540641713072 0 0.31771962525312752 0.030516282740853998 0 0.31899180167356012 0.042082500884694993 0 0.30622856624809303 0.035835915652935202 0 0.31899180167356012 0.042082500884694993 0 0.32019571876317759 0.047379054248788979 0 0.31100776955889259 0.047562046604384109 0 0.32019571876317759 0.047379054248788979 0 0.32111967364270588 0.056522259603768568 0 0.31100776955889259 0.047562046604384109 0 0.32956460707406993 0.045481540641713072 0 0.32019571876317759 0.047379054248788979 0 0.32111967364270588 0.056522259603768568 0 0.32111967364270588 0.056522259603768568 0 0.30895726259080558 0.060346681030832877 0 0.31100776955889259 0.047562046604384109 0 0.30895726259080558 0.060346681030832877 0 0.30347198883464738 0.052905850268142762 0 0.29620194706938208 0.058720322718057723 0 0.30347198883464738 0.052905850268142762 0 0.31100776955889259 0.047562046604384109 0 0.29778002990468799 0.045268050354615938 0 0.30347198883464738 0.052905850268142762 0 0.29778002990468799 0.045268050354615938 0 0.29620194706938208 0.058720322718057723 0 0.30895726259080558 0.060346681030832877 0 0.30347198883464738 0.052905850268142762 0 0.31100776955889259 0.047562046604384109 0 0.31100776955889259 0.047562046604384109 0 0.30622856624809303 0.035835915652935202 0 0.29778002990468799 0.045268050354615938 0 0.31899180167356012 0.042082500884694993 0 0.31100776955889259 0.047562046604384109 0 0.30622856624809303 0.035835915652935202 0 0.30622856624809303 0.035835915652935202 0 0.29778002990468799 0.045268050354615938 0 0.29168651110404681 0.031306385019485738 0 0.29778002990468799 0.045268050354615938 0 0.29168651110404681 0.031306385019485738 0 0.28164685776036752 0.050230043984215517 0 0.29168651110404681 0.031306385019485738 0 0.28164685776036752 0.050230043984215517 0 0.27600839267686272 0.032097344441581903 0 0.29778002990468799 0.045268050354615938 0 0.28164685776036752 0.050230043984215517 0 0.29620194706938208 0.058720322718057723 0 0.28164685776036752 0.050230043984215517 0 0.29620194706938208 0.058720322718057723 0 0.28438991277957071 0.07163751732552609 0 0.30587464343218601 0.01555102483999429 0 0.29617594942465092 0.0003534749931451462 0 0.31109301432555653 -0.01004807443475985 0 0.31771962525312752 0.030516282740853998 0 0.30622856624809303 0.035835915652935202 0 0.30587464343218601 0.01555102483999429 0 0.30622856624809303 0.035835915652935202 0 0.29168651110404681 0.031306385019485738 0 0.30587464343218601 0.01555102483999429 0 0.31771962525312752 0.030516282740853998 0 0.30587464343218601 0.01555102483999429 0 0.29168651110404681 0.031306385019485738 0 0.28328078794786549 0.013395608908452939 0 0.27600839267686272 0.032097344441581903 0 0.29168651110404681 0.031306385019485738 0 0.30587464343218601 0.01555102483999429 0 0.28328078794786549 0.013395608908452939 0 0.28328078794786549 0.013395608908452939 0 0.29617594942465092 0.0003534749931451462 0 0.28345562765708909 -0.0063169598563043682 0 0.30587464343218601 0.01555102483999429 0 0.28328078794786549 0.013395608908452939 0 0.29617594942465092 0.0003534749931451462 0 0.28328078794786549 0.013395608908452939 0 0.27039382550822311 0.00042496408912158962 0 0.26105612840742859 0.019766071588512159 0 0.28328078794786549 0.013395608908452939 0 0.27039382550822311 0.00042496408912158962 0 0.28345562765708909 -0.0063169598563043682 0 0.28328078794786549 0.013395608908452939 0 0.26105612840742859 0.019766071588512159 0 0.27600839267686272 0.032097344441581903 0 0.27039382550822311 0.00042496408912158962 0 0.26105612840742859 0.019766071588512159 0 0.25252126317799439 -0.010205438598489529 0 0.28164685776036752 0.050230043984215517 0 0.2623716781646051 0.045788612707243131 0 0.26368722792178162 0.071811153825974028 0 0.26105612840742859 0.019766071588512159 0 0.27600839267686272 0.032097344441581903 0 0.2623716781646051 0.045788612707243131 0 0.28164685776036752 0.050230043984215517 0 0.27600839267686272 0.032097344441581903 0 0.2623716781646051 0.045788612707243131 0 0.24056739647699929 0.042988530474928142 0 0.26105612840742859 0.019766071588512159 0 0.2623716781646051 0.045788612707243131 0 0.26105612840742859 0.019766071588512159 0 0.2623716781646051 0.045788612707243131 0 0.2496150297495873 0.059439042563006972 0 0.2623716781646051 0.045788612707243131 0 0.26368722792178162 0.071811153825974028 0 0.2623716781646051 0.045788612707243131 0 0.26368722792178162 0.071811153825974028 0 0.2496150297495873 0.059439042563006972 0 0.24056739647699929 0.042988530474928142 0 0.2623716781646051 0.045788612707243131 0 0.24783375955663281 0.07805906859882511 0 0.2496150297495873 0.059439042563006972 0 0.26368722792178162 0.071811153825974028 0 0.24783375955663281 0.07805906859882511 0 0.26368722792178162 0.071811153825974028 0 0.26500277767895808 0.097833694944705049 0 0.26368722792178162 0.071811153825974028 0 0.26500277767895808 0.097833694944705049 0 0.24407163389601341 0.093976130437590316 0 0.24783375955663281 0.07805906859882511 0 0.26500277767895808 0.097833694944705049 0 0.26368722792178162 0.071811153825974028 0 0.27873914167810898 0.087815044165917483 0 0.26500277767895808 0.097833694944705049 0 0.28164685776036752 0.050230043984215517 0 0.26368722792178162 0.071811153825974028 0 0.28438991277957071 0.07163751732552609 0 0.26368722792178162 0.071811153825974028 0 0.27873914167810898 0.087815044165917483 0 0.28438991277957071 0.07163751732552609 0 0.29620194706938208 0.058720322718057723 0 0.28438991277957071 0.07163751732552609 0 0.3030541456608189 0.073497559958172143 0 0.28438991277957071 0.07163751732552609 0 0.29558089507000068 0.09014236065302772 0 0.3030541456608189 0.073497559958172143 0 0.27873914167810898 0.087815044165917483 0 0.28438991277957071 0.07163751732552609 0 0.29558089507000068 0.09014236065302772 0 0.32097446003697849 0.07275118410308079 0 0.31287031497804912 0.091409336480511499 0 0.3030541456608189 0.073497559958172143 0 0.31287031497804912 0.091409336480511499 0 0.29558089507000068 0.09014236065302772 0 0.3030541456608189 0.073497559958172143 0 0.32097446003697849 0.07275118410308079 0 0.30895726259080558 0.060346681030832877 0 0.3030541456608189 0.073497559958172143 0 0.30895726259080558 0.060346681030832877 0 0.29620194706938208 0.058720322718057723 0 0.3030541456608189 0.073497559958172143 0 0.32033265659001903 0.1145348523438889 0 0.30006271370435122 0.124459754408701 0 0.30244820753499602 0.1068045904541297 0 0.31287031497804912 0.091409336480511499 0 0.32033265659001903 0.1145348523438889 0 0.30244820753499602 0.1068045904541297 0 0.31287031497804912 0.091409336480511499 0 0.29558089507000068 0.09014236065302772 0 0.30244820753499602 0.1068045904541297 0 0.29558089507000068 0.09014236065302772 0 0.30244820753499602 0.1068045904541297 0 0.28185238235334192 0.10964758771574649 0 0.27873914167810898 0.087815044165917483 0 0.29558089507000068 0.09014236065302772 0 0.28185238235334192 0.10964758771574649 0 0.30006271370435122 0.124459754408701 0 0.30244820753499602 0.1068045904541297 0 0.28185238235334192 0.10964758771574649 0 0.30006271370435122 0.124459754408701 0 0.28185238235334192 0.10964758771574649 0 0.28231506296171521 0.13171056704109929 0 0.26631832743613448 0.1238562360634361 0 0.26500277767895808 0.097833694944705049 0 0.28185238235334192 0.10964758771574649 0 0.26631832743613448 0.1238562360634361 0 0.28231506296171521 0.13171056704109929 0 0.28185238235334192 0.10964758771574649 0 0.26631832743613448 0.1238562360634361 0 0.26500277767895808 0.097833694944705049 0 0.27873914167810898 0.087815044165917483 0 0.28185238235334192 0.10964758771574649 0 0.26500277767895808 0.097833694944705049 0 0.24822695803859379 0.119625051895888 0 0.24407163389601341 0.093976130437590316 0 0.26500277767895808 0.097833694944705049 0 0.24822695803859379 0.119625051895888 0 0.26631832743613448 0.1238562360634361 0 0.26500277767895808 0.097833694944705049 0 0.24822695803859379 0.119625051895888 0 0.26631832743613448 0.1238562360634361 0 0.25238228218117409 0.1452739733541856 0 0.24822695803859379 0.119625051895888 0 0.25238228218117409 0.1452739733541856 0 0.26631832743613448 0.1238562360634361 0 0.268890240685693 0.14077252878480101 0 0.25238228218117409 0.1452739733541856 0 0.26631832743613448 0.1238562360634361 0 0.268890240685693 0.14077252878480101 0 0.28231506296171521 0.13171056704109929 0 0.268890240685693 0.14077252878480101 0 0.28231506296171521 0.13171056704109929 0 0.28166552506632819 0.1497235286040203 0 0.268890240685693 0.14077252878480101 0 0.26695373285087393 0.15481397932880181 0 0.28166552506632819 0.1497235286040203 0 0.268890240685693 0.14077252878480101 0 0.26695373285087393 0.15481397932880181 0 0.25238228218117409 0.1452739733541856 0 0.24574744319262781 0.15923880285475339 0 0.25238228218117409 0.1452739733541856 0 0.25653760632375439 0.17092289481248321 0 0.26695373285087393 0.15481397932880181 0 0.25238228218117409 0.1452739733541856 0 0.25653760632375439 0.17092289481248321 0 0.25238228218117409 0.1452739733541856 0 0.25653760632375439 0.17092289481248321 0 0.25653760632375439 0.17092289481248321 0 0.26069293046633468 0.1965718162707808 0 0.25052941350297298 0.18971531408661929 0 0.25653760632375439 0.17092289481248321 0 0.26955606054075598 0.18188099460622159 0 0.26069293046633468 0.1965718162707808 0 0.25653760632375439 0.17092289481248321 0 0.26069293046633468 0.1965718162707808 0 0.25653760632375439 0.17092289481248321 0 0.26955606054075598 0.18188099460622159 0 0.27529300999741979 0.16737697108851921 0 0.26955606054075598 0.18188099460622159 0 0.27529300999741979 0.16737697108851921 0 0.28443734070747512 0.1832124716773692 0 0.26955606054075598 0.18188099460622159 0 0.28443734070747512 0.1832124716773692 0 0.27299466386798937 0.19403871079008869 0 0.26695373285087393 0.15481397932880181 0 0.27529300999741979 0.16737697108851921 0 0.28166552506632819 0.1497235286040203 0 0.26695373285087393 0.15481397932880181 0 0.25653760632375439 0.17092289481248321 0 0.27529300999741979 0.16737697108851921 0 0.27529300999741979 0.16737697108851921 0 0.29633081197398931 0.16209068458896811 0 0.28166552506632819 0.1497235286040203 0 0.27529300999741979 0.16737697108851921 0 0.29633081197398931 0.16209068458896811 0 0.28443734070747512 0.1832124716773692 0 0.28443734070747512 0.1832124716773692 0 0.30054630999428361 0.1817786740100642 0 0.29644231987109598 0.1955105075288581 0 0.29633081197398931 0.16209068458896811 0 0.28443734070747512 0.1832124716773692 0 0.30054630999428361 0.1817786740100642 0 0.30054630999428361 0.1817786740100642 0 0.31124611513331069 0.1979408532842975 0 0.3142749622855468 0.1701388529708279 0 0.29633081197398931 0.16209068458896811 0 0.31730380943778291 0.14233685265735829 0 0.3142749622855468 0.1701388529708279 0 0.29633081197398931 0.16209068458896811 0 0.30054630999428361 0.1817786740100642 0 0.3142749622855468 0.1701388529708279 0 0.29633081197398931 0.16209068458896811 0 0.29510118852444223 0.141803766669891 0 0.31730380943778291 0.14233685265735829 0 0.30006271370435122 0.124459754408701 0 0.29510118852444223 0.141803766669891 0 0.31730380943778291 0.14233685265735829 0 0.30006271370435122 0.124459754408701 0 0.28231506296171521 0.13171056704109929 0 0.29510118852444223 0.141803766669891 0 0.29633081197398931 0.16209068458896811 0 0.29510118852444223 0.141803766669891 0 0.28166552506632819 0.1497235286040203 0 0.28231506296171521 0.13171056704109929 0 0.29510118852444223 0.141803766669891 0 0.28166552506632819 0.1497235286040203 0 0.27233146060088798 0.25316074610884981 0 0.28085362636713362 0.2375282103650726 0 0.28504550834992343 0.24884756898793101 0 0.27233146060088798 0.25316074610884981 0 0.28085362636713362 0.2375282103650726 0 0.27233146060088798 0.25316074610884981 0 0.28085362636713362 0.2375282103650726 0 0.27038992549696139 0.2455621478438022 0 0.28085362636713362 0.2375282103650726 0 0.27327870031964191 0.23788273356738809 0 0.27261492559383621 0.23398169094474849 0 0.28085362636713362 0.2375282103650726 0 0.27327870031964191 0.23788273356738809 0 0.27038992549696139 0.2455621478438022 0 0.27327870031964191 0.23788273356738809 0 0.26448214045642382 0.2391953052709013 0 0.27261492559383621 0.23398169094474849 0 0.27327870031964191 0.23788273356738809 0 0.25859327421991551 0.2494597678777338 0 0.2657844840571153 0.25392006059086852 0 0.27038992549696139 0.2455621478438022 0 0.26266022157239621 0.24840538672223431 0 0.27327870031964191 0.23788273356738809 0 0.27038992549696139 0.2455621478438022 0 0.26266022157239621 0.24840538672223431 0 0.27327870031964191 0.23788273356738809 0 0.26266022157239621 0.24840538672223431 0 0.25859327421991551 0.2494597678777338 0 0.26448214045642382 0.2391953052709013 0 0.25450005993729752 0.23428800737667529 0 0.27261492559383621 0.23398169094474849 0 0.2496882489778261 0.24290325795427631 0 0.25859327421991551 0.2494597678777338 0 0.25450005993729752 0.23428800737667529 0 0.2468507990765075 0.24988320060761271 0 0.2496882489778261 0.24290325795427631 0 0.25859327421991551 0.2494597678777338 0 0.2496882489778261 0.24290325795427631 0 0.25023667544839739 0.23606729375595131 0 0.25450005993729752 0.23428800737667529 0 0.25859327421991551 0.2494597678777338 0 0.25450005993729752 0.23428800737667529 0 0.25023667544839739 0.23606729375595131 0 0.25450005993729752 0.23428800737667529 0 0.25859327421991551 0.2494597678777338 0 0.26448214045642382 0.2391953052709013 0 0.25450005993729752 0.23428800737667529 0 0.27327870031964191 0.23788273356738809 0 0.25859327421991551 0.2494597678777338 0 0.26448214045642382 0.2391953052709013 0 0.25450005993729752 0.23428800737667529 0 0.26484825460891498 0.22222073772907841 0 0.25023138274302892 0.21846588237266501 0 0.25450005993729752 0.23428800737667529 0 0.25023138274302892 0.21846588237266501 0 0.24620720171794441 0.231027062253818 0 0.25450005993729752 0.23428800737667529 0 0.25023138274302892 0.21846588237266501 0 0.24620720171794441 0.231027062253818 0 0.25023667544839739 0.23606729375595131 0 0.25450005993729752 0.23428800737667529 0 0.25450005993729752 0.23428800737667529 0 0.26484825460891498 0.22222073772907841 0 0.27769844247479258 0.22460636449935589 0 0.25450005993729752 0.23428800737667529 0 0.27261492559383621 0.23398169094474849 0 0.27769844247479258 0.22460636449935589 0 0.25450005993729752 0.23428800737667529 0 0.27769844247479258 0.22460636449935589 0 0.28085362636713362 0.2375282103650726 0 0.27261492559383621 0.23398169094474849 0 0.28444456072091812 0.23104017310405231 0 0.27261492559383621 0.23398169094474849 0 0.27769844247479258 0.22460636449935589 0 0.28444456072091812 0.23104017310405231 0 0.26484825460891498 0.22222073772907841 0 0.27769844247479258 0.22460636449935589 0 0.27864661167315241 0.21350738518700041 0 0.26484825460891498 0.22222073772907841 0 0.27214590911544062 0.20555046325066151 0 0.26069293046633468 0.1965718162707808 0 0.26484825460891498 0.22222073772907841 0 0.27864661167315241 0.21350738518700041 0 0.27214590911544062 0.20555046325066151 0 0.27864661167315241 0.21350738518700041 0 0.27214590911544062 0.20555046325066151 0 0.28354708496081149 0.20141366627635929 0 0.25023138274302892 0.21846588237266501 0 0.26069293046633468 0.1965718162707808 0 0.25002767978558532 0.2000225228547507 0 0.26484825460891498 0.22222073772907841 0 0.25023138274302892 0.21846588237266501 0 0.26069293046633468 0.1965718162707808 0 0.26484825460891498 0.22222073772907841 0 0.26069293046633468 0.1965718162707808 0 0.26069293046633468 0.1965718162707808 0 0.25002767978558532 0.2000225228547507 0 0.25052941350297298 0.18971531408661929 0 0.28443734070747512 0.1832124716773692 0 0.27299466386798937 0.19403871079008869 0 0.28354708496081149 0.20141366627635929 0 0.26955606054075598 0.18188099460622159 0 0.26069293046633468 0.1965718162707808 0 0.27299466386798937 0.19403871079008869 0 0.27214590911544062 0.20555046325066151 0 0.26069293046633468 0.1965718162707808 0 0.27299466386798937 0.19403871079008869 0 0.27214590911544062 0.20555046325066151 0 0.27299466386798937 0.19403871079008869 0 0.28354708496081149 0.20141366627635929 0 0.28443734070747512 0.1832124716773692 0 0.29644231987109598 0.1955105075288581 0 0.28354708496081149 0.20141366627635929 0 0.30054630999428361 0.1817786740100642 0 0.29644231987109598 0.1955105075288581 0 0.31124611513331069 0.1979408532842975 0 0.29644231987109598 0.1955105075288581 0 0.31124611513331069 0.1979408532842975 0 0.30089682501228809 0.21492472162203771 0 0.31124611513331069 0.1979408532842975 0 0.30089682501228809 0.21492472162203771 0 0.32409520754978383 0.20524307874471939 0 0.30089682501228809 0.21492472162203771 0 0.32409520754978383 0.20524307874471939 0 0.27769844247479258 0.22460636449935589 0 0.27864661167315241 0.21350738518700041 0 0.30089682501228809 0.21492472162203771 0 0.27864661167315241 0.21350738518700041 0 0.28354708496081149 0.20141366627635929 0 0.30089682501228809 0.21492472162203771 0 0.29644231987109598 0.1955105075288581 0 0.28354708496081149 0.20141366627635929 0 0.30089682501228809 0.21492472162203771 0 0.27769844247479258 0.22460636449935589 0 0.30089682501228809 0.21492472162203771 0 0.29249204494101633 0.22750224505290531 0 0.27769844247479258 0.22460636449935589 0 0.30089682501228809 0.21492472162203771 0 0.27769844247479258 0.22460636449935589 0 0.28444456072091812 0.23104017310405231 0 0.29249204494101633 0.22750224505290531 0 0.28444456072091812 0.23104017310405231 0 0.29249204494101633 0.22750224505290531 0 0.29479652116683208 0.23725600970858171 0 0.30089682501228809 0.21492472162203771 0 0.29249204494101633 0.22750224505290531 0 0.30549490920022471 0.22704321637121069 0 0.30549490920022471 0.22704321637121069 0 0.29479652116683208 0.23725600970858171 0 0.31816215134194809 0.23474533714592391 0 0.30089682501228809 0.21492472162203771 0 0.30549490920022471 0.22704321637121069 0 0.31622001524562737 0.2190070502772764 0 0.29249204494101633 0.22750224505290531 0 0.30549490920022471 0.22704321637121069 0 0.29479652116683208 0.23725600970858171 0 0.29630545597748881 0.25461063337801759 0 0.31816215134194809 0.23474533714592391 0 0.29630545597748881 0.25461063337801759 0 0.29479652116683208 0.23725600970858171 0 0.31816215134194809 0.23474533714592391 0 0.29630545597748881 0.25461063337801759 0 0.29479652116683208 0.23725600970858171 0 0.28504550834992343 0.24884756898793101 0 0.28085362636713362 0.2375282103650726 0 0.29479652116683208 0.23725600970858171 0 0.28504550834992343 0.24884756898793101 0 0.28085362636713362 0.2375282103650726 0 0.28444456072091812 0.23104017310405231 0 0.29479652116683208 0.23725600970858171 0 0.31816215134194809 0.23474533714592391 0 0.34001884670640747 0.2148800409138302 0 0.35143150222895547 0.23418541121702391 0 0.33387916702828763 0.25056691403351689 0 0.31816215134194809 0.23474533714592391 0 0.35143150222895547 0.23418541121702391 0 0.31497460046591008 0.26310967504609412 0 0.33387916702828763 0.25056691403351689 0 0.31816215134194809 0.23474533714592391 0 0.30549490920022471 0.22704321637121069 0 0.31816215134194809 0.23474533714592391 0 0.31622001524562737 0.2190070502772764 0 0.31816215134194809 0.23474533714592391 0 0.31622001524562737 0.2190070502772764 0 0.34001884670640747 0.2148800409138302 0 0.31816215134194809 0.23474533714592391 0 0.34001884670640747 0.2148800409138302 0 0.34001884670640747 0.2148800409138302 0 0.32409520754978383 0.20524307874471939 0 0.33800375687338502 0.19973454466348001 0 0.31622001524562737 0.2190070502772764 0 0.34001884670640747 0.2148800409138302 0 0.32409520754978383 0.20524307874471939 0 0.30089682501228809 0.21492472162203771 0 0.31622001524562737 0.2190070502772764 0 0.32409520754978383 0.20524307874471939 0 0.31124611513331069 0.1979408532842975 0 0.32409520754978383 0.20524307874471939 0 0.3247728577078256 0.18909484743540331 0 0.3247728577078256 0.18909484743540331 0 0.34283065319436162 0.18753211068935161 0 0.33800375687338502 0.19973454466348001 0 0.32409520754978383 0.20524307874471939 0 0.3247728577078256 0.18909484743540331 0 0.33800375687338502 0.19973454466348001 0 0.34283065319436162 0.18753211068935161 0 0.33800375687338502 0.19973454466348001 0 0.36187554207086681 0.19501474468173649 0 0.36187554207086681 0.19501474468173649 0 0.36886270182028252 0.2094140185102428 0 0.37926355641798848 0.2031213978361196 0 0.36187554207086681 0.19501474468173649 0 0.36886270182028252 0.2094140185102428 0 0.35751351217512117 0.21530622355548221 0 0.36886270182028252 0.2094140185102428 0 0.37618255063802047 0.21809057314745081 0 0.37926355641798848 0.2031213978361196 0 0.36886270182028252 0.2094140185102428 0 0.36506859708071632 0.22360472113447999 0 0.37618255063802047 0.21809057314745081 0 0.36886270182028252 0.2094140185102428 0 0.35751351217512117 0.21530622355548221 0 0.36506859708071632 0.22360472113447999 0 0.34001884670640747 0.2148800409138302 0 0.33800375687338502 0.19973454466348001 0 0.36187554207086681 0.19501474468173649 0 0.34001884670640747 0.2148800409138302 0 0.36187554207086681 0.19501474468173649 0 0.34001884670640747 0.2148800409138302 0 0.36187554207086681 0.19501474468173649 0 0.35751351217512117 0.21530622355548221 0 0.34001884670640747 0.2148800409138302 0 0.35751351217512117 0.21530622355548221 0 0.35143150222895547 0.23418541121702391 0 0.35751351217512117 0.21530622355548221 0 0.35143150222895547 0.23418541121702391 0 0.36506859708071632 0.22360472113447999 0 0.35143150222895547 0.23418541121702391 0 0.37310154485805319 0.23305974845878219 0 0.35143150222895547 0.23418541121702391 0 0.36506859708071632 0.22360472113447999 0 0.37310154485805319 0.23305974845878219 0 0.37310154485805319 0.23305974845878219 0 0.37618255063802047 0.21809057314745081 0 0.36506859708071632 0.22360472113447999 0 0.37310154485805319 0.23305974845878219 0 0.37618255063802047 0.21809057314745081 0 0.37310154485805319 0.23305974845878219 0 0.36978443397455302 0.24917604874782129 0 0.38200224297838992 0.24854138767131839 0 0.35143150222895547 0.23418541121702391 0 0.37310154485805319 0.23305974845878219 0 0.36978443397455302 0.24917604874782129 0 0.37310154485805319 0.23305974845878219 0 0.36978443397455302 0.24917604874782129 0 0.35081428384065189 0.25367106851290039 0 0.35143150222895547 0.23418541121702391 0 0.36978443397455302 0.24917604874782129 0 0.33387916702828763 0.25056691403351689 0 0.35081428384065189 0.25367106851290039 0 0.35143150222895547 0.23418541121702391 0 0.33656258623417568 0.15099812028935161 0 0.33553761455523651 0.13051028660321051 0 0.35501390346873579 0.14682570335343029 0 0.33656258623417568 0.15099812028935161 0 0.33553761455523651 0.13051028660321051 0 0.31730380943778291 0.14233685265735829 0 0.32033265659001903 0.1145348523438889 0 0.31730380943778291 0.14233685265735829 0 0.32033265659001903 0.1145348523438889 0 0.30006271370435122 0.124459754408701 0 0.31730380943778291 0.14233685265735829 0 0.32033265659001903 0.1145348523438889 0 0.33553761455523651 0.13051028660321051 0 0.31730380943778291 0.14233685265735829 0 0.33656258623417568 0.15099812028935161 0 0.31730380943778291 0.14233685265735829 0 0.32940714596004023 0.16356783116543569 0 0.31730380943778291 0.14233685265735829 0 0.3142749622855468 0.1701388529708279 0 0.3142749622855468 0.1701388529708279 0 0.33220049229808879 0.17736130136812059 0 0.32940714596004023 0.16356783116543569 0 0.31730380943778291 0.14233685265735829 0 0.3142749622855468 0.1701388529708279 0 0.32940714596004023 0.16356783116543569 0 0.31124611513331069 0.1979408532842975 0 0.3247728577078256 0.18909484743540331 0 0.3142749622855468 0.1701388529708279 0 0.3247728577078256 0.18909484743540331 0 0.3142749622855468 0.1701388529708279 0 0.33220049229808879 0.17736130136812059 0 0.31124611513331069 0.1979408532842975 0 0.3142749622855468 0.1701388529708279 0 0.34283065319436162 0.18753211068935161 0 0.33220049229808879 0.17736130136812059 0 0.34468660970245568 0.17009723301181379 0 0.3247728577078256 0.18909484743540331 0 0.34283065319436162 0.18753211068935161 0 0.33220049229808879 0.17736130136812059 0 0.33656258623417568 0.15099812028935161 0 0.32940714596004023 0.16356783116543569 0 0.34468660970245568 0.17009723301181379 0 0.33220049229808879 0.17736130136812059 0 0.32940714596004023 0.16356783116543569 0 0.34468660970245568 0.17009723301181379 0 0.34468660970245568 0.17009723301181379 0 0.36329625328533349 0.16123975323527689 0 0.35501390346873579 0.14682570335343029 0 0.34468660970245568 0.17009723301181379 0 0.3613886430799072 0.1766438667140203 0 0.36329625328533349 0.16123975323527689 0 0.34283065319436162 0.18753211068935161 0 0.34468660970245568 0.17009723301181379 0 0.3613886430799072 0.1766438667140203 0 0.34283065319436162 0.18753211068935161 0 0.36187554207086681 0.19501474468173649 0 0.3613886430799072 0.1766438667140203 0 0.3613886430799072 0.1766438667140203 0 0.3742467814121983 0.16809755922723821 0 0.38373223743532597 0.17514944844964289 0 0.36187554207086681 0.19501474468173649 0 0.38373223743532597 0.17514944844964289 0 0.36187554207086681 0.19501474468173649 0 0.3613886430799072 0.1766438667140203 0 0.38373223743532597 0.17514944844964289 0 0.36329625328533349 0.16123975323527689 0 0.3742467814121983 0.16809755922723821 0 0.38114532876337059 0.14453440386988189 0 0.3613886430799072 0.1766438667140203 0 0.36329625328533349 0.16123975323527689 0 0.3742467814121983 0.16809755922723821 0 0.35501390346873579 0.14682570335343029 0 0.36869000497274218 0.13164616764447171 0 0.38114532876337059 0.14453440386988189 0 0.36329625328533349 0.16123975323527689 0 0.35501390346873579 0.14682570335343029 0 0.38114532876337059 0.14453440386988189 0 0.33656258623417568 0.15099812028935161 0 0.34468660970245568 0.17009723301181379 0 0.35501390346873579 0.14682570335343029 0 0.35371969170769119 0.12268247984680609 0 0.33553761455523651 0.13051028660321051 0 0.35501390346873579 0.14682570335343029 0 0.35371969170769119 0.12268247984680609 0 0.35501390346873579 0.14682570335343029 0 0.36869000497274218 0.13164616764447171 0 0.36869000497274218 0.13164616764447171 0 0.38114532876337059 0.14453440386988189 0 0.38804387611454288 0.1209712485125255 0 0.40063556930475058 0.14091038338921269 0 0.38114532876337059 0.14453440386988189 0 0.38804387611454288 0.1209712485125255 0 0.38114532876337059 0.14453440386988189 0 0.38804387611454288 0.1209712485125255 0 0.40063556930475058 0.14091038338921269 0 0.40778108869946839 0.11494257548698029 0 0.38804387611454288 0.1209712485125255 0 0.40063556930475058 0.14091038338921269 0 0.39542633217017992 0.15734704609929939 0 0.41164118813937078 0.1623740209146233 0 0.40063556930475058 0.14091038338921269 0 0.38114532876337059 0.14453440386988189 0 0.39542633217017992 0.15734704609929939 0 0.38114532876337059 0.14453440386988189 0 0.38683420251803569 0.16384065603438469 0 0.39542633217017992 0.15734704609929939 0 0.3742467814121983 0.16809755922723821 0 0.38114532876337059 0.14453440386988189 0 0.3742467814121983 0.16809755922723821 0 0.38114532876337059 0.14453440386988189 0 0.38683420251803569 0.16384065603438469 0 0.38683420251803569 0.16384065603438469 0 0.38373223743532597 0.17514944844964289 0 0.39962033280910381 0.17407482252586101 0 0.3742467814121983 0.16809755922723821 0 0.38683420251803569 0.16384065603438469 0 0.38373223743532597 0.17514944844964289 0 0.38373223743532597 0.17514944844964289 0 0.39215397835882088 0.18231036686529831 0 0.38426732689818671 0.19170485487848349 0 0.36187554207086681 0.19501474468173649 0 0.38373223743532597 0.17514944844964289 0 0.38426732689818671 0.19170485487848349 0 0.38373223743532597 0.17514944844964289 0 0.39962033280910381 0.17407482252586101 0 0.39215397835882088 0.18231036686529831 0 0.39962033280910381 0.17407482252586101 0 0.39215397835882088 0.18231036686529831 0 0.39898685686725899 0.1910939280976566 0 0.39962033280910381 0.17407482252586101 0 0.41638780733875191 0.18332442040708061 0 0.39898685686725899 0.1910939280976566 0 0.39962033280910381 0.17407482252586101 0 0.39542633217017992 0.15734704609929939 0 0.41164118813937078 0.1623740209146233 0 0.38683420251803569 0.16384065603438469 0 0.39962033280910381 0.17407482252586101 0 0.39542633217017992 0.15734704609929939 0 0.41164118813937078 0.1623740209146233 0 0.41638780733875191 0.18332442040708061 0 0.42822429452740662 0.16780941642938799 0 0.39962033280910381 0.17407482252586101 0 0.41164118813937078 0.1623740209146233 0 0.41638780733875191 0.18332442040708061 0 0.41638780733875191 0.18332442040708061 0 0.42822429452740662 0.16780941642938799 0 0.44188210912648213 0.1839742491411582 0 0.42822429452740662 0.16780941642938799 0 0.42726805227241699 0.14917356852747371 0 0.44394231576000809 0.16020082315660361 0 0.41164118813937078 0.1623740209146233 0 0.42822429452740662 0.16780941642938799 0 0.42726805227241699 0.14917356852747371 0 0.42726805227241699 0.14917356852747371 0 0.41742584112188952 0.13233196569257091 0 0.44600252239353072 0.13642739717204849 0 0.41742584112188952 0.13233196569257091 0 0.44600252239353072 0.13642739717204849 0 0.42783514117977017 0.1159801900381697 0 0.40063556930475058 0.14091038338921269 0 0.41742584112188952 0.13233196569257091 0 0.40778108869946839 0.11494257548698029 0 0.40063556930475058 0.14091038338921269 0 0.41164118813937078 0.1623740209146233 0 0.42726805227241699 0.14917356852747371 0 0.40063556930475058 0.14091038338921269 0 0.42726805227241699 0.14917356852747371 0 0.41742584112188952 0.13233196569257091 0 0.40095602858256041 0.26009253496263057 0 0.40014444104144631 0.231654989749741 0 0.40626169246956778 0.24511190550505879 0 0.40095602858256041 0.26009253496263057 0 0.39753716286572433 0.2317904263057749 0 0.40014444104144631 0.231654989749741 0 0.40095602858256041 0.26009253496263057 0 0.38200224297838992 0.24854138767131839 0 0.39753716286572433 0.2317904263057749 0 0.40095602858256041 0.26009253496263057 0 0.40014444104144631 0.231654989749741 0 0.37310154485805319 0.23305974845878219 0 0.38200224297838992 0.24854138767131839 0 0.39753716286572433 0.2317904263057749 0 0.38200224297838992 0.24854138767131839 0 0.39753716286572433 0.2317904263057749 0 0.37310154485805319 0.23305974845878219 0 0.39753716286572433 0.2317904263057749 0 0.37310154485805319 0.23305974845878219 0 0.38567077072646239 0.22497214532095691 0 0.39753716286572433 0.2317904263057749 0 0.37310154485805319 0.23305974845878219 0 0.38567077072646239 0.22497214532095691 0 0.37618255063802047 0.21809057314745081 0 0.38567077072646239 0.22497214532095691 0 0.39352318397096181 0.22393167561890329 0 0.3880094112995523 0.2179883030738711 0 0.38567077072646239 0.22497214532095691 0 0.3880094112995523 0.2179883030738711 0 0.37618255063802047 0.21809057314745081 0 0.40007035173954048 0.22905894463321699 0 0.40349322902283891 0.2220394877530425 0 0.39952860430339981 0.2100764363654368 0 0.39352318397096181 0.22393167561890329 0 0.40007035173954048 0.22905894463321699 0 0.39952860430339981 0.2100764363654368 0 0.40007035173954048 0.22905894463321699 0 0.39952860430339981 0.2100764363654368 0 0.39352318397096181 0.22393167561890329 0 0.39753716286572433 0.2317904263057749 0 0.40007035173954048 0.22905894463321699 0 0.38567077072646239 0.22497214532095691 0 0.39352318397096181 0.22393167561890329 0 0.39753716286572433 0.2317904263057749 0 0.40007035173954048 0.22905894463321699 0 0.40014444104144631 0.231654989749741 0 0.40580816774172118 0.22287198423225271 0 0.39753716286572433 0.2317904263057749 0 0.40007035173954048 0.22905894463321699 0 0.40007035173954048 0.22905894463321699 0 0.40014444104144631 0.231654989749741 0 0.39753716286572433 0.2317904263057749 0 0.40007035173954048 0.22905894463321699 0 0.40014444104144631 0.231654989749741 0 0.39753716286572433 0.2317904263057749 0 0.40014444104144631 0.231654989749741 0 0.40007035173954048 0.22905894463321699 0 0.40580816774172118 0.22287198423225271 0 0.40007035173954048 0.22905894463321699 0 0.40580816774172118 0.22287198423225271 0 0.40349322902283891 0.2220394877530425 0 0.40580816774172118 0.22287198423225271 0 0.40349322902283891 0.2220394877530425 0 0.40580816774172118 0.22287198423225271 0 0.39952860430339981 0.2100764363654368 0 0.40891131493704608 0.20215797715782591 0 0.40580816774172118 0.22287198423225271 0 0.40349322902283891 0.2220394877530425 0 0.39952860430339981 0.2100764363654368 0 0.39952860430339981 0.2100764363654368 0 0.3880094112995523 0.2179883030738711 0 0.3881421818338775 0.2071012523371458 0 0.39352318397096181 0.22393167561890329 0 0.39952860430339981 0.2100764363654368 0 0.3880094112995523 0.2179883030738711 0 0.3880094112995523 0.2179883030738711 0 0.37618255063802047 0.21809057314745081 0 0.3881421818338775 0.2071012523371458 0 0.37618255063802047 0.21809057314745081 0 0.37926355641798848 0.2031213978361196 0 0.37618255063802047 0.21809057314745081 0 0.3881421818338775 0.2071012523371458 0 0.37926355641798848 0.2031213978361196 0 0.36187554207086681 0.19501474468173649 0 0.37926355641798848 0.2031213978361196 0 0.38426732689818671 0.19170485487848349 0 0.3881421818338775 0.2071012523371458 0 0.37926355641798848 0.2031213978361196 0 0.38426732689818671 0.19170485487848349 0 0.3881421818338775 0.2071012523371458 0 0.38426732689818671 0.19170485487848349 0 0.39898685686725899 0.1910939280976566 0 0.39952860430339981 0.2100764363654368 0 0.39898685686725899 0.1910939280976566 0 0.40891131493704608 0.20215797715782591 0 0.39952860430339981 0.2100764363654368 0 0.3881421818338775 0.2071012523371458 0 0.39898685686725899 0.1910939280976566 0 0.39215397835882088 0.18231036686529831 0 0.38426732689818671 0.19170485487848349 0 0.39898685686725899 0.1910939280976566 0 0.39952860430339981 0.2100764363654368 0 0.39898685686725899 0.1910939280976566 0 0.41638780733875191 0.18332442040708061 0 0.39898685686725899 0.1910939280976566 0 0.40891131493704608 0.20215797715782591 0 0.41638780733875191 0.18332442040708061 0 0.40891131493704608 0.20215797715782591 0 0.42384513843409949 0.20342311668670349 0 0.42384513843409949 0.20342311668670349 0 0.44188210912648213 0.1839742491411582 0 0.42384513843409949 0.20342311668670349 0 0.44041296955234099 0.20092715102907191 0 0.44188210912648213 0.1839742491411582 0 0.41638780733875191 0.18332442040708061 0 0.42384513843409949 0.20342311668670349 0 0.44188210912648213 0.1839742491411582 0 0.41740137384294868 0.21638453967318791 0 0.42951973125978099 0.2208030233675895 0 0.44041296955234099 0.20092715102907191 0 0.42384513843409949 0.20342311668670349 0 0.41740137384294868 0.21638453967318791 0 0.44041296955234099 0.20092715102907191 0 0.42951973125978099 0.2208030233675895 0 0.43896791107817462 0.21760217290305681 0 0.44041296955234099 0.20092715102907191 0 0.41740137384294868 0.21638453967318791 0 0.44041296955234099 0.20092715102907191 0 0.40580816774172118 0.22287198423225271 0 0.42384513843409949 0.20342311668670349 0 0.40580816774172118 0.22287198423225271 0 0.42384513843409949 0.20342311668670349 0 0.41740137384294868 0.21638453967318791 0 0.40580816774172118 0.22287198423225271 0 0.40891131493704608 0.20215797715782591 0 0.42384513843409949 0.20342311668670349 0 0.40014444104144631 0.231654989749741 0 0.42643383825128528 0.2302893719758316 0 0.40580816774172118 0.22287198423225271 0 0.42643383825128528 0.2302893719758316 0 0.40014444104144631 0.231654989749741 0 0.42643383825128528 0.2302893719758316 0 0.41549414607841101 0.24083991578515671 0 0.40014444104144631 0.231654989749741 0 0.40580816774172118 0.22287198423225271 0 0.42643383825128528 0.2302893719758316 0 0.40580816774172118 0.22287198423225271 0 0.41740137384294868 0.21638453967318791 0 0.42643383825128528 0.2302893719758316 0 0.41740137384294868 0.21638453967318791 0 0.42951973125978099 0.2208030233675895 0 0.42643383825128528 0.2302893719758316 0 0.43357191091192299 0.22991858070895621 0 0.43752285260401169 0.2342771947770419 0 0.43896791107817462 0.21760217290305681 0 0.42951973125978099 0.2208030233675895 0 0.43357191091192299 0.22991858070895621 0 0.43896791107817462 0.21760217290305681 0 0.42643383825128528 0.2302893719758316 0 0.43752285260401169 0.2342771947770419 0 0.43357191091192299 0.22991858070895621 0 0.42643383825128528 0.2302893719758316 0 0.43752285260401169 0.2342771947770419 0 0.42951973125978099 0.2208030233675895 0 0.43357191091192299 0.22991858070895621 0 0.42643383825128528 0.2302893719758316 0 0.43357191091192299 0.22991858070895621 0 0.42643383825128528 0.2302893719758316 0 0.42643383825128528 0.2302893719758316 0 0.42704192638147398 0.24465952080229089 0 0.41549414607841101 0.24083991578515671 0 0.43575639483054618 0.25466095262392802 0 0.43752285260401169 0.2342771947770419 0 0.43575639483054618 0.25466095262392802 0 0.42704192638147398 0.24465952080229089 0 0.43752285260401169 0.2342771947770419 0 0.42643383825128528 0.2302893719758316 0 0.42704192638147398 0.24465952080229089 0 0.43752285260401169 0.2342771947770419 0 0.41758883224828108 0.25248379089286138 0 0.42704192638147398 0.24465952080229089 0 0.41549414607841101 0.24083991578515671 0 0.40014444104144631 0.231654989749741 0 0.41549414607841101 0.24083991578515671 0 0.40626169246956778 0.24511190550505879 0 0.41758883224828108 0.25248379089286138 0 0.41549414607841101 0.24083991578515671 0 0.40626169246956778 0.24511190550505879 0 0.45960743701738099 0.2422192360151087 0 0.46416179814234321 0.2276882883803876 0 0.47727162820823238 0.23398632197500421 0 0.45960743701738099 0.2422192360151087 0 0.43752285260401169 0.2342771947770419 0 0.43575639483054618 0.25466095262392802 0 0.45960743701738099 0.2422192360151087 0 0.43752285260401169 0.2342771947770419 0 0.43752285260401169 0.2342771947770419 0 0.43896791107817462 0.21760217290305681 0 0.43752285260401169 0.2342771947770419 0 0.4510668970068446 0.2252320473691892 0 0.43896791107817462 0.21760217290305681 0 0.45960743701738099 0.2422192360151087 0 0.43752285260401169 0.2342771947770419 0 0.4510668970068446 0.2252320473691892 0 0.45960743701738099 0.2422192360151087 0 0.4510668970068446 0.2252320473691892 0 0.46416179814234321 0.2276882883803876 0 0.46416179814234321 0.2276882883803876 0 0.45777302079750221 0.21732331234590879 0 0.48089688445068751 0.2197716997056014 0 0.4510668970068446 0.2252320473691892 0 0.46416179814234321 0.2276882883803876 0 0.45777302079750221 0.21732331234590879 0 0.46179376890137402 0.20945229089045581 0 0.45777302079750221 0.21732331234590879 0 0.48089688445068751 0.2197716997056014 0 0.46179376890137402 0.20945229089045581 0 0.45818835439815159 0.20377133732921709 0 0.46825227263277402 0.20136430402475139 0 0.46179376890137402 0.20945229089045581 0 0.46825227263277402 0.20136430402475139 0 0.47358389447693111 0.2067258453969498 0 0.45818835439815159 0.20377133732921709 0 0.45527002671401151 0.20924077845638789 0 0.45022662707137218 0.20337487192272599 0 0.46179376890137402 0.20945229089045581 0 0.45818835439815159 0.20377133732921709 0 0.45527002671401151 0.20924077845638789 0 0.45527002671401151 0.20924077845638789 0 0.45777302079750221 0.21732331234590879 0 0.44836836240165739 0.21228207979363151 0 0.46179376890137402 0.20945229089045581 0 0.45527002671401151 0.20924077845638789 0 0.45777302079750221 0.21732331234590879 0 0.43896791107817462 0.21760217290305681 0 0.44041296955234099 0.20092715102907191 0 0.4510668970068446 0.2252320473691892 0 0.44836836240165739 0.21228207979363151 0 0.43896791107817462 0.21760217290305681 0 0.44836836240165739 0.21228207979363151 0 0.43896791107817462 0.21760217290305681 0 0.44041296955234099 0.20092715102907191 0 0.4510668970068446 0.2252320473691892 0 0.45777302079750221 0.21732331234590879 0 0.44836836240165739 0.21228207979363151 0 0.45527002671401151 0.20924077845638789 0 0.44836836240165739 0.21228207979363151 0 0.45022662707137218 0.20337487192272599 0 0.44836836240165739 0.21228207979363151 0 0.45022662707137218 0.20337487192272599 0 0.44041296955234099 0.20092715102907191 0 0.45022662707137218 0.20337487192272599 0 0.44041296955234099 0.20092715102907191 0 0.46515162623474021 0.1843096580180561 0 0.44041296955234099 0.20092715102907191 0 0.46515162623474021 0.1843096580180561 0 0.44041296955234099 0.20092715102907191 0 0.44188210912648213 0.1839742491411582 0 0.45034650405904142 0.18504607305524909 0 0.44041296955234099 0.20092715102907191 0 0.44188210912648213 0.1839742491411582 0 0.44041296955234099 0.20092715102907191 0 0.45034650405904142 0.18504607305524909 0 0.46515162623474021 0.1843096580180561 0 0.45818835439815159 0.20377133732921709 0 0.47403931865764509 0.1857317511681284 0 0.45818835439815159 0.20377133732921709 0 0.46825227263277402 0.20136430402475139 0 0.47403931865764509 0.1857317511681284 0 0.45818835439815159 0.20377133732921709 0 0.45022662707137218 0.20337487192272599 0 0.46515162623474021 0.1843096580180561 0 0.45818835439815159 0.20377133732921709 0 0.46515162623474021 0.1843096580180561 0 0.47403931865764509 0.1857317511681284 0 0.46825227263277402 0.20136430402475139 0 0.47444529985427047 0.19957418223530621 0 0.47403931865764509 0.1857317511681284 0 0.47444529985427047 0.19957418223530621 0 0.48118444149158163 0.1934434801709157 0 0.47403931865764509 0.1857317511681284 0 0.46825227263277402 0.20136430402475139 0 0.47444529985427047 0.19957418223530621 0 0.47358389447693111 0.2067258453969498 0 0.47444529985427047 0.19957418223530621 0 0.48118444149158163 0.1934434801709157 0 0.48253124654554902 0.20346675012863449 0 0.48118444149158163 0.1934434801709157 0 0.4887102873623046 0.19405437267409931 0 0.48253124654554902 0.20346675012863449 0 0.48118444149158163 0.1934434801709157 0 0.47403931865764509 0.1857317511681284 0 0.48619605503813829 0.1843903446484102 0 0.4887102873623046 0.19405437267409931 0 0.5 0.2054562552573809 0 0.5 0.18082140199401431 0 0.48118444149158163 0.1934434801709157 0 0.4887102873623046 0.19405437267409931 0 0.48619605503813829 0.1843903446484102 0 0.4887102873623046 0.19405437267409931 0 0.5 0.2054562552573809 0 0.48253124654554902 0.20346675012863449 0 0.5 0.2054562552573809 0 0.48089688445068751 0.2197716997056014 0 0.500000000000001 0.23009110852074741 0 0.5 0.2054562552573809 0 0.48253124654554902 0.20346675012863449 0 0.48089688445068751 0.2197716997056014 0 0.48253124654554902 0.20346675012863449 0 0.47358389447693111 0.2067258453969498 0 0.48089688445068751 0.2197716997056014 0 0.46179376890137402 0.20945229089045581 0 0.48089688445068751 0.2197716997056014 0 0.46179376890137402 0.20945229089045581 0 0.47358389447693111 0.2067258453969498 0 0.48089688445068751 0.2197716997056014 0 0.47444529985427047 0.19957418223530621 0 0.48253124654554902 0.20346675012863449 0 0.47358389447693111 0.2067258453969498 0 0.46416179814234321 0.2276882883803876 0 0.48089688445068751 0.2197716997056014 0 0.47727162820823238 0.23398632197500421 0 0.48089688445068751 0.2197716997056014 0 0.47727162820823238 0.23398632197500421 0 0.500000000000001 0.23009110852074741 0 0.48089688445068751 0.2197716997056014 0 0.500000000000001 0.23009110852074741 0 0.48169202143075018 0.25016127725317611 0 0.47727162820823238 0.23398632197500421 0 0.500000000000001 0.23009110852074741 0 0.48169202143075018 0.25016127725317611 0 0.5 0.25659808598344241 0 0.500000000000001 0.23009110852074741 0 0.48169202143075018 0.25016127725317611 0 0.45960743701738099 0.2422192360151087 0 0.47727162820823238 0.23398632197500421 0 0.48169202143075018 0.25016127725317611 0 0.45960743701738099 0.2422192360151087 0 0.45720550586537112 0.148916639557817 0 0.4550531042046756 0.15991471036044161 0 0.46599651351871768 0.15797221892426311 0 0.45720550586537112 0.148916639557817 0 0.46599651351871768 0.15797221892426311 0 0.47089664022982669 0.14729141112044949 0 0.45720550586537112 0.148916639557817 0 0.46031776453997708 0.1349009887889861 0 0.47089664022982669 0.14729141112044949 0 0.46031776453997708 0.1349009887889861 0 0.47089664022982669 0.14729141112044949 0 0.47254806755265749 0.1264957956573162 0 0.45720550586537112 0.148916639557817 0 0.46031776453997708 0.1349009887889861 0 0.44600252239353072 0.13642739717204849 0 0.46031776453997708 0.1349009887889861 0 0.44600252239353072 0.13642739717204849 0 0.44806272902705341 0.1126539711874934 0 0.42726805227241699 0.14917356852747371 0 0.44600252239353072 0.13642739717204849 0 0.44394231576000809 0.16020082315660361 0 0.44600252239353072 0.13642739717204849 0 0.44394231576000809 0.16020082315660361 0 0.45720550586537112 0.148916639557817 0 0.44600252239353072 0.13642739717204849 0 0.44394231576000809 0.16020082315660361 0 0.44394231576000809 0.16020082315660361 0 0.44188210912648213 0.1839742491411582 0 0.45393931132259829 0.17097323403270909 0 0.42822429452740662 0.16780941642938799 0 0.44394231576000809 0.16020082315660361 0 0.44188210912648213 0.1839742491411582 0 0.45720550586537112 0.148916639557817 0 0.44394231576000809 0.16020082315660361 0 0.4550531042046756 0.15991471036044161 0 0.44394231576000809 0.16020082315660361 0 0.4550531042046756 0.15991471036044161 0 0.45393931132259829 0.17097323403270909 0 0.44394231576000809 0.16020082315660361 0 0.44188210912648213 0.1839742491411582 0 0.44188210912648213 0.1839742491411582 0 0.45393931132259829 0.17097323403270909 0 0.44188210912648213 0.1839742491411582 0 0.45034650405904142 0.18504607305524909 0 0.45393931132259829 0.17097323403270909 0 0.45034650405904142 0.18504607305524909 0 0.46515162623474021 0.1843096580180561 0 0.45393931132259829 0.17097323403270909 0 0.46515162623474021 0.1843096580180561 0 0.45393931132259829 0.17097323403270909 0 0.46923748906555568 0.169110656800772 0 0.4550531042046756 0.15991471036044161 0 0.45393931132259829 0.17097323403270909 0 0.46599651351871768 0.15797221892426311 0 0.45393931132259829 0.17097323403270909 0 0.46599651351871768 0.15797221892426311 0 0.45393931132259829 0.17097323403270909 0 0.46599651351871768 0.15797221892426311 0 0.46923748906555568 0.169110656800772 0 0.46599651351871768 0.15797221892426311 0 0.47610675656372858 0.161230113869022 0 0.47429816452074491 0.1553023284317826 0 0.46599651351871768 0.15797221892426311 0 0.47610675656372858 0.161230113869022 0 0.46923748906555568 0.169110656800772 0 0.47610675656372858 0.161230113869022 0 0.46923748906555568 0.169110656800772 0 0.48989028291713882 0.16769216500703951 0 0.47610675656372858 0.161230113869022 0 0.48989028291713882 0.16769216500703951 0 0.48333700598864687 0.1542689444046815 0 0.47610675656372858 0.161230113869022 0 0.48333700598864687 0.1542689444046815 0 0.47429816452074491 0.1553023284317826 0 0.46515162623474021 0.1843096580180561 0 0.46923748906555568 0.169110656800772 0 0.48989028291713882 0.16769216500703951 0 0.47403931865764509 0.1857317511681284 0 0.48989028291713882 0.16769216500703951 0 0.46515162623474021 0.1843096580180561 0 0.48989028291713882 0.16769216500703951 0 0.47403931865764509 0.1857317511681284 0 0.48619605503813829 0.1843903446484102 0 0.48989028291713882 0.16769216500703951 0 0.46515162623474021 0.1843096580180561 0 0.47403931865764509 0.1857317511681284 0 0.48989028291713882 0.16769216500703951 0 0.48619605503813829 0.1843903446484102 0 0.5 0.18082140199401431 0 0.48989028291713882 0.16769216500703951 0 0.4887102873623046 0.19405437267409931 0 0.48619605503813829 0.1843903446484102 0 0.5 0.18082140199401431 0 0.5 0.18082140199401431 0 0.49162175954661608 0.16652909454777931 0 0.50000000000000089 0.15618654873064769 0 0.48989028291713882 0.16769216500703951 0 0.50000000000000089 0.15618654873064769 0 0.48333700598864687 0.1542689444046815 0 0.48989028291713882 0.16769216500703951 0 0.49162175954661608 0.16652909454777931 0 0.5 0.18082140199401431 0 0.48989028291713882 0.16769216500703951 0 0.49162175954661608 0.16652909454777931 0 0.48989028291713882 0.16769216500703951 0 0.50000000000000089 0.15618654873064769 0 0.48989028291713882 0.16769216500703951 0 0.49162175954661608 0.16652909454777931 0 0.50000000000000089 0.15618654873064769 0 0.50000000000000089 0.15618654873064769 0 0.48333700598864687 0.1542689444046815 0 0.48380109039687069 0.1380530797117554 0 0.50000000000000089 0.15618654873064769 0 0.48380109039687069 0.1380530797117554 0 0.5 0.13118189496385579 0 0.48333700598864687 0.1542689444046815 0 0.47089664022982669 0.14729141112044949 0 0.48380109039687069 0.1380530797117554 0 0.46599651351871768 0.15797221892426311 0 0.47089664022982669 0.14729141112044949 0 0.47429816452074491 0.1553023284317826 0 0.48333700598864687 0.1542689444046815 0 0.47089664022982669 0.14729141112044949 0 0.47429816452074491 0.1553023284317826 0 0.47089664022982669 0.14729141112044949 0 0.47254806755265749 0.1264957956573162 0 0.48380109039687069 0.1380530797117554 0 0.47254806755265749 0.1264957956573162 0 0.48380109039687069 0.1380530797117554 0 0.48630451299532879 0.11731393668419179 0 0.47089664022982669 0.14729141112044949 0 0.47254806755265749 0.1264957956573162 0 0.48380109039687069 0.1380530797117554 0 0.5 0.13118189496385579 0 0.48630451299532879 0.11731393668419179 0 0.5 0.13118189496385579 0 0.48630451299532879 0.11731393668419179 0 0.5 0.106177241197064 0 0.48727842514695602 0.096275428380976663 0 0.5 0.106177241197064 0 0.50000000000000178 0.081172587430272114 0 0.48630451299532879 0.11731393668419179 0 0.48727842514695602 0.096275428380976663 0 0.5 0.106177241197064 0 0.48727842514695602 0.096275428380976663 0 0.4741994948754884 0.1057001801941829 0 0.47585092219831848 0.084904564731049487 0 0.4741994948754884 0.1057001801941829 0 0.47585092219831848 0.084904564731049487 0 0.48630451299532879 0.11731393668419179 0 0.48727842514695602 0.096275428380976663 0 0.4741994948754884 0.1057001801941829 0 0.47254806755265749 0.1264957956573162 0 0.48630451299532879 0.11731393668419179 0 0.4741994948754884 0.1057001801941829 0 0.47254806755265749 0.1264957956573162 0 0.4741994948754884 0.1057001801941829 0 0.50000000000000178 0.081172587430272114 0 0.47769118063882288 0.061731091486159087 0 0.5 0.056324793234311832 0 0.50000000000000178 0.081172587430272114 0 0.47585092219831848 0.084904564731049487 0 0.47769118063882288 0.061731091486159087 0 0.50000000000000178 0.081172587430272114 0 0.47585092219831848 0.084904564731049487 0 0.48727842514695602 0.096275428380976663 0 0.50000000000000178 0.081172587430272114 0 0.47585092219831848 0.084904564731049487 0 0.47585092219831848 0.084904564731049487 0 0.47769118063882288 0.061731091486159087 0 0.47585092219831848 0.084904564731049487 0 0.45223863991978019 0.064466713214928972 0 0.47769118063882288 0.061731091486159087 0 0.47585092219831848 0.084904564731049487 0 0.45012293566057388 0.088880545202938074 0 0.45223863991978019 0.064466713214928972 0 0.4741994948754884 0.1057001801941829 0 0.47585092219831848 0.084904564731049487 0 0.45012293566057388 0.088880545202938074 0 0.47585092219831848 0.084904564731049487 0 0.45012293566057388 0.088880545202938074 0 0.45012293566057388 0.088880545202938074 0 0.45223863991978019 0.064466713214928972 0 0.45012293566057388 0.088880545202938074 0 0.45223863991978019 0.064466713214928972 0 0.43437280878651158 0.07826961707697784 0 0.45223863991978019 0.064466713214928972 0 0.43437280878651158 0.07826961707697784 0 0.43043912569261339 0.062487597120358729 0 0.47254806755265749 0.1264957956573162 0 0.4741994948754884 0.1057001801941829 0 0.44806272902705341 0.1126539711874934 0 0.46031776453997708 0.1349009887889861 0 0.47254806755265749 0.1264957956573162 0 0.44806272902705341 0.1126539711874934 0 0.4741994948754884 0.1057001801941829 0 0.45012293566057388 0.088880545202938074 0 0.44806272902705341 0.1126539711874934 0 0.45012293566057388 0.088880545202938074 0 0.44806272902705341 0.1126539711874934 0 0.42253267956314461 0.093144319179050791 0 0.45012293566057388 0.088880545202938074 0 0.44806272902705341 0.1126539711874934 0 0.44600252239353072 0.13642739717204849 0 0.44806272902705341 0.1126539711874934 0 0.42783514117977017 0.1159801900381697 0 0.44600252239353072 0.13642739717204849 0 0.44806272902705341 0.1126539711874934 0 0.41742584112188952 0.13233196569257091 0 0.42783514117977017 0.1159801900381697 0 0.40778108869946839 0.11494257548698029 0 0.40778108869946839 0.11494257548698029 0 0.42253267956314461 0.093144319179050791 0 0.39494242346571617 0.097408093155169462 0 0.42783514117977017 0.1159801900381697 0 0.40778108869946839 0.11494257548698029 0 0.42253267956314461 0.093144319179050791 0 0.42253267956314461 0.093144319179050791 0 0.39494242346571617 0.097408093155169462 0 0.44806272902705341 0.1126539711874934 0 0.42783514117977017 0.1159801900381697 0 0.42253267956314461 0.093144319179050791 0 0.43437280878651158 0.07826961707697784 0 0.42253267956314461 0.093144319179050791 0 0.41497499572999941 0.071859354046429236 0 0.45012293566057388 0.088880545202938074 0 0.42253267956314461 0.093144319179050791 0 0.45012293566057388 0.088880545202938074 0 0.43437280878651158 0.07826961707697784 0 0.42253267956314461 0.093144319179050791 0 0.43437280878651158 0.07826961707697784 0 0.41497499572999941 0.071859354046429236 0 0.43043912569261339 0.062487597120358729 0 0.42253267956314461 0.093144319179050791 0 0.40791476907297952 0.087079597198048364 0 0.39494242346571617 0.097408093155169462 0 0.42253267956314461 0.093144319179050791 0 0.41497499572999941 0.071859354046429236 0 0.40791476907297952 0.087079597198048364 0 0.40791476907297952 0.087079597198048364 0 0.39650268109149778 0.092078769318960502 0 0.39494242346571617 0.097408093155169462 0 0.41497499572999941 0.071859354046429236 0 0.40791476907297952 0.087079597198048364 0 0.3948130703309185 0.077388272240923248 0 0.40791476907297952 0.087079597198048364 0 0.39650268109149778 0.092078769318960502 0 0.3948130703309185 0.077388272240923248 0 0.39650268109149778 0.092078769318960502 0 0.3948130703309185 0.077388272240923248 0 0.386126046536441 0.091933877581619527 0 0.3948130703309185 0.077388272240923248 0 0.38277433083614582 0.064523062797461228 0 0.39537943130851128 0.055798838991598938 0 0.41497499572999941 0.071859354046429236 0 0.3948130703309185 0.077388272240923248 0 0.39537943130851128 0.055798838991598938 0 0.3948130703309185 0.077388272240923248 0 0.38277433083614582 0.064523062797461228 0 0.3782063942564946 0.078040830287928825 0 0.36495428360339338 0.061608261334142378 0 0.38277433083614582 0.064523062797461228 0 0.3782063942564946 0.078040830287928825 0 0.3948130703309185 0.077388272240923248 0 0.3782063942564946 0.078040830287928825 0 0.386126046536441 0.091933877581619527 0 0.3782063942564946 0.078040830287928825 0 0.386126046536441 0.091933877581619527 0 0.37527466291227979 0.089468568578773486 0 0.386126046536441 0.091933877581619527 0 0.37527466291227979 0.089468568578773486 0 0.37937345398328498 0.099814108042449556 0 0.37937345398328498 0.099814108042449556 0 0.38804387611454288 0.1209712485125255 0 0.39494242346571617 0.097408093155169462 0 0.386126046536441 0.091933877581619527 0 0.37937345398328498 0.099814108042449556 0 0.39494242346571617 0.097408093155169462 0 0.37937345398328498 0.099814108042449556 0 0.39494242346571617 0.097408093155169462 0 0.3703593611956521 0.1163842787056756 0 0.37937345398328498 0.099814108042449556 0 0.38804387611454288 0.1209712485125255 0 0.3703593611956521 0.1163842787056756 0 0.36869000497274218 0.13164616764447171 0 0.38804387611454288 0.1209712485125255 0 0.40778108869946839 0.11494257548698029 0 0.38804387611454288 0.1209712485125255 0 0.39494242346571617 0.097408093155169462 0 0.38804387611454288 0.1209712485125255 0 0.39494242346571617 0.097408093155169462 0 0.39650268109149778 0.092078769318960502 0 0.386126046536441 0.091933877581619527 0 0.39494242346571617 0.097408093155169462 0 0.39650268109149778 0.092078769318960502 0 0.39494242346571617 0.097408093155169462 0 0.39696344935610411 0.017180780454136058 0 0.39341144794343558 0.03699286878981952 0 0.40913096180484781 0.029304918311745341 0 0.39696344935610411 0.017180780454136058 0 0.40236713586959599 0.0070511996842659956 0 0.39295267895501113 -0.00034306088728790213 0 0.40236713586959599 0.0070511996842659956 0 0.4092168574862039 -0.001915797133794512 0 0.39295267895501113 -0.00034306088728790213 0 0.39696344935610411 0.017180780454136058 0 0.40236713586959599 0.0070511996842659956 0 0.41615182324782701 0.01568089964906327 0 0.39696344935610411 0.017180780454136058 0 0.38158067923716771 0.0078780024799149622 0 0.39295267895501113 -0.00034306088728790213 0 0.38158067923716771 0.0078780024799149622 0 0.39295267895501113 -0.00034306088728790213 0 0.38158067923716771 0.0078780024799149622 0 0.38005006779316719 0.023272481257376888 0 0.39696344935610411 0.017180780454136058 0 0.38005006779316719 0.023272481257376888 0 0.39341144794343558 0.03699286878981952 0 0.36424198851613532 0.020412515200514729 0 0.38158067923716771 0.0078780024799149622 0 0.38005006779316719 0.023272481257376888 0 0.39696344935610411 0.017180780454136058 0 0.38158067923716771 0.0078780024799149622 0 0.38005006779316719 0.023272481257376888 0 0.38005006779316719 0.023272481257376888 0 0.378519456349168 0.038666960034838917 0 0.378519456349168 0.038666960034838917 0 0.3788404532251749 0.051892278838948383 0 0.39341144794343558 0.03699286878981952 0 0.38005006779316719 0.023272481257376888 0 0.378519456349168 0.038666960034838917 0 0.39341144794343558 0.03699286878981952 0 0.3788404532251749 0.051892278838948383 0 0.39537943130851128 0.055798838991598938 0 0.39341144794343558 0.03699286878981952 0 0.36495428360339338 0.061608261334142378 0 0.38277433083614582 0.064523062797461228 0 0.3788404532251749 0.051892278838948383 0 0.38277433083614582 0.064523062797461228 0 0.3788404532251749 0.051892278838948383 0 0.39537943130851128 0.055798838991598938 0 0.39537943130851128 0.055798838991598938 0 0.41687749786134148 0.045695165492794357 0 0.39537943130851128 0.055798838991598938 0 0.39341144794343558 0.03699286878981952 0 0.41687749786134148 0.045695165492794357 0 0.39341144794343558 0.03699286878981952 0 0.41687749786134148 0.045695165492794357 0 0.40913096180484781 0.029304918311745341 0 0.41687749786134148 0.045695165492794357 0 0.42265748809051762 0.03011100032243531 0 0.40913096180484781 0.029304918311745341 0 0.41497499572999941 0.071859354046429236 0 0.41687749786134148 0.045695165492794357 0 0.43043912569261339 0.062487597120358729 0 0.41497499572999941 0.071859354046429236 0 0.39537943130851128 0.055798838991598938 0 0.41687749786134148 0.045695165492794357 0 0.41687749786134148 0.045695165492794357 0 0.43043912569261339 0.062487597120358729 0 0.43837556441417191 0.035591491993989748 0 0.41687749786134148 0.045695165492794357 0 0.42265748809051762 0.03011100032243531 0 0.43837556441417191 0.035591491993989748 0 0.41687749786134148 0.045695165492794357 0 0.43837556441417191 0.035591491993989748 0 0.43629973910628261 0.016749520028414309 0 0.42265748809051762 0.03011100032243531 0 0.43837556441417191 0.035591491993989748 0 0.43629973910628261 0.016749520028414309 0 0.42265748809051762 0.03011100032243531 0 0.41615182324782701 0.01568089964906327 0 0.39696344935610411 0.017180780454136058 0 0.41615182324782701 0.01568089964906327 0 0.40913096180484781 0.029304918311745341 0 0.42265748809051762 0.03011100032243531 0 0.41615182324782701 0.01568089964906327 0 0.40913096180484781 0.029304918311745341 0 0.41615182324782701 0.01568089964906327 0 0.42445911265736608 0.0025021171645692461 0 0.4092168574862039 -0.001915797133794512 0 0.40236713586959599 0.0070511996842659956 0 0.41615182324782701 0.01568089964906327 0 0.4092168574862039 -0.001915797133794512 0 0.43629973910628261 0.016749520028414309 0 0.41615182324782701 0.01568089964906327 0 0.42445911265736608 0.0025021171645692461 0 0.43629973910628261 0.016749520028414309 0 0.42445911265736608 0.0025021171645692461 0 0.43833468053237112 0.0018368462066534661 0 0.43629973910628261 0.016749520028414309 0 0.43833468053237112 0.0018368462066534661 0 0.45524430804349658 0.0062686323842164413 0 0.43629973910628261 0.016749520028414309 0 0.45987363096700229 0.02548781849518509 0 0.45524430804349658 0.0062686323842164413 0 0.45987363096700229 0.02548781849518509 0 0.43837556441417191 0.035591491993989748 0 0.43629973910628261 0.016749520028414309 0 0.45987363096700229 0.02548781849518509 0 0.43837556441417191 0.035591491993989748 0 0.45987363096700229 0.02548781849518509 0 0.476583488445466 0.01763451021003724 0 0.45987363096700229 0.02548781849518509 0 0.45524430804349658 0.0062686323842164413 0 0.476583488445466 0.01763451021003724 0 0.45524430804349658 0.0062686323842164413 0 0.476583488445466 0.01763451021003724 0 0.47024568498820718 -0.0095509005338218107 0 0.45223863991978019 0.064466713214928972 0 0.43837556441417191 0.035591491993989748 0 0.46154209100382082 0.045166946686306289 0 0.45223863991978019 0.064466713214928972 0 0.43043912569261339 0.062487597120358729 0 0.43837556441417191 0.035591491993989748 0 0.45987363096700229 0.02548781849518509 0 0.43837556441417191 0.035591491993989748 0 0.46154209100382082 0.045166946686306289 0 0.45987363096700229 0.02548781849518509 0 0.46154209100382082 0.045166946686306289 0 0.47953143907932672 0.038557618241268569 0 0.45223863991978019 0.064466713214928972 0 0.46154209100382082 0.045166946686306289 0 0.47769118063882288 0.061731091486159087 0 0.46154209100382082 0.045166946686306289 0 0.47769118063882288 0.061731091486159087 0 0.47953143907932672 0.038557618241268569 0 0.47769118063882288 0.061731091486159087 0 0.47953143907932672 0.038557618241268569 0 0.47953143907932672 0.038557618241268569 0 0.5 0.031476999038351439 0 0.5 0.056324793234311832 0 0.47769118063882288 0.061731091486159087 0 0.47953143907932672 0.038557618241268569 0 0.5 0.056324793234311832 0 0.48137169751983172 0.01538414499637813 0 0.48329481153547849 -0.0088326879264556072 0 0.476583488445466 0.01763451021003724 0 0.47024568498820718 -0.0095509005338218107 0 0.48137169751983172 0.01538414499637813 0 0.476583488445466 0.01763451021003724 0 0.47024568498820718 -0.0095509005338218107 0 0.47953143907932672 0.038557618241268569 0 0.48137169751983172 0.01538414499637813 0 0.45987363096700229 0.02548781849518509 0 0.47953143907932672 0.038557618241268569 0 0.476583488445466 0.01763451021003724 0 0.47953143907932672 0.038557618241268569 0 0.48137169751983172 0.01538414499637813 0 0.476583488445466 0.01763451021003724 0 0.48137169751983172 0.01538414499637813 0 0.476583488445466 0.01763451021003724 0 0.5 0.031476999038351439 0 0.48137169751983172 0.01538414499637813 0 0.49999999999999628 0.0066292048423911686 0 0.47953143907932672 0.038557618241268569 0 0.5 0.031476999038351439 0 0.48137169751983172 0.01538414499637813 0 0.48137169751983172 0.01538414499637813 0 0.4911666272638272 0.001316853267541742 0 0.49999999999999628 0.0066292048423911686 0 0.48137169751983172 0.01538414499637813 0 0.4911666272638272 0.001316853267541742 0 0.48329481153547849 -0.0088326879264556072 0 0.48137169751983172 0.01538414499637813 0 0.49999999999999628 0.0066292048423911686 0 0.4911666272638272 0.001316853267541742 0 0.49999999999999628 0.0066292048423911686 0 0.49999999999999972 -0.0079132488421466175 0 0.49999999999999972 -0.0079132488421466175 0 0.48329481153547849 -0.0088326879264556072 0 0.49999999999999972 -0.0079132488421466175 0 0.48329481153547849 -0.0088326879264556072 0 0.49208475045231398 -0.020145215069735632 0 0.4911666272638272 0.001316853267541742 0 0.49999999999999972 -0.0079132488421466175 0 0.48329481153547849 -0.0088326879264556072 0 0.48137169751983172 0.01538414499637813 0 0.48329481153547849 -0.0088326879264556072 0 0.47024568498820718 -0.0095509005338218107 0 0.48329481153547849 -0.0088326879264556072 0 0.47024568498820718 -0.0095509005338218107 0 0.47738636143866742 -0.02038588735710983 0 0.48329481153547849 -0.0088326879264556072 0 0.47024568498820718 -0.0095509005338218107 0 0.47738636143866742 -0.02038588735710983 0 0.47487185531379261 -0.039566079263442078 0 0.46549494500118949 -0.030281180314582261 0 0.47738636143866742 -0.02038588735710983 0 0.4850441902737776 -0.030861757591278779 0 0.47487185531379261 -0.039566079263442078 0 0.48329481153547849 -0.0088326879264556072 0 0.47738636143866742 -0.02038588735710983 0 0.4850441902737776 -0.030861757591278779 0 0.47024568498820718 -0.0095509005338218107 0 0.47738636143866742 -0.02038588735710983 0 0.46549494500118949 -0.030281180314582261 0 0.48329481153547849 -0.0088326879264556072 0 0.4850441902737776 -0.030861757591278779 0 0.48329481153547849 -0.0088326879264556072 0 0.4850441902737776 -0.030861757591278779 0 0.49208475045231398 -0.020145215069735632 0 0.49999999999999972 -0.0079132488421466175 0 0.49208475045231398 -0.020145215069735632 0 0.5 -0.03297316591906152 0 0.4850441902737776 -0.030861757591278779 0 0.49208475045231398 -0.020145215069735632 0 0.5 -0.03297316591906152 0 0.4850441902737776 -0.030861757591278779 0 0.5 -0.03297316591906152 0 0.48679356901207588 -0.052890827256102127 0 0.4850441902737776 -0.030861757591278779 0 0.48679356901207588 -0.052890827256102127 0 0.50000000000000089 -0.058033082995976482 0 0.47202966563500731 -0.066730490991108671 0 0.50000000000000089 -0.058033082995976482 0 0.48679356901207588 -0.052890827256102127 0 0.47202966563500731 -0.066730490991108671 0 0.5 -0.03297316591906152 0 0.50000000000000089 -0.058033082995976482 0 0.48679356901207588 -0.052890827256102127 0 0.48679356901207588 -0.052890827256102127 0 0.47376786114287162 -0.051965362966236363 0 0.47101665056688491 -0.064730800287858381 0 0.48679356901207588 -0.052890827256102127 0 0.47202966563500731 -0.066730490991108671 0 0.47101665056688491 -0.064730800287858381 0 0.48679356901207588 -0.052890827256102127 0 0.47376786114287162 -0.051965362966236363 0 0.47487185531379261 -0.039566079263442078 0 0.47376786114287162 -0.051965362966236363 0 0.47487185531379261 -0.039566079263442078 0 0.46074420501417362 -0.051011460095343117 0 0.47376786114287162 -0.051965362966236363 0 0.46538054543777169 -0.059862340806385382 0 0.47101665056688491 -0.064730800287858381 0 0.4850441902737776 -0.030861757591278779 0 0.48679356901207588 -0.052890827256102127 0 0.47487185531379261 -0.039566079263442078 0 0.46074420501417362 -0.051011460095343117 0 0.46549494500118949 -0.030281180314582261 0 0.44593783819881211 -0.041293688327905649 0 0.44868226750180118 -0.025451760064702341 0 0.46549494500118949 -0.030281180314582261 0 0.46074420501417362 -0.051011460095343117 0 0.44593783819881211 -0.041293688327905649 0 0.46549494500118949 -0.030281180314582261 0 0.47487185531379261 -0.039566079263442078 0 0.46074420501417362 -0.051011460095343117 0 0.46549494500118949 -0.030281180314582261 0 0.46074420501417362 -0.051011460095343117 0 0.4559934650271571 -0.071741739876103883 0 0.44736109827718767 -0.064010436183278618 0 0.46538054543777169 -0.059862340806385382 0 0.46074420501417362 -0.051011460095343117 0 0.4559934650271571 -0.071741739876103883 0 0.46074420501417362 -0.051011460095343117 0 0.4559934650271571 -0.071741739876103883 0 0.47376786114287162 -0.051965362966236363 0 0.46538054543777169 -0.059862340806385382 0 0.46074420501417362 -0.051011460095343117 0 0.46074420501417362 -0.051011460095343117 0 0.44083385542770892 -0.054739522536584241 0 0.44593783819881211 -0.041293688327905649 0 0.46074420501417362 -0.051011460095343117 0 0.44083385542770892 -0.054739522536584241 0 0.44736109827718767 -0.064010436183278618 0 0.44083385542770892 -0.054739522536584241 0 0.44736109827718767 -0.064010436183278618 0 0.43630554572723101 -0.066734944003843055 0 0.44593783819881211 -0.041293688327905649 0 0.44868226750180118 -0.025451760064702341 0 0.43629515449969752 -0.031236343387337419 0 0.44083385542770892 -0.054739522536584241 0 0.44593783819881211 -0.041293688327905649 0 0.43032041354169631 -0.04418888372499364 0 0.44593783819881211 -0.041293688327905649 0 0.43629515449969752 -0.031236343387337419 0 0.43032041354169631 -0.04418888372499364 0 0.44868226750180118 -0.025451760064702341 0 0.43572906571174902 -0.020472761578376811 0 0.43629515449969752 -0.031236343387337419 0 0.44868226750180118 -0.025451760064702341 0 0.44607546477119231 -0.01088120849120197 0 0.45871754784754709 -0.018570154532283101 0 0.44868226750180118 -0.025451760064702341 0 0.44607546477119231 -0.01088120849120197 0 0.43572906571174902 -0.020472761578376811 0 0.43833468053237112 0.0018368462066534661 0 0.45524430804349658 0.0062686323842164413 0 0.44607546477119231 -0.01088120849120197 0 0.43833468053237112 0.0018368462066534661 0 0.44607546477119231 -0.01088120849120197 0 0.43269362562877678 -0.0046884403921402234 0 0.45524430804349658 0.0062686323842164413 0 0.47024568498820718 -0.0095509005338218107 0 0.44607546477119231 -0.01088120849120197 0 0.47024568498820718 -0.0095509005338218107 0 0.44607546477119231 -0.01088120849120197 0 0.45871754784754709 -0.018570154532283101 0 0.47024568498820718 -0.0095509005338218107 0 0.44607546477119231 -0.01088120849120197 0 0.44868226750180118 -0.025451760064702341 0 0.46549494500118949 -0.030281180314582261 0 0.45871754784754709 -0.018570154532283101 0 0.47024568498820718 -0.0095509005338218107 0 0.46549494500118949 -0.030281180314582261 0 0.45871754784754709 -0.018570154532283101 0 0.47024568498820718 -0.0095509005338218107 0 0.46549494500118949 -0.030281180314582261 0 0.48358748727385847 -0.1149772742925161 0 0.47353276330217797 -0.1212614124509136 0 0.48632151616169722 -0.1306433098535387 0 0.48358748727385847 -0.1149772742925161 0 0.47353276330217797 -0.1212614124509136 0 0.47138462842416617 -0.10535093570744269 0 0.48358748727385847 -0.1149772742925161 0 0.50000000000000089 -0.1219439022784192 0 0.48669852848125111 -0.095686811172266059 0 0.48358748727385847 -0.1149772742925161 0 0.50000000000000089 -0.1219439022784192 0 0.48632151616169722 -0.1306433098535387 0 0.50000000000000089 -0.1219439022784192 0 0.5 -0.1006402958509383 0 0.48669852848125111 -0.095686811172266059 0 0.50000000000000089 -0.1219439022784192 0 0.48669852848125111 -0.095686811172266059 0 0.48669852848125111 -0.095686811172266059 0 0.47138462842416617 -0.10535093570744269 0 0.47128049920677251 -0.088777285513697415 0 0.48358748727385847 -0.1149772742925161 0 0.48669852848125111 -0.095686811172266059 0 0.47138462842416617 -0.10535093570744269 0 0.48669852848125111 -0.095686811172266059 0 0.47339705696250078 -0.069429720066113337 0 0.48669852848125111 -0.095686811172266059 0 0.47128049920677251 -0.088777285513697415 0 0.47339705696250078 -0.069429720066113337 0 0.47128049920677251 -0.088777285513697415 0 0.47339705696250078 -0.069429720066113337 0 0.46172798719568953 -0.082264715478942596 0 0.48669852848125111 -0.095686811172266059 0 0.5 -0.079336689423457396 0 0.47339705696250078 -0.069429720066113337 0 0.5 -0.1006402958509383 0 0.48669852848125111 -0.095686811172266059 0 0.5 -0.079336689423457396 0 0.50000000000000089 -0.058033082995976482 0 0.47339705696250078 -0.069429720066113337 0 0.50000000000000089 -0.058033082995976482 0 0.5 -0.079336689423457396 0 0.47339705696250078 -0.069429720066113337 0 0.50000000000000089 -0.058033082995976482 0 0.47202966563500731 -0.066730490991108671 0 0.47339705696250078 -0.069429720066113337 0 0.47202966563500731 -0.066730490991108671 0 0.47101665056688491 -0.064730800287858381 0 0.47202966563500731 -0.066730490991108671 0 0.47339705696250078 -0.069429720066113337 0 0.47202966563500731 -0.066730490991108671 0 0.4559934650271571 -0.071741739876103883 0 0.47202966563500731 -0.066730490991108671 0 0.47101665056688491 -0.064730800287858381 0 0.4559934650271571 -0.071741739876103883 0 0.47339705696250078 -0.069429720066113337 0 0.45469409800860922 -0.077411644334367841 0 0.46172798719568953 -0.082264715478942596 0 0.47339705696250078 -0.069429720066113337 0 0.45469409800860922 -0.077411644334367841 0 0.4559934650271571 -0.071741739876103883 0 0.47202966563500731 -0.066730490991108671 0 0.47339705696250078 -0.069429720066113337 0 0.4559934650271571 -0.071741739876103883 0 0.47339705696250078 -0.069429720066113337 0 0.45469409800860922 -0.077411644334367841 0 0.46538054543777169 -0.059862340806385382 0 0.47101665056688491 -0.064730800287858381 0 0.4559934650271571 -0.071741739876103883 0 0.45469409800860922 -0.077411644334367841 0 0.4559934650271571 -0.071741739876103883 0 0.44736109827718767 -0.064010436183278618 0 0.44292842018966749 -0.075824514404518636 0 0.43630554572723101 -0.066734944003843055 0 0.4559934650271571 -0.071741739876103883 0 0.44736109827718767 -0.064010436183278618 0 0.44292842018966749 -0.075824514404518636 0 0.45469409800860922 -0.077411644334367841 0 0.4559934650271571 -0.071741739876103883 0 0.44292842018966749 -0.075824514404518636 0 0.4559934650271571 -0.071741739876103883 0 0.44292842018966749 -0.075824514404518636 0 0.45469409800860922 -0.077411644334367841 0 0.44292842018966749 -0.075824514404518636 0 0.44004613794924841 -0.083663003179058781 0 0.45469409800860922 -0.077411644334367841 0 0.44833060853125611 -0.083798655378567913 0 0.44004613794924841 -0.083663003179058781 0 0.45469409800860922 -0.077411644334367841 0 0.44004613794924841 -0.083663003179058781 0 0.45469409800860922 -0.077411644334367841 0 0.44833060853125611 -0.083798655378567913 0 0.45563140141424319 -0.08583788641800133 0 0.44292842018966749 -0.075824514404518636 0 0.44004613794924841 -0.083663003179058781 0 0.43161242586125959 -0.077099024293684468 0 0.44833060853125611 -0.083798655378567913 0 0.44004613794924841 -0.083663003179058781 0 0.44454905131979278 -0.089503410586403792 0 0.44004613794924841 -0.083663003179058781 0 0.44454905131979278 -0.089503410586403792 0 0.43946357013294729 -0.097985972257717269 0 0.44454905131979278 -0.089503410586403792 0 0.45035588866571952 -0.092566011530271247 0 0.43946357013294729 -0.097985972257717269 0 0.44833060853125611 -0.083798655378567913 0 0.45035588866571952 -0.092566011530271247 0 0.45563140141424319 -0.08583788641800133 0 0.44833060853125611 -0.083798655378567913 0 0.44454905131979278 -0.089503410586403792 0 0.45035588866571952 -0.092566011530271247 0 0.45563140141424319 -0.08583788641800133 0 0.46172798719568953 -0.082264715478942596 0 0.46099209321812712 -0.09307797514722449 0 0.45035588866571952 -0.092566011530271247 0 0.45563140141424319 -0.08583788641800133 0 0.46099209321812712 -0.09307797514722449 0 0.45469409800860922 -0.077411644334367841 0 0.45563140141424319 -0.08583788641800133 0 0.46172798719568953 -0.082264715478942596 0 0.47128049920677251 -0.088777285513697415 0 0.46172798719568953 -0.082264715478942596 0 0.46099209321812712 -0.09307797514722449 0 0.47138462842416617 -0.10535093570744269 0 0.45557215440217169 -0.10367101623499179 0 0.46129818808050538 -0.1139597552643325 0 0.47138462842416617 -0.10535093570744269 0 0.47128049920677251 -0.088777285513697415 0 0.46099209321812712 -0.09307797514722449 0 0.47138462842416617 -0.10535093570744269 0 0.46099209321812712 -0.09307797514722449 0 0.45557215440217169 -0.10367101623499179 0 0.45035588866571952 -0.092566011530271247 0 0.46099209321812712 -0.09307797514722449 0 0.45557215440217169 -0.10367101623499179 0 0.45035588866571952 -0.092566011530271247 0 0.45557215440217169 -0.10367101623499179 0 0.43946357013294729 -0.097985972257717269 0 0.43946357013294729 -0.097985972257717269 0 0.44690128577715899 -0.11240926673007511 0 0.43011070698805542 -0.1070363242839312 0 0.45557215440217169 -0.10367101623499179 0 0.43946357013294729 -0.097985972257717269 0 0.44690128577715899 -0.11240926673007511 0 0.44690128577715899 -0.11240926673007511 0 0.43011070698805542 -0.1070363242839312 0 0.4409806753504289 -0.1257972598264494 0 0.44690128577715899 -0.11240926673007511 0 0.4591001084968519 -0.12710614519823929 0 0.4409806753504289 -0.1257972598264494 0 0.47353276330217797 -0.1212614124509136 0 0.47138462842416617 -0.10535093570744269 0 0.46129818808050538 -0.1139597552643325 0 0.44690128577715899 -0.11240926673007511 0 0.46129818808050538 -0.1139597552643325 0 0.4591001084968519 -0.12710614519823929 0 0.45557215440217169 -0.10367101623499179 0 0.44690128577715899 -0.11240926673007511 0 0.46129818808050538 -0.1139597552643325 0 0.47353276330217797 -0.1212614124509136 0 0.46129818808050538 -0.1139597552643325 0 0.4591001084968519 -0.12710614519823929 0 0.41478067607622371 -0.1155893979670798 0 0.43011070698805542 -0.1070363242839312 0 0.4409806753504289 -0.1257972598264494 0 0.41478067607622371 -0.1155893979670798 0 0.4409806753504289 -0.1257972598264494 0 0.43946357013294729 -0.097985972257717269 0 0.43011070698805542 -0.1070363242839312 0 0.42539817788988732 -0.089914362023748931 0 0.43011070698805542 -0.1070363242839312 0 0.41631171265523381 -0.10118966645788791 0 0.42539817788988732 -0.089914362023748931 0 0.41631171265523381 -0.10118966645788791 0 0.42539817788988732 -0.089914362023748931 0 0.40449369226726273 -0.091921936511969199 0 0.41478067607622371 -0.1155893979670798 0 0.41631171265523381 -0.10118966645788791 0 0.38858067680201858 -0.1053815361077096 0 0.41478067607622371 -0.1155893979670798 0 0.43011070698805542 -0.1070363242839312 0 0.41631171265523381 -0.10118966645788791 0 0.41124403876699522 -0.081879144104021195 0 0.42539817788988732 -0.089914362023748931 0 0.40449369226726273 -0.091921936511969199 0 0.41124403876699522 -0.081879144104021195 0 0.42539817788988732 -0.089914362023748931 0 0.41932444961153659 -0.076029524905538423 0 0.44004613794924841 -0.083663003179058781 0 0.43946357013294729 -0.097985972257717269 0 0.42539817788988732 -0.089914362023748931 0 0.44004613794924841 -0.083663003179058781 0 0.42539817788988732 -0.089914362023748931 0 0.44004613794924841 -0.083663003179058781 0 0.42539817788988732 -0.089914362023748931 0 0.43161242586125959 -0.077099024293684468 0 0.42539817788988732 -0.089914362023748931 0 0.43161242586125959 -0.077099024293684468 0 0.41932444961153659 -0.076029524905538423 0 0.43161242586125959 -0.077099024293684468 0 0.42583423201996679 -0.068353183610922477 0 0.41932444961153659 -0.076029524905538423 0 0.43161242586125959 -0.077099024293684468 0 0.43630554572723101 -0.066734944003843055 0 0.42583423201996679 -0.068353183610922477 0 0.44292842018966749 -0.075824514404518636 0 0.43161242586125959 -0.077099024293684468 0 0.43630554572723101 -0.066734944003843055 0 0.43630554572723101 -0.066734944003843055 0 0.42583423201996679 -0.068353183610922477 0 0.42984268076849019 -0.057813181112519103 0 0.42583423201996679 -0.068353183610922477 0 0.41662209261048022 -0.067223369421288759 0 0.41992389541440828 -0.059622919267198433 0 0.42583423201996679 -0.068353183610922477 0 0.41662209261048022 -0.067223369421288759 0 0.41932444961153659 -0.076029524905538423 0 0.41662209261048022 -0.067223369421288759 0 0.41932444961153659 -0.076029524905538423 0 0.40750663880843441 -0.07183619668598959 0 0.41124403876699522 -0.081879144104021195 0 0.41932444961153659 -0.076029524905538423 0 0.40750663880843441 -0.07183619668598959 0 0.41662209261048022 -0.067223369421288759 0 0.40750663880843441 -0.07183619668598959 0 0.41052124719805488 -0.060275022636794913 0 0.39283090382514518 -0.069260983631133061 0 0.38382828382233147 -0.083804308549562723 0 0.39949723525785469 -0.079693700392859779 0 0.40750663880843441 -0.07183619668598959 0 0.41052124719805488 -0.060275022636794913 0 0.39990736267385751 -0.05997125142663956 0 0.40750663880843441 -0.07183619668598959 0 0.39283090382514518 -0.069260983631133061 0 0.39990736267385751 -0.05997125142663956 0 0.40750663880843441 -0.07183619668598959 0 0.39283090382514518 -0.069260983631133061 0 0.39949723525785469 -0.079693700392859779 0 0.41124403876699522 -0.081879144104021195 0 0.40750663880843441 -0.07183619668598959 0 0.39949723525785469 -0.079693700392859779 0 0.39283090382514518 -0.069260983631133061 0 0.38382828382233147 -0.083804308549562723 0 0.37907589084264331 -0.062227080991416023 0 0.38382828382233147 -0.083804308549562723 0 0.37907589084264331 -0.062227080991416023 0 0.38382828382233147 -0.083804308549562723 0 0.37907589084264331 -0.062227080991416023 0 0.36810434842363537 -0.064890906049798414 0 0.38382828382233147 -0.083804308549562723 0 0.40449369226726273 -0.091921936511969199 0 0.38858067680201858 -0.1053815361077096 0 0.38382828382233147 -0.083804308549562723 0 0.39949723525785469 -0.079693700392859779 0 0.40449369226726273 -0.091921936511969199 0 0.41124403876699522 -0.081879144104021195 0 0.39949723525785469 -0.079693700392859779 0 0.40449369226726273 -0.091921936511969199 0 0.41631171265523381 -0.10118966645788791 0 0.40449369226726273 -0.091921936511969199 0 0.38858067680201858 -0.1053815361077096 0 0.38382828382233147 -0.083804308549562723 0 0.38858067680201858 -0.1053815361077096 0 0.3629070545893644 -0.095378757625405708 0 0.38858067680201858 -0.1053815361077096 0 0.3629070545893644 -0.095378757625405708 0 0.38382828382233147 -0.083804308549562723 0 0.38858067680201858 -0.1053815361077096 0 0.39191772611515308 -0.1205326973668861 0 0.36843662320438098 -0.1145980693545072 0 0.37621263295835838 -0.13321560300615501 0 0.38858067680201858 -0.1053815361077096 0 0.39191772611515308 -0.1205326973668861 0 0.38858067680201858 -0.1053815361077096 0 0.39191772611515308 -0.1205326973668861 0 0.36843662320438098 -0.1145980693545072 0 0.41478067607622371 -0.1155893979670798 0 0.39191772611515308 -0.1205326973668861 0 0.40412821895561318 -0.1269305613706572 0 0.41478067607622371 -0.1155893979670798 0 0.38858067680201858 -0.1053815361077096 0 0.39191772611515308 -0.1205326973668861 0 0.41478067607622371 -0.1155893979670798 0 0.38858067680201858 -0.1053815361077096 0 0.4179998298767672 -0.016863012784690459 0 0.40127987868380599 -0.019474744503155561 0 0.4179998298767672 -0.016863012784690459 0 0.40855148018272652 -0.021935484471530962 0 0.40127987868380599 -0.019474744503155561 0 0.4179998298767672 -0.016863012784690459 0 0.42190524455417738 -0.012211516448581631 0 0.42568719723187642 -0.02258297950006067 0 0.4179998298767672 -0.016863012784690459 0 0.41739450116522758 -0.023575467856465221 0 0.42568719723187642 -0.02258297950006067 0 0.4179998298767672 -0.016863012784690459 0 0.41739450116522758 -0.023575467856465221 0 0.41125179756310398 -0.024489991696432029 0 0.42038669031114628 -0.027693489341962731 0 0.41739450116522758 -0.023575467856465221 0 0.42568719723187642 -0.02258297950006067 0 0.42038669031114628 -0.027693489341962731 0 0.41474590739065859 -0.029021033997826119 0 0.41837889719857341 -0.033890577676061663 0 0.42038669031114628 -0.027693489341962731 0 0.41474590739065859 -0.029021033997826119 0 0.41739450116522758 -0.023575467856465221 0 0.41474590739065859 -0.029021033997826119 0 0.41739450116522758 -0.023575467856465221 0 0.41125179756310398 -0.024489991696432029 0 0.41474590739065859 -0.029021033997826119 0 0.41125179756310398 -0.024489991696432029 0 0.40934991338250409 -0.029831207055869471 0 0.41125179756310398 -0.024489991696432029 0 0.40934991338250409 -0.029831207055869471 0 0.40367441460722869 -0.026914188901845791 0 0.41125179756310398 -0.024489991696432029 0 0.40855148018272652 -0.021935484471530962 0 0.40367441460722869 -0.026914188901845791 0 0.4179998298767672 -0.016863012784690459 0 0.41125179756310398 -0.024489991696432029 0 0.40855148018272652 -0.021935484471530962 0 0.4092168574862039 -0.001915797133794512 0 0.42190524455417738 -0.012211516448581631 0 0.39773502433716262 -0.0135418244059613 0 0.4179998298767672 -0.016863012784690459 0 0.42190524455417738 -0.012211516448581631 0 0.39773502433716262 -0.0135418244059613 0 0.42190524455417738 -0.012211516448581631 0 0.39773502433716262 -0.0135418244059613 0 0.42445911265736608 0.0025021171645692461 0 0.4092168574862039 -0.001915797133794512 0 0.42190524455417738 -0.012211516448581631 0 0.44607546477119231 -0.01088120849120197 0 0.42190524455417738 -0.012211516448581631 0 0.44607546477119231 -0.01088120849120197 0 0.42190524455417738 -0.012211516448581631 0 0.43269362562877678 -0.0046884403921402234 0 0.44607546477119231 -0.01088120849120197 0 0.42190524455417738 -0.012211516448581631 0 0.43572906571174902 -0.020472761578376811 0 0.42445911265736608 0.0025021171645692461 0 0.42190524455417738 -0.012211516448581631 0 0.43269362562877678 -0.0046884403921402234 0 0.42445911265736608 0.0025021171645692461 0 0.43833468053237112 0.0018368462066534661 0 0.43269362562877678 -0.0046884403921402234 0 0.42190524455417738 -0.012211516448581631 0 0.43572906571174902 -0.020472761578376811 0 0.42568719723187642 -0.02258297950006067 0 0.42038669031114628 -0.027693489341962731 0 0.42568719723187642 -0.02258297950006067 0 0.42556834242355179 -0.033127229761723283 0 0.42568719723187642 -0.02258297950006067 0 0.43629515449969752 -0.031236343387337419 0 0.42556834242355179 -0.033127229761723283 0 0.43572906571174902 -0.020472761578376811 0 0.42568719723187642 -0.02258297950006067 0 0.43629515449969752 -0.031236343387337419 0 0.43629515449969752 -0.031236343387337419 0 0.43032041354169631 -0.04418888372499364 0 0.42556834242355179 -0.033127229761723283 0 0.43032041354169631 -0.04418888372499364 0 0.42234170175832131 -0.039171104939923547 0 0.41974186936113922 -0.044964997774429943 0 0.42234170175832131 -0.039171104939923547 0 0.42556834242355179 -0.033127229761723283 0 0.41837889719857341 -0.033890577676061663 0 0.43032041354169631 -0.04418888372499364 0 0.42234170175832131 -0.039171104939923547 0 0.42556834242355179 -0.033127229761723283 0 0.44083385542770892 -0.054739522536584241 0 0.43630554572723101 -0.066734944003843055 0 0.42984268076849019 -0.057813181112519103 0 0.44083385542770892 -0.054739522536584241 0 0.43032041354169631 -0.04418888372499364 0 0.42984268076849019 -0.057813181112519103 0 0.43032041354169631 -0.04418888372499364 0 0.42984268076849019 -0.057813181112519103 0 0.42300570982763408 -0.05189489379165893 0 0.43032041354169631 -0.04418888372499364 0 0.42300570982763408 -0.05189489379165893 0 0.41974186936113922 -0.044964997774429943 0 0.42583423201996679 -0.068353183610922477 0 0.42984268076849019 -0.057813181112519103 0 0.41992389541440828 -0.059622919267198433 0 0.42984268076849019 -0.057813181112519103 0 0.42300570982763408 -0.05189489379165893 0 0.41992389541440828 -0.059622919267198433 0 0.41992389541440828 -0.059622919267198433 0 0.41481037581761548 -0.051711291559946512 0 0.41052124719805488 -0.060275022636794913 0 0.41662209261048022 -0.067223369421288759 0 0.41992389541440828 -0.059622919267198433 0 0.41052124719805488 -0.060275022636794913 0 0.42300570982763408 -0.05189489379165893 0 0.41992389541440828 -0.059622919267198433 0 0.41481037581761548 -0.051711291559946512 0 0.42300570982763408 -0.05189489379165893 0 0.41481037581761548 -0.051711291559946512 0 0.41974186936113922 -0.044964997774429943 0 0.41481037581761548 -0.051711291559946512 0 0.41052124719805488 -0.060275022636794913 0 0.4048334408973619 -0.050427226199113641 0 0.41481037581761548 -0.051711291559946512 0 0.41159557359397753 -0.043564341840296013 0 0.4048334408973619 -0.050427226199113641 0 0.41837889719857341 -0.033890577676061663 0 0.41637744162759061 -0.039259470789761039 0 0.41160667683732333 -0.035450769947079977 0 0.41474590739065859 -0.029021033997826119 0 0.41837889719857341 -0.033890577676061663 0 0.41160667683732333 -0.035450769947079977 0 0.42038669031114628 -0.027693489341962731 0 0.42556834242355179 -0.033127229761723283 0 0.41837889719857341 -0.033890577676061663 0 0.42234170175832131 -0.039171104939923547 0 0.41837889719857341 -0.033890577676061663 0 0.41637744162759061 -0.039259470789761039 0 0.41481037581761548 -0.051711291559946512 0 0.41974186936113922 -0.044964997774429943 0 0.41159557359397753 -0.043564341840296013 0 0.42234170175832131 -0.039171104939923547 0 0.41974186936113922 -0.044964997774429943 0 0.41637744162759061 -0.039259470789761039 0 0.41974186936113922 -0.044964997774429943 0 0.41637744162759061 -0.039259470789761039 0 0.41159557359397753 -0.043564341840296013 0 0.41637744162759061 -0.039259470789761039 0 0.41159557359397753 -0.043564341840296013 0 0.41160667683732333 -0.035450769947079977 0 0.41159557359397753 -0.043564341840296013 0 0.41160667683732333 -0.035450769947079977 0 0.404537366242048 -0.040182342803127047 0 0.41159557359397753 -0.043564341840296013 0 0.404537366242048 -0.040182342803127047 0 0.4048334408973619 -0.050427226199113641 0 0.41160667683732333 -0.035450769947079977 0 0.40547077051420599 -0.033280050736163462 0 0.404537366242048 -0.040182342803127047 0 0.41474590739065859 -0.029021033997826119 0 0.40934991338250409 -0.029831207055869471 0 0.41160667683732333 -0.035450769947079977 0 0.40934991338250409 -0.029831207055869471 0 0.41160667683732333 -0.035450769947079977 0 0.40547077051420599 -0.033280050736163462 0 0.40547077051420599 -0.033280050736163462 0 0.39838776036973739 -0.034635048200967702 0 0.40367441460722869 -0.026914188901845791 0 0.40547077051420599 -0.033280050736163462 0 0.404537366242048 -0.040182342803127047 0 0.39838776036973739 -0.034635048200967702 0 0.404537366242048 -0.040182342803127047 0 0.39523714185037367 -0.043813306900604677 0 0.39838776036973739 -0.034635048200967702 0 0.404537366242048 -0.040182342803127047 0 0.39523714185037367 -0.043813306900604677 0 0.4048334408973619 -0.050427226199113641 0 0.39523714185037367 -0.043813306900604677 0 0.39838776036973739 -0.034635048200967702 0 0.38622792713208831 -0.038862768584131797 0 0.39838776036973739 -0.034635048200967702 0 0.38622792713208831 -0.038862768584131797 0 0.39493152175556379 -0.027486255965837311 0 0.41052124719805488 -0.060275022636794913 0 0.39990736267385751 -0.05997125142663956 0 0.4048334408973619 -0.050427226199113641 0 0.39990736267385751 -0.05997125142663956 0 0.4048334408973619 -0.050427226199113641 0 0.3969684680487312 -0.052462711368250307 0 0.39523714185037367 -0.043813306900604677 0 0.4048334408973619 -0.050427226199113641 0 0.3969684680487312 -0.052462711368250307 0 0.39523714185037367 -0.043813306900604677 0 0.3969684680487312 -0.052462711368250307 0 0.38789592677333179 -0.055639060946643372 0 0.39990736267385751 -0.05997125142663956 0 0.3969684680487312 -0.052462711368250307 0 0.38789592677333179 -0.055639060946643372 0 0.39283090382514518 -0.069260983631133061 0 0.39990736267385751 -0.05997125142663956 0 0.38789592677333179 -0.055639060946643372 0 0.37907589084264331 -0.062227080991416023 0 0.3743234978629551 -0.040649853433269288 0 0.38188081065275459 -0.049344690988865118 0 0.37907589084264331 -0.062227080991416023 0 0.3743234978629551 -0.040649853433269288 0 0.38789592677333179 -0.055639060946643372 0 0.38188081065275459 -0.049344690988865118 0 0.38622792713208831 -0.038862768584131797 0 0.38789592677333179 -0.055639060946643372 0 0.38622792713208831 -0.038862768584131797 0 0.39283090382514518 -0.069260983631133061 0 0.38789592677333179 -0.055639060946643372 0 0.37907589084264331 -0.062227080991416023 0 0.38789592677333179 -0.055639060946643372 0 0.38188081065275459 -0.049344690988865118 0 0.37907589084264331 -0.062227080991416023 0 0.39523714185037367 -0.043813306900604677 0 0.38789592677333179 -0.055639060946643372 0 0.38622792713208831 -0.038862768584131797 0 0.38622792713208831 -0.038862768584131797 0 0.38455992749084478 -0.02208647622162023 0 0.372178093772569 -0.03383533169697437 0 0.38188081065275459 -0.049344690988865118 0 0.38622792713208831 -0.038862768584131797 0 0.3743234978629551 -0.040649853433269288 0 0.38622792713208831 -0.038862768584131797 0 0.3743234978629551 -0.040649853433269288 0 0.372178093772569 -0.03383533169697437 0 0.38622792713208831 -0.038862768584131797 0 0.38455992749084478 -0.02208647622162023 0 0.39493152175556379 -0.027486255965837311 0 0.38622792713208831 -0.038862768584131797 0 0.38455992749084478 -0.02208647622162023 0 0.4179998298767672 -0.016863012784690459 0 0.40127987868380599 -0.019474744503155561 0 0.39773502433716262 -0.0135418244059613 0 0.38455992749084478 -0.02208647622162023 0 0.40127987868380599 -0.019474744503155561 0 0.38455992749084478 -0.02208647622162023 0 0.40127987868380599 -0.019474744503155561 0 0.39773502433716262 -0.0135418244059613 0 0.38455992749084478 -0.02208647622162023 0 0.39493152175556379 -0.027486255965837311 0 0.40127987868380599 -0.019474744503155561 0 0.40855148018272652 -0.021935484471530962 0 0.40127987868380599 -0.019474744503155561 0 0.40367441460722869 -0.026914188901845791 0 0.39838776036973739 -0.034635048200967702 0 0.39493152175556379 -0.027486255965837311 0 0.40367441460722869 -0.026914188901845791 0 0.39493152175556379 -0.027486255965837311 0 0.40127987868380599 -0.019474744503155561 0 0.40367441460722869 -0.026914188901845791 0 0.40934991338250409 -0.029831207055869471 0 0.40547077051420599 -0.033280050736163462 0 0.40367441460722869 -0.026914188901845791 0 0.4092168574862039 -0.001915797133794512 0 0.39773502433716262 -0.0135418244059613 0 0.39295267895501113 -0.00034306088728790213 0 0.38455992749084478 -0.02208647622162023 0 0.39773502433716262 -0.0135418244059613 0 0.39295267895501113 -0.00034306088728790213 0 0.38158067923716771 0.0078780024799149622 0 0.38455992749084478 -0.02208647622162023 0 0.39295267895501113 -0.00034306088728790213 0 0.38158067923716771 0.0078780024799149622 0 0.38455992749084478 -0.02208647622162023 0 0.38158067923716771 0.0078780024799149622 0 0.38455992749084478 -0.02208647622162023 0 0.37293823436178491 -0.0075236892011508686 0 0.37293823436178491 -0.0075236892011508686 0 0.35552249148999793 -0.026622254571155472 0 0.35856686411262972 -0.0033105511437120862 0 0.36740822099193271 0.00739377240977011 0 0.37293823436178491 -0.0075236892011508686 0 0.35856686411262972 -0.0033105511437120862 0 0.38455992749084478 -0.02208647622162023 0 0.35552249148999793 -0.026622254571155472 0 0.372178093772569 -0.03383533169697437 0 0.38455992749084478 -0.02208647622162023 0 0.35552249148999793 -0.026622254571155472 0 0.38455992749084478 -0.02208647622162023 0 0.37293823436178491 -0.0075236892011508686 0 0.35552249148999793 -0.026622254571155472 0 0.33709463695305059 0.0011195889012099709 0 0.34441726201120731 -0.014992812433586959 0 0.35856686411262972 -0.0033105511437120862 0 0.35552249148999793 -0.026622254571155472 0 0.34441726201120731 -0.014992812433586959 0 0.35856686411262972 -0.0033105511437120862 0 0.33709463695305059 0.0011195889012099709 0 0.34441726201120731 -0.014992812433586959 0 0.32648505548915108 -0.03115803292069028 0 0.33709463695305059 0.0011195889012099709 0 0.32648505548915108 -0.03115803292069028 0 0.31109301432555653 -0.01004807443475985 0 0.35552249148999793 -0.026622254571155472 0 0.32648505548915108 -0.03115803292069028 0 0.35552249148999793 -0.026622254571155472 0 0.34441726201120731 -0.014992812433586959 0 0.32648505548915108 -0.03115803292069028 0 0.31876096194088371 -0.047028253173060683 0 0.31330714715612568 -0.059504144410823891 0 0.33151456429055348 -0.062196470015971027 0 0.32648505548915108 -0.03115803292069028 0 0.31876096194088371 -0.047028253173060683 0 0.29744761948830423 -0.035693811270225077 0 0.32648505548915108 -0.03115803292069028 0 0.31876096194088371 -0.047028253173060683 0 0.34120471428549581 -0.043549519303292261 0 0.35552249148999793 -0.026622254571155472 0 0.32648505548915108 -0.03115803292069028 0 0.34120471428549581 -0.043549519303292261 0 0.34120471428549581 -0.043549519303292261 0 0.33151456429055348 -0.062196470015971027 0 0.35386039335028002 -0.058546583915177322 0 0.31876096194088371 -0.047028253173060683 0 0.34120471428549581 -0.043549519303292261 0 0.33151456429055348 -0.062196470015971027 0 0.34120471428549581 -0.043549519303292261 0 0.35386039335028002 -0.058546583915177322 0 0.36025662488695898 -0.040955305674695082 0 0.35552249148999793 -0.026622254571155472 0 0.34120471428549581 -0.043549519303292261 0 0.36025662488695898 -0.040955305674695082 0 0.35552249148999793 -0.026622254571155472 0 0.36025662488695898 -0.040955305674695082 0 0.372178093772569 -0.03383533169697437 0 0.36025662488695898 -0.040955305674695082 0 0.3743234978629551 -0.040649853433269288 0 0.36616118620009569 -0.053710071802682391 0 0.36025662488695898 -0.040955305674695082 0 0.3743234978629551 -0.040649853433269288 0 0.372178093772569 -0.03383533169697437 0 0.35386039335028002 -0.058546583915177322 0 0.36025662488695898 -0.040955305674695082 0 0.36616118620009569 -0.053710071802682391 0 0.37907589084264331 -0.062227080991416023 0 0.3743234978629551 -0.040649853433269288 0 0.36616118620009569 -0.053710071802682391 0 0.35386039335028002 -0.058546583915177322 0 0.36616118620009569 -0.053710071802682391 0 0.36810434842363537 -0.064890906049798414 0 0.37907589084264331 -0.062227080991416023 0 0.36616118620009569 -0.053710071802682391 0 0.36810434842363537 -0.064890906049798414 0 0.35386039335028002 -0.058546583915177322 0 0.36810434842363537 -0.064890906049798414 0 0.36310858965845078 -0.074978038002575811 0 0.38382828382233147 -0.083804308549562723 0 0.36810434842363537 -0.064890906049798414 0 0.36310858965845078 -0.074978038002575811 0 0.38382828382233147 -0.083804308549562723 0 0.36310858965845078 -0.074978038002575811 0 0.3629070545893644 -0.095378757625405708 0 0.34804302916131669 -0.07873233668995952 0 0.3629070545893644 -0.095378757625405708 0 0.34293976621778638 -0.1004045832470125 0 0.36310858965845078 -0.074978038002575811 0 0.34804302916131669 -0.07873233668995952 0 0.3629070545893644 -0.095378757625405708 0 0.35386039335028002 -0.058546583915177322 0 0.36310858965845078 -0.074978038002575811 0 0.34804302916131669 -0.07873233668995952 0 0.33151456429055348 -0.062196470015971027 0 0.35386039335028002 -0.058546583915177322 0 0.34804302916131669 -0.07873233668995952 0 0.36843662320438098 -0.1145980693545072 0 0.34293976621778638 -0.1004045832470125 0 0.34671005004183852 -0.13316064616250109 0 0.38858067680201858 -0.1053815361077096 0 0.36843662320438098 -0.1145980693545072 0 0.3629070545893644 -0.095378757625405708 0 0.36843662320438098 -0.1145980693545072 0 0.3629070545893644 -0.095378757625405708 0 0.34293976621778638 -0.1004045832470125 0 0.34293976621778638 -0.1004045832470125 0 0.32323986927819609 -0.1144096403959694 0 0.34671005004183852 -0.13316064616250109 0 0.32323986927819609 -0.1144096403959694 0 0.34671005004183852 -0.13316064616250109 0 0.34293976621778638 -0.1004045832470125 0 0.32323986927819609 -0.1144096403959694 0 0.31947146056696352 -0.090315621721671582 0 0.32323986927819609 -0.1144096403959694 0 0.31947146056696352 -0.090315621721671582 0 0.29976968851455371 -0.095658634629437828 0 0.32323986927819609 -0.1144096403959694 0 0.29867168699124591 -0.1249832263365092 0 0.31747443892932409 -0.13418385928146709 0 0.33151456429055348 -0.062196470015971027 0 0.34804302916131669 -0.07873233668995952 0 0.33392780686146539 -0.080889587333614912 0 0.34293976621778638 -0.1004045832470125 0 0.33392780686146539 -0.080889587333614912 0 0.31947146056696352 -0.090315621721671582 0 0.34804302916131669 -0.07873233668995952 0 0.34293976621778638 -0.1004045832470125 0 0.33392780686146539 -0.080889587333614912 0 0.33392780686146539 -0.080889587333614912 0 0.31947146056696352 -0.090315621721671582 0 0.3145187077722093 -0.073474452090725353 0 0.33392780686146539 -0.080889587333614912 0 0.3145187077722093 -0.073474452090725353 0 0.33151456429055348 -0.062196470015971027 0 0.33392780686146539 -0.080889587333614912 0 0.3145187077722093 -0.073474452090725353 0 0.31330714715612568 -0.059504144410823891 0 0.33151456429055348 -0.062196470015971027 0 0.3145187077722093 -0.073474452090725353 0 0.3145187077722093 -0.073474452090725353 0 0.29913410258838191 -0.063738278500051371 0 0.29510960868295388 -0.066059316847833713 0 0.31330714715612568 -0.059504144410823891 0 0.3145187077722093 -0.073474452090725353 0 0.29913410258838191 -0.063738278500051371 0 0.3145187077722093 -0.073474452090725353 0 0.29510960868295388 -0.066059316847833713 0 0.3145187077722093 -0.073474452090725353 0 0.30243292475757039 -0.077056832633269484 0 0.29510960868295388 -0.066059316847833713 0 0.29913410258838191 -0.063738278500051371 0 0.29510960868295388 -0.066059316847833713 0 0.30243292475757039 -0.077056832633269484 0 0.29510960868295388 -0.066059316847833713 0 0.29452212358197571 -0.074169446198641298 0 0.30243292475757039 -0.077056832633269484 0 0.29166644278252862 -0.080176703804717128 0 0.29976968851455371 -0.095658634629437828 0 0.31947146056696352 -0.090315621721671582 0 0.3145187077722093 -0.073474452090725353 0 0.30243292475757039 -0.077056832633269484 0 0.31947146056696352 -0.090315621721671582 0 0.30243292475757039 -0.077056832633269484 0 0.29976968851455371 -0.095658634629437828 0 0.29976968851455371 -0.095658634629437828 0 0.27629950775091139 -0.076907628862905961 0 0.29976968851455371 -0.095658634629437828 0 0.27178252816054449 -0.10056498460960581 0 0.27629950775091139 -0.076907628862905961 0 0.29166644278252862 -0.080176703804717128 0 0.29976968851455371 -0.095658634629437828 0 0.27629950775091139 -0.076907628862905961 0 0.28321544822337152 -0.067167556227529956 0 0.29510960868295388 -0.066059316847833713 0 0.27948130357041312 -0.071841494846811182 0 0.29510960868295388 -0.066059316847833713 0 0.27629950775091139 -0.076907628862905961 0 0.29510960868295388 -0.066059316847833713 0 0.2893994206995924 -0.074328273928524521 0 0.27629950775091139 -0.076907628862905961 0 0.29510960868295388 -0.066059316847833713 0 0.27948130357041312 -0.071841494846811182 0 0.27629950775091139 -0.076907628862905961 0 0.29166644278252862 -0.080176703804717128 0 0.2893994206995924 -0.074328273928524521 0 0.27629950775091139 -0.076907628862905961 0 0.28321544822337152 -0.067167556227529956 0 0.29510960868295388 -0.066059316847833713 0 0.26724117808478148 -0.055412342408568023 0 0.29510960868295388 -0.066059316847833713 0 0.29452212358197571 -0.074169446198641298 0 0.2893994206995924 -0.074328273928524521 0 0.30243292475757039 -0.077056832633269484 0 0.29166644278252862 -0.080176703804717128 0 0.29452212358197571 -0.074169446198641298 0 0.29166644278252862 -0.080176703804717128 0 0.29452212358197571 -0.074169446198641298 0 0.2893994206995924 -0.074328273928524521 0 0.32323986927819609 -0.1144096403959694 0 0.29867168699124591 -0.1249832263365092 0 0.29976968851455371 -0.095658634629437828 0 0.32323986927819609 -0.1144096403959694 0 0.29976968851455371 -0.095658634629437828 0 0.29976968851455371 -0.095658634629437828 0 0.2818453387580892 -0.1162330566825045 0 0.27178252816054449 -0.10056498460960581 0 0.29867168699124591 -0.1249832263365092 0 0.29976968851455371 -0.095658634629437828 0 0.2818453387580892 -0.1162330566825045 0 0.2818453387580892 -0.1162330566825045 0 0.27178252816054449 -0.10056498460960581 0 0.2632328922212101 -0.12061564729224319 0 0.27178252816054449 -0.10056498460960581 0 0.25382345726124178 -0.10530698324834489 0 0.2632328922212101 -0.12061564729224319 0 0.27178252816054449 -0.10056498460960581 0 0.25382345726124178 -0.10530698324834489 0 0.25715206791224893 -0.087950493673154384 0 0.2632328922212101 -0.12061564729224319 0 0.25232014725039781 -0.13580108181409431 0 0.23894516993861839 -0.1184104321833177 0 0.25382345726124178 -0.10530698324834489 0 0.2632328922212101 -0.12061564729224319 0 0.23894516993861839 -0.1184104321833177 0 0.28321544822337152 -0.067167556227529956 0 0.27484212965606042 -0.066165386121966943 0 0.26724117808478148 -0.055412342408568023 0 0.26849866602226091 -0.071815822275203792 0 0.27629950775091139 -0.076907628862905961 0 0.26456263818080328 -0.076000650872273742 0 0.26849866602226091 -0.071815822275203792 0 0.27402798416632279 -0.07123699508176512 0 0.27629950775091139 -0.076907628862905961 0 0.26927136272455532 -0.066216536252793404 0 0.27484212965606042 -0.066165386121966943 0 0.26724117808478148 -0.055412342408568023 0 0.26849866602226091 -0.071815822275203792 0 0.26927136272455532 -0.066216536252793404 0 0.26082360414750572 -0.067246295908028816 0 0.26927136272455532 -0.066216536252793404 0 0.26082360414750572 -0.067246295908028816 0 0.26724117808478148 -0.055412342408568023 0 0.26927136272455532 -0.066216536252793404 0 0.27484212965606042 -0.066165386121966943 0 0.27402798416632279 -0.07123699508176512 0 0.26849866602226091 -0.071815822275203792 0 0.26927136272455532 -0.066216536252793404 0 0.27402798416632279 -0.07123699508176512 0 0.28321544822337152 -0.067167556227529956 0 0.27484212965606042 -0.066165386121966943 0 0.27948130357041312 -0.071841494846811182 0 0.27484212965606042 -0.066165386121966943 0 0.27948130357041312 -0.071841494846811182 0 0.27402798416632279 -0.07123699508176512 0 0.27948130357041312 -0.071841494846811182 0 0.27650621441041429 -0.073750357928592511 0 0.27629950775091139 -0.076907628862905961 0 0.27650621441041429 -0.073750357928592511 0 0.27402798416632279 -0.07123699508176512 0 0.27629950775091139 -0.076907628862905961 0 0.27948130357041312 -0.071841494846811182 0 0.27650621441041429 -0.073750357928592511 0 0.27402798416632279 -0.07123699508176512 0 0.27178252816054449 -0.10056498460960581 0 0.27629950775091139 -0.076907628862905961 0 0.25715206791224893 -0.087950493673154384 0 0.27629950775091139 -0.076907628862905961 0 0.25715206791224893 -0.087950493673154384 0 0.27629950775091139 -0.076907628862905961 0 0.25715206791224893 -0.087950493673154384 0 0.26456263818080328 -0.076000650872273742 0 0.25715206791224893 -0.087950493673154384 0 0.25228763128995813 -0.072878699196203128 0 0.26456263818080328 -0.076000650872273742 0 0.26849866602226091 -0.071815822275203792 0 0.26456263818080328 -0.076000650872273742 0 0.26082360414750572 -0.067246295908028816 0 0.25228763128995813 -0.072878699196203128 0 0.26456263818080328 -0.076000650872273742 0 0.26082360414750572 -0.067246295908028816 0 0.25228763128995813 -0.072878699196203128 0 0.26082360414750572 -0.067246295908028816 0 0.24925446120544861 -0.060733060224481557 0 0.26724117808478148 -0.055412342408568023 0 0.23937274748661089 -0.044765367969297351 0 0.26724117808478148 -0.055412342408568023 0 0.24925446120544861 -0.060733060224481557 0 0.23937274748661089 -0.044765367969297351 0 0.26082360414750572 -0.067246295908028816 0 0.26724117808478148 -0.055412342408568023 0 0.24925446120544861 -0.060733060224481557 0 0.26724117808478148 -0.055412342408568023 0 0.28894618678254502 -0.055458689812610082 0 0.28293868566881691 -0.046946180257616189 0 0.26724117808478148 -0.055412342408568023 0 0.26841018348745732 -0.040229589619759892 0 0.28293868566881691 -0.046946180257616189 0 0.29510960868295388 -0.066059316847833713 0 0.26724117808478148 -0.055412342408568023 0 0.26841018348745732 -0.040229589619759892 0 0.26906483945592058 -0.033775403586323298 0 0.28390362990679319 -0.02515633880236888 0 0.26724117808478148 -0.055412342408568023 0 0.26841018348745732 -0.040229589619759892 0 0.23937274748661089 -0.044765367969297351 0 0.26841018348745732 -0.040229589619759892 0 0.2530182964698886 -0.036154790891571142 0 0.24664834374715339 -0.039194746680125493 0 0.26841018348745732 -0.040229589619759892 0 0.2530182964698886 -0.036154790891571142 0 0.2575232089310579 -0.029433518967220872 0 0.26841018348745732 -0.040229589619759892 0 0.26906483945592058 -0.033775403586323298 0 0.2575232089310579 -0.029433518967220872 0 0.26841018348745732 -0.040229589619759892 0 0.23937274748661089 -0.044765367969297351 0 0.26841018348745732 -0.040229589619759892 0 0.23937274748661089 -0.044765367969297351 0 0.24664834374715339 -0.039194746680125493 0 0.26906483945592058 -0.033775403586323298 0 0.25252126317799439 -0.010205438598489529 0 0.27165532035073747 -0.01451446159656325 0 0.26906483945592058 -0.033775403586323298 0 0.2575232089310579 -0.029433518967220872 0 0.25252126317799439 -0.010205438598489529 0 0.2530182964698886 -0.036154790891571142 0 0.2575232089310579 -0.029433518967220872 0 0.24460146206402841 -0.026802372139960472 0 0.2575232089310579 -0.029433518967220872 0 0.25252126317799439 -0.010205438598489529 0 0.24460146206402841 -0.026802372139960472 0 0.26906483945592058 -0.033775403586323298 0 0.25252126317799439 -0.010205438598489529 0 0.27039382550822311 0.00042496408912158962 0 0.25252126317799439 -0.010205438598489529 0 0.27165532035073747 -0.01451446159656325 0 0.27165532035073747 -0.01451446159656325 0 0.28390362990679319 -0.02515633880236888 0 0.28345562765708909 -0.0063169598563043682 0 0.27039382550822311 0.00042496408912158962 0 0.27165532035073747 -0.01451446159656325 0 0.28345562765708909 -0.0063169598563043682 0 0.26906483945592058 -0.033775403586323298 0 0.27165532035073747 -0.01451446159656325 0 0.28390362990679319 -0.02515633880236888 0 0.28390362990679319 -0.02515633880236888 0 0.29441516816047869 -0.015372341874102609 0 0.29744761948830423 -0.035693811270225077 0 0.28390362990679319 -0.02515633880236888 0 0.29441516816047869 -0.015372341874102609 0 0.28345562765708909 -0.0063169598563043682 0 0.29617594942465092 0.0003534749931451462 0 0.29441516816047869 -0.015372341874102609 0 0.28345562765708909 -0.0063169598563043682 0 0.29617594942465092 0.0003534749931451462 0 0.29441516816047869 -0.015372341874102609 0 0.31109301432555653 -0.01004807443475985 0 0.32648505548915108 -0.03115803292069028 0 0.31109301432555653 -0.01004807443475985 0 0.29744761948830423 -0.035693811270225077 0 0.29441516816047869 -0.015372341874102609 0 0.31109301432555653 -0.01004807443475985 0 0.29744761948830423 -0.035693811270225077 0 0.32648505548915108 -0.03115803292069028 0 0.29744761948830423 -0.035693811270225077 0 0.31876096194088371 -0.047028253173060683 0 0.29744761948830423 -0.035693811270225077 0 0.30260739918860019 -0.051083268274311033 0 0.29744761948830423 -0.035693811270225077 0 0.30260739918860019 -0.051083268274311033 0 0.29264826050099668 -0.047936468176917872 0 0.31876096194088371 -0.047028253173060683 0 0.31330714715612568 -0.059504144410823891 0 0.30260739918860019 -0.051083268274311033 0 0.31330714715612568 -0.059504144410823891 0 0.29913410258838191 -0.063738278500051371 0 0.30260739918860019 -0.051083268274311033 0 0.29913410258838191 -0.063738278500051371 0 0.30260739918860019 -0.051083268274311033 0 0.28894618678254502 -0.055458689812610082 0 0.29510960868295388 -0.066059316847833713 0 0.26724117808478148 -0.055412342408568023 0 0.28894618678254502 -0.055458689812610082 0 0.30260739918860019 -0.051083268274311033 0 0.29264826050099668 -0.047936468176917872 0 0.28894618678254502 -0.055458689812610082 0 0.29913410258838191 -0.063738278500051371 0 0.29510960868295388 -0.066059316847833713 0 0.28894618678254502 -0.055458689812610082 0 0.29264826050099668 -0.047936468176917872 0 0.28894618678254502 -0.055458689812610082 0 0.28293868566881691 -0.046946180257616189 0 0.26841018348745732 -0.040229589619759892 0 0.28390362990679319 -0.02515633880236888 0 0.29744761948830423 -0.035693811270225077 0 0.26841018348745732 -0.040229589619759892 0 0.29744761948830423 -0.035693811270225077 0 0.28293868566881691 -0.046946180257616189 0 0.26841018348745732 -0.040229589619759892 0 0.29744761948830423 -0.035693811270225077 0 0.29744761948830423 -0.035693811270225077 0 0.29264826050099668 -0.047936468176917872 0 0.28293868566881691 -0.046946180257616189 0 0.29568169839391811 -0.20188006639118869 0 0.29787152122649568 -0.22724114783494839 0 0.27746259748242169 -0.2244094984090356 0 0.29568169839391811 -0.20188006639118869 0 0.27746259748242169 -0.2244094984090356 0 0.27213626717277928 -0.20227021196030459 0 0.29568169839391811 -0.20188006639118869 0 0.27213626717277928 -0.20227021196030459 0 0.2791922197348502 -0.17294383061338561 0 0.29568169839391811 -0.20188006639118869 0 0.3152991678073207 -0.17726775943543491 0 0.32253050080928147 -0.2070687819861888 0 0.29568169839391811 -0.20188006639118869 0 0.32253050080928147 -0.2070687819861888 0 0.29568169839391811 -0.20188006639118869 0 0.29787152122649568 -0.22724114783494839 0 0.32253050080928147 -0.2070687819861888 0 0.29787152122649568 -0.22724114783494839 0 0.32253050080928147 -0.2070687819861888 0 0.31589257470311077 -0.2333470758989277 0 0.29787152122649568 -0.22724114783494839 0 0.29543453125965979 -0.2462781488942887 0 0.31589257470311077 -0.2333470758989277 0 0.29543453125965979 -0.2462781488942887 0 0.31589257470311077 -0.2333470758989277 0 0.31517562456562642 -0.25252999686536898 0 0.28447560966841878 -0.24082757601066901 0 0.29543453125965979 -0.2462781488942887 0 0.28631337127484091 -0.259255448141474 0 0.29787152122649568 -0.22724114783494839 0 0.28447560966841878 -0.24082757601066901 0 0.29543453125965979 -0.2462781488942887 0 0.29787152122649568 -0.22724114783494839 0 0.28447560966841878 -0.24082757601066901 0 0.27746259748242169 -0.2244094984090356 0 0.28447560966841878 -0.24082757601066901 0 0.27746259748242169 -0.2244094984090356 0 0.26529602709867611 -0.2469536367735983 0 0.28447560966841878 -0.24082757601066901 0 0.26529602709867611 -0.2469536367735983 0 0.28631337127484091 -0.259255448141474 0 0.26529602709867611 -0.2469536367735983 0 0.24538975261109239 -0.25339754837374329 0 0.24547495081528159 -0.23761622849674871 0 0.26529602709867611 -0.2469536367735983 0 0.25339984290733553 -0.22167452615853681 0 0.24547495081528159 -0.23761622849674871 0 0.26529602709867611 -0.2469536367735983 0 0.25339984290733553 -0.22167452615853681 0 0.27746259748242169 -0.2244094984090356 0 0.26529602709867611 -0.2469536367735983 0 0.25339984290733553 -0.22167452615853681 0 0.25339984290733553 -0.22167452615853681 0 0.27213626717277928 -0.20227021196030459 0 0.25391972478308661 -0.1877348298849853 0 0.27746259748242169 -0.2244094984090356 0 0.25339984290733553 -0.22167452615853681 0 0.27213626717277928 -0.20227021196030459 0 0.27213626717277928 -0.20227021196030459 0 0.25391972478308661 -0.1877348298849853 0 0.2791922197348502 -0.17294383061338561 0 0.25391972478308661 -0.1877348298849853 0 0.25871758243715859 -0.17069418638294601 0 0.2448314414270738 -0.1681734591417221 0 0.25391972478308661 -0.1877348298849853 0 0.25871758243715859 -0.17069418638294601 0 0.2791922197348502 -0.17294383061338561 0 0.25871758243715859 -0.17069418638294601 0 0.25692694380362391 -0.15392462589169101 0 0.2448314414270738 -0.1681734591417221 0 0.25871758243715859 -0.17069418638294601 0 0.2791922197348502 -0.17294383061338561 0 0.25692694380362391 -0.15392462589169101 0 0.2791922197348502 -0.17294383061338561 0 0.25692694380362391 -0.15392462589169101 0 0.27576989790289208 -0.1393427905447264 0 0.2632328922212101 -0.12061564729224319 0 0.25232014725039781 -0.13580108181409431 0 0.27576989790289208 -0.1393427905447264 0 0.25232014725039781 -0.13580108181409431 0 0.25692694380362391 -0.15392462589169101 0 0.27576989790289208 -0.1393427905447264 0 0.2818453387580892 -0.1162330566825045 0 0.2632328922212101 -0.12061564729224319 0 0.27576989790289208 -0.1393427905447264 0 0.2791922197348502 -0.17294383061338561 0 0.27576989790289208 -0.1393427905447264 0 0.30023628509126521 -0.15022905701443889 0 0.29867168699124591 -0.1249832263365092 0 0.2818453387580892 -0.1162330566825045 0 0.27576989790289208 -0.1393427905447264 0 0.29867168699124591 -0.1249832263365092 0 0.27576989790289208 -0.1393427905447264 0 0.30023628509126521 -0.15022905701443889 0 0.29867168699124591 -0.1249832263365092 0 0.30023628509126521 -0.15022905701443889 0 0.31747443892932409 -0.13418385928146709 0 0.2791922197348502 -0.17294383061338561 0 0.30023628509126521 -0.15022905701443889 0 0.3152991678073207 -0.17726775943543491 0 0.29568169839391811 -0.20188006639118869 0 0.2791922197348502 -0.17294383061338561 0 0.3152991678073207 -0.17726775943543491 0 0.30023628509126521 -0.15022905701443889 0 0.3152991678073207 -0.17726775943543491 0 0.32641244293196248 -0.15146434888313501 0 0.3152991678073207 -0.17726775943543491 0 0.33715955892774779 -0.16964065893758859 0 0.32641244293196248 -0.15146434888313501 0 0.33715955892774779 -0.16964065893758859 0 0.32641244293196248 -0.15146434888313501 0 0.34744171277063679 -0.15558818134996241 0 0.3152991678073207 -0.17726775943543491 0 0.33715955892774779 -0.16964065893758859 0 0.34547581473720729 -0.19091827207307091 0 0.30023628509126521 -0.15022905701443889 0 0.31747443892932409 -0.13418385928146709 0 0.32641244293196248 -0.15146434888313501 0 0.32641244293196248 -0.15146434888313501 0 0.34671005004183852 -0.13316064616250109 0 0.34744171277063679 -0.15558818134996241 0 0.31747443892932409 -0.13418385928146709 0 0.32641244293196248 -0.15146434888313501 0 0.34671005004183852 -0.13316064616250109 0 0.32323986927819609 -0.1144096403959694 0 0.31747443892932409 -0.13418385928146709 0 0.34671005004183852 -0.13316064616250109 0 0.34671005004183852 -0.13316064616250109 0 0.34744171277063679 -0.15558818134996241 0 0.37030979901767552 -0.1526346811591931 0 0.36843662320438098 -0.1145980693545072 0 0.34671005004183852 -0.13316064616250109 0 0.37621263295835838 -0.13321560300615501 0 0.34671005004183852 -0.13316064616250109 0 0.37030979901767552 -0.1526346811591931 0 0.37621263295835838 -0.13321560300615501 0 0.35661671293396002 -0.1710405716073945 0 0.3671048416811023 -0.192587092350434 0 0.34547581473720729 -0.19091827207307091 0 0.33715955892774779 -0.16964065893758859 0 0.35661671293396002 -0.1710405716073945 0 0.34547581473720729 -0.19091827207307091 0 0.34744171277063679 -0.15558818134996241 0 0.37030979901767552 -0.1526346811591931 0 0.35661671293396002 -0.1710405716073945 0 0.33715955892774779 -0.16964065893758859 0 0.34744171277063679 -0.15558818134996241 0 0.35661671293396002 -0.1710405716073945 0 0.37030979901767552 -0.1526346811591931 0 0.35661671293396002 -0.1710405716073945 0 0.37529422405416157 -0.17371641453184841 0 0.35661671293396002 -0.1710405716073945 0 0.3671048416811023 -0.192587092350434 0 0.37529422405416157 -0.17371641453184841 0 0.3671048416811023 -0.192587092350434 0 0.36994910595242603 -0.20564692440588461 0 0.38328434251495208 -0.20474109970807081 0 0.3671048416811023 -0.192587092350434 0 0.36994910595242603 -0.20564692440588461 0 0.34937930322464522 -0.212257497581189 0 0.34937930322464522 -0.212257497581189 0 0.36112721830103078 -0.2235267661667541 0 0.3762281056400088 -0.21744621317618909 0 0.36994910595242603 -0.20564692440588461 0 0.34937930322464522 -0.212257497581189 0 0.3762281056400088 -0.21744621317618909 0 0.34937930322464522 -0.212257497581189 0 0.3762281056400088 -0.21744621317618909 0 0.3671048416811023 -0.192587092350434 0 0.34937930322464522 -0.212257497581189 0 0.34547581473720729 -0.19091827207307091 0 0.34937930322464522 -0.212257497581189 0 0.32253050080928147 -0.2070687819861888 0 0.33419459307378302 -0.2261227775277431 0 0.34937930322464522 -0.212257497581189 0 0.32253050080928147 -0.2070687819861888 0 0.34937930322464522 -0.212257497581189 0 0.34547581473720729 -0.19091827207307091 0 0.32253050080928147 -0.2070687819861888 0 0.3152991678073207 -0.17726775943543491 0 0.34547581473720729 -0.19091827207307091 0 0.32253050080928147 -0.2070687819861888 0 0.31589257470311077 -0.2333470758989277 0 0.33229851240136932 -0.24330847130703009 0 0.31517562456562642 -0.25252999686536898 0 0.31589257470311077 -0.2333470758989277 0 0.33419459307378302 -0.2261227775277431 0 0.33229851240136932 -0.24330847130703009 0 0.32253050080928147 -0.2070687819861888 0 0.31589257470311077 -0.2333470758989277 0 0.33419459307378302 -0.2261227775277431 0 0.33229851240136932 -0.24330847130703009 0 0.35087207423050831 -0.23463206086537969 0 0.34619378628552078 -0.25016824150646771 0 0.33419459307378302 -0.2261227775277431 0 0.33229851240136932 -0.24330847130703009 0 0.35087207423050831 -0.23463206086537969 0 0.35087207423050831 -0.23463206086537969 0 0.35862533860017232 -0.24767319606762589 0 0.36852234915526588 -0.23904874617131081 0 0.35087207423050831 -0.23463206086537969 0 0.35862533860017232 -0.24767319606762589 0 0.34619378628552078 -0.25016824150646771 0 0.34937930322464522 -0.212257497581189 0 0.33419459307378302 -0.2261227775277431 0 0.35087207423050831 -0.23463206086537969 0 0.34937930322464522 -0.212257497581189 0 0.35087207423050831 -0.23463206086537969 0 0.36112721830103078 -0.2235267661667541 0 0.35087207423050831 -0.23463206086537969 0 0.36112721830103078 -0.2235267661667541 0 0.36852234915526588 -0.23904874617131081 0 0.36112721830103078 -0.2235267661667541 0 0.36852234915526588 -0.23904874617131081 0 0.37519715913972601 -0.22904073248039861 0 0.36112721830103078 -0.2235267661667541 0 0.37519715913972601 -0.22904073248039861 0 0.3762281056400088 -0.21744621317618909 0 0.35862533860017232 -0.24767319606762589 0 0.36852234915526588 -0.23904874617131081 0 0.36932567567971902 -0.24957259989972541 0 0.36852234915526588 -0.23904874617131081 0 0.36932567567971902 -0.24957259989972541 0 0.37843685426423429 -0.24573047467998879 0 0.36852234915526588 -0.23904874617131081 0 0.37843685426423429 -0.24573047467998879 0 0.38516536096397291 -0.23726968763626841 0 0.36932567567971902 -0.24957259989972541 0 0.37843685426423429 -0.24573047467998879 0 0.3839351786006443 -0.25453057406757917 0 0.36852234915526588 -0.23904874617131081 0 0.38516536096397291 -0.23726968763626841 0 0.37519715913972601 -0.22904073248039861 0 0.38516536096397291 -0.23726968763626841 0 0.38650461750248111 -0.2453270467415713 0 0.39848107618107309 -0.24377745058244871 0 0.37843685426423429 -0.24573047467998879 0 0.38516536096397291 -0.23726968763626841 0 0.38650461750248111 -0.2453270467415713 0 0.38650461750248111 -0.2453270467415713 0 0.39848107618107309 -0.24377745058244871 0 0.3839351786006443 -0.25453057406757917 0 0.37843685426423429 -0.24573047467998879 0 0.38650461750248111 -0.2453270467415713 0 0.3839351786006443 -0.25453057406757917 0 0.38516536096397291 -0.23726968763626841 0 0.39848107618107309 -0.24377745058244871 0 0.3972349560369961 -0.23017646153176069 0 0.3972349560369961 -0.23017646153176069 0 0.39946384334880197 -0.21689510706570761 0 0.41564334418264848 -0.22904911442334891 0 0.39848107618107309 -0.24377745058244871 0 0.3972349560369961 -0.23017646153176069 0 0.41564334418264848 -0.22904911442334891 0 0.3972349560369961 -0.23017646153176069 0 0.38742115550848388 -0.22389094795103001 0 0.39946384334880197 -0.21689510706570761 0 0.38516536096397291 -0.23726968763626841 0 0.3972349560369961 -0.23017646153176069 0 0.38742115550848388 -0.22389094795103001 0 0.38516536096397291 -0.23726968763626841 0 0.38742115550848388 -0.22389094795103001 0 0.37519715913972601 -0.22904073248039861 0 0.38742115550848388 -0.22389094795103001 0 0.37519715913972601 -0.22904073248039861 0 0.3762281056400088 -0.21744621317618909 0 0.38742115550848388 -0.22389094795103001 0 0.3762281056400088 -0.21744621317618909 0 0.38328434251495208 -0.20474109970807081 0 0.38742115550848388 -0.22389094795103001 0 0.38328434251495208 -0.20474109970807081 0 0.39946384334880197 -0.21689510706570761 0 0.36994910595242603 -0.20564692440588461 0 0.3762281056400088 -0.21744621317618909 0 0.38328434251495208 -0.20474109970807081 0 0.3671048416811023 -0.192587092350434 0 0.38328434251495208 -0.20474109970807081 0 0.3671048416811023 -0.192587092350434 0 0.38328434251495208 -0.20474109970807081 0 0.38626083995614269 -0.1895131982221033 0 0.38328434251495208 -0.20474109970807081 0 0.38626083995614269 -0.1895131982221033 0 0.39658169265915549 -0.20383752331045549 0 0.40438187820627303 -0.19176584945498529 0 0.39658169265915549 -0.20383752331045549 0 0.41259839864827741 -0.21175094172523309 0 0.38626083995614269 -0.1895131982221033 0 0.40438187820627303 -0.19176584945498529 0 0.39658169265915549 -0.20383752331045549 0 0.38328434251495208 -0.20474109970807081 0 0.39946384334880197 -0.21689510706570761 0 0.39658169265915549 -0.20383752331045549 0 0.39946384334880197 -0.21689510706570761 0 0.41259839864827741 -0.21175094172523309 0 0.38328434251495208 -0.20474109970807081 0 0.39658169265915549 -0.20383752331045549 0 0.39946384334880197 -0.21689510706570761 0 0.41259839864827741 -0.21175094172523309 0 0.42218793468844762 -0.19662789721957061 0 0.42865094817465421 -0.2178862329090249 0 0.40438187820627303 -0.19176584945498529 0 0.42218793468844762 -0.19662789721957061 0 0.42037687446770139 -0.1839829492719591 0 0.40438187820627303 -0.19176584945498529 0 0.41259839864827741 -0.21175094172523309 0 0.42218793468844762 -0.19662789721957061 0 0.42218793468844762 -0.19662789721957061 0 0.44165855216665961 -0.20672335139470069 0 0.42218793468844762 -0.19662789721957061 0 0.42037687446770139 -0.1839829492719591 0 0.43789294944846913 -0.18581939797824931 0 0.42218793468844762 -0.19662789721957061 0 0.44165855216665961 -0.20672335139470069 0 0.44055364981456729 -0.19539157747492519 0 0.42218793468844762 -0.19662789721957061 0 0.43789294944846913 -0.18581939797824931 0 0.44055364981456729 -0.19539157747492519 0 0.42218793468844762 -0.19662789721957061 0 0.42865094817465421 -0.2178862329090249 0 0.44165855216665961 -0.20672335139470069 0 0.42865094817465421 -0.2178862329090249 0 0.44165855216665961 -0.20672335139470069 0 0.42865094817465421 -0.2178862329090249 0 0.43598757876340799 -0.23177993957328899 0 0.44687384009199771 -0.22590085658932851 0 0.42865094817465421 -0.2178862329090249 0 0.42657806407590931 -0.2287476306716362 0 0.43598757876340799 -0.23177993957328899 0 0.42865094817465421 -0.2178862329090249 0 0.41564334418264848 -0.22904911442334891 0 0.42865094817465421 -0.2178862329090249 0 0.42657806407590931 -0.2287476306716362 0 0.41564334418264848 -0.22904911442334891 0 0.42657806407590931 -0.2287476306716362 0 0.42759719401208052 -0.23802882153983329 0 0.41564334418264848 -0.22904911442334891 0 0.42657806407590931 -0.2287476306716362 0 0.43598757876340799 -0.23177993957328899 0 0.42759719401208052 -0.23802882153983329 0 0.43089919662563758 -0.24050927903183131 0 0.42420775402689398 -0.24485297059990141 0 0.43484498540418559 -0.25638249238299449 0 0.43089919662563758 -0.24050927903183131 0 0.42759719401208052 -0.23802882153983329 0 0.45023784746239881 -0.2483361561566223 0 0.42759719401208052 -0.23802882153983329 0 0.42490743446701812 -0.23680428746308951 0 0.41564334418264848 -0.22904911442334891 0 0.42420775402689398 -0.24485297059990141 0 0.42759719401208052 -0.23802882153983329 0 0.42490743446701812 -0.23680428746308951 0 0.42759719401208052 -0.23802882153983329 0 0.42490743446701812 -0.23680428746308951 0 0.43089919662563758 -0.24050927903183131 0 0.42759719401208052 -0.23802882153983329 0 0.43089919662563758 -0.24050927903183131 0 0.42420775402689398 -0.24485297059990141 0 0.42759719401208052 -0.23802882153983329 0 0.39848107618107309 -0.24377745058244871 0 0.41474483072402862 -0.24410171722074989 0 0.40714686771660707 -0.25637848562267679 0 0.42490743446701812 -0.23680428746308951 0 0.41474483072402862 -0.24410171722074989 0 0.41564334418264848 -0.22904911442334891 0 0.39848107618107309 -0.24377745058244871 0 0.41474483072402862 -0.24410171722074989 0 0.41564334418264848 -0.22904911442334891 0 0.42420775402689398 -0.24485297059990141 0 0.42490743446701812 -0.23680428746308951 0 0.41474483072402862 -0.24410171722074989 0 0.39848107618107309 -0.24377745058244871 0 0.41564334418264848 -0.22904911442334891 0 0.42420775402689398 -0.24485297059990141 0 0.41474483072402862 -0.24410171722074989 0 0.41975465553678409 -0.25377878141486482 0 0.39946384334880197 -0.21689510706570761 0 0.41564334418264848 -0.22904911442334891 0 0.41259839864827741 -0.21175094172523309 0 0.42865094817465421 -0.2178862329090249 0 0.41564334418264848 -0.22904911442334891 0 0.39946384334880197 -0.21689510706570761 0 0.41259839864827741 -0.21175094172523309 0 0.41564334418264848 -0.22904911442334891 0 0.42759719401208052 -0.23802882153983329 0 0.41564334418264848 -0.22904911442334891 0 0.40412821895561318 -0.1269305613706572 0 0.39525477542828641 -0.13568385862606289 0 0.41455969820279009 -0.13591629152260001 0 0.39525477542828641 -0.13568385862606289 0 0.40028379867372749 -0.1462169068744173 0 0.41455969820279009 -0.13591629152260001 0 0.39191772611515308 -0.1205326973668861 0 0.39525477542828641 -0.13568385862606289 0 0.39191772611515308 -0.1205326973668861 0 0.40412821895561318 -0.1269305613706572 0 0.39525477542828641 -0.13568385862606289 0 0.39525477542828641 -0.13568385862606289 0 0.37621263295835838 -0.13321560300615501 0 0.38464682394281541 -0.14268366536777941 0 0.39191772611515308 -0.1205326973668861 0 0.39525477542828641 -0.13568385862606289 0 0.37621263295835838 -0.13321560300615501 0 0.37030979901767552 -0.1526346811591931 0 0.37621263295835838 -0.13321560300615501 0 0.38464682394281541 -0.14268366536777941 0 0.37030979901767552 -0.1526346811591931 0 0.38464682394281541 -0.14268366536777941 0 0.3912145905777652 -0.15356439928458429 0 0.38464682394281541 -0.14268366536777941 0 0.3912145905777652 -0.15356439928458429 0 0.40028379867372749 -0.1462169068744173 0 0.3912145905777652 -0.15356439928458429 0 0.40028379867372749 -0.1462169068744173 0 0.39997502454806988 -0.1601003351705339 0 0.39525477542828641 -0.13568385862606289 0 0.38464682394281541 -0.14268366536777941 0 0.40028379867372749 -0.1462169068744173 0 0.40028379867372749 -0.1462169068744173 0 0.39997502454806988 -0.1601003351705339 0 0.41003855418086171 -0.15302249050802419 0 0.39997502454806988 -0.1601003351705339 0 0.39515383797828402 -0.17390456577092461 0 0.41012719805562448 -0.1663729608575841 0 0.39997502454806988 -0.1601003351705339 0 0.38459742376460943 -0.16470140819505191 0 0.39515383797828402 -0.17390456577092461 0 0.3912145905777652 -0.15356439928458429 0 0.39997502454806988 -0.1601003351705339 0 0.38459742376460943 -0.16470140819505191 0 0.38459742376460943 -0.16470140819505191 0 0.37529422405416157 -0.17371641453184841 0 0.39515383797828402 -0.17390456577092461 0 0.37030979901767552 -0.1526346811591931 0 0.38459742376460943 -0.16470140819505191 0 0.37529422405416157 -0.17371641453184841 0 0.37030979901767552 -0.1526346811591931 0 0.3912145905777652 -0.15356439928458429 0 0.38459742376460943 -0.16470140819505191 0 0.38626083995614269 -0.1895131982221033 0 0.37529422405416157 -0.17371641453184841 0 0.39515383797828402 -0.17390456577092461 0 0.3671048416811023 -0.192587092350434 0 0.38626083995614269 -0.1895131982221033 0 0.37529422405416157 -0.17371641453184841 0 0.40438187820627303 -0.19176584945498529 0 0.39515383797828402 -0.17390456577092461 0 0.40922239581177078 -0.1785644146070855 0 0.38626083995614269 -0.1895131982221033 0 0.40438187820627303 -0.19176584945498529 0 0.39515383797828402 -0.17390456577092461 0 0.39515383797828402 -0.17390456577092461 0 0.40922239581177078 -0.1785644146070855 0 0.41012719805562448 -0.1663729608575841 0 0.40438187820627303 -0.19176584945498529 0 0.40922239581177078 -0.1785644146070855 0 0.42037687446770139 -0.1839829492719591 0 0.40922239581177078 -0.1785644146070855 0 0.42119371288941521 -0.17256755175984889 0 0.41012719805562448 -0.1663729608575841 0 0.40922239581177078 -0.1785644146070855 0 0.42119371288941521 -0.17256755175984889 0 0.42037687446770139 -0.1839829492719591 0 0.42037687446770139 -0.1839829492719591 0 0.42963539174959209 -0.1770611839259276 0 0.43789294944846913 -0.18581939797824931 0 0.42963539174959209 -0.1770611839259276 0 0.4384620908464838 -0.1738601950809622 0 0.43789294944846913 -0.18581939797824931 0 0.42963539174959209 -0.1770611839259276 0 0.43119008775745682 -0.16845440858608199 0 0.4384620908464838 -0.1738601950809622 0 0.42119371288941521 -0.17256755175984889 0 0.42963539174959209 -0.1770611839259276 0 0.43119008775745682 -0.16845440858608199 0 0.42119371288941521 -0.17256755175984889 0 0.42037687446770139 -0.1839829492719591 0 0.42963539174959209 -0.1770611839259276 0 0.42119371288941521 -0.17256755175984889 0 0.43119008775745682 -0.16845440858608199 0 0.42259209670321068 -0.15901066227608771 0 0.43119008775745682 -0.16845440858608199 0 0.43367690537517228 -0.16069684948657101 0 0.4384146123419691 -0.16666206681955709 0 0.43119008775745682 -0.16845440858608199 0 0.4384146123419691 -0.16666206681955709 0 0.4384620908464838 -0.1738601950809622 0 0.43367690537517228 -0.16069684948657101 0 0.43200591433919711 -0.14719775777692479 0 0.44335246680558149 -0.16200782345333031 0 0.43119008775745682 -0.16845440858608199 0 0.43367690537517228 -0.16069684948657101 0 0.42259209670321068 -0.15901066227608771 0 0.42259209670321068 -0.15901066227608771 0 0.41012719805562448 -0.1663729608575841 0 0.41003855418086171 -0.15302249050802419 0 0.42119371288941521 -0.17256755175984889 0 0.42259209670321068 -0.15901066227608771 0 0.41012719805562448 -0.1663729608575841 0 0.39997502454806988 -0.1601003351705339 0 0.41012719805562448 -0.1663729608575841 0 0.41003855418086171 -0.15302249050802419 0 0.40028379867372749 -0.1462169068744173 0 0.41003855418086171 -0.15302249050802419 0 0.41455969820279009 -0.13591629152260001 0 0.41003855418086171 -0.15302249050802419 0 0.41979906585651477 -0.1487868005209092 0 0.41455969820279009 -0.13591629152260001 0 0.42259209670321068 -0.15901066227608771 0 0.41003855418086171 -0.15302249050802419 0 0.41979906585651477 -0.1487868005209092 0 0.41979906585651477 -0.1487868005209092 0 0.43200591433919711 -0.14719775777692479 0 0.41455969820279009 -0.13591629152260001 0 0.43367690537517228 -0.16069684948657101 0 0.42259209670321068 -0.15901066227608771 0 0.43200591433919711 -0.14719775777692479 0 0.42259209670321068 -0.15901066227608771 0 0.41979906585651477 -0.1487868005209092 0 0.43200591433919711 -0.14719775777692479 0 0.43200591433919711 -0.14719775777692479 0 0.41455969820279009 -0.13591629152260001 0 0.4409806753504289 -0.1257972598264494 0 0.41478067607622371 -0.1155893979670798 0 0.41455969820279009 -0.13591629152260001 0 0.4409806753504289 -0.1257972598264494 0 0.41478067607622371 -0.1155893979670798 0 0.40412821895561318 -0.1269305613706572 0 0.41455969820279009 -0.13591629152260001 0 0.4591001084968519 -0.12710614519823929 0 0.46750007312969472 -0.14355085452848859 0 0.47380124018463782 -0.1325672149962033 0 0.4591001084968519 -0.12710614519823929 0 0.4506402890572328 -0.14383352326694379 0 0.46750007312969472 -0.14355085452848859 0 0.43200591433919711 -0.14719775777692479 0 0.4409806753504289 -0.1257972598264494 0 0.4506402890572328 -0.14383352326694379 0 0.4591001084968519 -0.12710614519823929 0 0.4409806753504289 -0.1257972598264494 0 0.4506402890572328 -0.14383352326694379 0 0.43200591433919711 -0.14719775777692479 0 0.4506402890572328 -0.14383352326694379 0 0.44410659960268672 -0.15220636378117741 0 0.43200591433919711 -0.14719775777692479 0 0.44335246680558149 -0.16200782345333031 0 0.43200591433919711 -0.14719775777692479 0 0.44410659960268672 -0.15220636378117741 0 0.44335246680558149 -0.16200782345333031 0 0.4506402890572328 -0.14383352326694379 0 0.44410659960268672 -0.15220636378117741 0 0.45042772820873578 -0.15578635062751081 0 0.4506402890572328 -0.14383352326694379 0 0.46750007312969472 -0.14355085452848859 0 0.46081313651077482 -0.15627686297739021 0 0.4506402890572328 -0.14383352326694379 0 0.45042772820873578 -0.15578635062751081 0 0.46081313651077482 -0.15627686297739021 0 0.46750007312969472 -0.14355085452848859 0 0.46081313651077482 -0.15627686297739021 0 0.47220974322502779 -0.15755082532772921 0 0.46531077387118902 -0.16838033712508729 0 0.46081313651077482 -0.15627686297739021 0 0.47220974322502779 -0.15755082532772921 0 0.46531077387118902 -0.16838033712508729 0 0.4550705948580489 -0.16511654053716229 0 0.45469901927196588 -0.17681788912973581 0 0.46531077387118902 -0.16838033712508729 0 0.4550705948580489 -0.16511654053716229 0 0.46081313651077482 -0.15627686297739021 0 0.45042772820873578 -0.15578635062751081 0 0.4550705948580489 -0.16511654053716229 0 0.46081313651077482 -0.15627686297739021 0 0.44410659960268672 -0.15220636378117741 0 0.45042772820873578 -0.15578635062751081 0 0.44335246680558149 -0.16200782345333031 0 0.45042772820873578 -0.15578635062751081 0 0.4550705948580489 -0.16511654053716229 0 0.44335246680558149 -0.16200782345333031 0 0.43367690537517228 -0.16069684948657101 0 0.44335246680558149 -0.16200782345333031 0 0.4384146123419691 -0.16666206681955709 0 0.4384146123419691 -0.16666206681955709 0 0.44539151092515128 -0.16829105749083989 0 0.4384620908464838 -0.1738601950809622 0 0.44335246680558149 -0.16200782345333031 0 0.4384146123419691 -0.16666206681955709 0 0.44539151092515128 -0.16829105749083989 0 0.4550705948580489 -0.16511654053716229 0 0.44335246680558149 -0.16200782345333031 0 0.45469901927196588 -0.17681788912973581 0 0.44335246680558149 -0.16200782345333031 0 0.44539151092515128 -0.16829105749083989 0 0.45469901927196588 -0.17681788912973581 0 0.44335246680558149 -0.16200782345333031 0 0.45469901927196588 -0.17681788912973581 0 0.44539151092515128 -0.16829105749083989 0 0.44537592423998801 -0.17876661386411519 0 0.45469901927196588 -0.17681788912973581 0 0.44539151092515128 -0.16829105749083989 0 0.45469901927196588 -0.17681788912973581 0 0.44537592423998801 -0.17876661386411519 0 0.4384620908464838 -0.1738601950809622 0 0.43789294944846913 -0.18581939797824931 0 0.44539151092515128 -0.16829105749083989 0 0.44537592423998801 -0.17876661386411519 0 0.4384620908464838 -0.1738601950809622 0 0.44537592423998801 -0.17876661386411519 0 0.43789294944846913 -0.18581939797824931 0 0.45043405070786968 -0.1890445296407888 0 0.44537592423998801 -0.17876661386411519 0 0.45469901927196588 -0.17681788912973581 0 0.45043405070786968 -0.1890445296407888 0 0.45469901927196588 -0.17681788912973581 0 0.4633493497081459 -0.1881087162124134 0 0.45469901927196588 -0.17681788912973581 0 0.45043405070786968 -0.1890445296407888 0 0.4633493497081459 -0.1881087162124134 0 0.46531077387118902 -0.16838033712508729 0 0.45469901927196588 -0.17681788912973581 0 0.46524645955876909 -0.18648065215886209 0 0.45469901927196588 -0.17681788912973581 0 0.46524645955876909 -0.18648065215886209 0 0.45469901927196588 -0.17681788912973581 0 0.46524645955876909 -0.18648065215886209 0 0.4633493497081459 -0.1881087162124134 0 0.46524645955876909 -0.18648065215886209 0 0.4633493497081459 -0.1881087162124134 0 0.46524645955876909 -0.18648065215886209 0 0.48722221494268358 -0.18698408118301921 0 0.48262322977938982 -0.1715682342228903 0 0.46524645955876909 -0.18648065215886209 0 0.48262322977938982 -0.1715682342228903 0 0.46531077387118902 -0.16838033712508729 0 0.46524645955876909 -0.18648065215886209 0 0.48262322977938982 -0.1715682342228903 0 0.5 -0.1772102789004201 0 0.48722221494268358 -0.18698408118301921 0 0.5 -0.19776474151392701 0 0.5 -0.1772102789004201 0 0.48722221494268358 -0.18698408118301921 0 0.48262322977938982 -0.1715682342228903 0 0.5 -0.1772102789004201 0 0.50000000000000622 -0.1566558162869133 0 0.48262322977938982 -0.1715682342228903 0 0.50000000000000622 -0.1566558162869133 0 0.48262322977938982 -0.1715682342228903 0 0.50000000000000622 -0.1566558162869133 0 0.48262322977938982 -0.1715682342228903 0 0.4848015028340909 -0.14797783778478971 0 0.48262322977938982 -0.1715682342228903 0 0.47220974322502779 -0.15755082532772921 0 0.4848015028340909 -0.14797783778478971 0 0.46531077387118902 -0.16838033712508729 0 0.48262322977938982 -0.1715682342228903 0 0.47220974322502779 -0.15755082532772921 0 0.46750007312969472 -0.14355085452848859 0 0.47220974322502779 -0.15755082532772921 0 0.4848015028340909 -0.14797783778478971 0 0.46750007312969472 -0.14355085452848859 0 0.4848015028340909 -0.14797783778478971 0 0.47380124018463782 -0.1325672149962033 0 0.50000000000000622 -0.1566558162869133 0 0.4848015028340909 -0.14797783778478971 0 0.5 -0.13929985928266619 0 0.4848015028340909 -0.14797783778478971 0 0.5 -0.13929985928266619 0 0.48632151616169722 -0.1306433098535387 0 0.50000000000000089 -0.1219439022784192 0 0.5 -0.13929985928266619 0 0.48632151616169722 -0.1306433098535387 0 0.4848015028340909 -0.14797783778478971 0 0.48632151616169722 -0.1306433098535387 0 0.47380124018463782 -0.1325672149962033 0 0.47353276330217797 -0.1212614124509136 0 0.48632151616169722 -0.1306433098535387 0 0.47380124018463782 -0.1325672149962033 0 0.47353276330217797 -0.1212614124509136 0 0.4591001084968519 -0.12710614519823929 0 0.47380124018463782 -0.1325672149962033 0 0.45899622238829818 -0.23216065356266899 0 0.46598028969804689 -0.21933409612236729 0 0.44687384009199771 -0.22590085658932851 0 0.45899622238829818 -0.23216065356266899 0 0.46598028969804689 -0.21933409612236729 0 0.47139876519993928 -0.23864319846701859 0 0.45899622238829818 -0.23216065356266899 0 0.45023784746239881 -0.2483361561566223 0 0.47139876519993928 -0.23864319846701859 0 0.45023784746239881 -0.2483361561566223 0 0.47139876519993928 -0.23864319846701859 0 0.47287850091271699 -0.25864349077341142 0 0.42759719401208052 -0.23802882153983329 0 0.45023784746239881 -0.2483361561566223 0 0.43598757876340799 -0.23177993957328899 0 0.45023784746239881 -0.2483361561566223 0 0.44687384009199771 -0.22590085658932851 0 0.43598757876340799 -0.23177993957328899 0 0.42759719401208052 -0.23802882153983329 0 0.45023784746239881 -0.2483361561566223 0 0.45899622238829818 -0.23216065356266899 0 0.45023784746239881 -0.2483361561566223 0 0.44687384009199771 -0.22590085658932851 0 0.43089919662563758 -0.24050927903183131 0 0.45023784746239881 -0.2483361561566223 0 0.43484498540418559 -0.25638249238299449 0 0.46598028969804689 -0.21933409612236729 0 0.44687384009199771 -0.22590085658932851 0 0.44165855216665961 -0.20672335139470069 0 0.42865094817465421 -0.2178862329090249 0 0.44687384009199771 -0.22590085658932851 0 0.44165855216665961 -0.20672335139470069 0 0.44165855216665961 -0.20672335139470069 0 0.45043405070786968 -0.1890445296407888 0 0.4633493497081459 -0.1881087162124134 0 0.44165855216665961 -0.20672335139470069 0 0.4633493497081459 -0.1881087162124134 0 0.44165855216665961 -0.20672335139470069 0 0.44055364981456729 -0.19539157747492519 0 0.45043405070786968 -0.1890445296407888 0 0.43789294944846913 -0.18581939797824931 0 0.44055364981456729 -0.19539157747492519 0 0.45043405070786968 -0.1890445296407888 0 0.44165855216665961 -0.20672335139470069 0 0.4633493497081459 -0.1881087162124134 0 0.46429111240007381 -0.203752893422017 0 0.46598028969804689 -0.21933409612236729 0 0.44165855216665961 -0.20672335139470069 0 0.46598028969804689 -0.21933409612236729 0 0.44165855216665961 -0.20672335139470069 0 0.46429111240007381 -0.203752893422017 0 0.46598028969804689 -0.21933409612236729 0 0.46429111240007381 -0.203752893422017 0 0.47012584342863661 -0.211002507315489 0 0.46598028969804689 -0.21933409612236729 0 0.47012584342863661 -0.211002507315489 0 0.48295409687409169 -0.21642955135195949 0 0.46429111240007381 -0.203752893422017 0 0.47012584342863661 -0.211002507315489 0 0.47915103768908479 -0.20873383890840899 0 0.47915103768908479 -0.20873383890840899 0 0.48295409687409169 -0.21642955135195949 0 0.48262322977938621 -0.20239992814314739 0 0.47012584342863661 -0.211002507315489 0 0.47915103768908479 -0.20873383890840899 0 0.48295409687409169 -0.21642955135195949 0 0.4633493497081459 -0.1881087162124134 0 0.47915103768908479 -0.20873383890840899 0 0.48262322977938621 -0.20239992814314739 0 0.46524645955876909 -0.18648065215886209 0 0.4633493497081459 -0.1881087162124134 0 0.48262322977938621 -0.20239992814314739 0 0.4633493497081459 -0.1881087162124134 0 0.47915103768908479 -0.20873383890840899 0 0.46524645955876909 -0.18648065215886209 0 0.48722221494268358 -0.18698408118301921 0 0.48262322977938621 -0.20239992814314739 0 0.46524645955876909 -0.18648065215886209 0 0.48262322977938621 -0.20239992814314739 0 0.4633493497081459 -0.1881087162124134 0 0.46429111240007381 -0.203752893422017 0 0.47915103768908479 -0.20873383890840899 0 0.48722221494268358 -0.18698408118301921 0 0.48262322977938621 -0.20239992814314739 0 0.5 -0.19776474151392701 0 0.48295409687409169 -0.21642955135195949 0 0.48262322977938621 -0.20239992814314739 0 0.500000000000002 -0.2183192041274338 0 0.48262322977938621 -0.20239992814314739 0 0.500000000000002 -0.2183192041274338 0 0.48262322977938621 -0.20239992814314739 0 0.5 -0.19776474151392701 0 0.500000000000002 -0.2183192041274338 0 0.48295409687409169 -0.21642955135195949 0 0.500000000000002 -0.2183192041274338 0 0.49030202722943539 -0.23194484085003189 0 0.500000000000002 -0.2183192041274338 0 0.49030202722943539 -0.23194484085003189 0 0.5 -0.24474173778312969 0 0.46598028969804689 -0.21933409612236729 0 0.48295409687409169 -0.21642955135195949 0 0.49030202722943539 -0.23194484085003189 0 0.46598028969804689 -0.21933409612236729 0 0.49030202722943539 -0.23194484085003189 0 0.47139876519993928 -0.23864319846701859 0 0.46598028969804689 -0.21933409612236729 0 0.49030202722943539 -0.23194484085003189 0 0.49030202722943539 -0.23194484085003189 0 0.47139876519993928 -0.23864319846701859 0 0.48382737082372818 -0.243704533705868 0 0.47139876519993928 -0.23864319846701859 0 0.48382737082372818 -0.243704533705868 0 0.47287850091271699 -0.25864349077341142 0 0.49030202722943539 -0.23194484085003189 0 0.48382737082372818 -0.243704533705868 0 0.5 -0.24474173778312969 0 0.48382737082372818 -0.243704533705868 0 0.5 -0.24474173778312969 0 0.4881249516596875 -0.25474856314681033 0 0.5 -0.24474173778312969 0 0.4881249516596875 -0.25474856314681033 0 0.49551915436303529 -0.26895082539020049 0 0.5 -0.24474173778312969 0 0.5 -0.2711642714388256 0 0.49551915436303529 -0.26895082539020049 0 0.4881249516596875 -0.25474856314681033 0 0.49551915436303529 -0.26895082539020049 0 0.47287850091271699 -0.25864349077341142 0 0.49280136836911398 -0.27408620905499631 0 0.5 -0.2711642714388256 0 0.49124918573437759 -0.28323702443064402 0 0.49280136836911398 -0.27408620905499631 0 0.5 -0.2711642714388256 0 0.49551915436303529 -0.26895082539020049 0 0.49280136836911398 -0.27408620905499631 0 0.49551915436303529 -0.26895082539020049 0 0.48443713337904332 -0.27299271496031519 0 0.49280136836911398 -0.27408620905499631 0 0.48443713337904332 -0.27299271496031519 0 0.49124918573437759 -0.28323702443064402 0 0.48443713337904332 -0.27299271496031519 0 0.47918656824881001 -0.28175615715344399 0 0.49124918573437759 -0.28323702443064402 0 0.49551915436303529 -0.26895082539020049 0 0.48443713337904332 -0.27299271496031519 0 0.47287850091271699 -0.25864349077341142 0 0.48443713337904332 -0.27299271496031519 0 0.47039224181498468 -0.27348770036510661 0 0.47918656824881001 -0.28175615715344399 0 0.48443713337904332 -0.27299271496031519 0 0.47039224181498468 -0.27348770036510661 0 0.47287850091271699 -0.25864349077341142 0 0.47039224181498468 -0.27348770036510661 0 0.46936773689184119 -0.28275648264401182 0 0.47918656824881001 -0.28175615715344399 0 0.49551915436303529 -0.26895082539020049 0 0.47287850091271699 -0.25864349077341142 0 0.48382737082372818 -0.243704533705868 0 0.4881249516596875 -0.25474856314681033 0 0.47287850091271699 -0.25864349077341142 0 0.47039224181498468 -0.27348770036510661 0 0.47287850091271699 -0.25864349077341142 0 0.4569660610145958 -0.26357666422638398 0 0.45023784746239881 -0.2483361561566223 0 0.47287850091271699 -0.25864349077341142 0 0.45023784746239881 -0.2483361561566223 0 0.47287850091271699 -0.25864349077341142 0 0.4569660610145958 -0.26357666422638398 0 0.47039224181498468 -0.27348770036510661 0 0.4569660610145958 -0.26357666422638398 0 0.45919953999174462 -0.28008585910339301 0 0.47039224181498468 -0.27348770036510661 0 0.45919953999174462 -0.28008585910339301 0 0.46936773689184119 -0.28275648264401182 0 0.4569660610145958 -0.26357666422638398 0 0.45919953999174462 -0.28008585910339301 0 0.44293088244579448 -0.2739266684008736 0 0.4569660610145958 -0.26357666422638398 0 0.44293088244579448 -0.2739266684008736 0 0.43484498540418559 -0.25638249238299449 0 0.45023784746239881 -0.2483361561566223 0 0.4569660610145958 -0.26357666422638398 0 0.43484498540418559 -0.25638249238299449 0 0.44645140481368523 -0.30276724403944311 0 0.43941659955420631 -0.2939039067411392 0 0.46203686325232562 -0.29724844763695529 0 0.44645140481368523 -0.30276724403944311 0 0.44367223969346298 -0.31373644976897702 0 0.42574864941360852 -0.31046759881363678 0 0.44645140481368523 -0.30276724403944311 0 0.4577651334034728 -0.30255096066303661 0 0.44367223969346298 -0.31373644976897702 0 0.44293088244579448 -0.2739266684008736 0 0.43941659955420631 -0.2939039067411392 0 0.46203686325232562 -0.29724844763695529 0 0.44293088244579448 -0.2739266684008736 0 0.46203686325232562 -0.29724844763695529 0 0.45919953999174462 -0.28008585910339301 0 0.44293088244579448 -0.2739266684008736 0 0.46203686325232562 -0.29724844763695529 0 0.45919953999174462 -0.28008585910339301 0 0.46579647699814702 -0.28793166386243108 0 0.46203686325232562 -0.29724844763695529 0 0.45919953999174462 -0.28008585910339301 0 0.46579647699814702 -0.28793166386243108 0 0.46936773689184119 -0.28275648264401182 0 0.46579647699814702 -0.28793166386243108 0 0.46203686325232562 -0.29724844763695529 0 0.47226385740551963 -0.29052103273568419 0 0.46203686325232562 -0.29724844763695529 0 0.48114284405885732 -0.32057022687303632 0 0.46159582997331738 -0.31700530072431737 0 0.4577651334034728 -0.30255096066303661 0 0.46159582997331738 -0.31700530072431737 0 0.44367223969346298 -0.31373644976897702 0 0.46203686325232562 -0.29724844763695529 0 0.4577651334034728 -0.30255096066303661 0 0.46159582997331738 -0.31700530072431737 0 0.44645140481368523 -0.30276724403944311 0 0.46203686325232562 -0.29724844763695529 0 0.4577651334034728 -0.30255096066303661 0 0.4577651334034728 -0.30255096066303661 0 0.46159582997331738 -0.31700530072431737 0 0.46203686325232562 -0.29724844763695529 0 0.47935174679566778 -0.29912249032528232 0 0.48114284405885732 -0.32057022687303632 0 0.46203686325232562 -0.29724844763695529 0 0.48114284405885732 -0.32057022687303632 0 0.46203686325232562 -0.29724844763695529 0 0.47935174679566778 -0.29912249032528232 0 0.47226385740551963 -0.29052103273568419 0 0.46936773689184119 -0.28275648264401182 0 0.47226385740551963 -0.29052103273568419 0 0.47918656824881001 -0.28175615715344399 0 0.46579647699814702 -0.28793166386243108 0 0.46936773689184119 -0.28275648264401182 0 0.47226385740551963 -0.29052103273568419 0 0.47935174679566778 -0.29912249032528232 0 0.47226385740551963 -0.29052103273568419 0 0.48159802124000461 -0.28900801975301882 0 0.48159802124000461 -0.28900801975301882 0 0.47918656824881001 -0.28175615715344399 0 0.49124918573437759 -0.28323702443064402 0 0.47226385740551963 -0.29052103273568419 0 0.48159802124000461 -0.28900801975301882 0 0.47918656824881001 -0.28175615715344399 0 0.47935174679566778 -0.29912249032528232 0 0.48159802124000461 -0.28900801975301882 0 0.5 -0.29758680509452168 0 0.5 -0.2711642714388256 0 0.49124918573437759 -0.28323702443064402 0 0.5 -0.29758680509452168 0 0.48159802124000461 -0.28900801975301882 0 0.49124918573437759 -0.28323702443064402 0 0.5 -0.29758680509452168 0 0.47935174679566778 -0.29912249032528232 0 0.5 -0.29758680509452168 0 0.48114284405885732 -0.32057022687303632 0 0.5 -0.29758680509452168 0 0.49999999999999922 -0.32400933875021781 0 0.48114284405885732 -0.32057022687303632 0 0.49999999999999922 -0.32400933875021781 0 0.48114284405885732 -0.32057022687303632 0 0.49999999999999778 -0.34358827720674601 0 0.48114284405885732 -0.32057022687303632 0 0.49999999999999922 -0.32400933875021781 0 0.49999999999999778 -0.34358827720674601 0 0.48114284405885732 -0.32057022687303632 0 0.49999999999999778 -0.34358827720674601 0 0.48342855090563919 -0.33870053723455651 0 0.48114284405885732 -0.32057022687303632 0 0.48342855090563919 -0.33870053723455651 0 0.48114284405885732 -0.32057022687303632 0 0.46770094840686288 -0.34004170059152522 0 0.48342855090563919 -0.33870053723455651 0 0.48487041115683671 -0.35060194426691937 0 0.46770094840686288 -0.34004170059152522 0 0.48114284405885732 -0.32057022687303632 0 0.46159582997331738 -0.31700530072431737 0 0.46770094840686288 -0.34004170059152522 0 0.48114284405885732 -0.32057022687303632 0 0.46159582997331738 -0.31700530072431737 0 0.48995559263697741 -0.37097117805960128 0 0.49999999999999928 -0.35582785579326232 0 0.5 -0.38006352391379222 0 0.48995559263697741 -0.37097117805960128 0 0.49999999999999928 -0.35582785579326232 0 0.49999999999999778 -0.34358827720674601 0 0.48342855090563919 -0.33870053723455651 0 0.48487041115683671 -0.35060194426691937 0 0.48995559263697741 -0.37097117805960128 0 0.49999999999999928 -0.35582785579326232 0 0.48487041115683671 -0.35060194426691937 0 0.49999999999999778 -0.34358827720674601 0 0.49999999999999928 -0.35582785579326232 0 0.48487041115683671 -0.35060194426691937 0 0.47380606684040888 -0.3630781004587329 0 0.46770094840686288 -0.34004170059152522 0 0.48487041115683671 -0.35060194426691937 0 0.47380606684040888 -0.3630781004587329 0 0.46770094840686288 -0.34004170059152522 0 0.47380606684040888 -0.3630781004587329 0 0.4799111852739556 -0.38611450032594041 0 0.48995559263697741 -0.37097117805960128 0 0.47380606684040888 -0.3630781004587329 0 0.4799111852739556 -0.38611450032594041 0 0.48995559263697741 -0.37097117805960128 0 0.48487041115683671 -0.35060194426691937 0 0.47380606684040888 -0.3630781004587329 0 0.47380606684040888 -0.3630781004587329 0 0.44886982468804082 -0.36044788551874002 0 0.46704465651761368 -0.3777862855155138 0 0.44886982468804082 -0.36044788551874002 0 0.46704465651761368 -0.3777862855155138 0 0.45312830503350171 -0.38479542980038051 0 0.47380606684040888 -0.3630781004587329 0 0.44886982468804082 -0.36044788551874002 0 0.46770094840686288 -0.34004170059152522 0 0.44886982468804082 -0.36044788551874002 0 0.46770094840686288 -0.34004170059152522 0 0.44709414602972181 -0.33333290305582303 0 0.44886982468804082 -0.36044788551874002 0 0.44709414602972181 -0.33333290305582303 0 0.42839313119185962 -0.34362764337418289 0 0.44886982468804082 -0.36044788551874002 0 0.45312830503350171 -0.38479542980038051 0 0.43193925428550062 -0.3793449421185966 0 0.46159582997331738 -0.31700530072431737 0 0.46770094840686288 -0.34004170059152522 0 0.46159582997331738 -0.31700530072431737 0 0.46770094840686288 -0.34004170059152522 0 0.44709414602972181 -0.33333290305582303 0 0.44709414602972181 -0.33333290305582303 0 0.44367223969346298 -0.31373644976897702 0 0.43224711671267618 -0.32572939741666662 0 0.46159582997331738 -0.31700530072431737 0 0.44709414602972181 -0.33333290305582303 0 0.44367223969346298 -0.31373644976897702 0 0.46159582997331738 -0.31700530072431737 0 0.44367223969346298 -0.31373644976897702 0 0.44367223969346298 -0.31373644976897702 0 0.43224711671267618 -0.32572939741666662 0 0.42574864941360852 -0.31046759881363678 0 0.43224711671267618 -0.32572939741666662 0 0.4163274172347281 -0.32748239207071328 0 0.42574864941360852 -0.31046759881363678 0 0.44709414602972181 -0.33333290305582303 0 0.43224711671267618 -0.32572939741666662 0 0.42839313119185962 -0.34362764337418289 0 0.43224711671267618 -0.32572939741666662 0 0.42839313119185962 -0.34362764337418289 0 0.4163274172347281 -0.32748239207071328 0 0.42839313119185962 -0.34362764337418289 0 0.4163274172347281 -0.32748239207071328 0 0.40327511141340361 -0.3486771041329858 0 0.4163274172347281 -0.32748239207071328 0 0.42574864941360852 -0.31046759881363678 0 0.4087201943980639 -0.30343176698799301 0 0.4163274172347281 -0.32748239207071328 0 0.3968629973710448 -0.32433786682659033 0 0.4087201943980639 -0.30343176698799301 0 0.44886982468804082 -0.36044788551874002 0 0.42332485640138628 -0.3618675345357405 0 0.43193925428550062 -0.3793449421185966 0 0.44886982468804082 -0.36044788551874002 0 0.42839313119185962 -0.34362764337418289 0 0.42332485640138628 -0.3618675345357405 0 0.42839313119185962 -0.34362764337418289 0 0.42332485640138628 -0.3618675345357405 0 0.40327511141340361 -0.3486771041329858 0 0.42332485640138628 -0.3618675345357405 0 0.43193925428550062 -0.3793449421185966 0 0.40414696042812698 -0.37724009753419718 0 0.42332485640138628 -0.3618675345357405 0 0.40327511141340361 -0.3486771041329858 0 0.40414696042812698 -0.37724009753419718 0 0.40327511141340361 -0.3486771041329858 0 0.37894980881251478 -0.36394378416698991 0 0.40414696042812698 -0.37724009753419718 0 0.40327511141340361 -0.3486771041329858 0 0.37894980881251478 -0.36394378416698991 0 0.38235377169419649 -0.33906715124417508 0 0.40327511141340361 -0.3486771041329858 0 0.3968629973710448 -0.32433786682659033 0 0.38235377169419649 -0.33906715124417508 0 0.4163274172347281 -0.32748239207071328 0 0.40327511141340361 -0.3486771041329858 0 0.3968629973710448 -0.32433786682659033 0 0.3968629973710448 -0.32433786682659033 0 0.38036238728453958 -0.31963428050617487 0 0.38873740365938891 -0.30641170162552828 0 0.38235377169419649 -0.33906715124417508 0 0.38036238728453958 -0.31963428050617487 0 0.36397347512243372 -0.32560705052322758 0 0.3968629973710448 -0.32433786682659033 0 0.38235377169419649 -0.33906715124417508 0 0.38036238728453958 -0.31963428050617487 0 0.38036238728453958 -0.31963428050617487 0 0.38873740365938891 -0.30641170162552828 0 0.36988428857563421 -0.30274763231135299 0 0.38873740365938891 -0.30641170162552828 0 0.38393496666680271 -0.29051117178717961 0 0.36988428857563421 -0.30274763231135299 0 0.38873740365938891 -0.30641170162552828 0 0.39634537237165879 -0.29206646350061682 0 0.4087201943980639 -0.30343176698799301 0 0.3968629973710448 -0.32433786682659033 0 0.38873740365938891 -0.30641170162552828 0 0.4087201943980639 -0.30343176698799301 0 0.39634537237165879 -0.29206646350061682 0 0.4087201943980639 -0.30343176698799301 0 0.40754783005724599 -0.28167072361711198 0 0.39634537237165879 -0.29206646350061682 0 0.39492507018987899 -0.27881688092028512 0 0.40754783005724599 -0.28167072361711198 0 0.39634537237165879 -0.29206646350061682 0 0.38393496666680271 -0.29051117178717961 0 0.39492507018987899 -0.27881688092028512 0 0.38393496666680271 -0.29051117178717961 0 0.38264320425612708 -0.27741242370895652 0 0.39492507018987899 -0.27881688092028512 0 0.38873740365938891 -0.30641170162552828 0 0.39634537237165879 -0.29206646350061682 0 0.38393496666680271 -0.29051117178717961 0 0.38393496666680271 -0.29051117178717961 0 0.38264320425612708 -0.27741242370895652 0 0.37107446094812852 -0.28561192865633822 0 0.38037126772746549 -0.26837645262629273 0 0.38131880817949693 -0.25850578674154762 0 0.36415654017792071 -0.27323412290064658 0 0.38264320425612708 -0.27741242370895652 0 0.38037126772746549 -0.26837645262629273 0 0.37456136827741038 -0.27615873197305851 0 0.38264320425612708 -0.27741242370895652 0 0.37456136827741038 -0.27615873197305851 0 0.37107446094812852 -0.28561192865633822 0 0.38264320425612708 -0.27741242370895652 0 0.38037126772746549 -0.26837645262629273 0 0.38992210241313668 -0.26871250471486208 0 0.38037126772746549 -0.26837645262629273 0 0.38992210241313668 -0.26871250471486208 0 0.38634067254381133 -0.26332137923956889 0 0.38264320425612708 -0.27741242370895652 0 0.38992210241313668 -0.26871250471486208 0 0.39492507018987899 -0.27881688092028512 0 0.39848107618107309 -0.24377745058244871 0 0.38131880817949693 -0.25850578674154762 0 0.39848107618107309 -0.24377745058244871 0 0.38131880817949693 -0.25850578674154762 0 0.3839351786006443 -0.25453057406757917 0 0.38037126772746549 -0.26837645262629273 0 0.38131880817949693 -0.25850578674154762 0 0.38634067254381133 -0.26332137923956889 0 0.38131880817949693 -0.25850578674154762 0 0.3839351786006443 -0.25453057406757917 0 0.37177831380586529 -0.26154745870743351 0 0.38992210241313668 -0.26871250471486208 0 0.38634067254381133 -0.26332137923956889 0 0.39375051185514581 -0.2576907728755734 0 0.38131880817949693 -0.25850578674154762 0 0.38634067254381133 -0.26332137923956889 0 0.39375051185514581 -0.2576907728755734 0 0.39848107618107309 -0.24377745058244871 0 0.38131880817949693 -0.25850578674154762 0 0.39375051185514581 -0.2576907728755734 0 0.38992210241313668 -0.26871250471486208 0 0.39375051185514581 -0.2576907728755734 0 0.40267678466015627 -0.26918736101301938 0 0.39375051185514581 -0.2576907728755734 0 0.40267678466015627 -0.26918736101301938 0 0.40714686771660707 -0.25637848562267679 0 0.39848107618107309 -0.24377745058244871 0 0.39375051185514581 -0.2576907728755734 0 0.40714686771660707 -0.25637848562267679 0 0.38992210241313668 -0.26871250471486208 0 0.39492507018987899 -0.27881688092028512 0 0.40267678466015627 -0.26918736101301938 0 0.39492507018987899 -0.27881688092028512 0 0.40267678466015627 -0.26918736101301938 0 0.40754783005724599 -0.28167072361711198 0 0.40267678466015627 -0.26918736101301938 0 0.41977755098742009 -0.26881656880118771 0 0.40754783005724599 -0.28167072361711198 0 0.41977755098742009 -0.26881656880118771 0 0.42265848974795139 -0.28825432804261258 0 0.40754783005724599 -0.28167072361711198 0 0.40267678466015627 -0.26918736101301938 0 0.41977755098742009 -0.26881656880118771 0 0.40714686771660707 -0.25637848562267679 0 0.41474483072402862 -0.24410171722074989 0 0.40714686771660707 -0.25637848562267679 0 0.41975465553678409 -0.25377878141486482 0 0.41977755098742009 -0.26881656880118771 0 0.40714686771660707 -0.25637848562267679 0 0.41975465553678409 -0.25377878141486482 0 0.42420775402689398 -0.24485297059990141 0 0.41975465553678409 -0.25377878141486482 0 0.43484498540418559 -0.25638249238299449 0 0.41977755098742009 -0.26881656880118771 0 0.41975465553678409 -0.25377878141486482 0 0.43484498540418559 -0.25638249238299449 0 0.44293088244579448 -0.2739266684008736 0 0.41977755098742009 -0.26881656880118771 0 0.42265848974795139 -0.28825432804261258 0 0.44293088244579448 -0.2739266684008736 0 0.41977755098742009 -0.26881656880118771 0 0.43484498540418559 -0.25638249238299449 0 0.44293088244579448 -0.2739266684008736 0 0.43941659955420631 -0.2939039067411392 0 0.42265848974795139 -0.28825432804261258 0 0.43941659955420631 -0.2939039067411392 0 0.42265848974795139 -0.28825432804261258 0 0.42574864941360852 -0.31046759881363678 0 0.44645140481368523 -0.30276724403944311 0 0.43941659955420631 -0.2939039067411392 0 0.42574864941360852 -0.31046759881363678 0 0.44367223969346298 -0.31373644976897702 0 0.42574864941360852 -0.31046759881363678 0 0.42265848974795139 -0.28825432804261258 0 0.42574864941360852 -0.31046759881363678 0 0.4087201943980639 -0.30343176698799301 0 0.42265848974795139 -0.28825432804261258 0 0.4087201943980639 -0.30343176698799301 0 0.40754783005724599 -0.28167072361711198 0 0.44217420766628401 -0.48673117762384221 0 0.45465662577317489 -0.47437719972123488 0 0.45629718166982619 -0.5 0 0.44217420766628401 -0.48673117762384221 0 0.45629718166982619 -0.5 0 0.43237890327474038 -0.5 0 0.45465662577317489 -0.47437719972123488 0 0.45035174504951753 -0.46053377576885252 0 0.4328012502979296 -0.47311003091370829 0 0.44217420766628401 -0.48673117762384221 0 0.45465662577317489 -0.47437719972123488 0 0.4328012502979296 -0.47311003091370829 0 0.45465662577317489 -0.47437719972123488 0 0.4328012502979296 -0.47311003091370829 0 0.45465662577317489 -0.47437719972123488 0 0.45629718166982619 -0.5 0 0.4765120012484203 -0.4756443685287608 0 0.45465662577317489 -0.47437719972123488 0 0.4765120012484203 -0.4756443685287608 0 0.45465662577317489 -0.47437719972123488 0 0.4765120012484203 -0.4756443685287608 0 0.46269836637426198 -0.4597246709890408 0 0.45629718166982619 -0.5 0 0.48021546006491211 -0.50000000000000133 0 0.4765120012484203 -0.4756443685287608 0 0.48021546006491211 -0.50000000000000133 0 0.4765120012484203 -0.4756443685287608 0 0.48021546006491211 -0.50000000000000133 0 0.49010773003245589 -0.48850309819795618 0 0.4765120012484203 -0.4756443685287608 0 0.48021546006491211 -0.50000000000000133 0 0.5 -0.5 0 0.49010773003245589 -0.48850309819795618 0 0.5 -0.5 0 0.49010773003245589 -0.48850309819795618 0 0.4999999999999995 -0.47700619639591191 0 0.4999999999999995 -0.47700619639591191 0 0.4765120012484203 -0.4756443685287608 0 0.48589110514851319 -0.45966871319666058 0 0.4999999999999995 -0.47700619639591191 0 0.4765120012484203 -0.4756443685287608 0 0.49010773003245589 -0.48850309819795618 0 0.4999999999999995 -0.47700619639591191 0 0.4765120012484203 -0.4756443685287608 0 0.4765120012484203 -0.4756443685287608 0 0.47237395822096251 -0.44843071340720031 0 0.4765120012484203 -0.4756443685287608 0 0.47237395822096251 -0.44843071340720031 0 0.46269836637426198 -0.4597246709890408 0 0.4765120012484203 -0.4756443685287608 0 0.48589110514851319 -0.45966871319666058 0 0.47237395822096251 -0.44843071340720031 0 0.4999999999999995 -0.47700619639591191 0 0.48589110514851319 -0.45966871319666058 0 0.5 -0.45277052827538189 0 0.48589110514851319 -0.45966871319666058 0 0.5 -0.45277052827538189 0 0.48660480616273621 -0.44055939935686528 0 0.5 -0.45277052827538189 0 0.48660480616273621 -0.44055939935686528 0 0.5 -0.42853486015485193 0 0.48589110514851319 -0.45966871319666058 0 0.48660480616273621 -0.44055939935686528 0 0.47237395822096251 -0.44843071340720031 0 0.48660480616273621 -0.44055939935686528 0 0.47237395822096251 -0.44843071340720031 0 0.47438299345130319 -0.4342037863338773 0 0.45959750157923501 -0.43963729751915498 0 0.45035174504951753 -0.46053377576885252 0 0.47237395822096251 -0.44843071340720031 0 0.45959750157923501 -0.43963729751915498 0 0.46269836637426198 -0.4597246709890408 0 0.45959750157923501 -0.43963729751915498 0 0.46269836637426198 -0.4597246709890408 0 0.45035174504951753 -0.46053377576885252 0 0.45465662577317489 -0.47437719972123488 0 0.46269836637426198 -0.4597246709890408 0 0.45035174504951753 -0.46053377576885252 0 0.45035174504951753 -0.46053377576885252 0 0.44507167211471382 -0.44614219554339418 0 0.43428557687092428 -0.4564616483802969 0 0.45035174504951753 -0.46053377576885252 0 0.43428557687092428 -0.4564616483802969 0 0.4328012502979296 -0.47311003091370829 0 0.45959750157923501 -0.43963729751915498 0 0.45035174504951753 -0.46053377576885252 0 0.44507167211471382 -0.44614219554339418 0 0.44507167211471382 -0.44614219554339418 0 0.43491458423617152 -0.4420700823848388 0 0.43428557687092428 -0.4564616483802969 0 0.44507167211471382 -0.44614219554339418 0 0.4462089528377205 -0.43200817366382799 0 0.43491458423617152 -0.4420700823848388 0 0.45959750157923501 -0.43963729751915498 0 0.44507167211471382 -0.44614219554339418 0 0.4462089528377205 -0.43200817366382799 0 0.45092347458036192 -0.42261519239085071 0 0.4462089528377205 -0.43200817366382799 0 0.45942239635787452 -0.42706616540644909 0 0.4462089528377205 -0.43200817366382799 0 0.43196463266276203 -0.42805679547384851 0 0.43491458423617152 -0.4420700823848388 0 0.45092347458036192 -0.42261519239085071 0 0.4462089528377205 -0.43200817366382799 0 0.43830921666083889 -0.41673817283592363 0 0.4462089528377205 -0.43200817366382799 0 0.43830921666083889 -0.41673817283592363 0 0.43196463266276203 -0.42805679547384851 0 0.43830921666083889 -0.41673817283592363 0 0.45361417478816052 -0.41298892792353742 0 0.44287303443026571 -0.39864676514705671 0 0.45092347458036192 -0.42261519239085071 0 0.43830921666083889 -0.41673817283592363 0 0.45361417478816052 -0.41298892792353742 0 0.45092347458036192 -0.42261519239085071 0 0.45884447077654228 -0.41871876340080988 0 0.45361417478816052 -0.41298892792353742 0 0.45884447077654228 -0.41871876340080988 0 0.45361417478816052 -0.41298892792353742 0 0.46162338932710162 -0.41154558371975192 0 0.45361417478816052 -0.41298892792353742 0 0.46162338932710162 -0.41154558371975192 0 0.45709109481320731 -0.40090192743469749 0 0.46162338932710162 -0.41154558371975192 0 0.46635802824514389 -0.40654774413972661 0 0.45709109481320731 -0.40090192743469749 0 0.46162338932710162 -0.41154558371975192 0 0.46635802824514389 -0.40654774413972661 0 0.46884325810895239 -0.4187408192694575 0 0.45884447077654228 -0.41871876340080988 0 0.46162338932710162 -0.41154558371975192 0 0.46884325810895239 -0.4187408192694575 0 0.45884447077654228 -0.41871876340080988 0 0.45942239635787452 -0.42706616540644909 0 0.46884325810895239 -0.4187408192694575 0 0.46782757294678001 -0.42103638511435693 0 0.46884325810895239 -0.4187408192694575 0 0.45959750157923501 -0.43963729751915498 0 0.46782757294678001 -0.42103638511435693 0 0.45942239635787452 -0.42706616540644909 0 0.46782757294678001 -0.42103638511435693 0 0.45942239635787452 -0.42706616540644909 0 0.46884325810895239 -0.4187408192694575 0 0.45959750157923501 -0.43963729751915498 0 0.46782757294678001 -0.42103638511435693 0 0.47237395822096251 -0.44843071340720031 0 0.45959750157923501 -0.43963729751915498 0 0.46782757294678001 -0.42103638511435693 0 0.45092347458036192 -0.42261519239085071 0 0.45884447077654228 -0.41871876340080988 0 0.45942239635787452 -0.42706616540644909 0 0.45959750157923501 -0.43963729751915498 0 0.4462089528377205 -0.43200817366382799 0 0.45942239635787452 -0.42706616540644909 0 0.47237395822096251 -0.44843071340720031 0 0.46782757294678001 -0.42103638511435693 0 0.47237395822096251 -0.44843071340720031 0 0.46782757294678001 -0.42103638511435693 0 0.47438299345130319 -0.4342037863338773 0 0.46782757294678001 -0.42103638511435693 0 0.47438299345130319 -0.4342037863338773 0 0.47433888706477501 -0.42544757666834782 0 0.46782757294678001 -0.42103638511435693 0 0.47433888706477501 -0.42544757666834782 0 0.47237106982084398 -0.42091868011250227 0 0.47433888706477501 -0.42544757666834782 0 0.47634860209975238 -0.42139133021875241 0 0.47237106982084398 -0.42091868011250227 0 0.47438299345130319 -0.4342037863338773 0 0.47433888706477501 -0.42544757666834782 0 0.48331975505352448 -0.42512218686751518 0 0.47433888706477501 -0.42544757666834782 0 0.48331975505352448 -0.42512218686751518 0 0.47634860209975238 -0.42139133021875241 0 0.48660480616273621 -0.44055939935686528 0 0.47438299345130319 -0.4342037863338773 0 0.48331975505352448 -0.42512218686751518 0 0.48331975505352448 -0.42512218686751518 0 0.5 -0.42853486015485193 0 0.49074220522434309 -0.414884144191635 0 0.48660480616273621 -0.44055939935686528 0 0.48331975505352448 -0.42512218686751518 0 0.5 -0.42853486015485193 0 0.5 -0.42853486015485193 0 0.49074220522434309 -0.414884144191635 0 0.5 -0.40429919203432202 0 0.49074220522434309 -0.414884144191635 0 0.48840463965961822 -0.40348416768733109 0 0.5 -0.40429919203432202 0 0.48331975505352448 -0.42512218686751518 0 0.49074220522434309 -0.414884144191635 0 0.4819866314085729 -0.41298031421415482 0 0.49074220522434309 -0.414884144191635 0 0.4819866314085729 -0.41298031421415482 0 0.48840463965961822 -0.40348416768733109 0 0.4819866314085729 -0.41298031421415482 0 0.47545972855893542 -0.41369598598765139 0 0.47808901463866982 -0.39784434101976007 0 0.46884325810895239 -0.4187408192694575 0 0.47545972855893542 -0.41369598598765139 0 0.47808901463866982 -0.39784434101976007 0 0.46884325810895239 -0.4187408192694575 0 0.47808901463866982 -0.39784434101976007 0 0.46635802824514389 -0.40654774413972661 0 0.46884325810895239 -0.4187408192694575 0 0.47808901463866982 -0.39784434101976007 0 0.4819866314085729 -0.41298031421415482 0 0.47634860209975238 -0.42139133021875241 0 0.47545972855893542 -0.41369598598765139 0 0.48331975505352448 -0.42512218686751518 0 0.4819866314085729 -0.41298031421415482 0 0.47634860209975238 -0.42139133021875241 0 0.47634860209975238 -0.42139133021875241 0 0.4732556646471211 -0.41868670389709101 0 0.47237106982084398 -0.42091868011250227 0 0.47634860209975238 -0.42139133021875241 0 0.4732556646471211 -0.41868670389709101 0 0.47545972855893542 -0.41369598598765139 0 0.4732556646471211 -0.41868670389709101 0 0.46884325810895239 -0.4187408192694575 0 0.47545972855893542 -0.41369598598765139 0 0.46782757294678001 -0.42103638511435693 0 0.47237106982084398 -0.42091868011250227 0 0.46884325810895239 -0.4187408192694575 0 0.4732556646471211 -0.41868670389709101 0 0.47237106982084398 -0.42091868011250227 0 0.46884325810895239 -0.4187408192694575 0 0.46635802824514389 -0.40654774413972661 0 0.4799111852739556 -0.38611450032594041 0 0.46635802824514389 -0.40654774413972661 0 0.4799111852739556 -0.38611450032594041 0 0.46494963705507059 -0.39088711387773228 0 0.46635802824514389 -0.40654774413972661 0 0.47808901463866982 -0.39784434101976007 0 0.4799111852739556 -0.38611450032594041 0 0.47808901463866982 -0.39784434101976007 0 0.48124439070047659 -0.39071282646676148 0 0.49072614620579741 -0.39201949027864591 0 0.47808901463866982 -0.39784434101976007 0 0.48124439070047659 -0.39071282646676148 0 0.4799111852739556 -0.38611450032594041 0 0.47808901463866982 -0.39784434101976007 0 0.48124439070047659 -0.39071282646676148 0 0.4819866314085729 -0.41298031421415482 0 0.47808901463866982 -0.39784434101976007 0 0.48840463965961822 -0.40348416768733109 0 0.49072614620579741 -0.39201949027864591 0 0.5 -0.40429919203432202 0 0.5 -0.38006352391379222 0 0.47808901463866982 -0.39784434101976007 0 0.48840463965961822 -0.40348416768733109 0 0.49072614620579741 -0.39201949027864591 0 0.48840463965961822 -0.40348416768733109 0 0.49072614620579741 -0.39201949027864591 0 0.5 -0.40429919203432202 0 0.48995559263697741 -0.37097117805960128 0 0.5 -0.38006352391379222 0 0.48733477116838708 -0.37694786277006281 0 0.49072614620579741 -0.39201949027864591 0 0.5 -0.38006352391379222 0 0.48733477116838708 -0.37694786277006281 0 0.48124439070047659 -0.39071282646676148 0 0.49072614620579741 -0.39201949027864591 0 0.48733477116838708 -0.37694786277006281 0 0.48995559263697741 -0.37097117805960128 0 0.48733477116838708 -0.37694786277006281 0 0.4799111852739556 -0.38611450032594041 0 0.48995559263697741 -0.37097117805960128 0 0.4799111852739556 -0.38611450032594041 0 0.47380606684040888 -0.3630781004587329 0 0.4799111852739556 -0.38611450032594041 0 0.46704465651761368 -0.3777862855155138 0 0.48124439070047659 -0.39071282646676148 0 0.48733477116838708 -0.37694786277006281 0 0.4799111852739556 -0.38611450032594041 0 0.48124439070047659 -0.39071282646676148 0 0.48733477116838708 -0.37694786277006281 0 0.48124439070047659 -0.39071282646676148 0 0.4799111852739556 -0.38611450032594041 0 0.4799111852739556 -0.38611450032594041 0 0.46704465651761368 -0.3777862855155138 0 0.46494963705507059 -0.39088711387773228 0 0.46704465651761368 -0.3777862855155138 0 0.45312830503350171 -0.38479542980038051 0 0.46494963705507059 -0.39088711387773228 0 0.45312830503350171 -0.38479542980038051 0 0.46494963705507059 -0.39088711387773228 0 0.45709109481320731 -0.40090192743469749 0 0.46635802824514389 -0.40654774413972661 0 0.46494963705507059 -0.39088711387773228 0 0.45709109481320731 -0.40090192743469749 0 0.45312830503350171 -0.38479542980038051 0 0.45709109481320731 -0.40090192743469749 0 0.44287303443026571 -0.39864676514705671 0 0.45361417478816052 -0.41298892792353742 0 0.45709109481320731 -0.40090192743469749 0 0.44287303443026571 -0.39864676514705671 0 0.45312830503350171 -0.38479542980038051 0 0.44287303443026571 -0.39864676514705671 0 0.43193925428550062 -0.3793449421185966 0 0.43830921666083889 -0.41673817283592363 0 0.44287303443026571 -0.39864676514705671 0 0.42205782738405079 -0.39913067068172547 0 0.44287303443026571 -0.39864676514705671 0 0.43193925428550062 -0.3793449421185966 0 0.42205782738405079 -0.39913067068172547 0 0.42205782738405079 -0.39913067068172547 0 0.40414696042812698 -0.37724009753419718 0 0.39960503052695567 -0.40319502803967011 0 0.43193925428550062 -0.3793449421185966 0 0.42205782738405079 -0.39913067068172547 0 0.40414696042812698 -0.37724009753419718 0 0.40414696042812698 -0.37724009753419718 0 0.37955931241339719 -0.38994974232056628 0 0.39960503052695567 -0.40319502803967011 0 0.37894980881251478 -0.36394378416698991 0 0.37955931241339719 -0.38994974232056628 0 0.37894980881251478 -0.36394378416698991 0 0.40414696042812698 -0.37724009753419718 0 0.37955931241339719 -0.38994974232056628 0 0.37955931241339719 -0.38994974232056628 0 0.39960503052695567 -0.40319502803967011 0 0.38016881601427971 -0.41595570047414282 0 0.37955931241339719 -0.38994974232056628 0 0.38016881601427971 -0.41595570047414282 0 0.39960503052695567 -0.40319502803967011 0 0.3972003863396758 -0.43011147611852008 0 0.41549315542115423 -0.42032353415603868 0 0.39960503052695567 -0.40319502803967011 0 0.38016881601427971 -0.41595570047414282 0 0.3972003863396758 -0.43011147611852008 0 0.38016881601427971 -0.41595570047414282 0 0.38077831961516212 -0.44196165862771908 0 0.38016881601427971 -0.41595570047414282 0 0.3972003863396758 -0.43011147611852008 0 0.38077831961516212 -0.44196165862771908 0 0.38016881601427971 -0.41595570047414282 0 0.38077831961516212 -0.44196165862771908 0 0.36420470180245218 -0.42828215788855811 0 0.41549315542115423 -0.42032353415603868 0 0.43196463266276203 -0.42805679547384851 0 0.41321951512191929 -0.44608319813111008 0 0.41549315542115423 -0.42032353415603868 0 0.41321951512191929 -0.44608319813111008 0 0.3972003863396758 -0.43011147611852008 0 0.41549315542115423 -0.42032353415603868 0 0.41321951512191929 -0.44608319813111008 0 0.42205782738405079 -0.39913067068172547 0 0.39960503052695567 -0.40319502803967011 0 0.41549315542115423 -0.42032353415603868 0 0.43830921666083889 -0.41673817283592363 0 0.42205782738405079 -0.39913067068172547 0 0.41549315542115423 -0.42032353415603868 0 0.43830921666083889 -0.41673817283592363 0 0.41549315542115423 -0.42032353415603868 0 0.43196463266276203 -0.42805679547384851 0 0.43196463266276203 -0.42805679547384851 0 0.43491458423617152 -0.4420700823848388 0 0.41321951512191929 -0.44608319813111008 0 0.43491458423617152 -0.4420700823848388 0 0.43428557687092428 -0.4564616483802969 0 0.41321951512191929 -0.44608319813111008 0 0.43428557687092428 -0.4564616483802969 0 0.42260026751927121 -0.46280072371671699 0 0.41321951512191929 -0.44608319813111008 0 0.43428557687092428 -0.4564616483802969 0 0.42260026751927121 -0.46280072371671699 0 0.4328012502979296 -0.47311003091370829 0 0.42260026751927121 -0.46280072371671699 0 0.41321951512191929 -0.44608319813111008 0 0.4109458748226843 -0.47184286210618143 0 0.41321951512191929 -0.44608319813111008 0 0.39552294945787569 -0.45682015680373272 0 0.4109458748226843 -0.47184286210618143 0 0.41321951512191929 -0.44608319813111008 0 0.4109458748226843 -0.47184286210618143 0 0.3972003863396758 -0.43011147611852008 0 0.38077831961516212 -0.44196165862771908 0 0.39552294945787569 -0.45682015680373272 0 0.3972003863396758 -0.43011147611852008 0 0.41321951512191929 -0.44608319813111008 0 0.39552294945787569 -0.45682015680373272 0 0.38077831961516212 -0.44196165862771908 0 0.39552294945787569 -0.45682015680373272 0 0.38061642912466781 -0.47118143701808191 0 0.39552294945787569 -0.45682015680373272 0 0.39557516847751872 -0.47109196200980452 0 0.38061642912466781 -0.47118143701808191 0 0.39552294945787569 -0.45682015680373272 0 0.39557516847751872 -0.47109196200980452 0 0.4109458748226843 -0.47184286210618143 0 0.40317710508230969 -0.47984216018454418 0 0.39557516847751872 -0.47109196200980452 0 0.4109458748226843 -0.47184286210618143 0 0.40317710508230969 -0.47984216018454418 0 0.39557516847751872 -0.47109196200980452 0 0.39107329564034188 -0.48449778026253248 0 0.38061642912466781 -0.47118143701808191 0 0.39107329564034188 -0.48449778026253248 0 0.37393671980914589 -0.48711429932077632 0 0.39557516847751872 -0.47109196200980452 0 0.38061642912466781 -0.47118143701808191 0 0.39107329564034188 -0.48449778026253248 0 0.38544468816598199 -0.5 0 0.39107329564034188 -0.48449778026253248 0 0.37393671980914589 -0.48711429932077632 0 0.38544468816598199 -0.5 0 0.39107329564034188 -0.48449778026253248 0 0.40846062487965451 -0.50000000000000244 0 0.40317710508230969 -0.47984216018454418 0 0.39107329564034188 -0.48449778026253248 0 0.40846062487965451 -0.50000000000000244 0 0.40846062487965451 -0.50000000000000244 0 0.43237890327474038 -0.5 0 0.42333558094495838 -0.48635371844735997 0 0.40846062487965451 -0.50000000000000244 0 0.4109458748226843 -0.47184286210618143 0 0.42333558094495838 -0.48635371844735997 0 0.40846062487965451 -0.50000000000000244 0 0.4109458748226843 -0.47184286210618143 0 0.4109458748226843 -0.47184286210618143 0 0.4328012502979296 -0.47311003091370829 0 0.40317710508230969 -0.47984216018454418 0 0.40846062487965451 -0.50000000000000244 0 0.4109458748226843 -0.47184286210618143 0 0.42260026751927121 -0.46280072371671699 0 0.4109458748226843 -0.47184286210618143 0 0.4328012502979296 -0.47311003091370829 0 0.44217420766628401 -0.48673117762384221 0 0.4328012502979296 -0.47311003091370829 0 0.42333558094495838 -0.48635371844735997 0 0.4109458748226843 -0.47184286210618143 0 0.4328012502979296 -0.47311003091370829 0 0.42333558094495838 -0.48635371844735997 0 0.44217420766628401 -0.48673117762384221 0 0.43237890327474038 -0.5 0 0.42333558094495838 -0.48635371844735997 0 0.3163968780249643 -0.49999999999999872 0 0.3156560829588127 -0.47195701219463349 0 0.33315323969752147 -0.48322192961299643 0 0.33315323969752147 -0.48322192961299643 0 0.35523178760119539 -0.48042654771318649 0 0.33906863516399832 -0.46372608815716171 0 0.3156560829588127 -0.47195701219463349 0 0.33315323969752147 -0.48322192961299643 0 0.33906863516399832 -0.46372608815716171 0 0.3163968780249643 -0.49999999999999872 0 0.33315323969752147 -0.48322192961299643 0 0.33941281473863683 -0.5 0 0.33315323969752147 -0.48322192961299643 0 0.33941281473863683 -0.5 0 0.35523178760119539 -0.48042654771318649 0 0.33941281473863683 -0.5 0 0.36242875145230952 -0.5 0 0.35523178760119539 -0.48042654771318649 0 0.38544468816598199 -0.5 0 0.36242875145230952 -0.5 0 0.37393671980914589 -0.48711429932077632 0 0.36242875145230952 -0.5 0 0.37393671980914589 -0.48711429932077632 0 0.35523178760119539 -0.48042654771318649 0 0.38061642912466781 -0.47118143701808191 0 0.35523178760119539 -0.48042654771318649 0 0.36235202875495792 -0.45481828847453037 0 0.38061642912466781 -0.47118143701808191 0 0.37393671980914589 -0.48711429932077632 0 0.35523178760119539 -0.48042654771318649 0 0.35523178760119539 -0.48042654771318649 0 0.36235202875495792 -0.45481828847453037 0 0.33906863516399832 -0.46372608815716171 0 0.38077831961516212 -0.44196165862771908 0 0.38061642912466781 -0.47118143701808191 0 0.36235202875495792 -0.45481828847453037 0 0.38077831961516212 -0.44196165862771908 0 0.36235202875495792 -0.45481828847453037 0 0.36420470180245218 -0.42828215788855811 0 0.36235202875495792 -0.45481828847453037 0 0.3479714750951442 -0.43944540217261119 0 0.36420470180245218 -0.42828215788855811 0 0.36235202875495792 -0.45481828847453037 0 0.3479714750951442 -0.43944540217261119 0 0.33906863516399832 -0.46372608815716171 0 0.3479714750951442 -0.43944540217261119 0 0.32448616669032682 -0.45394917521950201 0 0.32377359618119939 -0.43663144992634778 0 0.3479714750951442 -0.43944540217261119 0 0.33906863516399832 -0.46372608815716171 0 0.32448616669032682 -0.45394917521950201 0 0.3156560829588127 -0.47195701219463349 0 0.32448616669032682 -0.45394917521950201 0 0.30798136203655452 -0.45318718007958181 0 0.3156560829588127 -0.47195701219463349 0 0.33906863516399832 -0.46372608815716171 0 0.32448616669032682 -0.45394917521950201 0 0.32448616669032682 -0.45394917521950201 0 0.32377359618119939 -0.43663144992634778 0 0.30798136203655452 -0.45318718007958181 0 0.32377359618119939 -0.43663144992634778 0 0.31973986794120413 -0.41791833692008901 0 0.30353977870730192 -0.42551683169857629 0 0.31973986794120413 -0.41791833692008901 0 0.31870973632162491 -0.40167930472277602 0 0.30152143503365109 -0.4123476149662284 0 0.31973986794120413 -0.41791833692008901 0 0.33400958813525922 -0.40151299980345101 0 0.31870973632162491 -0.40167930472277602 0 0.31973986794120413 -0.41791833692008901 0 0.34773370874473142 -0.41336677518902881 0 0.33400958813525922 -0.40151299980345101 0 0.32377359618119939 -0.43663144992634778 0 0.31973986794120413 -0.41791833692008901 0 0.34773370874473142 -0.41336677518902881 0 0.3479714750951442 -0.43944540217261119 0 0.32377359618119939 -0.43663144992634778 0 0.34773370874473142 -0.41336677518902881 0 0.3479714750951442 -0.43944540217261119 0 0.36420470180245218 -0.42828215788855811 0 0.34773370874473142 -0.41336677518902881 0 0.3479714750951442 -0.43944540217261119 0 0.34773370874473142 -0.41336677518902881 0 0.38016881601427971 -0.41595570047414282 0 0.36420470180245218 -0.42828215788855811 0 0.36371911099546722 -0.40166506732275048 0 0.36420470180245218 -0.42828215788855811 0 0.34773370874473142 -0.41336677518902881 0 0.36371911099546722 -0.40166506732275048 0 0.34773370874473142 -0.41336677518902881 0 0.34749594239431869 -0.38728814820544633 0 0.34773370874473142 -0.41336677518902881 0 0.36371911099546722 -0.40166506732275048 0 0.34749594239431869 -0.38728814820544633 0 0.37955931241339719 -0.38994974232056628 0 0.38016881601427971 -0.41595570047414282 0 0.36371911099546722 -0.40166506732275048 0 0.37894980881251478 -0.36394378416698991 0 0.37955931241339719 -0.38994974232056628 0 0.36210853810571908 -0.37411452357935859 0 0.37955931241339719 -0.38994974232056628 0 0.36371911099546722 -0.40166506732275048 0 0.36210853810571908 -0.37411452357935859 0 0.36371911099546722 -0.40166506732275048 0 0.34749594239431869 -0.38728814820544633 0 0.36210853810571908 -0.37411452357935859 0 0.34749594239431869 -0.38728814820544633 0 0.32915162653115532 -0.38683604916860231 0 0.34045007567018482 -0.3723770255127884 0 0.34773370874473142 -0.41336677518902881 0 0.34749594239431869 -0.38728814820544633 0 0.33400958813525922 -0.40151299980345101 0 0.34749594239431869 -0.38728814820544633 0 0.32915162653115532 -0.38683604916860231 0 0.33400958813525922 -0.40151299980345101 0 0.32915162653115532 -0.38683604916860231 0 0.33400958813525922 -0.40151299980345101 0 0.31870973632162491 -0.40167930472277602 0 0.32915162653115532 -0.38683604916860231 0 0.31334102106860129 -0.3775224530353104 0 0.34045007567018482 -0.3723770255127884 0 0.32915162653115532 -0.38683604916860231 0 0.31870973632162491 -0.40167930472277602 0 0.31334102106860129 -0.3775224530353104 0 0.31334102106860129 -0.3775224530353104 0 0.28623196646701782 -0.38266788055783241 0 0.30075941525713712 -0.36510083559999013 0 0.31334102106860129 -0.3775224530353104 0 0.29840746172657923 -0.39684145966863171 0 0.28623196646701782 -0.38266788055783241 0 0.31334102106860129 -0.3775224530353104 0 0.28623196646701782 -0.38266788055783241 0 0.31870973632162491 -0.40167930472277602 0 0.29840746172657923 -0.39684145966863171 0 0.30152143503365109 -0.4123476149662284 0 0.31870973632162491 -0.40167930472277602 0 0.31334102106860129 -0.3775224530353104 0 0.29840746172657923 -0.39684145966863171 0 0.29840746172657923 -0.39684145966863171 0 0.28623196646701782 -0.38266788055783241 0 0.27770293297008442 -0.39318989175852292 0 0.29840746172657923 -0.39684145966863171 0 0.27770293297008442 -0.39318989175852292 0 0.28273735308243098 -0.40796791400841559 0 0.29840746172657923 -0.39684145966863171 0 0.28273735308243098 -0.40796791400841559 0 0.30152143503365109 -0.4123476149662284 0 0.28623196646701782 -0.38266788055783241 0 0.27044571771780318 -0.37742831641863628 0 0.25912291186543429 -0.38781330808035441 0 0.28623196646701782 -0.38266788055783241 0 0.26452415848014771 -0.39006306668463969 0 0.25912291186543429 -0.38781330808035441 0 0.28623196646701782 -0.38266788055783241 0 0.26452415848014771 -0.39006306668463969 0 0.27770293297008442 -0.39318989175852292 0 0.28623196646701782 -0.38266788055783241 0 0.25912291186543429 -0.38781330808035441 0 0.28623196646701782 -0.38266788055783241 0 0.27044571771780318 -0.37742831641863628 0 0.2825265725527743 -0.36756930848497721 0 0.27044571771780318 -0.37742831641863628 0 0.25731215437089627 -0.37922718610039402 0 0.25907863555456662 -0.37057365668643882 0 0.27044571771780318 -0.37742831641863628 0 0.25912291186543429 -0.38781330808035441 0 0.25731215437089627 -0.37922718610039402 0 0.25912291186543429 -0.38781330808035441 0 0.25333028055694318 -0.38342839192807943 0 0.25731215437089627 -0.37922718610039402 0 0.25912291186543429 -0.38781330808035441 0 0.25333028055694318 -0.38342839192807943 0 0.2463482629591042 -0.38547561123023533 0 0.25333028055694318 -0.38342839192807943 0 0.25053779303233797 -0.38119746230133378 0 0.2463482629591042 -0.38547561123023533 0 0.25333028055694318 -0.38342839192807943 0 0.25053779303233797 -0.38119746230133378 0 0.25731215437089627 -0.37922718610039402 0 0.25053779303233797 -0.38119746230133378 0 0.25731215437089627 -0.37922718610039402 0 0.24960891101326549 -0.37304825598747771 0 0.26452415848014771 -0.39006306668463969 0 0.2409676605078547 -0.39597254536230952 0 0.26452415848014771 -0.39006306668463969 0 0.25355766278286868 -0.40111833226318272 0 0.2409676605078547 -0.39597254536230952 0 0.26452415848014771 -0.39006306668463969 0 0.25912291186543429 -0.38781330808035441 0 0.2409676605078547 -0.39597254536230952 0 0.26452415848014771 -0.39006306668463969 0 0.25355766278286868 -0.40111833226318272 0 0.26410650766417249 -0.39958011907541052 0 0.26410650766417249 -0.39958011907541052 0 0.27103793788860681 -0.40324267100926647 0 0.26126385781932548 -0.40778439915771941 0 0.25355766278286868 -0.40111833226318272 0 0.26410650766417249 -0.39958011907541052 0 0.26126385781932548 -0.40778439915771941 0 0.26410650766417249 -0.39958011907541052 0 0.27103793788860681 -0.40324267100926647 0 0.26934288425075281 -0.3965189371319599 0 0.26452415848014771 -0.39006306668463969 0 0.26410650766417249 -0.39958011907541052 0 0.26934288425075281 -0.3965189371319599 0 0.26452415848014771 -0.39006306668463969 0 0.26934288425075281 -0.3965189371319599 0 0.27770293297008442 -0.39318989175852292 0 0.27103793788860681 -0.40324267100926647 0 0.26934288425075281 -0.3965189371319599 0 0.27770293297008442 -0.39318989175852292 0 0.27103793788860681 -0.40324267100926647 0 0.27770293297008442 -0.39318989175852292 0 0.28273735308243098 -0.40796791400841559 0 0.27103793788860681 -0.40324267100926647 0 0.27131879300105283 -0.41488147225166588 0 0.28273735308243098 -0.40796791400841559 0 0.27131879300105283 -0.41488147225166588 0 0.28599441242276641 -0.42416184277888208 0 0.28273735308243098 -0.40796791400841559 0 0.27131879300105283 -0.41488147225166588 0 0.25827480620344628 -0.41770721158124302 0 0.26882537532399581 -0.42943100205671708 0 0.27103793788860681 -0.40324267100926647 0 0.27131879300105283 -0.41488147225166588 0 0.26126385781932548 -0.40778439915771941 0 0.27131879300105283 -0.41488147225166588 0 0.26126385781932548 -0.40778439915771941 0 0.25827480620344628 -0.41770721158124302 0 0.26126385781932548 -0.40778439915771941 0 0.25827480620344628 -0.41770721158124302 0 0.24691806038933781 -0.41081379186618688 0 0.25355766278286868 -0.40111833226318272 0 0.26126385781932548 -0.40778439915771941 0 0.24691806038933781 -0.41081379186618688 0 0.25827480620344628 -0.41770721158124302 0 0.25468545432512718 -0.43174213899265262 0 0.24310374909831109 -0.42755285647914348 0 0.25827480620344628 -0.41770721158124302 0 0.25468545432512718 -0.43174213899265262 0 0.26882537532399581 -0.42943100205671708 0 0.25468545432512718 -0.43174213899265262 0 0.26882537532399581 -0.42943100205671708 0 0.25926223805504722 -0.44316001286860401 0 0.27131879300105283 -0.41488147225166588 0 0.26882537532399581 -0.42943100205671708 0 0.28599441242276641 -0.42416184277888208 0 0.26882537532399581 -0.42943100205671708 0 0.28599441242276641 -0.42416184277888208 0 0.28230341794062108 -0.4388862556916947 0 0.26882537532399581 -0.42943100205671708 0 0.28230341794062108 -0.4388862556916947 0 0.27190600737526488 -0.44000600846760352 0 0.28599441242276641 -0.42416184277888208 0 0.30353977870730192 -0.42551683169857629 0 0.29822519045118068 -0.4390377256766419 0 0.28599441242276641 -0.42416184277888208 0 0.29822519045118068 -0.4390377256766419 0 0.28230341794062108 -0.4388862556916947 0 0.28599441242276641 -0.42416184277888208 0 0.28273735308243098 -0.40796791400841559 0 0.30152143503365109 -0.4123476149662284 0 0.28599441242276641 -0.42416184277888208 0 0.30152143503365109 -0.4123476149662284 0 0.30353977870730192 -0.42551683169857629 0 0.31973986794120413 -0.41791833692008901 0 0.30152143503365109 -0.4123476149662284 0 0.30353977870730192 -0.42551683169857629 0 0.32377359618119939 -0.43663144992634778 0 0.30353977870730192 -0.42551683169857629 0 0.29822519045118068 -0.4390377256766419 0 0.32377359618119939 -0.43663144992634778 0 0.29822519045118068 -0.4390377256766419 0 0.30798136203655452 -0.45318718007958181 0 0.29822519045118068 -0.4390377256766419 0 0.30798136203655452 -0.45318718007958181 0 0.29039677350208859 -0.45166559592062377 0 0.3156560829588127 -0.47195701219463349 0 0.29793866691549359 -0.46399396021268829 0 0.30798136203655452 -0.45318718007958181 0 0.29793866691549359 -0.46399396021268829 0 0.30798136203655452 -0.45318718007958181 0 0.29039677350208859 -0.45166559592062377 0 0.29793866691549359 -0.46399396021268829 0 0.29039677350208859 -0.45166559592062377 0 0.27830711804501979 -0.46210667524573529 0 0.29039677350208859 -0.45166559592062377 0 0.2772329981813958 -0.44854676325339837 0 0.27830711804501979 -0.46210667524573529 0 0.29039677350208859 -0.45166559592062377 0 0.28230341794062108 -0.4388862556916947 0 0.2772329981813958 -0.44854676325339837 0 0.29822519045118068 -0.4390377256766419 0 0.29039677350208859 -0.45166559592062377 0 0.28230341794062108 -0.4388862556916947 0 0.2772329981813958 -0.44854676325339837 0 0.25926223805504722 -0.44316001286860401 0 0.27830711804501979 -0.46210667524573529 0 0.2772329981813958 -0.44854676325339837 0 0.27190600737526488 -0.44000600846760352 0 0.25926223805504722 -0.44316001286860401 0 0.25926223805504722 -0.44316001286860401 0 0.27830711804501979 -0.46210667524573529 0 0.28230341794062108 -0.4388862556916947 0 0.2772329981813958 -0.44854676325339837 0 0.27190600737526488 -0.44000600846760352 0 0.26882537532399581 -0.42943100205671708 0 0.27190600737526488 -0.44000600846760352 0 0.25926223805504722 -0.44316001286860401 0 0.25468545432512718 -0.43174213899265262 0 0.25926223805504722 -0.44316001286860401 0 0.24145437529986491 -0.44665488994292968 0 0.25926223805504722 -0.44316001286860401 0 0.26540604172819637 -0.45847983401816089 0 0.24145437529986491 -0.44665488994292968 0 0.26540604172819637 -0.45847983401816089 0 0.24145437529986491 -0.44665488994292968 0 0.26540604172819637 -0.45847983401816089 0 0.24907591744480689 -0.46268372009834141 0 0.24145437529986491 -0.44665488994292968 0 0.26540604172819637 -0.45847983401816089 0 0.26030183385490768 -0.46875634867145322 0 0.24907591744480689 -0.46268372009834141 0 0.25926223805504722 -0.44316001286860401 0 0.26540604172819637 -0.45847983401816089 0 0.27830711804501979 -0.46210667524573529 0 0.26540604172819637 -0.45847983401816089 0 0.27830711804501979 -0.46210667524573529 0 0.26030183385490768 -0.46875634867145322 0 0.27830711804501979 -0.46210667524573529 0 0.26627567254529988 -0.48014516074240171 0 0.26030183385490768 -0.46875634867145322 0 0.27830711804501979 -0.46210667524573529 0 0.26627567254529988 -0.48014516074240171 0 0.28206926141825639 -0.47921519011773051 0 0.26030183385490768 -0.46875634867145322 0 0.24544425051691329 -0.47868897983452352 0 0.24907591744480689 -0.46268372009834141 0 0.26627567254529988 -0.48014516074240171 0 0.26030183385490768 -0.46875634867145322 0 0.24544425051691329 -0.47868897983452352 0 0.26627567254529988 -0.48014516074240171 0 0.25756200524151351 -0.5 0 0.24544425051691329 -0.47868897983452352 0 0.26627567254529988 -0.48014516074240171 0 0.25756200524151351 -0.5 0 0.28697944163323902 -0.5 0 0.26627567254529988 -0.48014516074240171 0 0.28697944163323902 -0.5 0 0.28206926141825639 -0.47921519011773051 0 0.28697944163323902 -0.5 0 0.28206926141825639 -0.47921519011773051 0 0.2973519980349924 -0.48105333762286678 0 0.29793866691549359 -0.46399396021268829 0 0.27830711804501979 -0.46210667524573529 0 0.2973519980349924 -0.48105333762286678 0 0.27830711804501979 -0.46210667524573529 0 0.2973519980349924 -0.48105333762286678 0 0.27830711804501979 -0.46210667524573529 0 0.28206926141825639 -0.47921519011773051 0 0.2973519980349924 -0.48105333762286678 0 0.3163968780249643 -0.49999999999999872 0 0.3156560829588127 -0.47195701219463349 0 0.2973519980349924 -0.48105333762286678 0 0.3156560829588127 -0.47195701219463349 0 0.29793866691549359 -0.46399396021268829 0 0.2973519980349924 -0.48105333762286678 0 0.3163968780249643 -0.49999999999999872 0 0.2973519980349924 -0.48105333762286678 0 0.3163968780249643 -0.49999999999999872 0 0.28697944163323902 -0.5 0 0.2973519980349924 -0.48105333762286678 0 0.33325781973905821 -0.30313885578381772 0 0.31724126268134462 -0.28872353818569729 0 0.34699427217634449 -0.28796245905974549 0 0.33325781973905821 -0.30313885578381772 0 0.35153701611679677 -0.30863867227049002 0 0.33459875860288951 -0.32017747074243252 0 0.33325781973905821 -0.30313885578381772 0 0.31591778911791568 -0.3101921386607232 0 0.33459875860288951 -0.32017747074243252 0 0.33325781973905821 -0.30313885578381772 0 0.31591778911791568 -0.3101921386607232 0 0.31724126268134462 -0.28872353818569729 0 0.31724126268134462 -0.28872353818569729 0 0.33147027793015449 -0.26530812817234217 0 0.30523782759490953 -0.27069690522472373 0 0.33147027793015449 -0.26530812817234217 0 0.30523782759490953 -0.27069690522472373 0 0.33229851240136932 -0.24330847130703009 0 0.31517562456562642 -0.25252999686536898 0 0.33147027793015449 -0.26530812817234217 0 0.31517562456562642 -0.25252999686536898 0 0.33147027793015449 -0.26530812817234217 0 0.30523782759490953 -0.27069690522472373 0 0.33229851240136932 -0.24330847130703009 0 0.33147027793015449 -0.26530812817234217 0 0.34619378628552078 -0.25016824150646771 0 0.33147027793015449 -0.26530812817234217 0 0.34902265968242541 -0.2722885139163751 0 0.34699427217634449 -0.28796245905974549 0 0.31724126268134462 -0.28872353818569729 0 0.33147027793015449 -0.26530812817234217 0 0.34699427217634449 -0.28796245905974549 0 0.36415654017792071 -0.27323412290064658 0 0.34699427217634449 -0.28796245905974549 0 0.34902265968242541 -0.2722885139163751 0 0.36415654017792071 -0.27323412290064658 0 0.34699427217634449 -0.28796245905974549 0 0.33147027793015449 -0.26530812817234217 0 0.34902265968242541 -0.2722885139163751 0 0.35770272826539939 -0.25991935111996067 0 0.34902265968242541 -0.2722885139163751 0 0.35770272826539939 -0.25991935111996067 0 0.36415654017792071 -0.27323412290064658 0 0.33147027793015449 -0.26530812817234217 0 0.35770272826539939 -0.25991935111996067 0 0.33147027793015449 -0.26530812817234217 0 0.34619378628552078 -0.25016824150646771 0 0.35770272826539939 -0.25991935111996067 0 0.35862533860017232 -0.24767319606762589 0 0.34619378628552078 -0.25016824150646771 0 0.35770272826539939 -0.25991935111996067 0 0.38131880817949693 -0.25850578674154762 0 0.37177831380586529 -0.26154745870743351 0 0.36415654017792071 -0.27323412290064658 0 0.36932567567971902 -0.24957259989972541 0 0.3839351786006443 -0.25453057406757917 0 0.35770272826539939 -0.25991935111996067 0 0.3839351786006443 -0.25453057406757917 0 0.35770272826539939 -0.25991935111996067 0 0.37177831380586529 -0.26154745870743351 0 0.3839351786006443 -0.25453057406757917 0 0.35770272826539939 -0.25991935111996067 0 0.35862533860017232 -0.24767319606762589 0 0.36932567567971902 -0.24957259989972541 0 0.35770272826539939 -0.25991935111996067 0 0.35770272826539939 -0.25991935111996067 0 0.37177831380586529 -0.26154745870743351 0 0.36415654017792071 -0.27323412290064658 0 0.38131880817949693 -0.25850578674154762 0 0.36415654017792071 -0.27323412290064658 0 0.38037126772746549 -0.26837645262629273 0 0.36415654017792071 -0.27323412290064658 0 0.37456136827741038 -0.27615873197305851 0 0.36415654017792071 -0.27323412290064658 0 0.37456136827741038 -0.27615873197305851 0 0.37107446094812852 -0.28561192865633822 0 0.36415654017792071 -0.27323412290064658 0 0.37107446094812852 -0.28561192865633822 0 0.34699427217634449 -0.28796245905974549 0 0.38393496666680271 -0.29051117178717961 0 0.37107446094812852 -0.28561192865633822 0 0.36988428857563421 -0.30274763231135299 0 0.37107446094812852 -0.28561192865633822 0 0.34699427217634449 -0.28796245905974549 0 0.36988428857563421 -0.30274763231135299 0 0.34699427217634449 -0.28796245905974549 0 0.35153701611679677 -0.30863867227049002 0 0.36988428857563421 -0.30274763231135299 0 0.33325781973905821 -0.30313885578381772 0 0.34699427217634449 -0.28796245905974549 0 0.35153701611679677 -0.30863867227049002 0 0.35153701611679677 -0.30863867227049002 0 0.36988428857563421 -0.30274763231135299 0 0.36397347512243372 -0.32560705052322758 0 0.38036238728453958 -0.31963428050617487 0 0.36988428857563421 -0.30274763231135299 0 0.36397347512243372 -0.32560705052322758 0 0.38235377169419649 -0.33906715124417508 0 0.36397347512243372 -0.32560705052322758 0 0.360291142004728 -0.34978628249559313 0 0.36397347512243372 -0.32560705052322758 0 0.34666880572779307 -0.33504909069281102 0 0.360291142004728 -0.34978628249559313 0 0.35153701611679677 -0.30863867227049002 0 0.34919451389247819 -0.3223680710572403 0 0.33459875860288951 -0.32017747074243252 0 0.36397347512243372 -0.32560705052322758 0 0.34666880572779307 -0.33504909069281102 0 0.34919451389247819 -0.3223680710572403 0 0.35153701611679677 -0.30863867227049002 0 0.36397347512243372 -0.32560705052322758 0 0.34919451389247819 -0.3223680710572403 0 0.37894980881251478 -0.36394378416698991 0 0.36210853810571908 -0.37411452357935859 0 0.360291142004728 -0.34978628249559313 0 0.37894980881251478 -0.36394378416698991 0 0.38235377169419649 -0.33906715124417508 0 0.360291142004728 -0.34978628249559313 0 0.34666880572779307 -0.33504909069281102 0 0.360291142004728 -0.34978628249559313 0 0.34044753198580069 -0.34929253764971668 0 0.360291142004728 -0.34978628249559313 0 0.34725817604390591 -0.36120952122186389 0 0.34044753198580069 -0.34929253764971668 0 0.34749594239431869 -0.38728814820544633 0 0.34725817604390591 -0.36120952122186389 0 0.34045007567018482 -0.3723770255127884 0 0.34749594239431869 -0.38728814820544633 0 0.36210853810571908 -0.37411452357935859 0 0.34725817604390591 -0.36120952122186389 0 0.36210853810571908 -0.37411452357935859 0 0.360291142004728 -0.34978628249559313 0 0.34725817604390591 -0.36120952122186389 0 0.34749594239431869 -0.38728814820544633 0 0.34725817604390591 -0.36120952122186389 0 0.34725817604390591 -0.36120952122186389 0 0.34045007567018482 -0.3723770255127884 0 0.3272278457836732 -0.35802047734470871 0 0.34725817604390591 -0.36120952122186389 0 0.34044753198580069 -0.34929253764971668 0 0.3272278457836732 -0.35802047734470871 0 0.34044753198580069 -0.34929253764971668 0 0.3272278457836732 -0.35802047734470871 0 0.32905795349171879 -0.33868145675418071 0 0.3272278457836732 -0.35802047734470871 0 0.30075941525713712 -0.36510083559999013 0 0.31247828741919931 -0.34721482628841138 0 0.3272278457836732 -0.35802047734470871 0 0.32905795349171879 -0.33868145675418071 0 0.31247828741919931 -0.34721482628841138 0 0.31334102106860129 -0.3775224530353104 0 0.34045007567018482 -0.3723770255127884 0 0.31334102106860129 -0.3775224530353104 0 0.34045007567018482 -0.3723770255127884 0 0.3272278457836732 -0.35802047734470871 0 0.31334102106860129 -0.3775224530353104 0 0.3272278457836732 -0.35802047734470871 0 0.30075941525713712 -0.36510083559999013 0 0.34666880572779307 -0.33504909069281102 0 0.34919451389247819 -0.3223680710572403 0 0.33459875860288951 -0.32017747074243252 0 0.34666880572779307 -0.33504909069281102 0 0.34044753198580069 -0.34929253764971668 0 0.32905795349171879 -0.33868145675418071 0 0.34666880572779307 -0.33504909069281102 0 0.33459875860288951 -0.32017747074243252 0 0.32905795349171879 -0.33868145675418071 0 0.32905795349171879 -0.33868145675418071 0 0.31867468786621561 -0.32795420081274479 0 0.31247828741919931 -0.34721482628841138 0 0.33459875860288951 -0.32017747074243252 0 0.32905795349171879 -0.33868145675418071 0 0.31867468786621561 -0.32795420081274479 0 0.31591778911791568 -0.3101921386607232 0 0.33459875860288951 -0.32017747074243252 0 0.31867468786621561 -0.32795420081274479 0 0.31591778911791568 -0.3101921386607232 0 0.31867468786621561 -0.32795420081274479 0 0.30132065069935438 -0.32350511161797613 0 0.30132065069935438 -0.32350511161797613 0 0.31247828741919931 -0.34721482628841138 0 0.30132065069935438 -0.32350511161797613 0 0.29432736719377323 -0.33826606360065348 0 0.31247828741919931 -0.34721482628841138 0 0.31867468786621561 -0.32795420081274479 0 0.30132065069935438 -0.32350511161797613 0 0.31247828741919931 -0.34721482628841138 0 0.30132065069935438 -0.32350511161797613 0 0.29432736719377323 -0.33826606360065348 0 0.28338323393682391 -0.32853749919002939 0 0.29432736719377323 -0.33826606360065348 0 0.28338323393682391 -0.32853749919002939 0 0.27384887401227709 -0.34314521393799358 0 0.30132065069935438 -0.32350511161797613 0 0.28338323393682391 -0.32853749919002939 0 0.28264023977957309 -0.31483453665158878 0 0.30132065069935438 -0.32350511161797613 0 0.28264023977957309 -0.31483453665158878 0 0.29016301397950939 -0.29979539694754048 0 0.30075941525713712 -0.36510083559999013 0 0.31247828741919931 -0.34721482628841138 0 0.28886567250685719 -0.35245632817166339 0 0.29432736719377323 -0.33826606360065348 0 0.31247828741919931 -0.34721482628841138 0 0.28886567250685719 -0.35245632817166339 0 0.29432736719377323 -0.33826606360065348 0 0.28886567250685719 -0.35245632817166339 0 0.27384887401227709 -0.34314521393799358 0 0.30075941525713712 -0.36510083559999013 0 0.28886567250685719 -0.35245632817166339 0 0.2825265725527743 -0.36756930848497721 0 0.28623196646701782 -0.38266788055783241 0 0.30075941525713712 -0.36510083559999013 0 0.2825265725527743 -0.36756930848497721 0 0.27044571771780318 -0.37742831641863628 0 0.2825265725527743 -0.36756930848497721 0 0.26707100834034447 -0.36127860360950392 0 0.28886567250685719 -0.35245632817166339 0 0.2825265725527743 -0.36756930848497721 0 0.26707100834034447 -0.36127860360950392 0 0.26707100834034447 -0.36127860360950392 0 0.2592892877007511 -0.35001786575472299 0 0.27384887401227709 -0.34314521393799358 0 0.28886567250685719 -0.35245632817166339 0 0.26707100834034447 -0.36127860360950392 0 0.27384887401227709 -0.34314521393799358 0 0.2592892877007511 -0.35001786575472299 0 0.25844678956711409 -0.33495588282533489 0 0.2443563967072773 -0.34964823589899202 0 0.2592892877007511 -0.35001786575472299 0 0.25272336987674271 -0.36106139250179031 0 0.2443563967072773 -0.34964823589899202 0 0.26707100834034447 -0.36127860360950392 0 0.2592892877007511 -0.35001786575472299 0 0.25272336987674271 -0.36106139250179031 0 0.27044571771780318 -0.37742831641863628 0 0.26707100834034447 -0.36127860360950392 0 0.25907863555456662 -0.37057365668643882 0 0.26707100834034447 -0.36127860360950392 0 0.25272336987674271 -0.36106139250179031 0 0.25907863555456662 -0.37057365668643882 0 0.25272336987674271 -0.36106139250179031 0 0.25907863555456662 -0.37057365668643882 0 0.24960891101326549 -0.37304825598747771 0 0.25731215437089627 -0.37922718610039402 0 0.25907863555456662 -0.37057365668643882 0 0.24960891101326549 -0.37304825598747771 0 0.28338323393682391 -0.32853749919002939 0 0.2682767885831735 -0.31895192411315643 0 0.25844678956711409 -0.33495588282533489 0 0.28264023977957309 -0.31483453665158878 0 0.2682767885831735 -0.31895192411315643 0 0.27275388623918029 -0.30519214274339618 0 0.28338323393682391 -0.32853749919002939 0 0.28264023977957309 -0.31483453665158878 0 0.2682767885831735 -0.31895192411315643 0 0.28338323393682391 -0.32853749919002939 0 0.27384887401227709 -0.34314521393799358 0 0.25844678956711409 -0.33495588282533489 0 0.28338323393682391 -0.32853749919002939 0 0.25844678956711409 -0.33495588282533489 0 0.2592892877007511 -0.35001786575472299 0 0.27384887401227709 -0.34314521393799358 0 0.25844678956711409 -0.33495588282533489 0 0.25844678956711409 -0.33495588282533489 0 0.25550836250982017 -0.32191830187350451 0 0.24608926577217349 -0.32945205516060111 0 0.2682767885831735 -0.31895192411315643 0 0.25844678956711409 -0.33495588282533489 0 0.25550836250982017 -0.32191830187350451 0 0.2682767885831735 -0.31895192411315643 0 0.25550836250982017 -0.32191830187350451 0 0.26030081100204638 -0.31103890573599829 0 0.25550836250982017 -0.32191830187350451 0 0.26030081100204638 -0.31103890573599829 0 0.24720052447001711 -0.31490397510957041 0 0.26046086774821692 -0.29603757619451843 0 0.24720052447001711 -0.31490397510957041 0 0.26030081100204638 -0.31103890573599829 0 0.26046086774821692 -0.29603757619451843 0 0.24720052447001711 -0.31490397510957041 0 0.26046086774821692 -0.29603757619451843 0 0.24567260280009509 -0.30174221654075112 0 0.24720052447001711 -0.31490397510957041 0 0.26046086774821692 -0.29603757619451843 0 0.24927218691364481 -0.2930126492289663 0 0.24567260280009509 -0.30174221654075112 0 0.26030081100204638 -0.31103890573599829 0 0.26046086774821692 -0.29603757619451843 0 0.27275388623918029 -0.30519214274339618 0 0.2517366973915004 -0.28168732583096218 0 0.26046086774821692 -0.29603757619451843 0 0.27372121102641811 -0.2771711772794675 0 0.2517366973915004 -0.28168732583096218 0 0.26046086774821692 -0.29603757619451843 0 0.24927218691364481 -0.2930126492289663 0 0.26046086774821692 -0.29603757619451843 0 0.27372121102641811 -0.2771711772794675 0 0.26046086774821692 -0.29603757619451843 0 0.27468159634256278 -0.2904945168175751 0 0.27372121102641811 -0.2771711772794675 0 0.27468159634256278 -0.2904945168175751 0 0.27900537725966451 -0.27608568227710523 0 0.27372121102641811 -0.2771711772794675 0 0.27468159634256278 -0.2904945168175751 0 0.27275388623918029 -0.30519214274339618 0 0.29016301397950939 -0.29979539694754048 0 0.2682767885831735 -0.31895192411315643 0 0.26030081100204638 -0.31103890573599829 0 0.27275388623918029 -0.30519214274339618 0 0.26046086774821692 -0.29603757619451843 0 0.27468159634256278 -0.2904945168175751 0 0.27275388623918029 -0.30519214274339618 0 0.28264023977957309 -0.31483453665158878 0 0.27275388623918029 -0.30519214274339618 0 0.29016301397950939 -0.29979539694754048 0 0.30132065069935438 -0.32350511161797613 0 0.29016301397950939 -0.29979539694754048 0 0.29016301397950939 -0.29979539694754048 0 0.29554159304977412 -0.28357005041644778 0 0.27900537725966451 -0.27608568227710523 0 0.27468159634256278 -0.2904945168175751 0 0.29016301397950939 -0.29979539694754048 0 0.27900537725966451 -0.27608568227710523 0 0.29016301397950939 -0.29979539694754048 0 0.27900537725966451 -0.27608568227710523 0 0.31724126268134462 -0.28872353818569729 0 0.29016301397950939 -0.29979539694754048 0 0.29554159304977412 -0.28357005041644778 0 0.31591778911791568 -0.3101921386607232 0 0.30132065069935438 -0.32350511161797613 0 0.29016301397950939 -0.29979539694754048 0 0.31591778911791568 -0.3101921386607232 0 0.31724126268134462 -0.28872353818569729 0 0.29016301397950939 -0.29979539694754048 0 0.29543453125965979 -0.2462781488942887 0 0.31517562456562642 -0.25252999686536898 0 0.30523782759490953 -0.27069690522472373 0 0.31724126268134462 -0.28872353818569729 0 0.29554159304977412 -0.28357005041644778 0 0.30523782759490953 -0.27069690522472373 0 0.29554159304977412 -0.28357005041644778 0 0.30523782759490953 -0.27069690522472373 0 0.27900537725966451 -0.27608568227710523 0 0.30523782759490953 -0.27069690522472373 0 0.28631337127484091 -0.259255448141474 0 0.27900537725966451 -0.27608568227710523 0 0.30523782759490953 -0.27069690522472373 0 0.27900537725966451 -0.27608568227710523 0 0.28631337127484091 -0.259255448141474 0 0.27719221129002042 -0.27223274738865821 0 0.29543453125965979 -0.2462781488942887 0 0.30523782759490953 -0.27069690522472373 0 0.28631337127484091 -0.259255448141474 0 0.29543453125965979 -0.2462781488942887 0 0.28631337127484091 -0.259255448141474 0 0.26529602709867611 -0.2469536367735983 0 0.27719221129002042 -0.27223274738865821 0 0.26089178676962549 -0.26446493204104549 0 0.26529602709867611 -0.2469536367735983 0 0.27719221129002042 -0.27223274738865821 0 0.26529602709867611 -0.2469536367735983 0 0.28631337127484091 -0.259255448141474 0 0.27719221129002042 -0.27223274738865821 0 0.27372121102641811 -0.2771711772794675 0 0.27719221129002042 -0.27223274738865821 0 0.26089178676962549 -0.26446493204104549 0 0.28631337127484091 -0.259255448141474 0 0.27900537725966451 -0.27608568227710523 0 0.27719221129002042 -0.27223274738865821 0 0.27900537725966451 -0.27608568227710523 0 0.27719221129002042 -0.27223274738865821 0 0.27372121102641811 -0.2771711772794675 0 0.27719221129002042 -0.27223274738865821 0 0.27900537725966451 -0.27608568227710523 0 0.27372121102641811 -0.2771711772794675 0 0.27719221129002042 -0.27223274738865821 0 0.27900537725966451 -0.27608568227710523 0 0.27372121102641811 -0.2771711772794675 0 0.2517366973915004 -0.28168732583096218 0 0.27372121102641811 -0.2771711772794675 0 0.2517366973915004 -0.28168732583096218 0 0.27372121102641811 -0.2771711772794675 0 0.26089178676962549 -0.26446493204104549 0 0.2517366973915004 -0.28168732583096218 0 0.26089178676962549 -0.26446493204104549 0 0.23748925367677701 -0.27098650814607722 0 0.26529602709867611 -0.2469536367735983 0 0.26089178676962549 -0.26446493204104549 0 0.24538975261109239 -0.25339754837374329 0 0.24538975261109239 -0.25339754837374329 0 0.23748925367677701 -0.27098650814607722 0 0.23297252655948031 -0.25651326169165478 0 0.26089178676962549 -0.26446493204104549 0 0.24538975261109239 -0.25339754837374329 0 0.23748925367677701 -0.27098650814607722 0 0.24538975261109239 -0.25339754837374329 0 0.23297252655948031 -0.25651326169165478 0 0.23057147674338649 -0.24153169701834079 0 0.23748925367677701 -0.27098650814607722 0 0.21843962320666521 -0.26013729322845769 0 0.2201751255539125 -0.28152057911658901 0 0.23748925367677701 -0.27098650814607722 0 0.23297252655948031 -0.25651326169165478 0 0.21843962320666521 -0.26013729322845769 0 0.23297252655948031 -0.25651326169165478 0 0.21843962320666521 -0.26013729322845769 0 0.23057147674338649 -0.24153169701834079 0 0.21843962320666521 -0.26013729322845769 0 0.2008615692423722 -0.26265165692983539 0 0.20081795707652339 -0.2470243834015575 0 0.21843962320666521 -0.26013729322845769 0 0.21573888824894441 -0.24358485532315791 0 0.20081795707652339 -0.2470243834015575 0 0.21843962320666521 -0.26013729322845769 0 0.20619194964251669 -0.27627276449830168 0 0.2008615692423722 -0.26265165692983539 0 0.21843962320666521 -0.26013729322845769 0 0.20619194964251669 -0.27627276449830168 0 0.2201751255539125 -0.28152057911658901 0 0.20619194964251669 -0.27627276449830168 0 0.1893015851808551 -0.27240396025962349 0 0.2008615692423722 -0.26265165692983539 0 0.20619194964251669 -0.27627276449830168 0 0.1893015851808551 -0.27240396025962349 0 0.19617370867458769 -0.2929156394662914 0 0.19030180467147739 -0.25765733574570948 0 0.2008615692423722 -0.26265165692983539 0 0.20081795707652339 -0.2470243834015575 0 0.1893015851808551 -0.27240396025962349 0 0.19030180467147739 -0.25765733574570948 0 0.2008615692423722 -0.26265165692983539 0 0.19030180467147739 -0.25765733574570948 0 0.20081795707652339 -0.2470243834015575 0 0.18524691204393889 -0.24695115827232009 0 0.19617370867458769 -0.2929156394662914 0 0.21390429152596721 -0.30019599313096079 0 0.19722164722039179 -0.31718001071224677 0 0.19617370867458769 -0.2929156394662914 0 0.19722164722039179 -0.31718001071224677 0 0.1859257595435202 -0.30672817791205731 0 0.1893015851808551 -0.27240396025962349 0 0.19617370867458769 -0.2929156394662914 0 0.17819055527723471 -0.28453395690525418 0 0.20619194964251669 -0.27627276449830168 0 0.19617370867458769 -0.2929156394662914 0 0.20891933590582329 -0.28865206031610952 0 0.20891933590582329 -0.28865206031610952 0 0.21390429152596721 -0.30019599313096079 0 0.2201751255539125 -0.28152057911658901 0 0.19617370867458769 -0.2929156394662914 0 0.20891933590582329 -0.28865206031610952 0 0.21390429152596721 -0.30019599313096079 0 0.20619194964251669 -0.27627276449830168 0 0.20891933590582329 -0.28865206031610952 0 0.2201751255539125 -0.28152057911658901 0 0.21390429152596721 -0.30019599313096079 0 0.21413586095835191 -0.31542219005614019 0 0.19722164722039179 -0.31718001071224677 0 0.21390429152596721 -0.30019599313096079 0 0.22402887258509979 -0.30861762449138758 0 0.21413586095835191 -0.31542219005614019 0 0.21390429152596721 -0.30019599313096079 0 0.22402887258509979 -0.30861762449138758 0 0.23630622951512451 -0.2919144634389258 0 0.22402887258509979 -0.30861762449138758 0 0.23630622951512451 -0.2919144634389258 0 0.23512320535347209 -0.31284241873177449 0 0.21390429152596721 -0.30019599313096079 0 0.2201751255539125 -0.28152057911658901 0 0.23630622951512451 -0.2919144634389258 0 0.23748925367677701 -0.27098650814607722 0 0.2201751255539125 -0.28152057911658901 0 0.23630622951512451 -0.2919144634389258 0 0.23748925367677701 -0.27098650814607722 0 0.23630622951512451 -0.2919144634389258 0 0.2517366973915004 -0.28168732583096218 0 0.23748925367677701 -0.27098650814607722 0 0.23630622951512451 -0.2919144634389258 0 0.23630622951512451 -0.2919144634389258 0 0.24927218691364481 -0.2930126492289663 0 0.24567260280009509 -0.30174221654075112 0 0.2517366973915004 -0.28168732583096218 0 0.23630622951512451 -0.2919144634389258 0 0.24927218691364481 -0.2930126492289663 0 0.23630622951512451 -0.2919144634389258 0 0.24567260280009509 -0.30174221654075112 0 0.23512320535347209 -0.31284241873177449 0 0.23630622951512451 -0.2919144634389258 0 0.23512320535347209 -0.31284241873177449 0 0.24567260280009509 -0.30174221654075112 0 0.24720052447001711 -0.31490397510957041 0 0.23512320535347209 -0.31284241873177449 0 0.24720052447001711 -0.31490397510957041 0 0.24608926577217349 -0.32945205516060111 0 0.23394018119181839 -0.33377037402462312 0 0.23512320535347209 -0.31284241873177449 0 0.23394018119181839 -0.33377037402462312 0 0.24720052447001711 -0.31490397510957041 0 0.23512320535347209 -0.31284241873177449 0 0.23394018119181839 -0.33377037402462312 0 0.24720052447001711 -0.31490397510957041 0 0.23394018119181839 -0.33377037402462312 0 0.25550836250982017 -0.32191830187350451 0 0.24720052447001711 -0.31490397510957041 0 0.24608926577217349 -0.32945205516060111 0 0.25844678956711409 -0.33495588282533489 0 0.23351034519740371 -0.34137426646063762 0 0.2443563967072773 -0.34964823589899202 0 0.25844678956711409 -0.33495588282533489 0 0.24608926577217349 -0.32945205516060111 0 0.23351034519740371 -0.34137426646063762 0 0.25844678956711409 -0.33495588282533489 0 0.23351034519740371 -0.34137426646063762 0 0.24608926577217349 -0.32945205516060111 0 0.23394018119181839 -0.33377037402462312 0 0.23351034519740371 -0.34137426646063762 0 0.23394018119181839 -0.33377037402462312 0 0.22322569222248509 -0.33294161163677838 0 0.2244248251438003 -0.32259675767668672 0 0.23394018119181839 -0.33377037402462312 0 0.22751029169206419 -0.34291861836015902 0 0.23394018119181839 -0.33377037402462312 0 0.23351034519740371 -0.34137426646063762 0 0.22751029169206419 -0.34291861836015902 0 0.23394018119181839 -0.33377037402462312 0 0.22751029169206419 -0.34291861836015902 0 0.22322569222248509 -0.33294161163677838 0 0.23351034519740371 -0.34137426646063762 0 0.22751029169206419 -0.34291861836015902 0 0.23394018119181839 -0.33377037402462312 0 0.23351034519740371 -0.34137426646063762 0 0.22751029169206419 -0.34291861836015902 0 0.22322569222248509 -0.33294161163677838 0 0.21517733155299629 -0.33774790165282292 0 0.23512320535347209 -0.31284241873177449 0 0.23394018119181839 -0.33377037402462312 0 0.2244248251438003 -0.32259675767668672 0 0.22322569222248509 -0.33294161163677838 0 0.2244248251438003 -0.32259675767668672 0 0.21109966831650009 -0.32852056426941922 0 0.22402887258509979 -0.30861762449138758 0 0.2244248251438003 -0.32259675767668672 0 0.21413586095835191 -0.31542219005614019 0 0.22402887258509979 -0.30861762449138758 0 0.23512320535347209 -0.31284241873177449 0 0.2244248251438003 -0.32259675767668672 0 0.24084147541437509 -0.37272604943185061 0 0.2315893870513929 -0.36832351177343953 0 0.23493393310767319 -0.37802288172494908 0 0.24084147541437509 -0.37272604943185061 0 0.24176299820945121 -0.36390328819898471 0 0.2315893870513929 -0.36832351177343953 0 0.24084147541437509 -0.37272604943185061 0 0.24960891101326549 -0.37304825598747771 0 0.24176299820945121 -0.36390328819898471 0 0.25272336987674271 -0.36106139250179031 0 0.24960891101326549 -0.37304825598747771 0 0.24176299820945121 -0.36390328819898471 0 0.24176299820945121 -0.36390328819898471 0 0.2327625126591262 -0.3546035870737787 0 0.2315893870513929 -0.36832351177343953 0 0.24176299820945121 -0.36390328819898471 0 0.2443563967072773 -0.34964823589899202 0 0.2327625126591262 -0.3546035870737787 0 0.25272336987674271 -0.36106139250179031 0 0.24176299820945121 -0.36390328819898471 0 0.2443563967072773 -0.34964823589899202 0 0.23351034519740371 -0.34137426646063762 0 0.2443563967072773 -0.34964823589899202 0 0.2327625126591262 -0.3546035870737787 0 0.22751029169206419 -0.34291861836015902 0 0.2327625126591262 -0.3546035870737787 0 0.21185028289860769 -0.36519918581698119 0 0.22751029169206419 -0.34291861836015902 0 0.21185028289860769 -0.36519918581698119 0 0.23351034519740371 -0.34137426646063762 0 0.22751029169206419 -0.34291861836015902 0 0.2327625126591262 -0.3546035870737787 0 0.23351034519740371 -0.34137426646063762 0 0.2327625126591262 -0.3546035870737787 0 0.2327625126591262 -0.3546035870737787 0 0.2315893870513929 -0.36832351177343953 0 0.21185028289860769 -0.36519918581698119 0 0.2315893870513929 -0.36832351177343953 0 0.21185028289860769 -0.36519918581698119 0 0.22451020066987029 -0.37794953811245879 0 0.2315893870513929 -0.36832351177343953 0 0.23493393310767319 -0.37802288172494908 0 0.22451020066987029 -0.37794953811245879 0 0.21185028289860769 -0.36519918581698119 0 0.2025916715712355 -0.34933241421760719 0 0.19539058522362751 -0.36760770656516117 0 0.22751029169206419 -0.34291861836015902 0 0.2025916715712355 -0.34933241421760719 0 0.22751029169206419 -0.34291861836015902 0 0.20689833363243579 -0.34712380874539889 0 0.2025916715712355 -0.34933241421760719 0 0.22751029169206419 -0.34291861836015902 0 0.21185028289860769 -0.36519918581698119 0 0.2025916715712355 -0.34933241421760719 0 0.20689833363243579 -0.34712380874539889 0 0.2025916715712355 -0.34933241421760719 0 0.20664760931690579 -0.33935379337534372 0 0.20689833363243579 -0.34712380874539889 0 0.2025916715712355 -0.34933241421760719 0 0.2025916715712355 -0.34933241421760719 0 0.19539058522362751 -0.36760770656516117 0 0.18476069813808749 -0.35847675499466441 0 0.2025916715712355 -0.34933241421760719 0 0.18476069813808749 -0.35847675499466441 0 0.17989480597744589 -0.35517435337060338 0 0.2025916715712355 -0.34933241421760719 0 0.19032784411165379 -0.34304149457359823 0 0.17989480597744589 -0.35517435337060338 0 0.2025916715712355 -0.34933241421760719 0 0.18476069813808749 -0.35847675499466441 0 0.2025916715712355 -0.34933241421760719 0 0.17989480597744589 -0.35517435337060338 0 0.21185028289860769 -0.36519918581698119 0 0.19539058522362751 -0.36760770656516117 0 0.19619027410515191 -0.38747975327380357 0 0.21413586095835191 -0.31542219005614019 0 0.21109966831650009 -0.32852056426941922 0 0.19722164722039179 -0.31718001071224677 0 0.2244248251438003 -0.32259675767668672 0 0.21413586095835191 -0.31542219005614019 0 0.21109966831650009 -0.32852056426941922 0 0.21109966831650009 -0.32852056426941922 0 0.21517733155299629 -0.33774790165282292 0 0.20664760931690579 -0.33935379337534372 0 0.22751029169206419 -0.34291861836015902 0 0.20689833363243579 -0.34712380874539889 0 0.21517733155299629 -0.33774790165282292 0 0.22322569222248509 -0.33294161163677838 0 0.21109966831650009 -0.32852056426941922 0 0.21517733155299629 -0.33774790165282292 0 0.20689833363243579 -0.34712380874539889 0 0.21517733155299629 -0.33774790165282292 0 0.20664760931690579 -0.33935379337534372 0 0.21109966831650009 -0.32852056426941922 0 0.20664760931690579 -0.33935379337534372 0 0.19747104151136141 -0.33404427799147002 0 0.19747104151136141 -0.33404427799147002 0 0.19032784411165379 -0.34304149457359823 0 0.1813538573865722 -0.3336149327147121 0 0.19747104151136141 -0.33404427799147002 0 0.19722164722039179 -0.31718001071224677 0 0.1813538573865722 -0.3336149327147121 0 0.2025916715712355 -0.34933241421760719 0 0.19747104151136141 -0.33404427799147002 0 0.19032784411165379 -0.34304149457359823 0 0.2025916715712355 -0.34933241421760719 0 0.20664760931690579 -0.33935379337534372 0 0.19747104151136141 -0.33404427799147002 0 0.21109966831650009 -0.32852056426941922 0 0.19747104151136141 -0.33404427799147002 0 0.19722164722039179 -0.31718001071224677 0 0.19722164722039179 -0.31718001071224677 0 0.1813538573865722 -0.3336149327147121 0 0.19722164722039179 -0.31718001071224677 0 0.1808669892157706 -0.31785608241136248 0 0.1859257595435202 -0.30672817791205731 0 0.1808669892157706 -0.31785608241136248 0 0.17192204700090319 -0.32414381257043062 0 0.1813538573865722 -0.3336149327147121 0 0.19722164722039179 -0.31718001071224677 0 0.1808669892157706 -0.31785608241136248 0 0.1813538573865722 -0.3336149327147121 0 0.1808669892157706 -0.31785608241136248 0 0.17192204700090319 -0.32414381257043062 0 0.17171246270410889 -0.31576828317892341 0 0.1808669892157706 -0.31785608241136248 0 0.17171246270410889 -0.31576828317892341 0 0.17606942314339111 -0.30786613730526841 0 0.17192204700090319 -0.32414381257043062 0 0.1813538573865722 -0.3336149327147121 0 0.16310825901233339 -0.33272789215407289 0 0.1813538573865722 -0.3336149327147121 0 0.16548606755275369 -0.35004985471717848 0 0.16310825901233339 -0.33272789215407289 0 0.16548606755275369 -0.35004985471717848 0 0.16310825901233339 -0.33272789215407289 0 0.16548606755275369 -0.35004985471717848 0 0.15468079222517839 -0.34665765041559321 0 0.1813538573865722 -0.3336149327147121 0 0.16310825901233339 -0.33272789215407289 0 0.16548606755275369 -0.35004985471717848 0 0.16310825901233339 -0.33272789215407289 0 0.16073045047191309 -0.31540592959096753 0 0.16395270784060281 -0.31766891175266432 0 0.16310825901233339 -0.33272789215407289 0 0.16073045047191309 -0.31540592959096753 0 0.16310825901233339 -0.33272789215407289 0 0.16073045047191309 -0.31540592959096753 0 0.1456123045618769 -0.32186920420837201 0 0.16073045047191309 -0.31540592959096753 0 0.16395270784060281 -0.31766891175266432 0 0.16663445189992809 -0.30974310840610902 0 0.16073045047191309 -0.31540592959096753 0 0.16395270784060281 -0.31766891175266432 0 0.16395270784060281 -0.31766891175266432 0 0.17171246270410889 -0.31576828317892341 0 0.16663445189992809 -0.30974310840610902 0 0.17192204700090319 -0.32414381257043062 0 0.16395270784060281 -0.31766891175266432 0 0.17171246270410889 -0.31576828317892341 0 0.17192204700090319 -0.32414381257043062 0 0.16310825901233339 -0.33272789215407289 0 0.16395270784060281 -0.31766891175266432 0 0.18476069813808749 -0.35847675499466441 0 0.1669297247049393 -0.36762109577172097 0 0.18155999940504911 -0.37755042452275722 0 0.18476069813808749 -0.35847675499466441 0 0.1669297247049393 -0.36762109577172097 0 0.18476069813808749 -0.35847675499466441 0 0.17989480597744589 -0.35517435337060338 0 0.1669297247049393 -0.36762109577172097 0 0.19539058522362751 -0.36760770656516117 0 0.18476069813808749 -0.35847675499466441 0 0.18155999940504911 -0.37755042452275722 0 0.1669297247049393 -0.36762109577172097 0 0.18155999940504911 -0.37755042452275722 0 0.1813538573865722 -0.3336149327147121 0 0.17989480597744589 -0.35517435337060338 0 0.16548606755275369 -0.35004985471717848 0 0.19032784411165379 -0.34304149457359823 0 0.1813538573865722 -0.3336149327147121 0 0.17989480597744589 -0.35517435337060338 0 0.17989480597744589 -0.35517435337060338 0 0.16673002280083729 -0.35856283280457191 0 0.16548606755275369 -0.35004985471717848 0 0.1571979403836555 -0.36101629252359729 0 0.15468079222517839 -0.34665765041559321 0 0.16548606755275369 -0.35004985471717848 0 0.16673002280083729 -0.35856283280457191 0 0.1571979403836555 -0.36101629252359729 0 0.16548606755275369 -0.35004985471717848 0 0.1571979403836555 -0.36101629252359729 0 0.16548606755275369 -0.35004985471717848 0 0.16673002280083729 -0.35856283280457191 0 0.17989480597744589 -0.35517435337060338 0 0.16548606755275369 -0.35004985471717848 0 0.16673002280083729 -0.35856283280457191 0 0.1669297247049393 -0.36762109577172097 0 0.14569357060676999 -0.37851173113696651 0 0.17989480597744589 -0.35517435337060338 0 0.16673002280083729 -0.35856283280457191 0 0.1669297247049393 -0.36762109577172097 0 0.1571979403836555 -0.36101629252359729 0 0.1669297247049393 -0.36762109577172097 0 0.1571979403836555 -0.36101629252359729 0 0.1669297247049393 -0.36762109577172097 0 0.15413751820650781 -0.36180401363281828 0 0.16673002280083729 -0.35856283280457191 0 0.1571979403836555 -0.36101629252359729 0 0.16673002280083729 -0.35856283280457191 0 0.1571979403836555 -0.36101629252359729 0 0.1669297247049393 -0.36762109577172097 0 0.15413751820650781 -0.36180401363281828 0 0.13861333055310651 -0.37788305273702022 0 0.1669297247049393 -0.36762109577172097 0 0.15413751820650781 -0.36180401363281828 0 0.14569357060676999 -0.37851173113696651 0 0.15413751820650781 -0.36180401363281828 0 0.14569357060676999 -0.37851173113696651 0 0.13861333055310651 -0.37788305273702022 0 0.15413751820650781 -0.36180401363281828 0 0.13881308748001381 -0.36574836407577149 0 0.13861333055310651 -0.37788305273702022 0 0.1571979403836555 -0.36101629252359729 0 0.15413751820650781 -0.36180401363281828 0 0.15413751820650781 -0.36180401363281828 0 0.1430233925469474 -0.35139625815971781 0 0.13881308748001381 -0.36574836407577149 0 0.15413751820650781 -0.36180401363281828 0 0.13881308748001381 -0.36574836407577149 0 0.1571979403836555 -0.36101629252359729 0 0.15468079222517839 -0.34665765041559321 0 0.1430233925469474 -0.35139625815971781 0 0.1571979403836555 -0.36101629252359729 0 0.1430233925469474 -0.35139625815971781 0 0.1571979403836555 -0.36101629252359729 0 0.15413751820650781 -0.36180401363281828 0 0.1430233925469474 -0.35139625815971781 0 0.15468079222517839 -0.34665765041559321 0 0.1430233925469474 -0.35139625815971781 0 0.14478222172127159 -0.33769941531249331 0 0.1430233925469474 -0.35139625815971781 0 0.13023828094180129 -0.34271921149802609 0 0.1430233925469474 -0.35139625815971781 0 0.14478222172127159 -0.33769941531249331 0 0.13023828094180129 -0.34271921149802609 0 0.1430233925469474 -0.35139625815971781 0 0.12890313153088209 -0.35651954819948262 0 0.13023828094180129 -0.34271921149802609 0 0.1430233925469474 -0.35139625815971781 0 0.12890313153088209 -0.35651954819948262 0 0.13881308748001381 -0.36574836407577149 0 0.12890313153088209 -0.35651954819948262 0 0.13881308748001381 -0.36574836407577149 0 0.1234886567535193 -0.36969271451872321 0 0.13881308748001381 -0.36574836407577149 0 0.1234886567535193 -0.36969271451872321 0 0.13881308748001381 -0.36574836407577149 0 0.12784776094096001 -0.37837910770210859 0 0.1234886567535193 -0.36969271451872321 0 0.13881308748001381 -0.36574836407577149 0 0.13861333055310651 -0.37788305273702022 0 0.12784776094096001 -0.37837910770210859 0 0.16073045047191309 -0.31540592959096753 0 0.1456123045618769 -0.32186920420837201 0 0.14044349801956649 -0.30115846073233749 0 0.16310825901233339 -0.33272789215407289 0 0.15468079222517839 -0.34665765041559321 0 0.14478222172127159 -0.33769941531249331 0 0.1456123045618769 -0.32186920420837201 0 0.14478222172127159 -0.33769941531249331 0 0.13148999696754199 -0.32979631984983832 0 0.16310825901233339 -0.33272789215407289 0 0.1456123045618769 -0.32186920420837201 0 0.14478222172127159 -0.33769941531249331 0 0.14478222172127159 -0.33769941531249331 0 0.13023828094180129 -0.34271921149802609 0 0.13148999696754199 -0.32979631984983832 0 0.13023828094180129 -0.34271921149802609 0 0.13148999696754199 -0.32979631984983832 0 0.11890109950640949 -0.33858894971983883 0 0.13148999696754199 -0.32979631984983832 0 0.12999496979063391 -0.31198548501294687 0 0.1181143755105791 -0.32344375993293811 0 0.1456123045618769 -0.32186920420837201 0 0.13148999696754199 -0.32979631984983832 0 0.12999496979063391 -0.31198548501294687 0 0.12999496979063391 -0.31198548501294687 0 0.14044349801956649 -0.30115846073233749 0 0.1201565455672189 -0.28691099187370889 0 0.1456123045618769 -0.32186920420837201 0 0.12999496979063391 -0.31198548501294687 0 0.14044349801956649 -0.30115846073233749 0 0.16073045047191309 -0.31540592959096753 0 0.14044349801956649 -0.30115846073233749 0 0.14796493354563739 -0.29474183904708889 0 0.16073045047191309 -0.31540592959096753 0 0.14796493354563739 -0.29474183904708889 0 0.15784517847301291 -0.29438717526331593 0 0.16073045047191309 -0.31540592959096753 0 0.14044349801956649 -0.30115846073233749 0 0.15164533610475359 -0.28670757745419789 0 0.15495990647411401 -0.27336842093566421 0 0.15784517847301291 -0.29438717526331593 0 0.15164533610475359 -0.28670757745419789 0 0.14796493354563739 -0.29474183904708889 0 0.15784517847301291 -0.29438717526331593 0 0.14044349801956649 -0.30115846073233749 0 0.14796493354563739 -0.29474183904708889 0 0.1424119839559094 -0.28679171947784349 0 0.15164533610475359 -0.28670757745419789 0 0.14796493354563739 -0.29474183904708889 0 0.1424119839559094 -0.28679171947784349 0 0.15164533610475359 -0.28670757745419789 0 0.1424119839559094 -0.28679171947784349 0 0.14683753152965981 -0.2800802217240842 0 0.14044349801956649 -0.30115846073233749 0 0.1201565455672189 -0.28691099187370889 0 0.14044349801956649 -0.30115846073233749 0 0.1424119839559094 -0.28679171947784349 0 0.1201565455672189 -0.28691099187370889 0 0.1424119839559094 -0.28679171947784349 0 0.13621038122654491 -0.2752641495567244 0 0.1201565455672189 -0.28691099187370889 0 0.13621038122654491 -0.2752641495567244 0 0.1312342236087051 -0.26196495271219977 0 0.11656805216610119 -0.26681494388427018 0 0.1312342236087051 -0.26196495271219977 0 0.14664725338266091 -0.2472495350296324 0 0.1284525449190799 -0.24687969302089219 0 0.1312342236087051 -0.26196495271219977 0 0.15265348839456511 -0.25656652669159219 0 0.15495990647411401 -0.27336842093566421 0 0.1312342236087051 -0.26196495271219977 0 0.15265348839456511 -0.25656652669159219 0 0.14664725338266091 -0.2472495350296324 0 0.15265348839456511 -0.25656652669159219 0 0.15495990647411401 -0.27336842093566421 0 0.15265348839456511 -0.25656652669159219 0 0.15727187409670301 -0.25178947245951722 0 0.14664725338266091 -0.2472495350296324 0 0.13621038122654491 -0.2752641495567244 0 0.14683753152965981 -0.2800802217240842 0 0.15495990647411401 -0.27336842093566421 0 0.1312342236087051 -0.26196495271219977 0 0.15495990647411401 -0.27336842093566421 0 0.13621038122654491 -0.2752641495567244 0 0.1312342236087051 -0.26196495271219977 0 0.15495990647411401 -0.27336842093566421 0 0.1424119839559094 -0.28679171947784349 0 0.13621038122654491 -0.2752641495567244 0 0.14683753152965981 -0.2800802217240842 0 0.15164533610475359 -0.28670757745419789 0 0.14683753152965981 -0.2800802217240842 0 0.15495990647411401 -0.27336842093566421 0 0.16124613160460891 -0.2763898205273132 0 0.17819055527723471 -0.28453395690525418 0 0.15265348839456511 -0.25656652669159219 0 0.15495990647411401 -0.27336842093566421 0 0.16124613160460891 -0.2763898205273132 0 0.16124613160460891 -0.2763898205273132 0 0.17463643589254671 -0.27189845747142588 0 0.17819055527723471 -0.28453395690525418 0 0.15495990647411401 -0.27336842093566421 0 0.16124613160460891 -0.2763898205273132 0 0.16124613160460891 -0.2763898205273132 0 0.16823116289962631 -0.26257166986560332 0 0.17463643589254671 -0.27189845747142588 0 0.16124613160460891 -0.2763898205273132 0 0.15727187409670301 -0.25178947245951722 0 0.15265348839456511 -0.25656652669159219 0 0.16124613160460891 -0.2763898205273132 0 0.15727187409670301 -0.25178947245951722 0 0.16124613160460891 -0.2763898205273132 0 0.15727187409670301 -0.25178947245951722 0 0.16823116289962631 -0.26257166986560332 0 0.15727187409670301 -0.25178947245951722 0 0.16823116289962631 -0.26257166986560332 0 0.17069787027827901 -0.25057456271484019 0 0.17069787027827901 -0.25057456271484019 0 0.17880751329079739 -0.26091462339095128 0 0.18524691204393889 -0.24695115827232009 0 0.16823116289962631 -0.26257166986560332 0 0.17880751329079739 -0.26091462339095128 0 0.17463643589254671 -0.27189845747142588 0 0.16823116289962631 -0.26257166986560332 0 0.17069787027827901 -0.25057456271484019 0 0.17880751329079739 -0.26091462339095128 0 0.1893015851808551 -0.27240396025962349 0 0.19030180467147739 -0.25765733574570948 0 0.17880751329079739 -0.26091462339095128 0 0.19030180467147739 -0.25765733574570948 0 0.17880751329079739 -0.26091462339095128 0 0.18524691204393889 -0.24695115827232009 0 0.1893015851808551 -0.27240396025962349 0 0.17880751329079739 -0.26091462339095128 0 0.17463643589254671 -0.27189845747142588 0 0.1893015851808551 -0.27240396025962349 0 0.17463643589254671 -0.27189845747142588 0 0.17819055527723471 -0.28453395690525418 0 0.19617370867458769 -0.2929156394662914 0 0.17819055527723471 -0.28453395690525418 0 0.17929702946345971 -0.29782301966511732 0 0.17819055527723471 -0.28453395690525418 0 0.17282312179642551 -0.29173576785142602 0 0.17929702946345971 -0.29782301966511732 0 0.17282312179642551 -0.29173576785142602 0 0.17929702946345971 -0.29782301966511732 0 0.17175286361109449 -0.30004689953892633 0 0.1859257595435202 -0.30672817791205731 0 0.17606942314339111 -0.30786613730526841 0 0.17929702946345971 -0.29782301966511732 0 0.19617370867458769 -0.2929156394662914 0 0.1859257595435202 -0.30672817791205731 0 0.17929702946345971 -0.29782301966511732 0 0.1808669892157706 -0.31785608241136248 0 0.1859257595435202 -0.30672817791205731 0 0.17606942314339111 -0.30786613730526841 0 0.17606942314339111 -0.30786613730526841 0 0.17929702946345971 -0.29782301966511732 0 0.17175286361109449 -0.30004689953892633 0 0.16663445189992809 -0.30974310840610902 0 0.16394029175226829 -0.29306646446671109 0 0.17175286361109449 -0.30004689953892633 0 0.16663445189992809 -0.30974310840610902 0 0.16394029175226829 -0.29306646446671109 0 0.16663445189992809 -0.30974310840610902 0 0.15784517847301291 -0.29438717526331593 0 0.16394029175226829 -0.29306646446671109 0 0.16073045047191309 -0.31540592959096753 0 0.15784517847301291 -0.29438717526331593 0 0.16073045047191309 -0.31540592959096753 0 0.16663445189992809 -0.30974310840610902 0 0.15784517847301291 -0.29438717526331593 0 0.17606942314339111 -0.30786613730526841 0 0.17175286361109449 -0.30004689953892633 0 0.16663445189992809 -0.30974310840610902 0 0.17171246270410889 -0.31576828317892341 0 0.17606942314339111 -0.30786613730526841 0 0.16663445189992809 -0.30974310840610902 0 0.15495990647411401 -0.27336842093566421 0 0.16124613160460891 -0.2763898205273132 0 0.15784517847301291 -0.29438717526331593 0 0.16124613160460891 -0.2763898205273132 0 0.16394029175226829 -0.29306646446671109 0 0.15495990647411401 -0.27336842093566421 0 0.15784517847301291 -0.29438717526331593 0 0.16124613160460891 -0.2763898205273132 0 0.17282312179642551 -0.29173576785142602 0 0.16394029175226829 -0.29306646446671109 0 0.16124613160460891 -0.2763898205273132 0 0.15784517847301291 -0.29438717526331593 0 0.16394029175226829 -0.29306646446671109 0 0.16124613160460891 -0.2763898205273132 0 0.17819055527723471 -0.28453395690525418 0 0.17282312179642551 -0.29173576785142602 0 0.17282312179642551 -0.29173576785142602 0 0.17175286361109449 -0.30004689953892633 0 0.16394029175226829 -0.29306646446671109 0 0.19872713245806231 -0.5 0 0.20136244430715061 -0.47674087217982669 0 0.1835240988037467 -0.48269088990170439 0 0.20136244430715061 -0.47674087217982669 0 0.1895746234679149 -0.46168019452929698 0 0.1835240988037467 -0.48269088990170439 0 0.20136244430715061 -0.47674087217982669 0 0.22176039009225229 -0.4796933445084326 0 0.21177512765845161 -0.45880742668254082 0 0.19872713245806231 -0.5 0 0.22814456884978779 -0.5 0 0.22176039009225229 -0.4796933445084326 0 0.19872713245806231 -0.5 0 0.20136244430715061 -0.47674087217982669 0 0.22176039009225229 -0.4796933445084326 0 0.22814456884978779 -0.5 0 0.24544425051691329 -0.47868897983452352 0 0.22176039009225229 -0.4796933445084326 0 0.25756200524151351 -0.5 0 0.22814456884978779 -0.5 0 0.24544425051691329 -0.47868897983452352 0 0.24544425051691329 -0.47868897983452352 0 0.22176039009225229 -0.4796933445084326 0 0.23116879498063711 -0.46022638448907771 0 0.22176039009225229 -0.4796933445084326 0 0.23116879498063711 -0.46022638448907771 0 0.21177512765845161 -0.45880742668254082 0 0.23116879498063711 -0.46022638448907771 0 0.24907591744480689 -0.46268372009834141 0 0.24145437529986491 -0.44665488994292968 0 0.24544425051691329 -0.47868897983452352 0 0.23116879498063711 -0.46022638448907771 0 0.24907591744480689 -0.46268372009834141 0 0.24145437529986491 -0.44665488994292968 0 0.2175027088715335 -0.43482994586769841 0 0.23116879498063711 -0.46022638448907771 0 0.24145437529986491 -0.44665488994292968 0 0.2175027088715335 -0.43482994586769841 0 0.23116879498063711 -0.46022638448907771 0 0.21177512765845161 -0.45880742668254082 0 0.2175027088715335 -0.43482994586769841 0 0.21177512765845161 -0.45880742668254082 0 0.1992127376522293 -0.44329664280798559 0 0.2175027088715335 -0.43482994586769841 0 0.21177512765845161 -0.45880742668254082 0 0.1895746234679149 -0.46168019452929698 0 0.1992127376522293 -0.44329664280798559 0 0.20136244430715061 -0.47674087217982669 0 0.21177512765845161 -0.45880742668254082 0 0.1895746234679149 -0.46168019452929698 0 0.1895746234679149 -0.46168019452929698 0 0.1992127376522293 -0.44329664280798559 0 0.1836601858200442 -0.43816064516792491 0 0.1992127376522293 -0.44329664280798559 0 0.1935510424432022 -0.42300500179246731 0 0.1836601858200442 -0.43816064516792491 0 0.1935510424432022 -0.42300500179246731 0 0.1983441127883124 -0.41382083631464389 0 0.18587726495991491 -0.40979274555581291 0 0.1983441127883124 -0.41382083631464389 0 0.2016442137477383 -0.40583738479789611 0 0.18587726495991491 -0.40979274555581291 0 0.2016442137477383 -0.40583738479789611 0 0.18587726495991491 -0.40979274555581291 0 0.1935510424432022 -0.42300500179246731 0 0.1983441127883124 -0.41382083631464389 0 0.2123039300023942 -0.41664821311239958 0 0.2123039300023942 -0.41664821311239958 0 0.21741116253556159 -0.40188202403997858 0 0.2016442137477383 -0.40583738479789611 0 0.1983441127883124 -0.41382083631464389 0 0.2123039300023942 -0.41664821311239958 0 0.2016442137477383 -0.40583738479789611 0 0.1935510424432022 -0.42300500179246731 0 0.2123039300023942 -0.41664821311239958 0 0.2175027088715335 -0.43482994586769841 0 0.1992127376522293 -0.44329664280798559 0 0.1935510424432022 -0.42300500179246731 0 0.2175027088715335 -0.43482994586769841 0 0.1935510424432022 -0.42300500179246731 0 0.2175027088715335 -0.43482994586769841 0 0.2123039300023942 -0.41664821311239958 0 0.2175027088715335 -0.43482994586769841 0 0.22879229496461731 -0.42587588550933109 0 0.24145437529986491 -0.44665488994292968 0 0.2175027088715335 -0.43482994586769841 0 0.22879229496461731 -0.42587588550933109 0 0.24145437529986491 -0.44665488994292968 0 0.22879229496461731 -0.42587588550933109 0 0.24310374909831109 -0.42755285647914348 0 0.25468545432512718 -0.43174213899265262 0 0.24145437529986491 -0.44665488994292968 0 0.24310374909831109 -0.42755285647914348 0 0.22879229496461731 -0.42587588550933109 0 0.24310374909831109 -0.42755285647914348 0 0.23210045210469929 -0.41185140521981822 0 0.25827480620344628 -0.41770721158124302 0 0.24310374909831109 -0.42755285647914348 0 0.24691806038933781 -0.41081379186618688 0 0.24310374909831109 -0.42755285647914348 0 0.24691806038933781 -0.41081379186618688 0 0.23210045210469929 -0.41185140521981822 0 0.24691806038933781 -0.41081379186618688 0 0.23210045210469929 -0.41185140521981822 0 0.23656834394945631 -0.40470403754368001 0 0.2123039300023942 -0.41664821311239958 0 0.22879229496461731 -0.42587588550933109 0 0.23210045210469929 -0.41185140521981822 0 0.2123039300023942 -0.41664821311239958 0 0.23210045210469929 -0.41185140521981822 0 0.21741116253556159 -0.40188202403997858 0 0.23210045210469929 -0.41185140521981822 0 0.21741116253556159 -0.40188202403997858 0 0.2409676605078547 -0.39597254536230952 0 0.21741116253556159 -0.40188202403997858 0 0.23210045210469929 -0.41185140521981822 0 0.23656834394945631 -0.40470403754368001 0 0.21741116253556159 -0.40188202403997858 0 0.23201385726385079 -0.39295873560287642 0 0.2409676605078547 -0.39597254536230952 0 0.21741116253556159 -0.40188202403997858 0 0.23656834394945631 -0.40470403754368001 0 0.2409676605078547 -0.39597254536230952 0 0.21741116253556159 -0.40188202403997858 0 0.23201385726385079 -0.39295873560287642 0 0.2222026131147154 -0.38961804708873449 0 0.21741116253556159 -0.40188202403997858 0 0.23656834394945631 -0.40470403754368001 0 0.2409676605078547 -0.39597254536230952 0 0.24544438420982781 -0.40300042123010688 0 0.25912291186543429 -0.38781330808035441 0 0.23201385726385079 -0.39295873560287642 0 0.2409676605078547 -0.39597254536230952 0 0.25355766278286868 -0.40111833226318272 0 0.2409676605078547 -0.39597254536230952 0 0.24544438420982781 -0.40300042123010688 0 0.24691806038933781 -0.41081379186618688 0 0.23656834394945631 -0.40470403754368001 0 0.24544438420982781 -0.40300042123010688 0 0.25355766278286868 -0.40111833226318272 0 0.24691806038933781 -0.41081379186618688 0 0.24544438420982781 -0.40300042123010688 0 0.25912291186543429 -0.38781330808035441 0 0.23201385726385079 -0.39295873560287642 0 0.25912291186543429 -0.38781330808035441 0 0.23201385726385079 -0.39295873560287642 0 0.2463482629591042 -0.38547561123023533 0 0.24084147541437509 -0.37272604943185061 0 0.24960891101326549 -0.37304825598747771 0 0.24361198886703619 -0.37954378693946339 0 0.25053779303233797 -0.38119746230133378 0 0.24960891101326549 -0.37304825598747771 0 0.24361198886703619 -0.37954378693946339 0 0.25053779303233797 -0.38119746230133378 0 0.24361198886703619 -0.37954378693946339 0 0.2463482629591042 -0.38547561123023533 0 0.24361198886703619 -0.37954378693946339 0 0.2463482629591042 -0.38547561123023533 0 0.23791464518082189 -0.38434837685735351 0 0.23201385726385079 -0.39295873560287642 0 0.2463482629591042 -0.38547561123023533 0 0.23791464518082189 -0.38434837685735351 0 0.24084147541437509 -0.37272604943185061 0 0.24361198886703619 -0.37954378693946339 0 0.23493393310767319 -0.37802288172494908 0 0.23791464518082189 -0.38434837685735351 0 0.23493393310767319 -0.37802288172494908 0 0.23054723794585569 -0.38463235957511333 0 0.24361198886703619 -0.37954378693946339 0 0.23791464518082189 -0.38434837685735351 0 0.23493393310767319 -0.37802288172494908 0 0.23493393310767319 -0.37802288172494908 0 0.23054723794585569 -0.38463235957511333 0 0.22451020066987029 -0.37794953811245879 0 0.23201385726385079 -0.39295873560287642 0 0.23054723794585569 -0.38463235957511333 0 0.2222026131147154 -0.38961804708873449 0 0.23201385726385079 -0.39295873560287642 0 0.23791464518082189 -0.38434837685735351 0 0.23054723794585569 -0.38463235957511333 0 0.23054723794585569 -0.38463235957511333 0 0.2222026131147154 -0.38961804708873449 0 0.22451020066987029 -0.37794953811245879 0 0.2222026131147154 -0.38961804708873449 0 0.22451020066987029 -0.37794953811245879 0 0.21284724379407469 -0.38602950162534178 0 0.21185028289860769 -0.36519918581698119 0 0.19619027410515191 -0.38747975327380357 0 0.21185028289860769 -0.36519918581698119 0 0.22451020066987029 -0.37794953811245879 0 0.21284724379407469 -0.38602950162534178 0 0.21185028289860769 -0.36519918581698119 0 0.21284724379407469 -0.38602950162534178 0 0.19619027410515191 -0.38747975327380357 0 0.21284724379407469 -0.38602950162534178 0 0.21741116253556159 -0.40188202403997858 0 0.19619027410515191 -0.38747975327380357 0 0.21741116253556159 -0.40188202403997858 0 0.19619027410515191 -0.38747975327380357 0 0.21741116253556159 -0.40188202403997858 0 0.2016442137477383 -0.40583738479789611 0 0.2222026131147154 -0.38961804708873449 0 0.21284724379407469 -0.38602950162534178 0 0.21741116253556159 -0.40188202403997858 0 0.21741116253556159 -0.40188202403997858 0 0.2016442137477383 -0.40583738479789611 0 0.19619027410515191 -0.38747975327380357 0 0.19619027410515191 -0.38747975327380357 0 0.18134944773692549 -0.40859481376792339 0 0.2016442137477383 -0.40583738479789611 0 0.19619027410515191 -0.38747975327380357 0 0.18587726495991491 -0.40979274555581291 0 0.19619027410515191 -0.38747975327380357 0 0.18134944773692549 -0.40859481376792339 0 0.18587726495991491 -0.40979274555581291 0 0.19539058522362751 -0.36760770656516117 0 0.19619027410515191 -0.38747975327380357 0 0.18155999940504911 -0.37755042452275722 0 0.19619027410515191 -0.38747975327380357 0 0.18155999940504911 -0.37755042452275722 0 0.19619027410515191 -0.38747975327380357 0 0.17599863683926301 -0.39035823278995979 0 0.18155999940504911 -0.37755042452275722 0 0.17599863683926301 -0.39035823278995979 0 0.18155999940504911 -0.37755042452275722 0 0.1614065677103575 -0.38300123394613178 0 0.19619027410515191 -0.38747975327380357 0 0.17599863683926301 -0.39035823278995979 0 0.18134944773692549 -0.40859481376792339 0 0.17599863683926301 -0.39035823278995979 0 0.1522853585662807 -0.40420767638082178 0 0.17599863683926301 -0.39035823278995979 0 0.1522853585662807 -0.40420767638082178 0 0.18134944773692549 -0.40859481376792339 0 0.17599863683926301 -0.39035823278995979 0 0.1614065677103575 -0.38300123394613178 0 0.1522853585662807 -0.40420767638082178 0 0.1669297247049393 -0.36762109577172097 0 0.1614065677103575 -0.38300123394613178 0 0.14569357060676999 -0.37851173113696651 0 0.1669297247049393 -0.36762109577172097 0 0.18155999940504911 -0.37755042452275722 0 0.1614065677103575 -0.38300123394613178 0 0.1614065677103575 -0.38300123394613178 0 0.14569357060676999 -0.37851173113696651 0 0.1522853585662807 -0.40420767638082178 0 0.14569357060676999 -0.37851173113696651 0 0.1244574165086 -0.38940236650221088 0 0.14569357060676999 -0.37851173113696651 0 0.13861333055310651 -0.37788305273702022 0 0.1244574165086 -0.38940236650221088 0 0.13861333055310651 -0.37788305273702022 0 0.12784776094096001 -0.37837910770210859 0 0.1244574165086 -0.38940236650221088 0 0.1522853585662807 -0.40420767638082178 0 0.12857208029329839 -0.41805711997168371 0 0.1244574165086 -0.38940236650221088 0 0.14569357060676999 -0.37851173113696651 0 0.1522853585662807 -0.40420767638082178 0 0.1244574165086 -0.38940236650221088 0 0.1522853585662807 -0.40420767638082178 0 0.14434245872483609 -0.43087779958314348 0 0.16650862136869901 -0.42970987426204299 0 0.1522853585662807 -0.40420767638082178 0 0.12857208029329839 -0.41805711997168371 0 0.14434245872483609 -0.43087779958314348 0 0.1522853585662807 -0.40420767638082178 0 0.12857208029329839 -0.41805711997168371 0 0.12857208029329839 -0.41805711997168371 0 0.14434245872483609 -0.43087779958314348 0 0.12309807384442981 -0.43570008153241979 0 0.14434245872483609 -0.43087779958314348 0 0.16650862136869901 -0.42970987426204299 0 0.15166779500047239 -0.45082493475616281 0 0.1522853585662807 -0.40420767638082178 0 0.16650862136869901 -0.42970987426204299 0 0.18134944773692549 -0.40859481376792339 0 0.16650862136869901 -0.42970987426204299 0 0.18134944773692549 -0.40859481376792339 0 0.18025328768966961 -0.42189381558822597 0 0.16650862136869901 -0.42970987426204299 0 0.18134944773692549 -0.40859481376792339 0 0.18134944773692549 -0.40859481376792339 0 0.18587726495991491 -0.40979274555581291 0 0.18025328768966961 -0.42189381558822597 0 0.1935510424432022 -0.42300500179246731 0 0.18587726495991491 -0.40979274555581291 0 0.18025328768966961 -0.42189381558822597 0 0.1935510424432022 -0.42300500179246731 0 0.18025328768966961 -0.42189381558822597 0 0.1836601858200442 -0.43816064516792491 0 0.16650862136869901 -0.42970987426204299 0 0.18025328768966961 -0.42189381558822597 0 0.1836601858200442 -0.43816064516792491 0 0.1895746234679149 -0.46168019452929698 0 0.1836601858200442 -0.43816064516792491 0 0.17111975569426741 -0.45191552651678812 0 0.16650862136869901 -0.42970987426204299 0 0.1836601858200442 -0.43816064516792491 0 0.17111975569426741 -0.45191552651678812 0 0.1895746234679149 -0.46168019452929698 0 0.17111975569426741 -0.45191552651678812 0 0.16476127908370619 -0.47288170118221828 0 0.17111975569426741 -0.45191552651678812 0 0.15166779500047239 -0.45082493475616281 0 0.16476127908370619 -0.47288170118221828 0 0.16650862136869901 -0.42970987426204299 0 0.17111975569426741 -0.45191552651678812 0 0.15166779500047239 -0.45082493475616281 0 0.16650862136869901 -0.42970987426204299 0 0.15166779500047239 -0.45082493475616281 0 0.14434245872483609 -0.43087779958314348 0 0.15166779500047239 -0.45082493475616281 0 0.12710739972096921 -0.45347115062142263 0 0.14434245872483609 -0.43087779958314348 0 0.12710739972096921 -0.45347115062142263 0 0.12309807384442981 -0.43570008153241979 0 0.15166779500047239 -0.45082493475616281 0 0.12710739972096921 -0.45347115062142263 0 0.1368269686322458 -0.47193999525028252 0 0.12710739972096921 -0.45347115062142263 0 0.1368269686322458 -0.47193999525028252 0 0.1220154485749262 -0.47512544665541201 0 0.15166779500047239 -0.45082493475616281 0 0.1368269686322458 -0.47193999525028252 0 0.16476127908370619 -0.47288170118221828 0 0.15166779500047239 -0.45082493475616281 0 0.1368269686322458 -0.47193999525028252 0 0.1368269686322458 -0.47193999525028252 0 0.15202324795804961 -0.48780878442288372 0 0.16476127908370619 -0.47288170118221828 0 0.1368269686322458 -0.47193999525028252 0 0.13768215463223141 -0.48820095885439208 0 0.15202324795804961 -0.48780878442288372 0 0.1368269686322458 -0.47193999525028252 0 0.1219861422640192 -0.49305505574440223 0 0.1368269686322458 -0.47193999525028252 0 0.1219861422640192 -0.49305505574440223 0 0.1220154485749262 -0.47512544665541201 0 0.13768215463223141 -0.48820095885439208 0 0.13989225967461091 -0.5 0 0.1219861422640192 -0.49305505574440223 0 0.1368269686322458 -0.47193999525028252 0 0.13768215463223141 -0.48820095885439208 0 0.1219861422640192 -0.49305505574440223 0 0.13989225967461091 -0.5 0 0.15202324795804961 -0.48780878442288372 0 0.16930969606633661 -0.5 0 0.13768215463223141 -0.48820095885439208 0 0.13989225967461091 -0.5 0 0.15202324795804961 -0.48780878442288372 0 0.15202324795804961 -0.48780878442288372 0 0.16930969606633661 -0.5 0 0.16476127908370619 -0.47288170118221828 0 0.1895746234679149 -0.46168019452929698 0 0.16476127908370619 -0.47288170118221828 0 0.1835240988037467 -0.48269088990170439 0 0.16930969606633661 -0.5 0 0.16476127908370619 -0.47288170118221828 0 0.1835240988037467 -0.48269088990170439 0 0.19872713245806231 -0.5 0 0.16930969606633661 -0.5 0 0.1835240988037467 -0.48269088990170439 0 0.062900552714344402 -0.48041717468915413 0 0.081057386891159822 -0.5 0 0.051639950499434151 -0.5 0 0.062900552714344402 -0.48041717468915413 0 0.084328250791173787 -0.47306441472719801 0 0.081057386891159822 -0.5 0 0.062900552714344402 -0.48041717468915413 0 0.084328250791173787 -0.47306441472719801 0 0.069225418478599754 -0.4660124534384904 0 0.062900552714344402 -0.48041717468915413 0 0.069225418478599754 -0.4660124534384904 0 0.05778937748919323 -0.46531712149258131 0 0.084328250791173787 -0.47306441472719801 0 0.081057386891159822 -0.5 0 0.1000974658720347 -0.48589415224897509 0 0.081057386891159822 -0.5 0 0.1000974658720347 -0.48589415224897509 0 0.1104748232828854 -0.5 0 0.1000974658720347 -0.48589415224897509 0 0.1104748232828854 -0.5 0 0.1180970176919855 -0.49205989155003038 0 0.13989225967461091 -0.5 0 0.1104748232828854 -0.5 0 0.1219861422640192 -0.49305505574440223 0 0.1180970176919855 -0.49205989155003038 0 0.1219861422640192 -0.49305505574440223 0 0.1220154485749262 -0.47512544665541201 0 0.1104748232828854 -0.5 0 0.1180970176919855 -0.49205989155003038 0 0.1219861422640192 -0.49305505574440223 0 0.1180970176919855 -0.49205989155003038 0 0.1220154485749262 -0.47512544665541201 0 0.1060597145654112 -0.4651011401109218 0 0.1180970176919855 -0.49205989155003038 0 0.1060597145654112 -0.4651011401109218 0 0.084328250791173787 -0.47306441472719801 0 0.1000974658720347 -0.48589415224897509 0 0.1060597145654112 -0.4651011401109218 0 0.1000974658720347 -0.48589415224897509 0 0.1180970176919855 -0.49205989155003038 0 0.1060597145654112 -0.4651011401109218 0 0.12710739972096921 -0.45347115062142263 0 0.1220154485749262 -0.47512544665541201 0 0.1060597145654112 -0.4651011401109218 0 0.12710739972096921 -0.45347115062142263 0 0.1060597145654112 -0.4651011401109218 0 0.1106096284627293 -0.4441877739233035 0 0.12710739972096921 -0.45347115062142263 0 0.1106096284627293 -0.4441877739233035 0 0.12309807384442981 -0.43570008153241979 0 0.1060597145654112 -0.4651011401109218 0 0.094022411438836939 -0.4381423886718131 0 0.082502720918553735 -0.44437016603586371 0 0.1060597145654112 -0.4651011401109218 0 0.094022411438836939 -0.4381423886718131 0 0.1106096284627293 -0.4441877739233035 0 0.094022411438836939 -0.4381423886718131 0 0.10485880202031619 -0.43190656356254559 0 0.1060597145654112 -0.4651011401109218 0 0.1106096284627293 -0.4441877739233035 0 0.094022411438836939 -0.4381423886718131 0 0.094022411438836939 -0.4381423886718131 0 0.082502720918553735 -0.44437016603586371 0 0.079082896792452728 -0.43335909559903413 0 0.1060597145654112 -0.4651011401109218 0 0.082502720918553735 -0.44437016603586371 0 0.078562062461346518 -0.45703328314718739 0 0.084328250791173787 -0.47306441472719801 0 0.1060597145654112 -0.4651011401109218 0 0.078562062461346518 -0.45703328314718739 0 0.084328250791173787 -0.47306441472719801 0 0.078562062461346518 -0.45703328314718739 0 0.069225418478599754 -0.4660124534384904 0 0.078562062461346518 -0.45703328314718739 0 0.069225418478599754 -0.4660124534384904 0 0.062546848936940874 -0.45423027313633152 0 0.069225418478599754 -0.4660124534384904 0 0.062546848936940874 -0.45423027313633152 0 0.05778937748919323 -0.46531712149258131 0 0.078562062461346518 -0.45703328314718739 0 0.062546848936940874 -0.45423027313633152 0 0.070758646645830578 -0.44603720204112701 0 0.062546848936940874 -0.45423027313633152 0 0.070758646645830578 -0.44603720204112701 0 0.059875789524615967 -0.43851805243517239 0 0.070758646645830578 -0.44603720204112701 0 0.070305811387695857 -0.43603423545108 0 0.059875789524615967 -0.43851805243517239 0 0.082502720918553735 -0.44437016603586371 0 0.070758646645830578 -0.44603720204112701 0 0.070305811387695857 -0.43603423545108 0 0.082502720918553735 -0.44437016603586371 0 0.070305811387695857 -0.43603423545108 0 0.079082896792452728 -0.43335909559903413 0 0.082502720918553735 -0.44437016603586371 0 0.078562062461346518 -0.45703328314718739 0 0.070758646645830578 -0.44603720204112701 0 0.072433300914785212 -0.42714083844936762 0 0.077963975768852833 -0.42257843273855089 0 0.079082896792452728 -0.43335909559903413 0 0.072433300914785212 -0.42714083844936762 0 0.070305811387695857 -0.43603423545108 0 0.079082896792452728 -0.43335909559903413 0 0.070305811387695857 -0.43603423545108 0 0.062394743873281387 -0.42883407686785691 0 0.059875789524615967 -0.43851805243517239 0 0.072433300914785212 -0.42714083844936762 0 0.070305811387695857 -0.43603423545108 0 0.062394743873281387 -0.42883407686785691 0 0.072433300914785212 -0.42714083844936762 0 0.075272843664448918 -0.41462591903270968 0 0.062394743873281387 -0.42883407686785691 0 0.075900673970014682 -0.41155075394765073 0 0.062394743873281387 -0.42883407686785691 0 0.063464639833791511 -0.41449993226021481 0 0.075900673970014682 -0.41155075394765073 0 0.062394743873281387 -0.42883407686785691 0 0.075900673970014682 -0.41155075394765073 0 0.075272843664448918 -0.41462591903270968 0 0.062394743873281387 -0.42883407686785691 0 0.063464639833791511 -0.41449993226021481 0 0.06171665413960091 -0.41536839367053019 0 0.062394743873281387 -0.42883407686785691 0 0.063464639833791511 -0.41449993226021481 0 0.06171665413960091 -0.41536839367053019 0 0.063464639833791511 -0.41449993226021481 0 0.074713361005282725 -0.40012401158551009 0 0.06171665413960091 -0.41536839367053019 0 0.074713361005282725 -0.40012401158551009 0 0.06171665413960091 -0.41536839367053019 0 0.075900673970014682 -0.41155075394765073 0 0.08198510831226237 -0.41118363723270451 0 0.074713361005282725 -0.40012401158551009 0 0.063464639833791511 -0.41449993226021481 0 0.075900673970014682 -0.41155075394765073 0 0.074713361005282725 -0.40012401158551009 0 0.075900673970014682 -0.41155075394765073 0 0.075272843664448918 -0.41462591903270968 0 0.08198510831226237 -0.41118363723270451 0 0.072433300914785212 -0.42714083844936762 0 0.077963975768852833 -0.42257843273855089 0 0.075272843664448918 -0.41462591903270968 0 0.08198510831226237 -0.41118363723270451 0 0.095141527347050669 -0.42445395089286497 0 0.099699787616786884 -0.4165832141043973 0 0.077963975768852833 -0.42257843273855089 0 0.075272843664448918 -0.41462591903270968 0 0.08198510831226237 -0.41118363723270451 0 0.075272843664448918 -0.41462591903270968 0 0.08198510831226237 -0.41118363723270451 0 0.094022411438836939 -0.4381423886718131 0 0.08198510831226237 -0.41118363723270451 0 0.095141527347050669 -0.42445395089286497 0 0.094022411438836939 -0.4381423886718131 0 0.08198510831226237 -0.41118363723270451 0 0.094022411438836939 -0.4381423886718131 0 0.077963975768852833 -0.42257843273855089 0 0.08198510831226237 -0.41118363723270451 0 0.094022411438836939 -0.4381423886718131 0 0.077963975768852833 -0.42257843273855089 0 0.079082896792452728 -0.43335909559903413 0 0.094022411438836939 -0.4381423886718131 0 0.095141527347050669 -0.42445395089286497 0 0.10485880202031619 -0.43190656356254559 0 0.095141527347050669 -0.42445395089286497 0 0.10485880202031619 -0.43190656356254559 0 0.099699787616786884 -0.4165832141043973 0 0.12857208029329839 -0.41805711997168371 0 0.10485880202031619 -0.43190656356254559 0 0.12857208029329839 -0.41805711997168371 0 0.10485880202031619 -0.43190656356254559 0 0.12309807384442981 -0.43570008153241979 0 0.1106096284627293 -0.4441877739233035 0 0.10485880202031619 -0.43190656356254559 0 0.12309807384442981 -0.43570008153241979 0 0.12857208029329839 -0.41805711997168371 0 0.11285675791282759 -0.41185179715538073 0 0.1244574165086 -0.38940236650221088 0 0.12857208029329839 -0.41805711997168371 0 0.10485880202031619 -0.43190656356254559 0 0.11285675791282759 -0.41185179715538073 0 0.08198510831226237 -0.41118363723270451 0 0.099699787616786884 -0.4165832141043973 0 0.10322126241043 -0.40029300186745548 0 0.10485880202031619 -0.43190656356254559 0 0.11285675791282759 -0.41185179715538073 0 0.099699787616786884 -0.4165832141043973 0 0.11285675791282759 -0.41185179715538073 0 0.099699787616786884 -0.4165832141043973 0 0.10322126241043 -0.40029300186745548 0 0.10322126241043 -0.40029300186745548 0 0.096994834069155975 -0.38451614456192179 0 0.082276881180968042 -0.39125244183653141 0 0.11285675791282759 -0.41185179715538073 0 0.10322126241043 -0.40029300186745548 0 0.1244574165086 -0.38940236650221088 0 0.10322126241043 -0.40029300186745548 0 0.1244574165086 -0.38940236650221088 0 0.12784776094096001 -0.37837910770210859 0 0.1244574165086 -0.38940236650221088 0 0.11218762718217649 -0.38072352898962231 0 0.10322126241043 -0.40029300186745548 0 0.1244574165086 -0.38940236650221088 0 0.11218762718217649 -0.38072352898962231 0 0.12784776094096001 -0.37837910770210859 0 0.11218762718217649 -0.38072352898962231 0 0.1234886567535193 -0.36969271451872321 0 0.11218762718217649 -0.38072352898962231 0 0.096994834069155975 -0.38451614456192179 0 0.099359629779647796 -0.3727955489921877 0 0.10322126241043 -0.40029300186745548 0 0.11218762718217649 -0.38072352898962231 0 0.096994834069155975 -0.38451614456192179 0 0.096994834069155975 -0.38451614456192179 0 0.087928769792557482 -0.37751620112381218 0 0.099359629779647796 -0.3727955489921877 0 0.087928769792557482 -0.37751620112381218 0 0.078724874265254347 -0.38235746546195848 0 0.080632272436375552 -0.36809459122969762 0 0.087928769792557482 -0.37751620112381218 0 0.078724874265254347 -0.38235746546195848 0 0.082276881180968042 -0.39125244183653141 0 0.096994834069155975 -0.38451614456192179 0 0.087928769792557482 -0.37751620112381218 0 0.082276881180968042 -0.39125244183653141 0 0.08198510831226237 -0.41118363723270451 0 0.10322126241043 -0.40029300186745548 0 0.082276881180968042 -0.39125244183653141 0 0.08198510831226237 -0.41118363723270451 0 0.082276881180968042 -0.39125244183653141 0 0.076244824435830028 -0.39832769395475642 0 0.08198510831226237 -0.41118363723270451 0 0.10322126241043 -0.40029300186745548 0 0.078724874265254347 -0.38235746546195848 0 0.082276881180968042 -0.39125244183653141 0 0.076244824435830028 -0.39832769395475642 0 0.08198510831226237 -0.41118363723270451 0 0.076244824435830028 -0.39832769395475642 0 0.082276881180968042 -0.39125244183653141 0 0.076244824435830028 -0.39832769395475642 0 0.076244824435830028 -0.39832769395475642 0 0.074713361005282725 -0.40012401158551009 0 0.05373311561901141 -0.38878881981659019 0 0.074713361005282725 -0.40012401158551009 0 0.05373311561901141 -0.38878881981659019 0 0.059559912512894192 -0.40114291584820683 0 0.074713361005282725 -0.40012401158551009 0 0.05373311561901141 -0.38878881981659019 0 0.08198510831226237 -0.41118363723270451 0 0.076244824435830028 -0.39832769395475642 0 0.074713361005282725 -0.40012401158551009 0 0.076244824435830028 -0.39832769395475642 0 0.074713361005282725 -0.40012401158551009 0 0.074713361005282725 -0.40012401158551009 0 0.059559912512894192 -0.40114291584820683 0 0.06171665413960091 -0.41536839367053019 0 0.078724874265254347 -0.38235746546195848 0 0.076244824435830028 -0.39832769395475642 0 0.066541623480541656 -0.3765963991649946 0 0.076244824435830028 -0.39832769395475642 0 0.066541623480541656 -0.3765963991649946 0 0.05373311561901141 -0.38878881981659019 0 0.076244824435830028 -0.39832769395475642 0 0.066541623480541656 -0.3765963991649946 0 0.078724874265254347 -0.38235746546195848 0 0.066541623480541656 -0.3765963991649946 0 0.080632272436375552 -0.36809459122969762 0 0.066541623480541656 -0.3765963991649946 0 0.05373311561901141 -0.38878881981659019 0 0.054717908399197483 -0.37286279319897331 0 0.05373311561901141 -0.38878881981659019 0 0.032752870232740747 -0.37745362804766908 0 0.054717908399197483 -0.37286279319897331 0 0.059559912512894192 -0.40114291584820683 0 0.044195164094035962 -0.39550257010111323 0 0.04554992075483219 -0.40840291801078499 0 0.05373311561901141 -0.38878881981659019 0 0.059559912512894192 -0.40114291584820683 0 0.044195164094035962 -0.39550257010111323 0 0.044195164094035962 -0.39550257010111323 0 0.036054660985853082 -0.40048656965160179 0 0.04554992075483219 -0.40840291801078499 0 0.044195164094035962 -0.39550257010111323 0 0.036054660985853082 -0.40048656965160179 0 0.032574311204793302 -0.39192501994336532 0 0.05373311561901141 -0.38878881981659019 0 0.032752870232740747 -0.37745362804766908 0 0.05373311561901141 -0.38878881981659019 0 0.032752870232740747 -0.37745362804766908 0 0.037699063486831622 -0.38226917733613008 0 0.05373311561901141 -0.38878881981659019 0 0.044195164094035962 -0.39550257010111323 0 0.037699063486831622 -0.38226917733613008 0 0.044195164094035962 -0.39550257010111323 0 0.032574311204793302 -0.39192501994336532 0 0.037699063486831622 -0.38226917733613008 0 0.037699063486831622 -0.38226917733613008 0 0.0092917282261142653 -0.3791490187586205 0 0.032752870232740747 -0.37745362804766908 0 0.0092917282261142653 -0.3791490187586205 0 0.01430168750699517 -0.37335140587589188 0 0.037699063486831622 -0.38226917733613008 0 0.02297639756554223 -0.3877893534869532 0 0.0092917282261142653 -0.3791490187586205 0 0.032752870232740747 -0.37745362804766908 0 0.037699063486831622 -0.38226917733613008 0 0.0092917282261142653 -0.3791490187586205 0 0.032574311204793302 -0.39192501994336532 0 0.037699063486831622 -0.38226917733613008 0 0.02297639756554223 -0.3877893534869532 0 -0.0079209576991021331 -0.38208384091849129 0 0.0092917282261142653 -0.3791490187586205 0 0.003337738236402286 -0.38678809717290258 0 0.0092917282261142653 -0.3791490187586205 0 0.01333923411657047 -0.38856722165853202 0 0.003337738236402286 -0.38678809717290258 0 0.01333923411657047 -0.38856722165853202 0 0.003337738236402286 -0.38678809717290258 0 0.0068076755599869899 -0.3945460342361608 0 0.02297639756554223 -0.3877893534869532 0 0.0092917282261142653 -0.3791490187586205 0 0.01333923411657047 -0.38856722165853202 0 -0.0048861065808698178 -0.40542465587961452 0 0.0068076755599869899 -0.3945460342361608 0 0.0075853773270290192 -0.40844435232476972 0 -0.007060478936782748 -0.39124467573747351 0 0.003337738236402286 -0.38678809717290258 0 0.0068076755599869899 -0.3945460342361608 0 0.01333923411657047 -0.38856722165853202 0 0.0068076755599869899 -0.3945460342361608 0 0.021977650793401509 -0.39703632973811798 0 0.0068076755599869899 -0.3945460342361608 0 0.021977650793401509 -0.39703632973811798 0 0.0075853773270290192 -0.40844435232476972 0 0.021977650793401509 -0.39703632973811798 0 0.025466630505344739 -0.41260896296352551 0 0.0075853773270290192 -0.40844435232476972 0 0.02297639756554223 -0.3877893534869532 0 0.01333923411657047 -0.38856722165853202 0 0.021977650793401509 -0.39703632973811798 0 0.036054660985853082 -0.40048656965160179 0 0.032574311204793302 -0.39192501994336532 0 0.021977650793401509 -0.39703632973811798 0 0.032574311204793302 -0.39192501994336532 0 0.02297639756554223 -0.3877893534869532 0 0.021977650793401509 -0.39703632973811798 0 0.036054660985853082 -0.40048656965160179 0 0.021977650793401509 -0.39703632973811798 0 0.025466630505344739 -0.41260896296352551 0 0.025466630505344739 -0.41260896296352551 0 0.0156564039727628 -0.42301917953769791 0 0.036667451385110877 -0.42781372776205862 0 0.025466630505344739 -0.41260896296352551 0 0.0075853773270290192 -0.40844435232476972 0 0.0156564039727628 -0.42301917953769791 0 -0.003055687984291951 -0.42596979278454739 0 0.0075853773270290192 -0.40844435232476972 0 -0.003055687984291951 -0.42596979278454739 0 0.0075853773270290192 -0.40844435232476972 0 0.0156564039727628 -0.42301917953769791 0 -0.003055687984291951 -0.42596979278454739 0 0.0156564039727628 -0.42301917953769791 0 0.011618248630621291 -0.44025906185358771 0 -0.003055687984291951 -0.42596979278454739 0 0.011618248630621291 -0.44025906185358771 0 -0.003055687984291951 -0.42596979278454739 0 -0.001755183903042279 -0.43806820660387241 0 0.011618248630621291 -0.44025906185358771 0 0.0156564039727628 -0.42301917953769791 0 0.036667451385110877 -0.42781372776205862 0 0.011618248630621291 -0.44025906185358771 0 0.036667451385110877 -0.42781372776205862 0 0.011618248630621291 -0.44025906185358771 0 0.025466630505344739 -0.41260896296352551 0 0.036667451385110877 -0.42781372776205862 0 0.04554992075483219 -0.40840291801078499 0 0.036054660985853082 -0.40048656965160179 0 0.025466630505344739 -0.41260896296352551 0 0.04554992075483219 -0.40840291801078499 0 0.059559912512894192 -0.40114291584820683 0 0.04554992075483219 -0.40840291801078499 0 0.06171665413960091 -0.41536839367053019 0 0.036667451385110877 -0.42781372776205862 0 0.04554992075483219 -0.40840291801078499 0 0.06171665413960091 -0.41536839367053019 0 0.036667451385110877 -0.42781372776205862 0 0.06171665413960091 -0.41536839367053019 0 0.044556633850554993 -0.43549610052554277 0 0.06171665413960091 -0.41536839367053019 0 0.062394743873281387 -0.42883407686785691 0 0.036667451385110877 -0.42781372776205862 0 0.044556633850554993 -0.43549610052554277 0 0.06171665413960091 -0.41536839367053019 0 0.044556633850554993 -0.43549610052554277 0 0.062394743873281387 -0.42883407686785691 0 0.048888813776548148 -0.44611739978806297 0 0.044556633850554993 -0.43549610052554277 0 0.06171665413960091 -0.41536839367053019 0 0.062394743873281387 -0.42883407686785691 0 0.048888813776548148 -0.44611739978806297 0 0.062394743873281387 -0.42883407686785691 0 0.048888813776548148 -0.44611739978806297 0 0.059875789524615967 -0.43851805243517239 0 0.062546848936940874 -0.45423027313633152 0 0.059875789524615967 -0.43851805243517239 0 0.047324697718980319 -0.45901203495678189 0 0.048888813776548148 -0.44611739978806297 0 0.059875789524615967 -0.43851805243517239 0 0.047324697718980319 -0.45901203495678189 0 0.059875789524615967 -0.43851805243517239 0 0.047324697718980319 -0.45901203495678189 0 0.05778937748919323 -0.46531712149258131 0 0.047324697718980319 -0.45901203495678189 0 0.050054544420118328 -0.47477418215171791 0 0.062546848936940874 -0.45423027313633152 0 0.05778937748919323 -0.46531712149258131 0 0.047324697718980319 -0.45901203495678189 0 0.048888813776548148 -0.44611739978806297 0 0.035382883679814757 -0.46340072270826899 0 0.038661888098579587 -0.45204435935670528 0 0.048888813776548148 -0.44611739978806297 0 0.047324697718980319 -0.45901203495678189 0 0.035382883679814757 -0.46340072270826899 0 0.048888813776548148 -0.44611739978806297 0 0.035382883679814757 -0.46340072270826899 0 0.047324697718980319 -0.45901203495678189 0 0.040234955282250892 -0.46812560046186591 0 0.035382883679814757 -0.46340072270826899 0 0.040234955282250892 -0.46812560046186591 0 0.035382883679814757 -0.46340072270826899 0 0.035382883679814757 -0.46340072270826899 0 0.027396613561508399 -0.45562380738055458 0 0.035382883679814757 -0.46340072270826899 0 0.038661888098579587 -0.45204435935670528 0 0.027396613561508399 -0.45562380738055458 0 0.044556633850554993 -0.43549610052554277 0 0.048888813776548148 -0.44611739978806297 0 0.038661888098579587 -0.45204435935670528 0 0.044556633850554993 -0.43549610052554277 0 0.027396613561508399 -0.45562380738055458 0 0.044556633850554993 -0.43549610052554277 0 0.038661888098579587 -0.45204435935670528 0 0.027396613561508399 -0.45562380738055458 0 0.036667451385110877 -0.42781372776205862 0 0.044556633850554993 -0.43549610052554277 0 0.027396613561508399 -0.45562380738055458 0 0.036667451385110877 -0.42781372776205862 0 0.011618248630621291 -0.44025906185358771 0 0.027396613561508399 -0.45562380738055458 0 0.011618248630621291 -0.44025906185358771 0 0.01180489425658871 -0.4558513239760289 0 0.027396613561508399 -0.45562380738055458 0 0.011618248630621291 -0.44025906185358771 0 0.027396613561508399 -0.45562380738055458 0 -0.001755183903042279 -0.43806820660387241 0 -0.0051002028656366404 -0.44856538267358542 0 0.011618248630621291 -0.44025906185358771 0 -0.0051002028656366404 -0.44856538267358542 0 0.011618248630621291 -0.44025906185358771 0 -0.0051002028656366404 -0.44856538267358542 0 0.011618248630621291 -0.44025906185358771 0 0.01180489425658871 -0.4558513239760289 0 -0.0051002028656366404 -0.44856538267358542 0 0.0045859136501480262 -0.46508154695711162 0 0.01180489425658871 -0.4558513239760289 0 0.0045859136501480262 -0.46508154695711162 0 0.01180489425658871 -0.4558513239760289 0 0.01404647320647333 -0.47128274641519668 0 0.026322760832917239 -0.46422644494412552 0 0.025085595120777331 -0.46928621851831431 0 0.01404647320647333 -0.47128274641519668 0 0.027396613561508399 -0.45562380738055458 0 0.026322760832917239 -0.46422644494412552 0 0.01404647320647333 -0.47128274641519668 0 0.01180489425658871 -0.4558513239760289 0 0.027396613561508399 -0.45562380738055458 0 0.01404647320647333 -0.47128274641519668 0 0.027396613561508399 -0.45562380738055458 0 0.01404647320647333 -0.47128274641519668 0 0.035382883679814757 -0.46340072270826899 0 0.026322760832917239 -0.46422644494412552 0 0.025085595120777331 -0.46928621851831431 0 0.035382883679814757 -0.46340072270826899 0 0.027396613561508399 -0.45562380738055458 0 0.026322760832917239 -0.46422644494412552 0 0.035382883679814757 -0.46340072270826899 0 0.022478089161969441 -0.4799147820343112 0 0.035382883679814757 -0.46340072270826899 0 0.022478089161969441 -0.4799147820343112 0 0.034773605913344607 -0.47950601747839139 0 0.035382883679814757 -0.46340072270826899 0 0.025085595120777331 -0.46928621851831431 0 0.022478089161969441 -0.4799147820343112 0 0.022478089161969441 -0.4799147820343112 0 0.01404647320647333 -0.47128274641519668 0 0.01219086244231295 -0.48871467105163813 0 0.025085595120777331 -0.46928621851831431 0 0.022478089161969441 -0.4799147820343112 0 0.01404647320647333 -0.47128274641519668 0 0.0045859136501480262 -0.46508154695711162 0 0.01404647320647333 -0.47128274641519668 0 0.00069633285143837903 -0.4869416854498389 0 0.01404647320647333 -0.47128274641519668 0 0.01219086244231295 -0.48871467105163813 0 0.00069633285143837903 -0.4869416854498389 0 0.01404647320647333 -0.47128274641519668 0 0.00069633285143837903 -0.4869416854498389 0 -0.0055307206059959091 -0.5 0 0.01219086244231295 -0.48871467105163813 0 0.00069633285143837903 -0.4869416854498389 0 -0.0055307206059959091 -0.5 0 0.01219086244231295 -0.48871467105163813 0 0.02222251410770856 -0.50000000000000078 0 0.022478089161969441 -0.4799147820343112 0 0.01219086244231295 -0.48871467105163813 0 0.02222251410770856 -0.50000000000000078 0 0.02222251410770856 -0.50000000000000078 0 0.034773605913344607 -0.47950601747839139 0 0.022478089161969441 -0.4799147820343112 0 0.02222251410770856 -0.50000000000000078 0 0.034773605913344607 -0.47950601747839139 0 0.02222251410770856 -0.50000000000000078 0 0.044988911125572531 -0.48731754673957972 0 0.034773605913344607 -0.47950601747839139 0 0.02222251410770856 -0.50000000000000078 0 0.044988911125572531 -0.48731754673957972 0 0.051639950499434151 -0.5 0 0.047324697718980319 -0.45901203495678189 0 0.034773605913344607 -0.47950601747839139 0 0.047324697718980319 -0.45901203495678189 0 0.034773605913344607 -0.47950601747839139 0 0.050054544420118328 -0.47477418215171791 0 0.047324697718980319 -0.45901203495678189 0 0.040234955282250892 -0.46812560046186591 0 0.034773605913344607 -0.47950601747839139 0 0.040234955282250892 -0.46812560046186591 0 0.035382883679814757 -0.46340072270826899 0 0.034773605913344607 -0.47950601747839139 0 0.044988911125572531 -0.48731754673957972 0 0.034773605913344607 -0.47950601747839139 0 0.050054544420118328 -0.47477418215171791 0 0.062900552714344402 -0.48041717468915413 0 0.044988911125572531 -0.48731754673957972 0 0.050054544420118328 -0.47477418215171791 0 0.062900552714344402 -0.48041717468915413 0 0.05778937748919323 -0.46531712149258131 0 0.050054544420118328 -0.47477418215171791 0 0.062900552714344402 -0.48041717468915413 0 0.044988911125572531 -0.48731754673957972 0 0.051639950499434151 -0.5 0 0.089504333552121743 -0.28669983990380649 0 0.081741064046208414 -0.29747737875383601 0 0.071323793193511439 -0.28902493079997388 0 0.089504333552121743 -0.28669983990380649 0 0.089656459164501601 -0.29776541965578529 0 0.097843511349458318 -0.29762494647368481 0 0.089504333552121743 -0.28669983990380649 0 0.089656459164501601 -0.29776541965578529 0 0.081741064046208414 -0.29747737875383601 0 0.089656459164501601 -0.29776541965578529 0 0.087813440556433212 -0.30777822589690729 0 0.096604653152929765 -0.30449064483530353 0 0.089656459164501601 -0.29776541965578529 0 0.087813440556433212 -0.30777822589690729 0 0.081741064046208414 -0.29747737875383601 0 0.087813440556433212 -0.30777822589690729 0 0.081741064046208414 -0.29747737875383601 0 0.063671304317619457 -0.29742931508965847 0 0.087813440556433212 -0.30777822589690729 0 0.063671304317619457 -0.29742931508965847 0 0.069403379884801455 -0.32190283519649848 0 0.087813440556433212 -0.30777822589690729 0 0.063671304317619457 -0.29742931508965847 0 0.071323793193511439 -0.28902493079997388 0 0.066084499612803174 -0.27763746487416652 0 0.055617764438804368 -0.28588065537840213 0 0.081741064046208414 -0.29747737875383601 0 0.063671304317619457 -0.29742931508965847 0 0.071323793193511439 -0.28902493079997388 0 0.063671304317619457 -0.29742931508965847 0 0.071323793193511439 -0.28902493079997388 0 0.055617764438804368 -0.28588065537840213 0 0.089504333552121743 -0.28669983990380649 0 0.071323793193511439 -0.28902493079997388 0 0.066084499612803174 -0.27763746487416652 0 0.089504333552121743 -0.28669983990380649 0 0.066084499612803174 -0.27763746487416652 0 0.066084499612803174 -0.27763746487416652 0 0.063163595346589996 -0.2670144250680439 0 0.072155874908864798 -0.27025499849328449 0 0.072155874908864798 -0.27025499849328449 0 0.079582640662523838 -0.25841605415645169 0 0.081037392036393693 -0.27378785305636683 0 0.066084499612803174 -0.27763746487416652 0 0.072155874908864798 -0.27025499849328449 0 0.081037392036393693 -0.27378785305636683 0 0.079582640662523838 -0.25841605415645169 0 0.05929568821017632 -0.24416858529782309 0 0.063252869376379417 -0.25649662315351202 0 0.079582640662523838 -0.25841605415645169 0 0.05929568821017632 -0.24416858529782309 0 0.063163595346589996 -0.2670144250680439 0 0.063252869376379417 -0.25649662315351202 0 0.079582640662523838 -0.25841605415645169 0 0.063163595346589996 -0.2670144250680439 0 0.072155874908864798 -0.27025499849328449 0 0.079582640662523838 -0.25841605415645169 0 0.079582640662523838 -0.25841605415645169 0 0.099869593114871397 -0.27266352301508029 0 0.079582640662523838 -0.25841605415645169 0 0.090742891531442632 -0.25082384707713479 0 0.099869593114871397 -0.27266352301508029 0 0.079582640662523838 -0.25841605415645169 0 0.090742891531442632 -0.25082384707713479 0 0.076544452823221615 -0.2418656299360194 0 0.089504333552121743 -0.28669983990380649 0 0.081037392036393693 -0.27378785305636683 0 0.099869593114871397 -0.27266352301508029 0 0.079582640662523838 -0.25841605415645169 0 0.081037392036393693 -0.27378785305636683 0 0.099869593114871397 -0.27266352301508029 0 0.089504333552121743 -0.28669983990380649 0 0.066084499612803174 -0.27763746487416652 0 0.081037392036393693 -0.27378785305636683 0 0.090742891531442632 -0.25082384707713479 0 0.099869593114871397 -0.27266352301508029 0 0.1075085407432959 -0.25056148448873611 0 0.099869593114871397 -0.27266352301508029 0 0.1075085407432959 -0.25056148448873611 0 0.11656805216610119 -0.26681494388427018 0 0.1312342236087051 -0.26196495271219977 0 0.1075085407432959 -0.25056148448873611 0 0.1312342236087051 -0.26196495271219977 0 0.1075085407432959 -0.25056148448873611 0 0.1284525449190799 -0.24687969302089219 0 0.1312342236087051 -0.26196495271219977 0 0.1075085407432959 -0.25056148448873611 0 0.11656805216610119 -0.26681494388427018 0 0.099869593114871397 -0.27266352301508029 0 0.1201565455672189 -0.28691099187370889 0 0.13621038122654491 -0.2752641495567244 0 0.11656805216610119 -0.26681494388427018 0 0.1201565455672189 -0.28691099187370889 0 0.099869593114871397 -0.27266352301508029 0 0.11656805216610119 -0.26681494388427018 0 0.1201565455672189 -0.28691099187370889 0 0.099869593114871397 -0.27266352301508029 0 0.1201565455672189 -0.28691099187370889 0 0.1129241674914403 -0.29576221493344662 0 0.1201565455672189 -0.28691099187370889 0 0.1129241674914403 -0.29576221493344662 0 0.11561439367385699 -0.30729963494312301 0 0.089504333552121743 -0.28669983990380649 0 0.1129241674914403 -0.29576221493344662 0 0.089504333552121743 -0.28669983990380649 0 0.099869593114871397 -0.27266352301508029 0 0.1129241674914403 -0.29576221493344662 0 0.089504333552121743 -0.28669983990380649 0 0.1129241674914403 -0.29576221493344662 0 0.097843511349458318 -0.29762494647368481 0 0.087813440556433212 -0.30777822589690729 0 0.096604653152929765 -0.30449064483530353 0 0.1036903107769211 -0.31458409892258982 0 0.087813440556433212 -0.30777822589690729 0 0.1036903107769211 -0.31458409892258982 0 0.097843511349458318 -0.29762494647368481 0 0.096604653152929765 -0.30449064483530353 0 0.1053354072889213 -0.30395230802162948 0 0.089656459164501601 -0.29776541965578529 0 0.097843511349458318 -0.29762494647368481 0 0.096604653152929765 -0.30449064483530353 0 0.1129241674914403 -0.29576221493344662 0 0.097843511349458318 -0.29762494647368481 0 0.1053354072889213 -0.30395230802162948 0 0.1053354072889213 -0.30395230802162948 0 0.11561439367385699 -0.30729963494312301 0 0.1036903107769211 -0.31458409892258982 0 0.096604653152929765 -0.30449064483530353 0 0.1053354072889213 -0.30395230802162948 0 0.1036903107769211 -0.31458409892258982 0 0.12999496979063391 -0.31198548501294687 0 0.1201565455672189 -0.28691099187370889 0 0.11561439367385699 -0.30729963494312301 0 0.1129241674914403 -0.29576221493344662 0 0.1053354072889213 -0.30395230802162948 0 0.11561439367385699 -0.30729963494312301 0 0.12999496979063391 -0.31198548501294687 0 0.11561439367385699 -0.30729963494312301 0 0.1181143755105791 -0.32344375993293811 0 0.1181143755105791 -0.32344375993293811 0 0.1067290630012807 -0.33432842494568621 0 0.1036903107769211 -0.31458409892258982 0 0.11561439367385699 -0.30729963494312301 0 0.1181143755105791 -0.32344375993293811 0 0.1036903107769211 -0.31458409892258982 0 0.13148999696754199 -0.32979631984983832 0 0.1181143755105791 -0.32344375993293811 0 0.11890109950640949 -0.33858894971983883 0 0.11890109950640949 -0.33858894971983883 0 0.1067290630012807 -0.33432842494568621 0 0.1144011062763409 -0.35268854967434371 0 0.1181143755105791 -0.32344375993293811 0 0.11890109950640949 -0.33858894971983883 0 0.1067290630012807 -0.33432842494568621 0 0.1067290630012807 -0.33432842494568621 0 0.095959237442760179 -0.3472446931909367 0 0.090768171252474841 -0.32755830508575778 0 0.1067290630012807 -0.33432842494568621 0 0.1036903107769211 -0.31458409892258982 0 0.090768171252474841 -0.32755830508575778 0 0.087813440556433212 -0.30777822589690729 0 0.1036903107769211 -0.31458409892258982 0 0.090768171252474841 -0.32755830508575778 0 0.12890313153088209 -0.35651954819948262 0 0.1234886567535193 -0.36969271451872321 0 0.1144011062763409 -0.35268854967434371 0 0.1234886567535193 -0.36969271451872321 0 0.1105380278041885 -0.36615330065118629 0 0.1144011062763409 -0.35268854967434371 0 0.11218762718217649 -0.38072352898962231 0 0.1234886567535193 -0.36969271451872321 0 0.1105380278041885 -0.36615330065118629 0 0.13023828094180129 -0.34271921149802609 0 0.11890109950640949 -0.33858894971983883 0 0.1144011062763409 -0.35268854967434371 0 0.12890313153088209 -0.35651954819948262 0 0.13023828094180129 -0.34271921149802609 0 0.1144011062763409 -0.35268854967434371 0 0.1144011062763409 -0.35268854967434371 0 0.095959237442760179 -0.3472446931909367 0 0.10289716643324461 -0.3592909329049091 0 0.1067290630012807 -0.33432842494568621 0 0.1144011062763409 -0.35268854967434371 0 0.095959237442760179 -0.3472446931909367 0 0.095959237442760179 -0.3472446931909367 0 0.10289716643324461 -0.3592909329049091 0 0.092725469388869719 -0.36229186673239089 0 0.1105380278041885 -0.36615330065118629 0 0.1144011062763409 -0.35268854967434371 0 0.10289716643324461 -0.3592909329049091 0 0.1105380278041885 -0.36615330065118629 0 0.10289716643324461 -0.3592909329049091 0 0.099359629779647796 -0.3727955489921877 0 0.10289716643324461 -0.3592909329049091 0 0.099359629779647796 -0.3727955489921877 0 0.092725469388869719 -0.36229186673239089 0 0.11218762718217649 -0.38072352898962231 0 0.1105380278041885 -0.36615330065118629 0 0.099359629779647796 -0.3727955489921877 0 0.087928769792557482 -0.37751620112381218 0 0.080632272436375552 -0.36809459122969762 0 0.092725469388869719 -0.36229186673239089 0 0.087928769792557482 -0.37751620112381218 0 0.099359629779647796 -0.3727955489921877 0 0.092725469388869719 -0.36229186673239089 0 0.080632272436375552 -0.36809459122969762 0 0.092725469388869719 -0.36229186673239089 0 0.081804613297221301 -0.35560831033637791 0 0.095959237442760179 -0.3472446931909367 0 0.092725469388869719 -0.36229186673239089 0 0.081804613297221301 -0.35560831033637791 0 0.095959237442760179 -0.3472446931909367 0 0.081804613297221301 -0.35560831033637791 0 0.081020669779101648 -0.34073791782905288 0 0.070354970030713601 -0.35135946564616499 0 0.067524854340150348 -0.36360851561587459 0 0.05109773839685261 -0.35712953411903908 0 0.070354970030713601 -0.35135946564616499 0 0.081020669779101648 -0.34073791782905288 0 0.067594834076687885 -0.33993158739813462 0 0.081804613297221301 -0.35560831033637791 0 0.070354970030713601 -0.35135946564616499 0 0.081020669779101648 -0.34073791782905288 0 0.070354970030713601 -0.35135946564616499 0 0.067594834076687885 -0.33993158739813462 0 0.058449841846545891 -0.34682015716377912 0 0.081804613297221301 -0.35560831033637791 0 0.070354970030713601 -0.35135946564616499 0 0.067524854340150348 -0.36360851561587459 0 0.080632272436375552 -0.36809459122969762 0 0.081804613297221301 -0.35560831033637791 0 0.067524854340150348 -0.36360851561587459 0 0.066541623480541656 -0.3765963991649946 0 0.067524854340150348 -0.36360851561587459 0 0.054717908399197483 -0.37286279319897331 0 0.066541623480541656 -0.3765963991649946 0 0.080632272436375552 -0.36809459122969762 0 0.067524854340150348 -0.36360851561587459 0 0.087813440556433212 -0.30777822589690729 0 0.069403379884801455 -0.32190283519649848 0 0.087813440556433212 -0.30777822589690729 0 0.090768171252474841 -0.32755830508575778 0 0.069403379884801455 -0.32190283519649848 0 0.090768171252474841 -0.32755830508575778 0 0.081020669779101648 -0.34073791782905288 0 0.069403379884801455 -0.32190283519649848 0 0.095959237442760179 -0.3472446931909367 0 0.090768171252474841 -0.32755830508575778 0 0.081020669779101648 -0.34073791782905288 0 0.067594834076687885 -0.33993158739813462 0 0.069403379884801455 -0.32190283519649848 0 0.059509328464807103 -0.33623748787797619 0 0.081020669779101648 -0.34073791782905288 0 0.067594834076687885 -0.33993158739813462 0 0.069403379884801455 -0.32190283519649848 0 0.069403379884801455 -0.32190283519649848 0 0.050993319213169137 -0.33602744449608912 0 0.045261243645986299 -0.31155392438924978 0 0.050993319213169137 -0.33602744449608912 0 0.045261243645986299 -0.31155392438924978 0 0.069403379884801455 -0.32190283519649848 0 0.059509328464807103 -0.33623748787797619 0 0.050993319213169137 -0.33602744449608912 0 0.069403379884801455 -0.32190283519649848 0 0.050993319213169137 -0.33602744449608912 0 0.059509328464807103 -0.33623748787797619 0 0.050993319213169137 -0.33602744449608912 0 0.058449841846545891 -0.34682015716377912 0 0.067594834076687885 -0.33993158739813462 0 0.059509328464807103 -0.33623748787797619 0 0.058449841846545891 -0.34682015716377912 0 0.050993319213169137 -0.33602744449608912 0 0.031382972029819919 -0.35107294038741887 0 0.050993319213169137 -0.33602744449608912 0 0.031382972029819919 -0.35107294038741887 0 0.02846135930922597 -0.33003309425293159 0 0.02618595078899854 -0.31465698678655191 0 0.02846135930922597 -0.33003309425293159 0 0.045261243645986299 -0.31155392438924978 0 0.050993319213169137 -0.33602744449608912 0 0.02846135930922597 -0.33003309425293159 0 0.045261243645986299 -0.31155392438924978 0 0.067524854340150348 -0.36360851561587459 0 0.054717908399197483 -0.37286279319897331 0 0.05109773839685261 -0.35712953411903908 0 0.070354970030713601 -0.35135946564616499 0 0.05109773839685261 -0.35712953411903908 0 0.058449841846545891 -0.34682015716377912 0 0.050993319213169137 -0.33602744449608912 0 0.05109773839685261 -0.35712953411903908 0 0.058449841846545891 -0.34682015716377912 0 0.050993319213169137 -0.33602744449608912 0 0.05109773839685261 -0.35712953411903908 0 0.031382972029819919 -0.35107294038741887 0 0.032752870232740747 -0.37745362804766908 0 0.05109773839685261 -0.35712953411903908 0 0.031382972029819919 -0.35107294038741887 0 0.032752870232740747 -0.37745362804766908 0 0.054717908399197483 -0.37286279319897331 0 0.05109773839685261 -0.35712953411903908 0 0.031382972029819919 -0.35107294038741887 0 0.01070073432333893 -0.36334026040461559 0 0.011772624846470049 -0.36611843627874802 0 0.032752870232740747 -0.37745362804766908 0 0.011772624846470049 -0.36611843627874802 0 0.01430168750699517 -0.37335140587589188 0 0.032752870232740747 -0.37745362804766908 0 0.031382972029819919 -0.35107294038741887 0 0.011772624846470049 -0.36611843627874802 0 0.032752870232740747 -0.37745362804766908 0 0.011772624846470049 -0.36611843627874802 0 0.031382972029819919 -0.35107294038741887 0 0.011772624846470049 -0.36611843627874802 0 0.031382972029819919 -0.35107294038741887 0 0.01070073432333893 -0.36334026040461559 0 0.013946201744000049 -0.34336489326696451 0 -0.00074183765288565566 -0.35175253106238907 0 0.01070073432333893 -0.36334026040461559 0 0.013946201744000049 -0.34336489326696451 0 -0.00074183765288565566 -0.35175253106238907 0 0.01070073432333893 -0.36334026040461559 0 -0.001478254409315928 -0.35731067486246981 0 -0.00074183765288565566 -0.35175253106238907 0 0.01070073432333893 -0.36334026040461559 0 -0.001478254409315928 -0.35731067486246981 0 -0.0064186499760666097 -0.35629006750430381 0 0.011772624846470049 -0.36611843627874802 0 -0.0064186499760666097 -0.35629006750430381 0 0.011772624846470049 -0.36611843627874802 0 0.0079703136112085557 -0.36903565429293261 0 -0.0064186499760666097 -0.35629006750430381 0 0.011772624846470049 -0.36611843627874802 0 -0.001478254409315928 -0.35731067486246981 0 0.01070073432333893 -0.36334026040461559 0 0.011772624846470049 -0.36611843627874802 0 -0.004500284718328351 -0.36977183894340099 0 0.0092917282261142653 -0.3791490187586205 0 0.0079703136112085557 -0.36903565429293261 0 0.0092917282261142653 -0.3791490187586205 0 0.0079703136112085557 -0.36903565429293261 0 0.01430168750699517 -0.37335140587589188 0 0.011772624846470049 -0.36611843627874802 0 0.0079703136112085557 -0.36903565429293261 0 0.01430168750699517 -0.37335140587589188 0 0.011772624846470049 -0.36611843627874802 0 0.0079703136112085557 -0.36903565429293261 0 0.02618595078899854 -0.31465698678655191 0 0.02846135930922597 -0.33003309425293159 0 0.0029984684333813618 -0.3235223761913148 0 0.031382972029819919 -0.35107294038741887 0 0.02846135930922597 -0.33003309425293159 0 0.013946201744000049 -0.34336489326696451 0 -0.00074183765288565566 -0.35175253106238907 0 0.013946201744000049 -0.34336489326696451 0 0.0029984684333813618 -0.3235223761913148 0 0.02846135930922597 -0.33003309425293159 0 0.013946201744000049 -0.34336489326696451 0 0.0029984684333813618 -0.3235223761913148 0 -0.00074183765288565566 -0.35175253106238907 0 0.0029984684333813618 -0.3235223761913148 0 0.02618595078899854 -0.31465698678655191 0 0.0029984684333813618 -0.3235223761913148 0 0.017163242628587729 -0.30599916260489751 0 0.0029984684333813618 -0.3235223761913148 0 0.0067387745196430242 -0.29529222132023969 0 0.0029984684333813618 -0.3235223761913148 0 0.0067387745196430242 -0.29529222132023969 0 0.017163242628587729 -0.30599916260489751 0 -0.0082219535966022404 -0.31630686611013298 0 0.0029984684333813618 -0.3235223761913148 0 0.0067387745196430242 -0.29529222132023969 0 0.0067387745196430242 -0.29529222132023969 0 0.017531312477772659 -0.28993467784798621 0 0.017163242628587729 -0.30599916260489751 0 -0.0053310229688179646 -0.2794973200367471 0 0.0073146390671123794 -0.29094585367415521 0 0.009530566450491015 -0.27422102640786272 0 0.0073146390671123794 -0.29094585367415521 0 0.017531312477772659 -0.28993467784798621 0 0.009530566450491015 -0.27422102640786272 0 -0.013379003010202299 -0.29299396755454787 0 0.0073146390671123794 -0.29094585367415521 0 0.0067387745196430242 -0.29529222132023969 0 0.0073146390671123794 -0.29094585367415521 0 0.009530566450491015 -0.27422102640786272 0 0.0073146390671123794 -0.29094585367415521 0 0.0067387745196430242 -0.29529222132023969 0 0.0073146390671123794 -0.29094585367415521 0 0.0067387745196430242 -0.29529222132023969 0 0.017531312477772659 -0.28993467784798621 0 0.0067387745196430242 -0.29529222132023969 0 0.017531312477772659 -0.28993467784798621 0 0.0073146390671123794 -0.29094585367415521 0 0.017531312477772659 -0.28993467784798621 0 0.017531312477772659 -0.28993467784798621 0 0.032196650305462621 -0.28393720387635007 0 0.009530566450491015 -0.27422102640786272 0 0.02939129520802666 -0.29487517990185841 0 0.028874900201639579 -0.28881196782024238 0 0.017163242628587729 -0.30599916260489751 0 0.017531312477772659 -0.28993467784798621 0 0.028874900201639579 -0.28881196782024238 0 0.017163242628587729 -0.30599916260489751 0 0.017531312477772659 -0.28993467784798621 0 0.028874900201639579 -0.28881196782024238 0 0.017531312477772659 -0.28993467784798621 0 0.032196650305462621 -0.28393720387635007 0 0.017531312477772659 -0.28993467784798621 0 0.028874900201639579 -0.28881196782024238 0 0.032196650305462621 -0.28393720387635007 0 0.028874900201639579 -0.28881196782024238 0 0.032196650305462621 -0.28393720387635007 0 0.028874900201639579 -0.28881196782024238 0 0.017163242628587729 -0.30599916260489751 0 0.02939129520802666 -0.29487517990185841 0 0.017163242628587729 -0.30599916260489751 0 0.032215447476422319 -0.30370197187078207 0 0.02618595078899854 -0.31465698678655191 0 0.017163242628587729 -0.30599916260489751 0 0.032215447476422319 -0.30370197187078207 0 0.045261243645986299 -0.31155392438924978 0 0.032215447476422319 -0.30370197187078207 0 0.039529168078805597 -0.28708040428240988 0 0.045261243645986299 -0.31155392438924978 0 0.039529168078805597 -0.28708040428240988 0 0.02618595078899854 -0.31465698678655191 0 0.045261243645986299 -0.31155392438924978 0 0.032215447476422319 -0.30370197187078207 0 0.02939129520802666 -0.29487517990185841 0 0.028874900201639579 -0.28881196782024238 0 0.039529168078805597 -0.28708040428240988 0 0.02939129520802666 -0.29487517990185841 0 0.032215447476422319 -0.30370197187078207 0 0.039529168078805597 -0.28708040428240988 0 0.028874900201639579 -0.28881196782024238 0 0.032196650305462621 -0.28393720387635007 0 0.039529168078805597 -0.28708040428240988 0 0.033517369836242032 -0.28199900992815619 0 0.032196650305462621 -0.28393720387635007 0 0.039529168078805597 -0.28708040428240988 0 0.033517369836242032 -0.28199900992815619 0 0.032196650305462621 -0.28393720387635007 0 0.032196650305462621 -0.28393720387635007 0 0.039529168078805597 -0.28708040428240988 0 0.039529168078805597 -0.28708040428240988 0 0.037836816779897392 -0.27985478538463487 0 0.033517369836242032 -0.28199900992815619 0 0.039529168078805597 -0.28708040428240988 0 0.037836816779897392 -0.27985478538463487 0 0.045784459478749581 -0.28180432181079068 0 0.039529168078805597 -0.28708040428240988 0 0.037836816779897392 -0.27985478538463487 0 0.063671304317619457 -0.29742931508965847 0 0.039529168078805597 -0.28708040428240988 0 0.055617764438804368 -0.28588065537840213 0 0.045784459478749581 -0.28180432181079068 0 0.039529168078805597 -0.28708040428240988 0 0.055617764438804368 -0.28588065537840213 0 0.063671304317619457 -0.29742931508965847 0 0.039529168078805597 -0.28708040428240988 0 0.063671304317619457 -0.29742931508965847 0 0.069403379884801455 -0.32190283519649848 0 0.045261243645986299 -0.31155392438924978 0 0.063671304317619457 -0.29742931508965847 0 0.045261243645986299 -0.31155392438924978 0 0.039529168078805597 -0.28708040428240988 0 0.050969553286227168 -0.25638742809172921 0 0.05572057847977574 -0.26740360196961599 0 0.042664665673484842 -0.26857508984452583 0 0.050969553286227168 -0.25638742809172921 0 0.05929568821017632 -0.24416858529782309 0 0.063252869376379417 -0.25649662315351202 0 0.050969553286227168 -0.25638742809172921 0 0.05929568821017632 -0.24416858529782309 0 0.063163595346589996 -0.2670144250680439 0 0.050969553286227168 -0.25638742809172921 0 0.05572057847977574 -0.26740360196961599 0 0.063163595346589996 -0.2670144250680439 0 0.063252869376379417 -0.25649662315351202 0 0.050969553286227168 -0.25638742809172921 0 0.063163595346589996 -0.2670144250680439 0 0.050969553286227168 -0.25638742809172921 0 0.066084499612803174 -0.27763746487416652 0 0.055617764438804368 -0.28588065537840213 0 0.049036642582491602 -0.27429505940991039 0 0.066084499612803174 -0.27763746487416652 0 0.05572057847977574 -0.26740360196961599 0 0.042664665673484842 -0.26857508984452583 0 0.066084499612803174 -0.27763746487416652 0 0.042664665673484842 -0.26857508984452583 0 0.066084499612803174 -0.27763746487416652 0 0.049036642582491602 -0.27429505940991039 0 0.042664665673484842 -0.26857508984452583 0 0.066084499612803174 -0.27763746487416652 0 0.063163595346589996 -0.2670144250680439 0 0.05572057847977574 -0.26740360196961599 0 0.045784459478749581 -0.28180432181079068 0 0.055617764438804368 -0.28588065537840213 0 0.049036642582491602 -0.27429505940991039 0 0.042664665673484842 -0.26857508984452583 0 0.037105665799666537 -0.27673308225876392 0 0.049036642582491602 -0.27429505940991039 0 0.042664665673484842 -0.26857508984452583 0 0.037105665799666537 -0.27673308225876392 0 0.049036642582491602 -0.27429505940991039 0 0.037836816779897392 -0.27985478538463487 0 0.037105665799666537 -0.27673308225876392 0 0.049036642582491602 -0.27429505940991039 0 0.037836816779897392 -0.27985478538463487 0 0.045784459478749581 -0.28180432181079068 0 0.049036642582491602 -0.27429505940991039 0 0.037836816779897392 -0.27985478538463487 0 0.033517369836242032 -0.28199900992815619 0 0.037105665799666537 -0.27673308225876392 0 0.033517369836242032 -0.28199900992815619 0 0.037836816779897392 -0.27985478538463487 0 0.033517369836242032 -0.28199900992815619 0 0.037836816779897392 -0.27985478538463487 0 0.037105665799666537 -0.27673308225876392 0 0.037836816779897392 -0.27985478538463487 0 0.037105665799666537 -0.27673308225876392 0 0.037105665799666537 -0.27673308225876392 0 0.031130890735527921 -0.27711622249539353 0 0.030321455059607118 -0.27099517277482682 0 0.033517369836242032 -0.28199900992815619 0 0.037105665799666537 -0.27673308225876392 0 0.031130890735527921 -0.27711622249539353 0 0.033517369836242032 -0.28199900992815619 0 0.032196650305462621 -0.28393720387635007 0 0.031130890735527921 -0.27711622249539353 0 0.037105665799666537 -0.27673308225876392 0 0.034450484048312288 -0.26539658761254009 0 0.042664665673484842 -0.26857508984452583 0 0.034450484048312288 -0.26539658761254009 0 0.042664665673484842 -0.26857508984452583 0 0.037105665799666537 -0.27673308225876392 0 0.034450484048312288 -0.26539658761254009 0 0.037105665799666537 -0.27673308225876392 0 0.034450484048312288 -0.26539658761254009 0 0.030321455059607118 -0.27099517277482682 0 0.034450484048312288 -0.26539658761254009 0 0.030500885315652961 -0.26386827852953348 0 0.030321455059607118 -0.27099517277482682 0 0.050969553286227168 -0.25638742809172921 0 0.034450484048312288 -0.26539658761254009 0 0.039266109448244137 -0.2461879830133091 0 0.034450484048312288 -0.26539658761254009 0 0.030500885315652961 -0.26386827852953348 0 0.050969553286227168 -0.25638742809172921 0 0.042664665673484842 -0.26857508984452583 0 0.034450484048312288 -0.26539658761254009 0 0.050969553286227168 -0.25638742809172921 0 0.042664665673484842 -0.26857508984452583 0 0.050969553286227168 -0.25638742809172921 0 0.039266109448244137 -0.2461879830133091 0 0.02062846028809431 -0.2607204990955283 0 0.01711732494150001 -0.25097009602916809 0 0.01403127854977735 -0.27236521228920929 0 0.034450484048312288 -0.26539658761254009 0 0.027562665610264939 -0.23598853793488461 0 0.034450484048312288 -0.26539658761254009 0 0.025927881846478588 -0.25629462338353232 0 0.027562665610264939 -0.23598853793488461 0 0.034450484048312288 -0.26539658761254009 0 0.025927881846478588 -0.25629462338353232 0 0.030500885315652961 -0.26386827852953348 0 0.030500885315652961 -0.26386827852953348 0 0.024863241332177741 -0.26282089153896299 0 0.025198844591401721 -0.26818382559869958 0 0.025927881846478588 -0.25629462338353232 0 0.030500885315652961 -0.26386827852953348 0 0.024863241332177741 -0.26282089153896299 0 0.025927881846478588 -0.25629462338353232 0 0.024863241332177741 -0.26282089153896299 0 0.02062846028809431 -0.2607204990955283 0 0.024863241332177741 -0.26282089153896299 0 0.02062846028809431 -0.2607204990955283 0 0.021178977263697382 -0.26650911795080739 0 0.025927881846478588 -0.25629462338353232 0 0.02062846028809431 -0.2607204990955283 0 0.01711732494150001 -0.25097009602916809 0 0.032196650305462621 -0.28393720387635007 0 0.009530566450491015 -0.27422102640786272 0 0.01403127854977735 -0.27236521228920929 0 0.032196650305462621 -0.28393720387635007 0 0.009530566450491015 -0.27422102640786272 0 0.032196650305462621 -0.28393720387635007 0 0.025143030560227288 -0.27369313495422309 0 0.01403127854977735 -0.27236521228920929 0 0.032196650305462621 -0.28393720387635007 0 0.031130890735527921 -0.27711622249539353 0 0.025143030560227288 -0.27369313495422309 0 0.031130890735527921 -0.27711622249539353 0 0.025143030560227288 -0.27369313495422309 0 0.030321455059607118 -0.27099517277482682 0 0.025143030560227288 -0.27369313495422309 0 0.025198844591401721 -0.26818382559869958 0 0.02094933504544232 -0.27036503450176519 0 0.025143030560227288 -0.27369313495422309 0 0.030321455059607118 -0.27099517277482682 0 0.025198844591401721 -0.26818382559869958 0 0.030500885315652961 -0.26386827852953348 0 0.030321455059607118 -0.27099517277482682 0 0.025198844591401721 -0.26818382559869958 0 0.024863241332177741 -0.26282089153896299 0 0.025198844591401721 -0.26818382559869958 0 0.021178977263697382 -0.26650911795080739 0 0.02062846028809431 -0.2607204990955283 0 0.021178977263697382 -0.26650911795080739 0 0.01403127854977735 -0.27236521228920929 0 0.025143030560227288 -0.27369313495422309 0 0.02094933504544232 -0.27036503450176519 0 0.01403127854977735 -0.27236521228920929 0 0.025198844591401721 -0.26818382559869958 0 0.021178977263697382 -0.26650911795080739 0 0.02094933504544232 -0.27036503450176519 0 0.021178977263697382 -0.26650911795080739 0 0.02094933504544232 -0.27036503450176519 0 0.01403127854977735 -0.27236521228920929 0 0.01711732494150001 -0.25097009602916809 0 0.01403127854977735 -0.27236521228920929 0 -0.013135790141680811 -0.26450473202623692 0 0.009530566450491015 -0.27422102640786272 0 0.012734451938935651 -0.25003953391982359 0 0.009530566450491015 -0.27422102640786272 0 0.01403127854977735 -0.27236521228920929 0 0.012734451938935651 -0.25003953391982359 0 0.01711732494150001 -0.25097009602916809 0 0.01403127854977735 -0.27236521228920929 0 0.012734451938935651 -0.25003953391982359 0 0.009530566450491015 -0.27422102640786272 0 0.012734451938935651 -0.25003953391982359 0 0.012734451938935651 -0.25003953391982359 0 0.015938337427378411 -0.2258580414317844 0 -0.0041270044632565851 -0.24036354253699119 0 0.012734451938935651 -0.25003953391982359 0 0.015938337427378411 -0.2258580414317844 0 -0.0041270044632565851 -0.24036354253699119 0 0.0048817812151679806 -0.21622235304774551 0 -0.0041270044632565851 -0.24036354253699119 0 0.015938337427378411 -0.2258580414317844 0 0.0048817812151679806 -0.21622235304774551 0 0.015938337427378411 -0.2258580414317844 0 0.0048817812151679806 -0.21622235304774551 0 0.02020337133322344 -0.229574979769127 0 0.027562665610264939 -0.23598853793488461 0 0.022435698781411991 -0.21409857429038731 0 0.027562665610264939 -0.23598853793488461 0 0.022435698781411991 -0.21409857429038731 0 0.032848738050503187 -0.22313338633460569 0 0.027562665610264939 -0.23598853793488461 0 0.022435698781411991 -0.21409857429038731 0 0.02020337133322344 -0.229574979769127 0 0.015938337427378411 -0.2258580414317844 0 0.02020337133322344 -0.229574979769127 0 0.015938337427378411 -0.2258580414317844 0 0.022435698781411991 -0.21409857429038731 0 0.02020337133322344 -0.229574979769127 0 0.022435698781411991 -0.21409857429038731 0 0.02020337133322344 -0.229574979769127 0 0.027562665610264939 -0.23598853793488461 0 0.012734451938935651 -0.25003953391982359 0 0.02020337133322344 -0.229574979769127 0 0.015938337427378411 -0.2258580414317844 0 0.025927881846478588 -0.25629462338353232 0 0.01711732494150001 -0.25097009602916809 0 0.027562665610264939 -0.23598853793488461 0 0.01711732494150001 -0.25097009602916809 0 0.02020337133322344 -0.229574979769127 0 0.01711732494150001 -0.25097009602916809 0 0.02020337133322344 -0.229574979769127 0 0.027562665610264939 -0.23598853793488461 0 0.01711732494150001 -0.25097009602916809 0 0.012734451938935651 -0.25003953391982359 0 0.02020337133322344 -0.229574979769127 0 -0.0033692767582445778 -0.1865352550921229 0 0.01304787858981893 -0.19433934781861331 0 0.0057877146420492213 -0.18650980480257859 0 0.01304787858981893 -0.19433934781861331 0 0.015972306848338901 -0.186502644931369 0 0.0057877146420492213 -0.18650980480257859 0 0.01304787858981893 -0.19433934781861331 0 0.015972306848338901 -0.186502644931369 0 0.01304787858981893 -0.19433934781861331 0 0.017869365084296349 -0.19460227522016479 0 -0.0013623835559313359 -0.20165386277560371 0 0.01304787858981893 -0.19433934781861331 0 0.0048817812151679806 -0.21622235304774551 0 0.01304787858981893 -0.19433934781861331 0 0.0048817812151679806 -0.21622235304774551 0 0.019280980274082361 -0.200629270559886 0 0.01304787858981893 -0.19433934781861331 0 0.0048817812151679806 -0.21622235304774551 0 0.015938337427378411 -0.2258580414317844 0 0.0048817812151679806 -0.21622235304774551 0 0.019280980274082361 -0.200629270559886 0 0.015938337427378411 -0.2258580414317844 0 0.022435698781411991 -0.21409857429038731 0 0.019280980274082361 -0.200629270559886 0 0.015938337427378411 -0.2258580414317844 0 0.019280980274082361 -0.200629270559886 0 0.022435698781411991 -0.21409857429038731 0 0.032878323800087622 -0.2067500810825427 0 0.032848738050503187 -0.22313338633460569 0 0.022435698781411991 -0.21409857429038731 0 0.019280980274082361 -0.200629270559886 0 0.02519027369047468 -0.1950015021969613 0 0.022435698781411991 -0.21409857429038731 0 0.02519027369047468 -0.1950015021969613 0 0.022435698781411991 -0.21409857429038731 0 0.02519027369047468 -0.1950015021969613 0 0.032878323800087622 -0.2067500810825427 0 0.022435698781411991 -0.21409857429038731 0 0.019280980274082361 -0.200629270559886 0 0.019280980274082361 -0.200629270559886 0 0.020063662515542601 -0.1947219356034261 0 0.017869365084296349 -0.19460227522016479 0 0.019280980274082361 -0.200629270559886 0 0.017869365084296349 -0.19460227522016479 0 0.01304787858981893 -0.19433934781861331 0 0.019280980274082361 -0.200629270559886 0 0.017869365084296349 -0.19460227522016479 0 0.019280980274082361 -0.200629270559886 0 0.020063662515542601 -0.1947219356034261 0 0.019280980274082361 -0.200629270559886 0 0.02519027369047468 -0.1950015021969613 0 0.020063662515542601 -0.1947219356034261 0 0.02519027369047468 -0.1950015021969613 0 0.026099474476638761 -0.18869814377180241 0 0.035518491049797103 -0.18673091951802931 0 0.02519027369047468 -0.1950015021969613 0 0.026099474476638761 -0.18869814377180241 0 0.02519027369047468 -0.1950015021969613 0 0.026099474476638761 -0.18869814377180241 0 0.020063662515542601 -0.1947219356034261 0 0.020063662515542601 -0.1947219356034261 0 0.017869365084296349 -0.19460227522016479 0 0.015972306848338901 -0.186502644931369 0 0.01304787858981893 -0.19433934781861331 0 0.017869365084296349 -0.19460227522016479 0 0.015972306848338901 -0.186502644931369 0 0.017869365084296349 -0.19460227522016479 0 0.015972306848338901 -0.186502644931369 0 0.020063662515542601 -0.1947219356034261 0 0.015972306848338901 -0.186502644931369 0 0.01780028614108126 -0.1816041385106682 0 0.02519027369047468 -0.1950015021969613 0 0.020063662515542601 -0.1947219356034261 0 0.020063662515542601 -0.1947219356034261 0 0.017869365084296349 -0.19460227522016479 0 0.02519027369047468 -0.1950015021969613 0 0.032878323800087622 -0.2067500810825427 0 0.052559633500140167 -0.19649402004703981 0 0.02519027369047468 -0.1950015021969613 0 0.052559633500140167 -0.19649402004703981 0 0.035518491049797103 -0.18673091951802931 0 0.02519027369047468 -0.1950015021969613 0 0.052559633500140167 -0.19649402004703981 0 0.032878323800087622 -0.2067500810825427 0 0.042017531312749733 -0.21434274908168841 0 0.052559633500140167 -0.19649402004703981 0 0.032878323800087622 -0.2067500810825427 0 0.042017531312749733 -0.21434274908168841 0 0.032848738050503187 -0.22313338633460569 0 0.042017531312749733 -0.21434274908168841 0 0.054441621117431317 -0.21078834876016939 0 0.052559633500140167 -0.19649402004703981 0 0.042017531312749733 -0.21434274908168841 0 0.054441621117431317 -0.21078834876016939 0 0.057303333238901459 -0.222703514500879 0 0.054441621117431317 -0.21078834876016939 0 0.057303333238901459 -0.222703514500879 0 0.065885986417933917 -0.2096131114110702 0 0.054441621117431317 -0.21078834876016939 0 0.052559633500140167 -0.19649402004703981 0 0.065885986417933917 -0.2096131114110702 0 0.034450484048312288 -0.26539658761254009 0 0.027562665610264939 -0.23598853793488461 0 0.039266109448244137 -0.2461879830133091 0 0.027562665610264939 -0.23598853793488461 0 0.039266109448244137 -0.2461879830133091 0 0.027562665610264939 -0.23598853793488461 0 0.039266109448244137 -0.2461879830133091 0 0.042617986440352251 -0.23245588290167951 0 0.027562665610264939 -0.23598853793488461 0 0.032848738050503187 -0.22313338633460569 0 0.042617986440352251 -0.23245588290167951 0 0.042017531312749733 -0.21434274908168841 0 0.032848738050503187 -0.22313338633460569 0 0.042617986440352251 -0.23245588290167951 0 0.042017531312749733 -0.21434274908168841 0 0.042617986440352251 -0.23245588290167951 0 0.057303333238901459 -0.222703514500879 0 0.042617986440352251 -0.23245588290167951 0 0.057303333238901459 -0.222703514500879 0 0.05929568821017632 -0.24416858529782309 0 0.039266109448244137 -0.2461879830133091 0 0.042617986440352251 -0.23245588290167951 0 0.05929568821017632 -0.24416858529782309 0 0.042617986440352251 -0.23245588290167951 0 0.05929568821017632 -0.24416858529782309 0 0.050969553286227168 -0.25638742809172921 0 0.039266109448244137 -0.2461879830133091 0 0.05929568821017632 -0.24416858529782309 0 0.079582640662523838 -0.25841605415645169 0 0.05929568821017632 -0.24416858529782309 0 0.076544452823221615 -0.2418656299360194 0 0.05929568821017632 -0.24416858529782309 0 0.076544452823221615 -0.2418656299360194 0 0.071882269288540315 -0.22569741507128871 0 0.05929568821017632 -0.24416858529782309 0 0.071882269288540315 -0.22569741507128871 0 0.090742891531442632 -0.25082384707713479 0 0.076544452823221615 -0.2418656299360194 0 0.087524468095934199 -0.24083574122919349 0 0.076544452823221615 -0.2418656299360194 0 0.087524468095934199 -0.24083574122919349 0 0.083560827610394572 -0.2343066445099922 0 0.087524468095934199 -0.24083574122919349 0 0.091645870130806301 -0.23444307494967279 0 0.083560827610394572 -0.2343066445099922 0 0.087524468095934199 -0.24083574122919349 0 0.091645870130806301 -0.23444307494967279 0 0.095128298383805807 -0.2427395096731482 0 0.090742891531442632 -0.25082384707713479 0 0.087524468095934199 -0.24083574122919349 0 0.095128298383805807 -0.2427395096731482 0 0.092976001503483091 -0.23002918089393609 0 0.071882269288540315 -0.22569741507128871 0 0.092976001503483091 -0.23002918089393609 0 0.083560827610394572 -0.2343066445099922 0 0.071882269288540315 -0.22569741507128871 0 0.092976001503483091 -0.23002918089393609 0 0.071882269288540315 -0.22569741507128871 0 0.088758453688117689 -0.21707587988990271 0 0.091645870130806301 -0.23444307494967279 0 0.092976001503483091 -0.23002918089393609 0 0.083560827610394572 -0.2343066445099922 0 0.091645870130806301 -0.23444307494967279 0 0.092976001503483091 -0.23002918089393609 0 0.076544452823221615 -0.2418656299360194 0 0.083560827610394572 -0.2343066445099922 0 0.071882269288540315 -0.22569741507128871 0 0.057303333238901459 -0.222703514500879 0 0.05929568821017632 -0.24416858529782309 0 0.071882269288540315 -0.22569741507128871 0 0.057303333238901459 -0.222703514500879 0 0.071882269288540315 -0.22569741507128871 0 0.065885986417933917 -0.2096131114110702 0 0.071882269288540315 -0.22569741507128871 0 0.080508198999321282 -0.21303861479360151 0 0.057303333238901459 -0.222703514500879 0 0.071882269288540315 -0.22569741507128871 0 0.071882269288540315 -0.22569741507128871 0 0.065885986417933917 -0.2096131114110702 0 0.080508198999321282 -0.21303861479360151 0 0.065885986417933917 -0.2096131114110702 0 0.079928993309805643 -0.19798653789712101 0 0.080508198999321282 -0.21303861479360151 0 0.052559633500140167 -0.19649402004703981 0 0.065885986417933917 -0.2096131114110702 0 0.079928993309805643 -0.19798653789712101 0 0.052559633500140167 -0.19649402004703981 0 0.079928993309805643 -0.19798653789712101 0 0.052559633500140167 -0.19649402004703981 0 0.079928993309805643 -0.19798653789712101 0 0.073405559501508399 -0.18449921630723379 0 0.079928993309805643 -0.19798653789712101 0 0.088832573103931251 -0.1862407775921775 0 0.073405559501508399 -0.18449921630723379 0 0.079928993309805643 -0.19798653789712101 0 0.089134128710102151 -0.20037981451591441 0 0.088832573103931251 -0.1862407775921775 0 0.071882269288540315 -0.22569741507128871 0 0.080508198999321282 -0.21303861479360151 0 0.088758453688117689 -0.21707587988990271 0 0.089134128710102151 -0.20037981451591441 0 0.080508198999321282 -0.21303861479360151 0 0.079928993309805643 -0.19798653789712101 0 0.089134128710102151 -0.20037981451591441 0 0.080508198999321282 -0.21303861479360151 0 0.089134128710102151 -0.20037981451591441 0 0.091322717649492346 -0.20877997575000501 0 0.099857275760875872 -0.20719443226344919 0 0.089134128710102151 -0.20037981451591441 0 0.080508198999321282 -0.21303861479360151 0 0.091322717649492346 -0.20877997575000501 0 0.080508198999321282 -0.21303861479360151 0 0.091322717649492346 -0.20877997575000501 0 0.088758453688117689 -0.21707587988990271 0 0.091322717649492346 -0.20877997575000501 0 0.088758453688117689 -0.21707587988990271 0 0.099857275760875872 -0.20719443226344919 0 0.092976001503483091 -0.23002918089393609 0 0.088758453688117689 -0.21707587988990271 0 0.099857275760875872 -0.20719443226344919 0 0.092976001503483091 -0.23002918089393609 0 0.099857275760875872 -0.20719443226344919 0 0.099857275760875872 -0.20719443226344919 0 0.1103486490406296 -0.2122177742064161 0 0.11536460230474629 -0.20352698436675029 0 0.099857275760875872 -0.20719443226344919 0 0.1103486490406296 -0.2122177742064161 0 0.1069852100211541 -0.22179665609962301 0 0.099857275760875872 -0.20719443226344919 0 0.11536460230474629 -0.20352698436675029 0 0.1067385500182686 -0.1843596836329624 0 0.089134128710102151 -0.20037981451591441 0 0.1067385500182686 -0.1843596836329624 0 0.088832573103931251 -0.1862407775921775 0 0.089134128710102151 -0.20037981451591441 0 0.099857275760875872 -0.20719443226344919 0 0.1067385500182686 -0.1843596836329624 0 0.099857275760875872 -0.20719443226344919 0 0.1067385500182686 -0.1843596836329624 0 0.12454488208232919 -0.1889002379084101 0 0.11536460230474629 -0.20352698436675029 0 0.1067385500182686 -0.1843596836329624 0 0.1103486490406296 -0.2122177742064161 0 0.12392817470783039 -0.21827741454854449 0 0.1069852100211541 -0.22179665609962301 0 0.1103486490406296 -0.2122177742064161 0 0.11536460230474629 -0.20352698436675029 0 0.12392817470783039 -0.21827741454854449 0 0.12392817470783039 -0.21827741454854449 0 0.1166162361214069 -0.23488389125594281 0 0.1069852100211541 -0.22179665609962301 0 0.1075085407432959 -0.25056148448873611 0 0.1166162361214069 -0.23488389125594281 0 0.1284525449190799 -0.24687969302089219 0 0.1075085407432959 -0.25056148448873611 0 0.1166162361214069 -0.23488389125594281 0 0.10098864520756271 -0.238371220151153 0 0.092976001503483091 -0.23002918089393609 0 0.1166162361214069 -0.23488389125594281 0 0.10098864520756271 -0.238371220151153 0 0.090742891531442632 -0.25082384707713479 0 0.1075085407432959 -0.25056148448873611 0 0.095128298383805807 -0.2427395096731482 0 0.1075085407432959 -0.25056148448873611 0 0.095128298383805807 -0.2427395096731482 0 0.10098864520756271 -0.238371220151153 0 0.091645870130806301 -0.23444307494967279 0 0.095128298383805807 -0.2427395096731482 0 0.10098864520756271 -0.238371220151153 0 0.092976001503483091 -0.23002918089393609 0 0.1166162361214069 -0.23488389125594281 0 0.092976001503483091 -0.23002918089393609 0 0.1166162361214069 -0.23488389125594281 0 0.1069852100211541 -0.22179665609962301 0 0.092976001503483091 -0.23002918089393609 0 0.099857275760875872 -0.20719443226344919 0 0.1069852100211541 -0.22179665609962301 0 0.091645870130806301 -0.23444307494967279 0 0.092976001503483091 -0.23002918089393609 0 0.10098864520756271 -0.238371220151153 0 0.09457628853914514 -0.14327748642630461 0 0.1040592008594057 -0.15752606639575911 0 0.094167288550399714 -0.16073224519957591 0 0.1085662006434794 -0.14614004285776791 0 0.09457628853914514 -0.14327748642630461 0 0.1024051907827668 -0.13250073025638751 0 0.1085662006434794 -0.14614004285776791 0 0.09457628853914514 -0.14327748642630461 0 0.1040592008594057 -0.15752606639575911 0 0.1085662006434794 -0.14614004285776791 0 0.1136198242756614 -0.16152493500247561 0 0.1040592008594057 -0.15752606639575911 0 0.09457628853914514 -0.14327748642630461 0 0.1024051907827668 -0.13250073025638751 0 0.091218715485478247 -0.12589577324664561 0 0.1085662006434794 -0.14614004285776791 0 0.1024051907827668 -0.13250073025638751 0 0.11632079594605441 -0.1283509318835161 0 0.1024051907827668 -0.13250073025638751 0 0.091218715485478247 -0.12589577324664561 0 0.1013439532996771 -0.11883941686770309 0 0.1024051907827668 -0.13250073025638751 0 0.11632079594605441 -0.1283509318835161 0 0.1013439532996771 -0.11883941686770309 0 0.11632079594605441 -0.1283509318835161 0 0.12641353394554081 -0.1142415228691516 0 0.1297954289867197 -0.13653009208207589 0 0.11632079594605441 -0.1283509318835161 0 0.1203722275254924 -0.1547889228157035 0 0.1297954289867197 -0.13653009208207589 0 0.1085662006434794 -0.14614004285776791 0 0.11632079594605441 -0.1283509318835161 0 0.1203722275254924 -0.1547889228157035 0 0.11632079594605441 -0.1283509318835161 0 0.1203722275254924 -0.1547889228157035 0 0.1085662006434794 -0.14614004285776791 0 0.1203722275254924 -0.1547889228157035 0 0.1136198242756614 -0.16152493500247561 0 0.1203722275254924 -0.1547889228157035 0 0.12444326469747551 -0.1648802859662053 0 0.1136198242756614 -0.16152493500247561 0 0.12444326469747551 -0.1648802859662053 0 0.1136198242756614 -0.16152493500247561 0 0.119803416229997 -0.17584258034360181 0 0.1136198242756614 -0.16152493500247561 0 0.119803416229997 -0.17584258034360181 0 0.1067385500182686 -0.1843596836329624 0 0.12454488208232919 -0.1889002379084101 0 0.119803416229997 -0.17584258034360181 0 0.1067385500182686 -0.1843596836329624 0 0.1136198242756614 -0.16152493500247561 0 0.1067385500182686 -0.1843596836329624 0 0.1136198242756614 -0.16152493500247561 0 0.1067385500182686 -0.1843596836329624 0 0.09892477370643793 -0.17104766855017711 0 0.1067385500182686 -0.1843596836329624 0 0.09892477370643793 -0.17104766855017711 0 0.088832573103931251 -0.1862407775921775 0 0.1136198242756614 -0.16152493500247561 0 0.1040592008594057 -0.15752606639575911 0 0.09892477370643793 -0.17104766855017711 0 0.1040592008594057 -0.15752606639575911 0 0.09892477370643793 -0.17104766855017711 0 0.094167288550399714 -0.16073224519957591 0 0.094167288550399714 -0.16073224519957591 0 0.080988609298250899 -0.16197153609101811 0 0.085396293509374138 -0.17555686753058289 0 0.09892477370643793 -0.17104766855017711 0 0.094167288550399714 -0.16073224519957591 0 0.085396293509374138 -0.17555686753058289 0 0.080988609298250899 -0.16197153609101811 0 0.085396293509374138 -0.17555686753058289 0 0.07273907127746182 -0.16992051387414239 0 0.094167288550399714 -0.16073224519957591 0 0.080988609298250899 -0.16197153609101811 0 0.080852344510724428 -0.14989686568903621 0 0.09892477370643793 -0.17104766855017711 0 0.088832573103931251 -0.1862407775921775 0 0.085396293509374138 -0.17555686753058289 0 0.088832573103931251 -0.1862407775921775 0 0.085396293509374138 -0.17555686753058289 0 0.073405559501508399 -0.18449921630723379 0 0.052559633500140167 -0.19649402004703981 0 0.073405559501508399 -0.18449921630723379 0 0.062274460661385637 -0.17732598044099021 0 0.085396293509374138 -0.17555686753058289 0 0.073405559501508399 -0.18449921630723379 0 0.07273907127746182 -0.16992051387414239 0 0.073405559501508399 -0.18449921630723379 0 0.07273907127746182 -0.16992051387414239 0 0.062274460661385637 -0.17732598044099021 0 0.080988609298250899 -0.16197153609101811 0 0.07161923957607047 -0.15677782580851221 0 0.07273907127746182 -0.16992051387414239 0 0.07273907127746182 -0.16992051387414239 0 0.062274460661385637 -0.17732598044099021 0 0.060381499574820127 -0.1647219059264943 0 0.07161923957607047 -0.15677782580851221 0 0.07273907127746182 -0.16992051387414239 0 0.060381499574820127 -0.1647219059264943 0 0.07161923957607047 -0.15677782580851221 0 0.058388290445331663 -0.15202371087078731 0 0.060381499574820127 -0.1647219059264943 0 0.07161923957607047 -0.15677782580851221 0 0.068747749749356393 -0.14528491634064669 0 0.058388290445331663 -0.15202371087078731 0 0.068747749749356393 -0.14528491634064669 0 0.080852344510724428 -0.14989686568903621 0 0.07501489135112395 -0.1313371842681596 0 0.080988609298250899 -0.16197153609101811 0 0.07161923957607047 -0.15677782580851221 0 0.080852344510724428 -0.14989686568903621 0 0.07161923957607047 -0.15677782580851221 0 0.068747749749356393 -0.14528491634064669 0 0.080852344510724428 -0.14989686568903621 0 0.09457628853914514 -0.14327748642630461 0 0.094167288550399714 -0.16073224519957591 0 0.080852344510724428 -0.14989686568903621 0 0.09457628853914514 -0.14327748642630461 0 0.080852344510724428 -0.14989686568903621 0 0.07501489135112395 -0.1313371842681596 0 0.09457628853914514 -0.14327748642630461 0 0.091218715485478247 -0.12589577324664561 0 0.07501489135112395 -0.1313371842681596 0 0.068747749749356393 -0.14528491634064669 0 0.07501489135112395 -0.1313371842681596 0 0.057157549162350219 -0.13908537946467861 0 0.07501489135112395 -0.1313371842681596 0 0.055668129581918802 -0.12685550604352391 0 0.057157549162350219 -0.13908537946467861 0 0.055668129581918802 -0.12685550604352391 0 0.043219538279132642 -0.1346075969994612 0 0.044995584341129213 -0.120807544185076 0 0.055668129581918802 -0.12685550604352391 0 0.057157549162350219 -0.13908537946467861 0 0.043219538279132642 -0.1346075969994612 0 0.068747749749356393 -0.14528491634064669 0 0.057157549162350219 -0.13908537946467861 0 0.058388290445331663 -0.15202371087078731 0 0.058388290445331663 -0.15202371087078731 0 0.043856431697066392 -0.14825125237117009 0 0.046680584910513037 -0.16028852684149 0 0.057157549162350219 -0.13908537946467861 0 0.043856431697066392 -0.14825125237117009 0 0.043219538279132642 -0.1346075969994612 0 0.057157549162350219 -0.13908537946467861 0 0.058388290445331663 -0.15202371087078731 0 0.043856431697066392 -0.14825125237117009 0 0.043856431697066392 -0.14825125237117009 0 0.043219538279132642 -0.1346075969994612 0 0.02659552962005618 -0.14542232864481541 0 0.043856431697066392 -0.14825125237117009 0 0.034804433166981077 -0.15860062353512849 0 0.02659552962005618 -0.14542232864481541 0 0.043856431697066392 -0.14825125237117009 0 0.046680584910513037 -0.16028852684149 0 0.034804433166981077 -0.15860062353512849 0 0.043219538279132642 -0.1346075969994612 0 0.031044005272275039 -0.1272235712875032 0 0.02659552962005618 -0.14542232864481541 0 0.043219538279132642 -0.1346075969994612 0 0.031044005272275039 -0.1272235712875032 0 0.044995584341129213 -0.120807544185076 0 0.052559633500140167 -0.19649402004703981 0 0.062274460661385637 -0.17732598044099021 0 0.050587350578158163 -0.17199487772304389 0 0.052559633500140167 -0.19649402004703981 0 0.050587350578158163 -0.17199487772304389 0 0.039814433621261039 -0.1771396286460338 0 0.050587350578158163 -0.17199487772304389 0 0.060381499574820127 -0.1647219059264943 0 0.046680584910513037 -0.16028852684149 0 0.062274460661385637 -0.17732598044099021 0 0.050587350578158163 -0.17199487772304389 0 0.060381499574820127 -0.1647219059264943 0 0.058388290445331663 -0.15202371087078731 0 0.060381499574820127 -0.1647219059264943 0 0.046680584910513037 -0.16028852684149 0 0.046680584910513037 -0.16028852684149 0 0.034804433166981077 -0.15860062353512849 0 0.037440290491704997 -0.1694514579659237 0 0.034804433166981077 -0.15860062353512849 0 0.037440290491704997 -0.1694514579659237 0 0.023329596067799191 -0.1700721321241207 0 0.050587350578158163 -0.17199487772304389 0 0.046680584910513037 -0.16028852684149 0 0.037440290491704997 -0.1694514579659237 0 0.052559633500140167 -0.19649402004703981 0 0.039814433621261039 -0.1771396286460338 0 0.035518491049797103 -0.18673091951802931 0 0.050587350578158163 -0.17199487772304389 0 0.037440290491704997 -0.1694514579659237 0 0.039814433621261039 -0.1771396286460338 0 0.037440290491704997 -0.1694514579659237 0 0.039814433621261039 -0.1771396286460338 0 0.032499984454201443 -0.17833457026610719 0 0.039814433621261039 -0.1771396286460338 0 0.032499984454201443 -0.17833457026610719 0 0.035518491049797103 -0.18673091951802931 0 0.026099474476638761 -0.18869814377180241 0 0.032499984454201443 -0.17833457026610719 0 0.035518491049797103 -0.18673091951802931 0 0.020063662515542601 -0.1947219356034261 0 0.023329596067799191 -0.1700721321241207 0 0.026099474476638761 -0.18869814377180241 0 0.032499984454201443 -0.17833457026610719 0 0.023329596067799191 -0.1700721321241207 0 0.026099474476638761 -0.18869814377180241 0 0.020063662515542601 -0.1947219356034261 0 0.023329596067799191 -0.1700721321241207 0 0.020063662515542601 -0.1947219356034261 0 0.01780028614108126 -0.1816041385106682 0 0.023329596067799191 -0.1700721321241207 0 0.015972306848338901 -0.186502644931369 0 0.01780028614108126 -0.1816041385106682 0 0.037440290491704997 -0.1694514579659237 0 0.032499984454201443 -0.17833457026610719 0 0.023329596067799191 -0.1700721321241207 0 0.023329596067799191 -0.1700721321241207 0 0.01030552788973225 -0.16230791351880899 0 0.015958975908007191 -0.1514614495187683 0 0.034804433166981077 -0.15860062353512849 0 0.023329596067799191 -0.1700721321241207 0 0.02659552962005618 -0.14542232864481541 0 0.01780028614108126 -0.1816041385106682 0 0.023329596067799191 -0.1700721321241207 0 0.01030552788973225 -0.16230791351880899 0 0.023329596067799191 -0.1700721321241207 0 0.02659552962005618 -0.14542232864481541 0 -0.001887691363514975 -0.164656958179625 0 0.01030552788973225 -0.16230791351880899 0 2.2319898320726539e-05 -0.15308584406029441 0 -0.001887691363514975 -0.164656958179625 0 -5.3544461884005358e-06 -0.1771938024683295 0 0.01030552788973225 -0.16230791351880899 0 0.015972306848338901 -0.186502644931369 0 0.01780028614108126 -0.1816041385106682 0 0.01030552788973225 -0.16230791351880899 0 0.015972306848338901 -0.186502644931369 0 0.01030552788973225 -0.16230791351880899 0 -5.3544461884005358e-06 -0.1771938024683295 0 0.015972306848338901 -0.186502644931369 0 0.01030552788973225 -0.16230791351880899 0 -5.3544461884005358e-06 -0.1771938024683295 0 0.015972306848338901 -0.186502644931369 0 0.0057877146420492213 -0.18650980480257859 0 -0.0033692767582445778 -0.1865352550921229 0 -5.3544461884005358e-06 -0.1771938024683295 0 0.0057877146420492213 -0.18650980480257859 0 0.020685529134713242 -0.1334480787573229 0 0.031044005272275039 -0.1272235712875032 0 0.02659552962005618 -0.14542232864481541 0 0.020685529134713242 -0.1334480787573229 0 0.01666858614473242 -0.1432411966977096 0 0.01352174788559549 -0.1356140404713681 0 0.020685529134713242 -0.1334480787573229 0 0.01352174788559549 -0.1356140404713681 0 0.012989023742748599 -0.1284818226525006 0 0.020685529134713242 -0.1334480787573229 0 0.012989023742748599 -0.1284818226525006 0 0.023294282142871742 -0.1207055127900406 0 0.020685529134713242 -0.1334480787573229 0 0.031044005272275039 -0.1272235712875032 0 0.023294282142871742 -0.1207055127900406 0 0.023329596067799191 -0.1700721321241207 0 0.02659552962005618 -0.14542232864481541 0 0.015958975908007191 -0.1514614495187683 0 0.020685529134713242 -0.1334480787573229 0 0.02659552962005618 -0.14542232864481541 0 0.01666858614473242 -0.1432411966977096 0 0.02659552962005618 -0.14542232864481541 0 0.015958975908007191 -0.1514614495187683 0 0.01666858614473242 -0.1432411966977096 0 0.015958975908007191 -0.1514614495187683 0 0.01666858614473242 -0.1432411966977096 0 0.0085586979493707596 -0.14172270514721641 0 0.01030552788973225 -0.16230791351880899 0 0.015958975908007191 -0.1514614495187683 0 0.0085586979493707596 -0.14172270514721641 0 0.01030552788973225 -0.16230791351880899 0 0.0085586979493707596 -0.14172270514721641 0 0.0046387489311270954 -0.13811318210624859 0 0.01030552788973225 -0.16230791351880899 0 0.0046387489311270954 -0.13811318210624859 0 0.01030552788973225 -0.16230791351880899 0 2.2319898320726539e-05 -0.15308584406029441 0 0.0046387489311270954 -0.13811318210624859 0 -0.003295276397832322 -0.14382612380074011 0 2.2319898320726539e-05 -0.15308584406029441 0 0.0046387489311270954 -0.13811318210624859 0 -0.001028030027478062 -0.11391845069368831 0 0.0046387489311270954 -0.13811318210624859 0 0.012989023742748599 -0.1284818226525006 0 -0.001028030027478062 -0.11391845069368831 0 0.0046387489311270954 -0.13811318210624859 0 0.0085586979493707596 -0.14172270514721641 0 0.012989023742748599 -0.1284818226525006 0 0.0085586979493707596 -0.14172270514721641 0 0.0046387489311270954 -0.13811318210624859 0 0.012989023742748599 -0.1284818226525006 0 0.0085586979493707596 -0.14172270514721641 0 0.01352174788559549 -0.1356140404713681 0 0.012989023742748599 -0.1284818226525006 0 0.01666858614473242 -0.1432411966977096 0 0.0085586979493707596 -0.14172270514721641 0 0.01352174788559549 -0.1356140404713681 0 0.01352174788559549 -0.1356140404713681 0 0.012989023742748599 -0.1284818226525006 0 -0.001028030027478062 -0.11391845069368831 0 0.012989023742748599 -0.1284818226525006 0 0.011412519828645421 -0.1073752716192235 0 0.012989023742748599 -0.1284818226525006 0 0.021114501190329451 -0.1041972672688614 0 0.011412519828645421 -0.1073752716192235 0 0.012989023742748599 -0.1284818226525006 0 0.011412519828645421 -0.1073752716192235 0 0.023294282142871742 -0.1207055127900406 0 0.030027390330725011 -0.1121775824533021 0 0.021114501190329451 -0.1041972672688614 0 0.012989023742748599 -0.1284818226525006 0 0.023294282142871742 -0.1207055127900406 0 0.021114501190329451 -0.1041972672688614 0 0.012989023742748599 -0.1284818226525006 0 0.021114501190329451 -0.1041972672688614 0 0.031044005272275039 -0.1272235712875032 0 0.023294282142871742 -0.1207055127900406 0 0.030027390330725011 -0.1121775824533021 0 0.030192840571277781 -0.103025418710359 0 0.021114501190329451 -0.1041972672688614 0 0.029239978637909569 -0.079912711885221893 0 0.030027390330725011 -0.1121775824533021 0 0.030192840571277781 -0.103025418710359 0 0.021114501190329451 -0.1041972672688614 0 0.011412519828645421 -0.1073752716192235 0 0.0098360159145431079 -0.086268720585946285 0 0.011412519828645421 -0.1073752716192235 0 0.0033814241824068128 -0.099321540544996478 0 0.0098360159145431079 -0.086268720585946285 0 0.021114501190329451 -0.1041972672688614 0 0.011412519828645421 -0.1073752716192235 0 0.0098360159145431079 -0.086268720585946285 0 -0.001028030027478062 -0.11391845069368831 0 0.011412519828645421 -0.1073752716192235 0 0.0033814241824068128 -0.099321540544996478 0 -0.0066948089860832194 -0.089723719281127878 0 0.0033814241824068128 -0.099321540544996478 0 0.0098360159145431079 -0.086268720585946285 0 -0.00024021725394687791 -0.076670899322077657 0 -0.0066948089860832194 -0.089723719281127878 0 0.0098360159145431079 -0.086268720585946285 0 0.0098360159145431079 -0.086268720585946285 0 0.0082595120004408315 -0.065162169552669041 0 0.01715474364761958 -0.065003936776481391 0 -0.00024021725394687791 -0.076670899322077657 0 0.0098360159145431079 -0.086268720585946285 0 0.0082595120004408315 -0.065162169552669041 0 0.0098360159145431079 -0.086268720585946285 0 0.0082595120004408315 -0.065162169552669041 0 0.0082595120004408315 -0.065162169552669041 0 0.01715474364761958 -0.065003936776481391 0 0.01715474364761958 -0.065003936776481391 0 0.029239978637909569 -0.079912711885221893 0 0.03736545608548969 -0.055628156501582357 0 0.0098360159145431079 -0.086268720585946285 0 0.01715474364761958 -0.065003936776481391 0 0.029239978637909569 -0.079912711885221893 0 0.021114501190329451 -0.1041972672688614 0 0.0098360159145431079 -0.086268720585946285 0 0.029239978637909569 -0.079912711885221893 0 0.021114501190329451 -0.1041972672688614 0 0.029239978637909569 -0.079912711885221893 0 0.0454814956437877 -0.084188917138116409 0 0.053027828366359137 -0.1000226369663761 0 0.036298843294205137 -0.096205872852507146 0 0.030192840571277781 -0.103025418710359 0 0.029239978637909569 -0.079912711885221893 0 0.036298843294205137 -0.096205872852507146 0 0.029239978637909569 -0.079912711885221893 0 0.0454814956437877 -0.084188917138116409 0 0.036298843294205137 -0.096205872852507146 0 0.029239978637909569 -0.079912711885221893 0 0.046268124595260272 -0.069916709785880368 0 0.03736545608548969 -0.055628156501582357 0 0.029239978637909569 -0.079912711885221893 0 0.0454814956437877 -0.084188917138116409 0 0.046268124595260272 -0.069916709785880368 0 0.029239978637909569 -0.079912711885221893 0 0.03736545608548969 -0.055628156501582357 0 0.046268124595260272 -0.069916709785880368 0 0.060396487192455869 -0.077688968062046379 0 0.058857205416658537 -0.052164795342434761 0 0.0454814956437877 -0.084188917138116409 0 0.046268124595260272 -0.069916709785880368 0 0.060396487192455869 -0.077688968062046379 0 0.0454814956437877 -0.084188917138116409 0 0.060396487192455869 -0.077688968062046379 0 0.053027828366359137 -0.1000226369663761 0 0.060396487192455869 -0.077688968062046379 0 0.053027828366359137 -0.1000226369663761 0 0.068722248181336584 -0.091728672433855754 0 0.053027828366359137 -0.1000226369663761 0 0.068722248181336584 -0.091728672433855754 0 0.053027828366359137 -0.1000226369663761 0 0.061629400372374903 -0.1161342973840119 0 0.06921873473027039 -0.1039119745009328 0 0.055668129581918802 -0.12685550604352391 0 0.061629400372374903 -0.1161342973840119 0 0.044995584341129213 -0.120807544185076 0 0.053027828366359137 -0.1000226369663761 0 0.061629400372374903 -0.1161342973840119 0 0.044995584341129213 -0.120807544185076 0 0.030027390330725011 -0.1121775824533021 0 0.053027828366359137 -0.1000226369663761 0 0.044995584341129213 -0.120807544185076 0 0.031044005272275039 -0.1272235712875032 0 0.030027390330725011 -0.1121775824533021 0 0.044995584341129213 -0.120807544185076 0 0.030027390330725011 -0.1121775824533021 0 0.053027828366359137 -0.1000226369663761 0 0.030027390330725011 -0.1121775824533021 0 0.030192840571277781 -0.103025418710359 0 0.036298843294205137 -0.096205872852507146 0 0.030027390330725011 -0.1121775824533021 0 0.053027828366359137 -0.1000226369663761 0 0.036298843294205137 -0.096205872852507146 0 0.029823443873244929 -0.015238663034871411 0 0.026669856371053929 -0.001868688990480078 0 0.01381512893962817 -0.01134674955611437 0 0.0119194590113617 0.003513960174329206 0 0.026669856371053929 -0.001868688990480078 0 0.01381512893962817 -0.01134674955611437 0 -0.0091135872956926781 -0.0064884857586527227 0 0.0119194590113617 0.003513960174329206 0 -0.0091135872956926781 -0.0064884857586527227 0 0.01381512893962817 -0.01134674955611437 0 0.0051143707887136552 -0.023054387327477829 0 -0.0091135872956926781 -0.0064884857586527227 0 0.0119194590113617 0.003513960174329206 0 0.01381512893962817 -0.01134674955611437 0 0.01381512893962817 -0.01134674955611437 0 0.0051143707887136552 -0.023054387327477829 0 0.02065811054144278 -0.029719113570340398 0 0.029823443873244929 -0.015238663034871411 0 0.01381512893962817 -0.01134674955611437 0 0.02065811054144278 -0.029719113570340398 0 0.02065811054144278 -0.029719113570340398 0 0.0066869413945772234 -0.044108278440073492 0 0.02219938249975769 -0.049407012891355899 0 0.02065811054144278 -0.029719113570340398 0 0.02219938249975769 -0.049407012891355899 0 0.045490933533069808 -0.031343601117942821 0 0.0051143707887136552 -0.023054387327477829 0 0.0066869413945772234 -0.044108278440073492 0 0.0051143707887136552 -0.023054387327477829 0 0.02065811054144278 -0.029719113570340398 0 0.0066869413945772234 -0.044108278440073492 0 -0.007540626864187619 -0.02996866905717829 0 0.0051143707887136552 -0.023054387327477829 0 0.0066869413945772234 -0.044108278440073492 0 0.0082595120004408315 -0.065162169552669041 0 0.0066869413945772234 -0.044108278440073492 0 -0.0056097205319509333 -0.050804953611167721 0 0.0082595120004408315 -0.065162169552669041 0 0.0066869413945772234 -0.044108278440073492 0 0.0082595120004408315 -0.065162169552669041 0 0.0066869413945772234 -0.044108278440073492 0 0.02219938249975769 -0.049407012891355899 0 0.01715474364761958 -0.065003936776481391 0 0.02219938249975769 -0.049407012891355899 0 0.03736545608548969 -0.055628156501582357 0 0.0082595120004408315 -0.065162169552669041 0 0.01715474364761958 -0.065003936776481391 0 0.02219938249975769 -0.049407012891355899 0 0.046268124595260272 -0.069916709785880368 0 0.03736545608548969 -0.055628156501582357 0 0.058857205416658537 -0.052164795342434761 0 0.03736545608548969 -0.055628156501582357 0 0.058857205416658537 -0.052164795342434761 0 0.045490933533069808 -0.031343601117942821 0 0.058857205416658537 -0.052164795342434761 0 0.061117874070944912 -0.034626232217066649 0 0.045490933533069808 -0.031343601117942821 0 0.02219938249975769 -0.049407012891355899 0 0.03736545608548969 -0.055628156501582357 0 0.045490933533069808 -0.031343601117942821 0 0.03736545608548969 -0.055628156501582357 0 0.045490933533069808 -0.031343601117942821 0 0.029823443873244929 -0.015238663034871411 0 0.02065811054144278 -0.029719113570340398 0 0.045490933533069808 -0.031343601117942821 0 0.029823443873244929 -0.015238663034871411 0 0.045490933533069808 -0.031343601117942821 0 0.045313929399375619 -0.0037494574130846488 0 0.061117874070944912 -0.034626232217066649 0 0.045490933533069808 -0.031343601117942821 0 0.06361918667926364 -0.019315338165353989 0 0.045490933533069808 -0.031343601117942821 0 0.045313929399375619 -0.0037494574130846488 0 0.06361918667926364 -0.019315338165353989 0 0.067233990164689603 0.0045101081110712534 0 0.045313929399375619 -0.0037494574130846488 0 0.06361918667926364 -0.019315338165353989 0 0.029823443873244929 -0.015238663034871411 0 0.026669856371053929 -0.001868688990480078 0 0.045313929399375619 -0.0037494574130846488 0 0.067233990164689603 0.0045101081110712534 0 0.085144050071697161 -0.011962341956641099 0 0.06361918667926364 -0.019315338165353989 0 0.061117874070944912 -0.034626232217066649 0 0.06361918667926364 -0.019315338165353989 0 0.076504170654787679 -0.035681194242535033 0 0.085144050071697161 -0.011962341956641099 0 0.06361918667926364 -0.019315338165353989 0 0.076504170654787679 -0.035681194242535033 0 0.085144050071697161 -0.011962341956641099 0 0.091086215380791896 -0.034045069312210033 0 0.1000552678659085 -0.022208726231411721 0 0.085144050071697161 -0.011962341956641099 0 0.091086215380791896 -0.034045069312210033 0 0.076504170654787679 -0.035681194242535033 0 0.091086215380791896 -0.034045069312210033 0 0.076504170654787679 -0.035681194242535033 0 0.081771003470835921 -0.060031709175514737 0 0.091086215380791896 -0.034045069312210033 0 0.081771003470835921 -0.060031709175514737 0 0.1031455197492164 -0.042374450288983748 0 0.058857205416658537 -0.052164795342434761 0 0.061117874070944912 -0.034626232217066649 0 0.076504170654787679 -0.035681194242535033 0 0.058857205416658537 -0.052164795342434761 0 0.076504170654787679 -0.035681194242535033 0 0.081771003470835921 -0.060031709175514737 0 0.081771003470835921 -0.060031709175514737 0 0.099664739893759055 -0.051331340964241329 0 0.094131515333126622 -0.065398886954370711 0 0.081771003470835921 -0.060031709175514737 0 0.1031455197492164 -0.042374450288983748 0 0.10411425202137781 -0.048696002195987582 0 0.1132493591638989 -0.055408604993235688 0 0.1065918045815443 -0.065506349578072137 0 0.099664739893759055 -0.051331340964241329 0 0.10411425202137781 -0.048696002195987582 0 0.1065918045815443 -0.065506349578072137 0 0.10411425202137781 -0.048696002195987582 0 0.1065918045815443 -0.065506349578072137 0 0.081771003470835921 -0.060031709175514737 0 0.099664739893759055 -0.051331340964241329 0 0.1031455197492164 -0.042374450288983748 0 0.099664739893759055 -0.051331340964241329 0 0.094131515333126622 -0.065398886954370711 0 0.1065918045815443 -0.065506349578072137 0 0.099664739893759055 -0.051331340964241329 0 0.10411425202137781 -0.048696002195987582 0 0.1031455197492164 -0.042374450288983748 0 0.099664739893759055 -0.051331340964241329 0 0.10411425202137781 -0.048696002195987582 0 0.1132493591638989 -0.055408604993235688 0 0.1065918045815443 -0.065506349578072137 0 0.1280893259241381 -0.062148339873924853 0 0.1132493591638989 -0.055408604993235688 0 0.1208386210213974 -0.050110304845489 0 0.1280893259241381 -0.062148339873924853 0 0.10411425202137781 -0.048696002195987582 0 0.1132493591638989 -0.055408604993235688 0 0.1156680670810519 -0.047713668507483417 0 0.1132493591638989 -0.055408604993235688 0 0.1208386210213974 -0.050110304845489 0 0.1156680670810519 -0.047713668507483417 0 0.1031455197492164 -0.042374450288983748 0 0.1198542827818649 -0.02857152016889377 0 0.10411425202137781 -0.048696002195987582 0 0.1156680670810519 -0.047713668507483417 0 0.12447003611753341 -0.036639761995221357 0 0.1031455197492164 -0.042374450288983748 0 0.1089056108732705 -0.02927461666222923 0 0.1198542827818649 -0.02857152016889377 0 0.12447003611753341 -0.036639761995221357 0 0.1031455197492164 -0.042374450288983748 0 0.1198542827818649 -0.02857152016889377 0 0.10411425202137781 -0.048696002195987582 0 0.12447003611753341 -0.036639761995221357 0 0.10411425202137781 -0.048696002195987582 0 0.12447003611753341 -0.036639761995221357 0 0.1031455197492164 -0.042374450288983748 0 0.1208386210213974 -0.050110304845489 0 0.12447003611753341 -0.036639761995221357 0 0.1283902630966447 -0.048264764658380317 0 0.1208386210213974 -0.050110304845489 0 0.1156680670810519 -0.047713668507483417 0 0.12447003611753341 -0.036639761995221357 0 0.1031455197492164 -0.042374450288983748 0 0.1000552678659085 -0.022208726231411721 0 0.1089056108732705 -0.02927461666222923 0 0.091086215380791896 -0.034045069312210033 0 0.1031455197492164 -0.042374450288983748 0 0.1000552678659085 -0.022208726231411721 0 0.1031455197492164 -0.042374450288983748 0 0.1000552678659085 -0.022208726231411721 0 0.10411425202137781 -0.048696002195987582 0 0.1031455197492164 -0.042374450288983748 0 0.1000552678659085 -0.022208726231411721 0 0.1109745311742166 -0.023718578724796002 0 0.1150829631758227 -0.01481945183664928 0 0.1000552678659085 -0.022208726231411721 0 0.1089056108732705 -0.02927461666222923 0 0.1109745311742166 -0.023718578724796002 0 0.1089056108732705 -0.02927461666222923 0 0.1109745311742166 -0.023718578724796002 0 0.1198542827818649 -0.02857152016889377 0 0.12447003611753341 -0.036639761995221357 0 0.1198542827818649 -0.02857152016889377 0 0.12875622596930211 -0.021249139679682501 0 0.1198542827818649 -0.02857152016889377 0 0.1150829631758227 -0.01481945183664928 0 0.12875622596930211 -0.021249139679682501 0 0.1109745311742166 -0.023718578724796002 0 0.1198542827818649 -0.02857152016889377 0 0.1150829631758227 -0.01481945183664928 0 0.1150829631758227 -0.01481945183664928 0 0.1116929663085572 -0.0018049306385004059 0 0.1019000067770314 -0.0094702647928099157 0 0.1150829631758227 -0.01481945183664928 0 0.1226802507548381 -0.0019164014345253279 0 0.12776856080380361 -0.01029712178914983 0 0.1150829631758227 -0.01481945183664928 0 0.12776856080380361 -0.01029712178914983 0 0.12875622596930211 -0.021249139679682501 0 0.1150829631758227 -0.01481945183664928 0 0.1226802507548381 -0.0019164014345253279 0 0.1116929663085572 -0.0018049306385004059 0 0.097524786463171559 0.00344412669915293 0 0.085144050071697161 -0.011962341956641099 0 0.1019000067770314 -0.0094702647928099157 0 0.097524786463171559 0.00344412669915293 0 0.1116929663085572 -0.0018049306385004059 0 0.1019000067770314 -0.0094702647928099157 0 0.085144050071697161 -0.011962341956641099 0 0.1000552678659085 -0.022208726231411721 0 0.1019000067770314 -0.0094702647928099157 0 0.1000552678659085 -0.022208726231411721 0 0.1150829631758227 -0.01481945183664928 0 0.1019000067770314 -0.0094702647928099157 0 0.078452655811647648 -0.099976180540821663 0 0.068722248181336584 -0.091728672433855754 0 0.090112443463914366 -0.093616099046057277 0 0.078452655811647648 -0.099976180540821663 0 0.086949382369496772 -0.1090236191676703 0 0.06921873473027039 -0.1039119745009328 0 0.078452655811647648 -0.099976180540821663 0 0.086949382369496772 -0.1090236191676703 0 0.090112443463914366 -0.093616099046057277 0 0.091218715485478247 -0.12589577324664561 0 0.086949382369496772 -0.1090236191676703 0 0.1013439532996771 -0.11883941686770309 0 0.091218715485478247 -0.12589577324664561 0 0.07501489135112395 -0.1313371842681596 0 0.086949382369496772 -0.1090236191676703 0 0.061629400372374903 -0.1161342973840119 0 0.086949382369496772 -0.1090236191676703 0 0.06921873473027039 -0.1039119745009328 0 0.07501489135112395 -0.1313371842681596 0 0.061629400372374903 -0.1161342973840119 0 0.086949382369496772 -0.1090236191676703 0 0.061629400372374903 -0.1161342973840119 0 0.086949382369496772 -0.1090236191676703 0 0.07501489135112395 -0.1313371842681596 0 0.055668129581918802 -0.12685550604352391 0 0.061629400372374903 -0.1161342973840119 0 0.053027828366359137 -0.1000226369663761 0 0.06921873473027039 -0.1039119745009328 0 0.068722248181336584 -0.091728672433855754 0 0.078452655811647648 -0.099976180540821663 0 0.06921873473027039 -0.1039119745009328 0 0.068722248181336584 -0.091728672433855754 0 0.060396487192455869 -0.077688968062046379 0 0.068722248181336584 -0.091728672433855754 0 0.076028266401993255 -0.087867691479450158 0 0.060396487192455869 -0.077688968062046379 0 0.076028266401993255 -0.087867691479450158 0 0.083505072566103733 -0.074427038943283702 0 0.068722248181336584 -0.091728672433855754 0 0.076028266401993255 -0.087867691479450158 0 0.060396487192455869 -0.077688968062046379 0 0.081771003470835921 -0.060031709175514737 0 0.060396487192455869 -0.077688968062046379 0 0.081771003470835921 -0.060031709175514737 0 0.083505072566103733 -0.074427038943283702 0 0.060396487192455869 -0.077688968062046379 0 0.058857205416658537 -0.052164795342434761 0 0.081771003470835921 -0.060031709175514737 0 0.083505072566103733 -0.074427038943283702 0 0.094131515333126622 -0.065398886954370711 0 0.09902870443762754 -0.075712745992524089 0 0.081771003470835921 -0.060031709175514737 0 0.083505072566103733 -0.074427038943283702 0 0.094131515333126622 -0.065398886954370711 0 0.076028266401993255 -0.087867691479450158 0 0.09902870443762754 -0.075712745992524089 0 0.076028266401993255 -0.087867691479450158 0 0.083505072566103733 -0.074427038943283702 0 0.09902870443762754 -0.075712745992524089 0 0.076028266401993255 -0.087867691479450158 0 0.090112443463914366 -0.093616099046057277 0 0.09902870443762754 -0.075712745992524089 0 0.068722248181336584 -0.091728672433855754 0 0.076028266401993255 -0.087867691479450158 0 0.090112443463914366 -0.093616099046057277 0 0.068722248181336584 -0.091728672433855754 0 0.090112443463914366 -0.093616099046057277 0 0.090112443463914366 -0.093616099046057277 0 0.09902870443762754 -0.075712745992524089 0 0.1111991682934842 -0.094929277640645598 0 0.1065918045815443 -0.065506349578072137 0 0.1111991682934842 -0.094929277640645598 0 0.09902870443762754 -0.075712745992524089 0 0.1065918045815443 -0.065506349578072137 0 0.1111991682934842 -0.094929277640645598 0 0.094131515333126622 -0.065398886954370711 0 0.09902870443762754 -0.075712745992524089 0 0.1065918045815443 -0.065506349578072137 0 0.1065918045815443 -0.065506349578072137 0 0.1280893259241381 -0.062148339873924853 0 0.1065918045815443 -0.065506349578072137 0 0.124169949165413 -0.074662251908694216 0 0.1280893259241381 -0.062148339873924853 0 0.1065918045815443 -0.065506349578072137 0 0.1127750039189017 -0.076981048097366861 0 0.124169949165413 -0.074662251908694216 0 0.1127750039189017 -0.076981048097366861 0 0.13090106973484331 -0.096680549336273139 0 0.13002987902002819 -0.086468490428733294 0 0.1127750039189017 -0.076981048097366861 0 0.124169949165413 -0.074662251908694216 0 0.13002987902002819 -0.086468490428733294 0 0.1127750039189017 -0.076981048097366861 0 0.13090106973484331 -0.096680549336273139 0 0.1065918045815443 -0.065506349578072137 0 0.1127750039189017 -0.076981048097366861 0 0.1111991682934842 -0.094929277640645598 0 0.1127750039189017 -0.076981048097366861 0 0.1111991682934842 -0.094929277640645598 0 0.13090106973484331 -0.096680549336273139 0 0.11226936436661859 -0.1019129409513284 0 0.12641353394554081 -0.1142415228691516 0 0.13090106973484331 -0.096680549336273139 0 0.11226936436661859 -0.1019129409513284 0 0.13090106973484331 -0.096680549336273139 0 0.1111991682934842 -0.094929277640645598 0 0.13090106973484331 -0.096680549336273139 0 0.11226936436661859 -0.1019129409513284 0 0.1111991682934842 -0.094929277640645598 0 0.13090106973484331 -0.096680549336273139 0 0.11226936436661859 -0.1019129409513284 0 0.1111991682934842 -0.094929277640645598 0 0.090112443463914366 -0.093616099046057277 0 0.1111991682934842 -0.094929277640645598 0 0.086949382369496772 -0.1090236191676703 0 0.090112443463914366 -0.093616099046057277 0 0.11226936436661859 -0.1019129409513284 0 0.090112443463914366 -0.093616099046057277 0 0.11226936436661859 -0.1019129409513284 0 0.1111991682934842 -0.094929277640645598 0 0.086949382369496772 -0.1090236191676703 0 0.11226936436661859 -0.1019129409513284 0 0.086949382369496772 -0.1090236191676703 0 0.11226936436661859 -0.1019129409513284 0 0.1013439532996771 -0.11883941686770309 0 0.11632079594605441 -0.1283509318835161 0 0.11226936436661859 -0.1019129409513284 0 0.12641353394554081 -0.1142415228691516 0 0.11632079594605441 -0.1283509318835161 0 0.11226936436661859 -0.1019129409513284 0 0.1013439532996771 -0.11883941686770309 0 0.11632079594605441 -0.1283509318835161 0 0.11226936436661859 -0.1019129409513284 0 0.12641353394554081 -0.1142415228691516 0 0.14475218224755601 -0.11173400941278171 0 0.140555953988212 -0.1253292230732434 0 0.14475218224755601 -0.11173400941278171 0 0.1636049173413637 -0.098192852635782202 0 0.1586032947602688 -0.12678746948929001 0 0.14475218224755601 -0.11173400941278171 0 0.140555953988212 -0.1253292230732434 0 0.1586032947602688 -0.12678746948929001 0 0.14475218224755601 -0.11173400941278171 0 0.1586032947602688 -0.12678746948929001 0 0.14801708743663791 -0.097222118454326906 0 0.13242925753191201 -0.096251384272872081 0 0.1490009127688473 -0.091597522042029395 0 0.13242925753191201 -0.096251384272872081 0 0.1490009127688473 -0.091597522042029395 0 0.14475218224755601 -0.11173400941278171 0 0.14801708743663791 -0.097222118454326906 0 0.1636049173413637 -0.098192852635782202 0 0.14801708743663791 -0.097222118454326906 0 0.1636049173413637 -0.098192852635782202 0 0.14801708743663791 -0.097222118454326906 0 0.1490009127688473 -0.091597522042029395 0 0.1636049173413637 -0.098192852635782202 0 0.14475218224755601 -0.11173400941278171 0 0.14801708743663791 -0.097222118454326906 0 0.13242925753191201 -0.096251384272872081 0 0.12641353394554081 -0.1142415228691516 0 0.14475218224755601 -0.11173400941278171 0 0.13090106973484331 -0.096680549336273139 0 0.14801708743663791 -0.097222118454326906 0 0.13242925753191201 -0.096251384272872081 0 0.14475218224755601 -0.11173400941278171 0 0.13242925753191201 -0.096251384272872081 0 0.13090106973484331 -0.096680549336273139 0 0.14475218224755601 -0.11173400941278171 0 0.13090106973484331 -0.096680549336273139 0 0.13242925753191201 -0.096251384272872081 0 0.13090106973484331 -0.096680549336273139 0 0.13242925753191201 -0.096251384272872081 0 0.1386249938704012 -0.087284997952465637 0 0.1490009127688473 -0.091597522042029395 0 0.13242925753191201 -0.096251384272872081 0 0.13090106973484331 -0.096680549336273139 0 0.13002987902002819 -0.086468490428733294 0 0.124169949165413 -0.074662251908694216 0 0.13002987902002819 -0.086468490428733294 0 0.13583793267570099 -0.078039042742011094 0 0.13002987902002819 -0.086468490428733294 0 0.1386249938704012 -0.087284997952465637 0 0.13583793267570099 -0.078039042742011094 0 0.1386249938704012 -0.087284997952465637 0 0.13583793267570099 -0.078039042742011094 0 0.14470669686999499 -0.082149991260826616 0 0.13242925753191201 -0.096251384272872081 0 0.13002987902002819 -0.086468490428733294 0 0.1386249938704012 -0.087284997952465637 0 0.13583793267570099 -0.078039042742011094 0 0.14629718449059681 -0.071664751209213534 0 0.1280893259241381 -0.062148339873924853 0 0.124169949165413 -0.074662251908694216 0 0.13583793267570099 -0.078039042742011094 0 0.1280893259241381 -0.062148339873924853 0 0.14629718449059681 -0.071664751209213534 0 0.1280893259241381 -0.062148339873924853 0 0.14958684726673199 -0.058790330169777562 0 0.13583793267570099 -0.078039042742011094 0 0.14629718449059681 -0.071664751209213534 0 0.14470669686999499 -0.082149991260826616 0 0.14629718449059681 -0.071664751209213534 0 0.15377246054442861 -0.082163642358413363 0 0.15753273850871999 -0.06987388389974851 0 0.14629718449059681 -0.071664751209213534 0 0.15753273850871999 -0.06987388389974851 0 0.14958684726673199 -0.058790330169777562 0 0.15377246054442861 -0.082163642358413363 0 0.1490009127688473 -0.091597522042029395 0 0.1655725680057826 -0.086943659811186597 0 0.1386249938704012 -0.087284997952465637 0 0.14470669686999499 -0.082149991260826616 0 0.1490009127688473 -0.091597522042029395 0 0.14629718449059681 -0.071664751209213534 0 0.14470669686999499 -0.082149991260826616 0 0.15377246054442861 -0.082163642358413363 0 0.14470669686999499 -0.082149991260826616 0 0.15377246054442861 -0.082163642358413363 0 0.1490009127688473 -0.091597522042029395 0 0.1490009127688473 -0.091597522042029395 0 0.1655725680057826 -0.086943659811186597 0 0.1490009127688473 -0.091597522042029395 0 0.1655725680057826 -0.086943659811186597 0 0.1636049173413637 -0.098192852635782202 0 0.15377246054442861 -0.082163642358413363 0 0.16650424030671751 -0.081617225829752629 0 0.15377246054442861 -0.082163642358413363 0 0.16650424030671751 -0.081617225829752629 0 0.1655725680057826 -0.086943659811186597 0 0.16650424030671751 -0.081617225829752629 0 0.1655725680057826 -0.086943659811186597 0 0.16650424030671751 -0.081617225829752629 0 0.1655725680057826 -0.086943659811186597 0 0.17268024801618251 -0.084947591037346865 0 0.1655725680057826 -0.086943659811186597 0 0.17268024801618251 -0.084947591037346865 0 0.1655725680057826 -0.086943659811186597 0 0.1636049173413637 -0.098192852635782202 0 0.1678548007356202 -0.088203361809839065 0 0.1655725680057826 -0.086943659811186597 0 0.17268024801618251 -0.084947591037346865 0 0.17138149394628241 -0.089728955967318641 0 0.1678548007356202 -0.088203361809839065 0 0.17268024801618251 -0.084947591037346865 0 0.16815299016247601 -0.093333416464958061 0 0.1655725680057826 -0.086943659811186597 0 0.1636049173413637 -0.098192852635782202 0 0.1678548007356202 -0.088203361809839065 0 0.17268024801618251 -0.084947591037346865 0 0.17138149394628241 -0.089728955967318641 0 0.16815299016247601 -0.093333416464958061 0 0.1678548007356202 -0.088203361809839065 0 0.17138149394628241 -0.089728955967318641 0 0.16815299016247601 -0.093333416464958061 0 0.1732904517987654 -0.09321998968482359 0 0.16815299016247601 -0.093333416464958061 0 0.1678548007356202 -0.088203361809839065 0 0.1655725680057826 -0.086943659811186597 0 0.16650424030671751 -0.081617225829752629 0 0.15753273850871999 -0.06987388389974851 0 0.17108436860932599 -0.055432320465631797 0 0.16650424030671751 -0.081617225829752629 0 0.17108436860932599 -0.055432320465631797 0 0.15377246054442861 -0.082163642358413363 0 0.16650424030671751 -0.081617225829752629 0 0.15753273850871999 -0.06987388389974851 0 0.18203411317678009 -0.067344991410852789 0 0.1783710916695925 -0.081107929890862629 0 0.1956090323717305 -0.06947734307623879 0 0.1783710916695925 -0.081107929890862629 0 0.18779246048199341 -0.080703588020536399 0 0.1956090323717305 -0.06947734307623879 0 0.16650424030671751 -0.081617225829752629 0 0.18203411317678009 -0.067344991410852789 0 0.17108436860932599 -0.055432320465631797 0 0.1783710916695925 -0.081107929890862629 0 0.1956090323717305 -0.06947734307623879 0 0.16650424030671751 -0.081617225829752629 0 0.18203411317678009 -0.067344991410852789 0 0.1783710916695925 -0.081107929890862629 0 0.17575305540995401 -0.089556195223041285 0 0.17268024801618251 -0.084947591037346865 0 0.1812567459203302 -0.086459040229396059 0 0.17575305540995401 -0.089556195223041285 0 0.1812567459203302 -0.086459040229396059 0 0.1801563373682096 -0.093425399196321701 0 0.1732904517987654 -0.09321998968482359 0 0.17575305540995401 -0.089556195223041285 0 0.1801563373682096 -0.093425399196321701 0 0.17138149394628241 -0.089728955967318641 0 0.1732904517987654 -0.09321998968482359 0 0.17575305540995401 -0.089556195223041285 0 0.17138149394628241 -0.089728955967318641 0 0.17575305540995401 -0.089556195223041285 0 0.17268024801618251 -0.084947591037346865 0 0.17268024801618251 -0.084947591037346865 0 0.1783710916695925 -0.081107929890862629 0 0.18779246048199341 -0.080703588020536399 0 0.16650424030671751 -0.081617225829752629 0 0.17268024801618251 -0.084947591037346865 0 0.1783710916695925 -0.081107929890862629 0 0.17268024801618251 -0.084947591037346865 0 0.1783710916695925 -0.081107929890862629 0 0.16650424030671751 -0.081617225829752629 0 0.1783710916695925 -0.081107929890862629 0 0.17268024801618251 -0.084947591037346865 0 0.1812567459203302 -0.086459040229396059 0 0.18779246048199341 -0.080703588020536399 0 0.1812567459203302 -0.086459040229396059 0 0.1875477515547582 -0.088869463765440276 0 0.18779246048199341 -0.080703588020536399 0 0.1783710916695925 -0.081107929890862629 0 0.18779246048199341 -0.080703588020536399 0 0.17268024801618251 -0.084947591037346865 0 0.18779246048199341 -0.080703588020536399 0 0.1812567459203302 -0.086459040229396059 0 0.1801563373682096 -0.093425399196321701 0 0.1875477515547582 -0.088869463765440276 0 0.1801563373682096 -0.093425399196321701 0 0.18702247910602299 -0.096502477402935355 0 0.1875477515547582 -0.088869463765440276 0 0.1801563373682096 -0.093425399196321701 0 0.18702247910602299 -0.096502477402935355 0 0.18239069453864989 -0.1018640190701898 0 0.18702247910602299 -0.096502477402935355 0 0.18239069453864989 -0.1018640190701898 0 0.1901968454935998 -0.1033426155459593 0 0.1732904517987654 -0.09321998968482359 0 0.1801563373682096 -0.093425399196321701 0 0.17444414540812361 -0.099573421069813636 0 0.1801563373682096 -0.093425399196321701 0 0.17444414540812361 -0.099573421069813636 0 0.18239069453864989 -0.1018640190701898 0 0.1732904517987654 -0.09321998968482359 0 0.17444414540812361 -0.099573421069813636 0 0.1709922736988608 -0.0961496150246407 0 0.17444414540812361 -0.099573421069813636 0 0.1774918849909331 -0.10677147476361271 0 0.18239069453864989 -0.1018640190701898 0 0.17444414540812361 -0.099573421069813636 0 0.1774918849909331 -0.10677147476361271 0 0.16966025504635249 -0.10776247681944159 0 0.18239069453864989 -0.1018640190701898 0 0.18486311753051821 -0.1100898789186696 0 0.1901968454935998 -0.1033426155459593 0 0.1774918849909331 -0.10677147476361271 0 0.18239069453864989 -0.1018640190701898 0 0.18486311753051821 -0.1100898789186696 0 0.17573578035134779 -0.11677801007918361 0 0.1913900586767231 -0.1196309516087178 0 0.18188866173396051 -0.1297279587035613 0 0.18486311753051821 -0.1100898789186696 0 0.17573578035134779 -0.11677801007918361 0 0.1913900586767231 -0.1196309516087178 0 0.1774918849909331 -0.10677147476361271 0 0.17573578035134779 -0.11677801007918361 0 0.16966025504635249 -0.10776247681944159 0 0.1774918849909331 -0.10677147476361271 0 0.18486311753051821 -0.1100898789186696 0 0.17573578035134779 -0.11677801007918361 0 0.1636049173413637 -0.098192852635782202 0 0.1586032947602688 -0.12678746948929001 0 0.17573578035134779 -0.11677801007918361 0 0.1586032947602688 -0.12678746948929001 0 0.1728507704139213 -0.12952287417502389 0 0.1636049173413637 -0.098192852635782202 0 0.16966025504635249 -0.10776247681944159 0 0.1586032947602688 -0.12678746948929001 0 0.17573578035134779 -0.11677801007918361 0 0.16966025504635249 -0.10776247681944159 0 0.1586032947602688 -0.12678746948929001 0 0.1636049173413637 -0.098192852635782202 0 0.16808150742607841 -0.098471632878967499 0 0.16966025504635249 -0.10776247681944159 0 0.1636049173413637 -0.098192852635782202 0 0.16808150742607841 -0.098471632878967499 0 0.16815299016247601 -0.093333416464958061 0 0.1636049173413637 -0.098192852635782202 0 0.16808150742607841 -0.098471632878967499 0 0.16815299016247601 -0.093333416464958061 0 0.1732904517987654 -0.09321998968482359 0 0.1709922736988608 -0.0961496150246407 0 0.16815299016247601 -0.093333416464958061 0 0.1709922736988608 -0.0961496150246407 0 0.16808150742607841 -0.098471632878967499 0 0.17444414540812361 -0.099573421069813636 0 0.1709922736988608 -0.0961496150246407 0 0.16808150742607841 -0.098471632878967499 0 0.17444414540812361 -0.099573421069813636 0 0.16808150742607841 -0.098471632878967499 0 0.16966025504635249 -0.10776247681944159 0 0.14277623897451591 -0.0093992180521038568 0 0.14482582021368881 -0.02458352179445494 0 0.16518160430984419 -0.01252728159368852 0 0.15580959766538949 -0.00062738618753850292 0 0.14277623897451591 -0.0093992180521038568 0 0.16518160430984419 -0.01252728159368852 0 0.1445140487957588 0.0031503328159685892 0 0.15580959766538949 -0.00062738618753850292 0 0.14277623897451591 -0.0093992180521038568 0 0.1445140487957588 0.0031503328159685892 0 0.13257781506382421 0.00033959186381871809 0 0.14277623897451591 -0.0093992180521038568 0 0.13257781506382421 0.00033959186381871809 0 0.14277623897451591 -0.0093992180521038568 0 0.12776856080380361 -0.01029712178914983 0 0.13257781506382421 0.00033959186381871809 0 0.1226802507548381 -0.0019164014345253279 0 0.12776856080380361 -0.01029712178914983 0 0.14277623897451591 -0.0093992180521038568 0 0.12776856080380361 -0.01029712178914983 0 0.12875622596930211 -0.021249139679682501 0 0.14277623897451591 -0.0093992180521038568 0 0.12875622596930211 -0.021249139679682501 0 0.14482582021368881 -0.02458352179445494 0 0.12447003611753341 -0.036639761995221357 0 0.12875622596930211 -0.021249139679682501 0 0.14482582021368881 -0.02458352179445494 0 0.12447003611753341 -0.036639761995221357 0 0.14482582021368881 -0.02458352179445494 0 0.14482582021368881 -0.02458352179445494 0 0.1545074199623169 -0.039922290091712727 0 0.16046116271070321 -0.026819122972462941 0 0.14482582021368881 -0.02458352179445494 0 0.16518160430984419 -0.01252728159368852 0 0.14482582021368881 -0.02458352179445494 0 0.1545074199623169 -0.039922290091712727 0 0.14016306932351 -0.04416065191888608 0 0.12447003611753341 -0.036639761995221357 0 0.14016306932351 -0.04416065191888608 0 0.1283902630966447 -0.048264764658380317 0 0.12447003611753341 -0.036639761995221357 0 0.14482582021368881 -0.02458352179445494 0 0.14016306932351 -0.04416065191888608 0 0.14016306932351 -0.04416065191888608 0 0.1280893259241381 -0.062148339873924853 0 0.14958684726673199 -0.058790330169777562 0 0.1280893259241381 -0.062148339873924853 0 0.14958684726673199 -0.058790330169777562 0 0.14016306932351 -0.04416065191888608 0 0.1283902630966447 -0.048264764658380317 0 0.1280893259241381 -0.062148339873924853 0 0.1208386210213974 -0.050110304845489 0 0.1283902630966447 -0.048264764658380317 0 0.1280893259241381 -0.062148339873924853 0 0.1545074199623169 -0.039922290091712727 0 0.14016306932351 -0.04416065191888608 0 0.14958684726673199 -0.058790330169777562 0 0.1545074199623169 -0.039922290091712727 0 0.14958684726673199 -0.058790330169777562 0 0.16483542661822001 -0.04852636290263572 0 0.14958684726673199 -0.058790330169777562 0 0.16483542661822001 -0.04852636290263572 0 0.17108436860932599 -0.055432320465631797 0 0.15753273850871999 -0.06987388389974851 0 0.14958684726673199 -0.058790330169777562 0 0.17108436860932599 -0.055432320465631797 0 0.14958684726673199 -0.058790330169777562 0 0.17108436860932599 -0.055432320465631797 0 0.16483542661822001 -0.04852636290263572 0 0.1716240207951259 -0.047533477469042983 0 0.17108436860932599 -0.055432320465631797 0 0.17108436860932599 -0.055432320465631797 0 0.18036859593855001 -0.046944368732629242 0 0.200584641192667 -0.050824244956312173 0 0.17108436860932599 -0.055432320465631797 0 0.200584641192667 -0.050824244956312173 0 0.18203411317678009 -0.067344991410852789 0 0.17108436860932599 -0.055432320465631797 0 0.200584641192667 -0.050824244956312173 0 0.1716240207951259 -0.047533477469042983 0 0.17108436860932599 -0.055432320465631797 0 0.18036859593855001 -0.046944368732629242 0 0.18036859593855001 -0.046944368732629242 0 0.17362075075120059 -0.042035645344441097 0 0.18092660494925639 -0.036091629208484077 0 0.1716240207951259 -0.047533477469042983 0 0.18036859593855001 -0.046944368732629242 0 0.17362075075120059 -0.042035645344441097 0 0.18036859593855001 -0.046944368732629242 0 0.18092660494925639 -0.036091629208484077 0 0.19159491055872391 -0.03875498431373961 0 0.18092660494925639 -0.036091629208484077 0 0.1876264798780648 -0.029668928466030961 0 0.19159491055872391 -0.03875498431373961 0 0.17362075075120059 -0.042035645344441097 0 0.18092660494925639 -0.036091629208484077 0 0.1729267712494979 -0.032696099456064012 0 0.18092660494925639 -0.036091629208484077 0 0.1729267712494979 -0.032696099456064012 0 0.18027281942701909 -0.025629844073743031 0 0.1729267712494979 -0.032696099456064012 0 0.16620508502838841 -0.038863519617279123 0 0.16046116271070321 -0.026819122972462941 0 0.17362075075120059 -0.042035645344441097 0 0.1729267712494979 -0.032696099456064012 0 0.16620508502838841 -0.038863519617279123 0 0.16483542661822001 -0.04852636290263572 0 0.16620508502838841 -0.038863519617279123 0 0.16911276997273239 -0.044169635481428417 0 0.17362075075120059 -0.042035645344441097 0 0.16620508502838841 -0.038863519617279123 0 0.16911276997273239 -0.044169635481428417 0 0.16483542661822001 -0.04852636290263572 0 0.1716240207951259 -0.047533477469042983 0 0.16911276997273239 -0.044169635481428417 0 0.1716240207951259 -0.047533477469042983 0 0.17362075075120059 -0.042035645344441097 0 0.16911276997273239 -0.044169635481428417 0 0.1545074199623169 -0.039922290091712727 0 0.16483542661822001 -0.04852636290263572 0 0.16620508502838841 -0.038863519617279123 0 0.1545074199623169 -0.039922290091712727 0 0.16620508502838841 -0.038863519617279123 0 0.16046116271070321 -0.026819122972462941 0 0.14482582021368881 -0.02458352179445494 0 0.16046116271070321 -0.026819122972462941 0 0.16518160430984419 -0.01252728159368852 0 0.16046116271070321 -0.026819122972462941 0 0.17016573692434789 -0.023255308881485321 0 0.16518160430984419 -0.01252728159368852 0 0.1729267712494979 -0.032696099456064012 0 0.16046116271070321 -0.026819122972462941 0 0.17016573692434789 -0.023255308881485321 0 0.17016573692434789 -0.023255308881485321 0 0.18084889815504851 -0.012596131043622959 0 0.16518160430984419 -0.01252728159368852 0 0.1729267712494979 -0.032696099456064012 0 0.17016573692434789 -0.023255308881485321 0 0.18027281942701909 -0.025629844073743031 0 0.18092660494925639 -0.036091629208484077 0 0.18027281942701909 -0.025629844073743031 0 0.1876264798780648 -0.029668928466030961 0 0.18027281942701909 -0.025629844073743031 0 0.19015527787624181 -0.01967567019025683 0 0.1876264798780648 -0.029668928466030961 0 0.18027281942701909 -0.025629844073743031 0 0.18084889815504851 -0.012596131043622959 0 0.19015527787624181 -0.01967567019025683 0 0.17016573692434789 -0.023255308881485321 0 0.18027281942701909 -0.025629844073743031 0 0.18084889815504851 -0.012596131043622959 0 0.18909223906183151 0.002610795077842325 0 0.16614464497234349 0.0095767566573148177 0 0.18084889815504851 -0.012596131043622959 0 0.16614464497234349 0.0095767566573148177 0 0.18084889815504851 -0.012596131043622959 0 0.16614464497234349 0.0095767566573148177 0 0.15580959766538949 -0.00062738618753850292 0 0.16518160430984419 -0.01252728159368852 0 0.16614464497234349 0.0095767566573148177 0 0.18084889815504851 -0.012596131043622959 0 0.16518160430984419 -0.01252728159368852 0 0.20423515365630601 0.00091409910843910202 0 0.2173473683237315 -0.0071058875394326981 0 0.1993804068462588 -0.012465330975265809 0 0.2173473683237315 -0.0071058875394326981 0 0.1993804068462588 -0.012465330975265809 0 0.21734069203305759 -0.022325062590682919 0 0.18084889815504851 -0.012596131043622959 0 0.1993804068462588 -0.012465330975265809 0 0.19015527787624181 -0.01967567019025683 0 0.20423515365630601 0.00091409910843910202 0 0.18909223906183151 0.002610795077842325 0 0.1993804068462588 -0.012465330975265809 0 0.18909223906183151 0.002610795077842325 0 0.18084889815504851 -0.012596131043622959 0 0.1993804068462588 -0.012465330975265809 0 0.1993804068462588 -0.012465330975265809 0 0.19015527787624181 -0.01967567019025683 0 0.20259809342743951 -0.03071582182059867 0 0.19015527787624181 -0.01967567019025683 0 0.1876264798780648 -0.029668928466030961 0 0.20259809342743951 -0.03071582182059867 0 0.1993804068462588 -0.012465330975265809 0 0.20259809342743951 -0.03071582182059867 0 0.21734069203305759 -0.022325062590682919 0 0.20259809342743951 -0.03071582182059867 0 0.21734069203305759 -0.022325062590682919 0 0.21870684620504169 -0.036870078640602953 0 0.21870684620504169 -0.036870078640602953 0 0.200584641192667 -0.050824244956312173 0 0.23008491377600801 -0.046216169446993333 0 0.20259809342743951 -0.03071582182059867 0 0.21870684620504169 -0.036870078640602953 0 0.20259809342743951 -0.03071582182059867 0 0.21870684620504169 -0.036870078640602953 0 0.200584641192667 -0.050824244956312173 0 0.20259809342743951 -0.03071582182059867 0 0.19159491055872391 -0.03875498431373961 0 0.200584641192667 -0.050824244956312173 0 0.18036859593855001 -0.046944368732629242 0 0.19159491055872391 -0.03875498431373961 0 0.200584641192667 -0.050824244956312173 0 0.1876264798780648 -0.029668928466030961 0 0.20259809342743951 -0.03071582182059867 0 0.19159491055872391 -0.03875498431373961 0 0.200584641192667 -0.050824244956312173 0 0.2128469730738691 -0.057846756261615777 0 0.1956090323717305 -0.06947734307623879 0 0.200584641192667 -0.050824244956312173 0 0.23008491377600801 -0.046216169446993333 0 0.200584641192667 -0.050824244956312173 0 0.2128469730738691 -0.057846756261615777 0 0.23008491377600801 -0.046216169446993333 0 0.2128469730738691 -0.057846756261615777 0 0.22241163694599719 -0.061663740972524243 0 0.23008491377600801 -0.046216169446993333 0 0.22241163694599719 -0.061663740972524243 0 0.23008491377600801 -0.046216169446993333 0 0.2314391391128251 -0.06363062757686333 0 0.2128469730738691 -0.057846756261615777 0 0.23008491377600801 -0.046216169446993333 0 0.2385267664713856 -0.056263898818482719 0 0.23008491377600801 -0.046216169446993333 0 0.2314391391128251 -0.06363062757686333 0 0.2385267664713856 -0.056263898818482719 0 0.2314391391128251 -0.06363062757686333 0 0.24204552723570971 -0.066873896384500309 0 0.2385267664713856 -0.056263898818482719 0 0.24925446120544861 -0.060733060224481557 0 0.23937274748661089 -0.044765367969297351 0 0.2385267664713856 -0.056263898818482719 0 0.24925446120544861 -0.060733060224481557 0 0.24204552723570971 -0.066873896384500309 0 0.2385267664713856 -0.056263898818482719 0 0.23937274748661089 -0.044765367969297351 0 0.23008491377600801 -0.046216169446993333 0 0.23937274748661089 -0.044765367969297351 0 0.23008491377600801 -0.046216169446993333 0 0.2348155989826447 -0.043024335460605211 0 0.23937274748661089 -0.044765367969297351 0 0.2348155989826447 -0.043024335460605211 0 0.23937274748661089 -0.044765367969297351 0 0.23008491377600801 -0.046216169446993333 0 0.2348155989826447 -0.043024335460605211 0 0.23775462097972411 -0.041041352047574697 0 0.23937274748661089 -0.044765367969297351 0 0.2348155989826447 -0.043024335460605211 0 0.23775462097972411 -0.041041352047574697 0 0.23775462097972411 -0.041041352047574697 0 0.24121006979875681 -0.039954481952900522 0 0.23937274748661089 -0.044765367969297351 0 0.24121006979875681 -0.039954481952900522 0 0.23937274748661089 -0.044765367969297351 0 0.24664834374715339 -0.039194746680125493 0 0.24633316731565241 -0.034242092706566071 0 0.24106456698153891 -0.034816461114607192 0 0.24460146206402841 -0.026802372139960472 0 0.2530182964698886 -0.036154790891571142 0 0.24633316731565241 -0.034242092706566071 0 0.24460146206402841 -0.026802372139960472 0 0.2530182964698886 -0.036154790891571142 0 0.24664834374715339 -0.039194746680125493 0 0.24633316731565241 -0.034242092706566071 0 0.24664834374715339 -0.039194746680125493 0 0.24633316731565241 -0.034242092706566071 0 0.24106456698153891 -0.034816461114607192 0 0.24121006979875681 -0.039954481952900522 0 0.24664834374715339 -0.039194746680125493 0 0.24106456698153891 -0.034816461114607192 0 0.23775462097972411 -0.041041352047574697 0 0.24106456698153891 -0.034816461114607192 0 0.22969562209180111 -0.032266423253979083 0 0.24106456698153891 -0.034816461114607192 0 0.22969562209180111 -0.032266423253979083 0 0.24460146206402841 -0.026802372139960472 0 0.23775462097972411 -0.041041352047574697 0 0.24121006979875681 -0.039954481952900522 0 0.24106456698153891 -0.034816461114607192 0 0.2348155989826447 -0.043024335460605211 0 0.23775462097972411 -0.041041352047574697 0 0.22969562209180111 -0.032266423253979083 0 0.21870684620504169 -0.036870078640602953 0 0.2348155989826447 -0.043024335460605211 0 0.21870684620504169 -0.036870078640602953 0 0.2348155989826447 -0.043024335460605211 0 0.22969562209180111 -0.032266423253979083 0 0.21870684620504169 -0.036870078640602953 0 0.2348155989826447 -0.043024335460605211 0 0.23008491377600801 -0.046216169446993333 0 0.2348155989826447 -0.043024335460605211 0 0.23008491377600801 -0.046216169446993333 0 0.21734069203305759 -0.022325062590682919 0 0.22969562209180111 -0.032266423253979083 0 0.23174256585166531 -0.01642147471194589 0 0.21734069203305759 -0.022325062590682919 0 0.21870684620504169 -0.036870078640602953 0 0.22969562209180111 -0.032266423253979083 0 0.25252126317799439 -0.010205438598489529 0 0.23174256585166531 -0.01642147471194589 0 0.24460146206402841 -0.026802372139960472 0 0.22969562209180111 -0.032266423253979083 0 0.23174256585166531 -0.01642147471194589 0 0.24460146206402841 -0.026802372139960472 0 0.25252126317799439 -0.010205438598489529 0 0.23174256585166531 -0.01642147471194589 0 0.2307709394487055 -0.0025905816995888641 0 0.2173473683237315 -0.0071058875394326981 0 0.23174256585166531 -0.01642147471194589 0 0.2307709394487055 -0.0025905816995888641 0 0.2173473683237315 -0.0071058875394326981 0 0.21734069203305759 -0.022325062590682919 0 0.23174256585166531 -0.01642147471194589 0 0.21626581299006789 0.0074153659625795874 0 0.2173473683237315 -0.0071058875394326981 0 0.2307709394487055 -0.0025905816995888641 0 0.2039950239184273 -0.1013305746189842 0 0.21298988190846091 -0.10208783273798 0 0.20201757757646929 -0.10976608518251189 0 0.2039950239184273 -0.1013305746189842 0 0.20694644375984561 -0.096004200704962281 0 0.21298988190846091 -0.10208783273798 0 0.2039950239184273 -0.1013305746189842 0 0.20694644375984561 -0.096004200704962281 0 0.20017927905201011 -0.095692046628842814 0 0.20694644375984561 -0.096004200704962281 0 0.21298988190846091 -0.10208783273798 0 0.21077852755988211 -0.089461924916052982 0 0.20694644375984561 -0.096004200704962281 0 0.20017927905201011 -0.095692046628842814 0 0.20360114631028789 -0.089774586002305881 0 0.21298988190846091 -0.10208783273798 0 0.22188388430986061 -0.1016622448712805 0 0.2188571882349247 -0.1100362232936529 0 0.21298988190846091 -0.10208783273798 0 0.20608086447787671 -0.124850006479911 0 0.20201757757646929 -0.10976608518251189 0 0.21298988190846091 -0.10208783273798 0 0.20608086447787671 -0.124850006479911 0 0.2188571882349247 -0.1100362232936529 0 0.20608086447787671 -0.124850006479911 0 0.2188571882349247 -0.1100362232936529 0 0.22267235063313581 -0.12635056609532599 0 0.21298988190846091 -0.10208783273798 0 0.20608086447787671 -0.124850006479911 0 0.20201757757646929 -0.10976608518251189 0 0.1913900586767231 -0.1196309516087178 0 0.19317902856084021 -0.1091714991516974 0 0.20608086447787671 -0.124850006479911 0 0.20201757757646929 -0.10976608518251189 0 0.1913900586767231 -0.1196309516087178 0 0.18486311753051821 -0.1100898789186696 0 0.1913900586767231 -0.1196309516087178 0 0.19317902856084021 -0.1091714991516974 0 0.18486311753051821 -0.1100898789186696 0 0.1901968454935998 -0.1033426155459593 0 0.19317902856084021 -0.1091714991516974 0 0.1901968454935998 -0.1033426155459593 0 0.19317902856084021 -0.1091714991516974 0 0.19742754352689071 -0.10302796450262861 0 0.2039950239184273 -0.1013305746189842 0 0.20201757757646929 -0.10976608518251189 0 0.19742754352689071 -0.10302796450262861 0 0.20201757757646929 -0.10976608518251189 0 0.19317902856084021 -0.1091714991516974 0 0.19742754352689071 -0.10302796450262861 0 0.2039950239184273 -0.1013305746189842 0 0.19742754352689071 -0.10302796450262861 0 0.20017927905201011 -0.095692046628842814 0 0.19742754352689071 -0.10302796450262861 0 0.20017927905201011 -0.095692046628842814 0 0.1935160145181625 -0.098277650050800497 0 0.20017927905201011 -0.095692046628842814 0 0.1935160145181625 -0.098277650050800497 0 0.19275392541228861 -0.092823146173636378 0 0.1901968454935998 -0.1033426155459593 0 0.19742754352689071 -0.10302796450262861 0 0.1935160145181625 -0.098277650050800497 0 0.18702247910602299 -0.096502477402935355 0 0.1901968454935998 -0.1033426155459593 0 0.1935160145181625 -0.098277650050800497 0 0.18702247910602299 -0.096502477402935355 0 0.1935160145181625 -0.098277650050800497 0 0.19275392541228861 -0.092823146173636378 0 0.19275392541228861 -0.092823146173636378 0 0.1875477515547582 -0.088869463765440276 0 0.19625580126918171 -0.087700134253378054 0 0.18779246048199341 -0.080703588020536399 0 0.19625580126918171 -0.087700134253378054 0 0.20384567991051999 -0.080014623508293373 0 0.18702247910602299 -0.096502477402935355 0 0.19275392541228861 -0.092823146173636378 0 0.1875477515547582 -0.088869463765440276 0 0.18779246048199341 -0.080703588020536399 0 0.20384567991051999 -0.080014623508293373 0 0.1875477515547582 -0.088869463765440276 0 0.18779246048199341 -0.080703588020536399 0 0.19625580126918171 -0.087700134253378054 0 0.19625580126918171 -0.087700134253378054 0 0.20360114631028789 -0.089774586002305881 0 0.20384567991051999 -0.080014623508293373 0 0.20017927905201011 -0.095692046628842814 0 0.19275392541228861 -0.092823146173636378 0 0.19625580126918171 -0.087700134253378054 0 0.20017927905201011 -0.095692046628842814 0 0.19625580126918171 -0.087700134253378054 0 0.20360114631028789 -0.089774586002305881 0 0.18779246048199341 -0.080703588020536399 0 0.21565026046485011 -0.072880207596497062 0 0.18779246048199341 -0.080703588020536399 0 0.1956090323717305 -0.06947734307623879 0 0.21565026046485011 -0.072880207596497062 0 0.18779246048199341 -0.080703588020536399 0 0.21565026046485011 -0.072880207596497062 0 0.20384567991051999 -0.080014623508293373 0 0.18203411317678009 -0.067344991410852789 0 0.200584641192667 -0.050824244956312173 0 0.1956090323717305 -0.06947734307623879 0 0.2128469730738691 -0.057846756261615777 0 0.1956090323717305 -0.06947734307623879 0 0.21565026046485011 -0.072880207596497062 0 0.2128469730738691 -0.057846756261615777 0 0.1956090323717305 -0.06947734307623879 0 0.21565026046485011 -0.072880207596497062 0 0.20384567991051999 -0.080014623508293373 0 0.21989889933904661 -0.079325658996049431 0 0.2128469730738691 -0.057846756261615777 0 0.22241163694599719 -0.061663740972524243 0 0.21565026046485011 -0.072880207596497062 0 0.21298988190846091 -0.10208783273798 0 0.2219392505828994 -0.09035736683626662 0 0.21989889933904661 -0.079325658996049431 0 0.20384567991051999 -0.080014623508293373 0 0.21989889933904661 -0.079325658996049431 0 0.21298988190846091 -0.10208783273798 0 0.21077852755988211 -0.089461924916052982 0 0.21989889933904661 -0.079325658996049431 0 0.21298988190846091 -0.10208783273798 0 0.21989889933904661 -0.079325658996049431 0 0.21077852755988211 -0.089461924916052982 0 0.20384567991051999 -0.080014623508293373 0 0.21989889933904661 -0.079325658996049431 0 0.21077852755988211 -0.089461924916052982 0 0.20360114631028789 -0.089774586002305881 0 0.20384567991051999 -0.080014623508293373 0 0.20694644375984561 -0.096004200704962281 0 0.21077852755988211 -0.089461924916052982 0 0.20360114631028789 -0.089774586002305881 0 0.21989889933904661 -0.079325658996049431 0 0.22965077696722311 -0.085556924103861995 0 0.2398874890580327 -0.07846779811478008 0 0.21989889933904661 -0.079325658996049431 0 0.2398874890580327 -0.07846779811478008 0 0.2219392505828994 -0.09035736683626662 0 0.22965077696722311 -0.085556924103861995 0 0.22521744411686731 -0.094459051507175026 0 0.2219392505828994 -0.09035736683626662 0 0.21989889933904661 -0.079325658996049431 0 0.22965077696722311 -0.085556924103861995 0 0.22965077696722311 -0.085556924103861995 0 0.2380046280735868 -0.09899335848340364 0 0.22521744411686731 -0.094459051507175026 0 0.21989889933904661 -0.079325658996049431 0 0.22578041034547119 -0.070806101069808267 0 0.2398874890580327 -0.07846779811478008 0 0.22241163694599719 -0.061663740972524243 0 0.21565026046485011 -0.072880207596497062 0 0.22578041034547119 -0.070806101069808267 0 0.22241163694599719 -0.061663740972524243 0 0.22578041034547119 -0.070806101069808267 0 0.2314391391128251 -0.06363062757686333 0 0.21565026046485011 -0.072880207596497062 0 0.21989889933904661 -0.079325658996049431 0 0.22578041034547119 -0.070806101069808267 0 0.22578041034547119 -0.070806101069808267 0 0.2314391391128251 -0.06363062757686333 0 0.2398874890580327 -0.07846779811478008 0 0.2314391391128251 -0.06363062757686333 0 0.24204552723570971 -0.066873896384500309 0 0.2398874890580327 -0.07846779811478008 0 0.25228763128995813 -0.072878699196203128 0 0.24204552723570971 -0.066873896384500309 0 0.2398874890580327 -0.07846779811478008 0 0.25228763128995813 -0.072878699196203128 0 0.24925446120544861 -0.060733060224481557 0 0.24204552723570971 -0.066873896384500309 0 0.25715206791224893 -0.087950493673154384 0 0.2380046280735868 -0.09899335848340364 0 0.25715206791224893 -0.087950493673154384 0 0.25228763128995813 -0.072878699196203128 0 0.2398874890580327 -0.07846779811478008 0 0.22965077696722311 -0.085556924103861995 0 0.2398874890580327 -0.07846779811478008 0 0.2380046280735868 -0.09899335848340364 0 0.25715206791224893 -0.087950493673154384 0 0.2398874890580327 -0.07846779811478008 0 0.2380046280735868 -0.09899335848340364 0 0.25382345726124178 -0.10530698324834489 0 0.2380046280735868 -0.09899335848340364 0 0.23894516993861839 -0.1184104321833177 0 0.25382345726124178 -0.10530698324834489 0 0.25715206791224893 -0.087950493673154384 0 0.2380046280735868 -0.09899335848340364 0 0.2380046280735868 -0.09899335848340364 0 0.22188388430986061 -0.1016622448712805 0 0.2188571882349247 -0.1100362232936529 0 0.2380046280735868 -0.09899335848340364 0 0.2188571882349247 -0.1100362232936529 0 0.2380046280735868 -0.09899335848340364 0 0.22188388430986061 -0.1016622448712805 0 0.22521744411686731 -0.094459051507175026 0 0.2380046280735868 -0.09899335848340364 0 0.2188571882349247 -0.1100362232936529 0 0.23894516993861839 -0.1184104321833177 0 0.21298988190846091 -0.10208783273798 0 0.2219392505828994 -0.09035736683626662 0 0.22521744411686731 -0.094459051507175026 0 0.21298988190846091 -0.10208783273798 0 0.22188388430986061 -0.1016622448712805 0 0.22521744411686731 -0.094459051507175026 0 0.2188571882349247 -0.1100362232936529 0 0.23894516993861839 -0.1184104321833177 0 0.22267235063313581 -0.12635056609532599 0 0.25232014725039781 -0.13580108181409431 0 0.23894516993861839 -0.1184104321833177 0 0.23274861322059601 -0.13561890589621539 0 0.25232014725039781 -0.13580108181409431 0 0.25692694380362391 -0.15392462589169101 0 0.2385806431837928 -0.15047117154475301 0 0.25232014725039781 -0.13580108181409431 0 0.2385806431837928 -0.15047117154475301 0 0.23274861322059601 -0.13561890589621539 0 0.2385806431837928 -0.15047117154475301 0 0.2185787196098824 -0.1446467295094343 0 0.2260779937911831 -0.16466222701536121 0 0.2385806431837928 -0.15047117154475301 0 0.23274861322059601 -0.13561890589621539 0 0.2185787196098824 -0.1446467295094343 0 0.23274861322059601 -0.13561890589621539 0 0.22267235063313581 -0.12635056609532599 0 0.2185787196098824 -0.1446467295094343 0 0.23894516993861839 -0.1184104321833177 0 0.23274861322059601 -0.13561890589621539 0 0.22267235063313581 -0.12635056609532599 0 0.20608086447787671 -0.124850006479911 0 0.22267235063313581 -0.12635056609532599 0 0.2185787196098824 -0.1446467295094343 0 0.20608086447787671 -0.124850006479911 0 0.2185787196098824 -0.1446467295094343 0 0.1991718470472926 -0.14761218022184189 0 0.2185787196098824 -0.1446467295094343 0 0.1991718470472926 -0.14761218022184189 0 0.210183142393608 -0.16142518805850881 0 0.1991718470472926 -0.14761218022184189 0 0.19174739485994741 -0.16280864736683209 0 0.1751753448101083 -0.1447980584280609 0 0.1991718470472926 -0.14761218022184189 0 0.1938653442900406 -0.13382703263160059 0 0.1751753448101083 -0.1447980584280609 0 0.20608086447787671 -0.124850006479911 0 0.1991718470472926 -0.14761218022184189 0 0.1938653442900406 -0.13382703263160059 0 0.20608086447787671 -0.124850006479911 0 0.1991718470472926 -0.14761218022184189 0 0.1913900586767231 -0.1196309516087178 0 0.1938653442900406 -0.13382703263160059 0 0.18188866173396051 -0.1297279587035613 0 0.20608086447787671 -0.124850006479911 0 0.1913900586767231 -0.1196309516087178 0 0.1938653442900406 -0.13382703263160059 0 0.19657326284471979 -0.18292944567809399 0 0.19226282961670851 -0.1703743539637729 0 0.20370100659143431 -0.1728532534793332 0 0.19657326284471979 -0.18292944567809399 0 0.18403401180727341 -0.18922402103030669 0 0.18249655470734499 -0.17643108503344221 0 0.19657326284471979 -0.18292944567809399 0 0.19226282961670851 -0.1703743539637729 0 0.18249655470734499 -0.17643108503344221 0 0.1991718470472926 -0.14761218022184189 0 0.19226282961670851 -0.1703743539637729 0 0.20132970641226081 -0.16306624393086419 0 0.19226282961670851 -0.1703743539637729 0 0.19174739485994741 -0.16280864736683209 0 0.18201440916677861 -0.16727214503626411 0 0.1991718470472926 -0.14761218022184189 0 0.19226282961670851 -0.1703743539637729 0 0.1991718470472926 -0.14761218022184189 0 0.19226282961670851 -0.1703743539637729 0 0.19174739485994741 -0.16280864736683209 0 0.19226282961670851 -0.1703743539637729 0 0.20132970641226081 -0.16306624393086419 0 0.20370100659143431 -0.1728532534793332 0 0.210183142393608 -0.16142518805850881 0 0.2163485182453459 -0.17324122757836041 0 0.2260779937911831 -0.16466222701536121 0 0.210183142393608 -0.16142518805850881 0 0.2163485182453459 -0.17324122757836041 0 0.20370100659143431 -0.1728532534793332 0 0.20132970641226081 -0.16306624393086419 0 0.210183142393608 -0.16142518805850881 0 0.20370100659143431 -0.1728532534793332 0 0.2185787196098824 -0.1446467295094343 0 0.210183142393608 -0.16142518805850881 0 0.2260779937911831 -0.16466222701536121 0 0.1991718470472926 -0.14761218022184189 0 0.20132970641226081 -0.16306624393086419 0 0.210183142393608 -0.16142518805850881 0 0.2163485182453459 -0.17324122757836041 0 0.20370100659143431 -0.1728532534793332 0 0.21348190825711619 -0.18678662148927219 0 0.19657326284471979 -0.18292944567809399 0 0.20370100659143431 -0.1728532534793332 0 0.21348190825711619 -0.18678662148927219 0 0.2163485182453459 -0.17324122757836041 0 0.21348190825711619 -0.18678662148927219 0 0.23059545646417001 -0.1808068046600648 0 0.2163485182453459 -0.17324122757836041 0 0.23059545646417001 -0.1808068046600648 0 0.2260779937911831 -0.16466222701536121 0 0.23059545646417001 -0.1808068046600648 0 0.2260779937911831 -0.16466222701536121 0 0.2448314414270738 -0.1681734591417221 0 0.25692694380362391 -0.15392462589169101 0 0.2385806431837928 -0.15047117154475301 0 0.2448314414270738 -0.1681734591417221 0 0.2385806431837928 -0.15047117154475301 0 0.2260779937911831 -0.16466222701536121 0 0.2448314414270738 -0.1681734591417221 0 0.25391972478308661 -0.1877348298849853 0 0.23059545646417001 -0.1808068046600648 0 0.2448314414270738 -0.1681734591417221 0 0.25339984290733553 -0.22167452615853681 0 0.25391972478308661 -0.1877348298849853 0 0.23006161041660569 -0.20440644125605689 0 0.25391972478308661 -0.1877348298849853 0 0.23059545646417001 -0.1808068046600648 0 0.23006161041660569 -0.20440644125605689 0 0.25339984290733553 -0.22167452615853681 0 0.23006161041660569 -0.20440644125605689 0 0.23271765471591749 -0.2245237341595244 0 0.23006161041660569 -0.20440644125605689 0 0.23271765471591749 -0.2245237341595244 0 0.21312649596920241 -0.22564604764427551 0 0.21348190825711619 -0.18678662148927219 0 0.23059545646417001 -0.1808068046600648 0 0.23006161041660569 -0.20440644125605689 0 0.24538975261109239 -0.25339754837374329 0 0.24547495081528159 -0.23761622849674871 0 0.23057147674338649 -0.24153169701834079 0 0.24547495081528159 -0.23761622849674871 0 0.23271765471591749 -0.2245237341595244 0 0.23057147674338649 -0.24153169701834079 0 0.25339984290733553 -0.22167452615853681 0 0.24547495081528159 -0.23761622849674871 0 0.23271765471591749 -0.2245237341595244 0 0.23271765471591749 -0.2245237341595244 0 0.23057147674338649 -0.24153169701834079 0 0.21312649596920241 -0.22564604764427551 0 0.21843962320666521 -0.26013729322845769 0 0.23057147674338649 -0.24153169701834079 0 0.21573888824894441 -0.24358485532315791 0 0.23057147674338649 -0.24153169701834079 0 0.21573888824894441 -0.24358485532315791 0 0.21312649596920241 -0.22564604764427551 0 0.21573888824894441 -0.24358485532315791 0 0.21312649596920241 -0.22564604764427551 0 0.20081795707652339 -0.2470243834015575 0 0.21312649596920241 -0.22564604764427551 0 0.19412983575714651 -0.2296462573798117 0 0.20161181672313 -0.20196908299228319 0 0.21312649596920241 -0.22564604764427551 0 0.19412983575714651 -0.2296462573798117 0 0.20081795707652339 -0.2470243834015575 0 0.19412983575714651 -0.2296462573798117 0 0.20081795707652339 -0.2470243834015575 0 0.18524691204393889 -0.24695115827232009 0 0.19657326284471979 -0.18292944567809399 0 0.21348190825711619 -0.18678662148927219 0 0.20161181672313 -0.20196908299228319 0 0.21348190825711619 -0.18678662148927219 0 0.23006161041660569 -0.20440644125605689 0 0.20161181672313 -0.20196908299228319 0 0.23006161041660569 -0.20440644125605689 0 0.21312649596920241 -0.22564604764427551 0 0.20161181672313 -0.20196908299228319 0 0.19412983575714651 -0.2296462573798117 0 0.20161181672313 -0.20196908299228319 0 0.1830417698139177 -0.21903580995945879 0 0.19657326284471979 -0.18292944567809399 0 0.20161181672313 -0.20196908299228319 0 0.18403401180727341 -0.18922402103030669 0 0.18403401180727341 -0.18922402103030669 0 0.17286274525033549 -0.2024883834504389 0 0.16773188727574859 -0.18110659415470959 0 0.20161181672313 -0.20196908299228319 0 0.17286274525033549 -0.2024883834504389 0 0.20161181672313 -0.20196908299228319 0 0.18403401180727341 -0.18922402103030669 0 0.17286274525033549 -0.2024883834504389 0 0.20161181672313 -0.20196908299228319 0 0.17286274525033549 -0.2024883834504389 0 0.1830417698139177 -0.21903580995945879 0 0.17286274525033549 -0.2024883834504389 0 0.1830417698139177 -0.21903580995945879 0 0.1698779601495668 -0.2251855389737096 0 0.17286274525033549 -0.2024883834504389 0 0.1698779601495668 -0.2251855389737096 0 0.15329761658879759 -0.22718912439172109 0 0.17286274525033549 -0.2024883834504389 0 0.15329761658879759 -0.22718912439172109 0 0.14411367377754089 -0.20300768390859461 0 0.17286274525033549 -0.2024883834504389 0 0.14411367377754089 -0.20300768390859461 0 0.17286274525033549 -0.2024883834504389 0 0.1551911012347072 -0.18912585225033091 0 0.16773188727574859 -0.18110659415470959 0 0.17286274525033549 -0.2024883834504389 0 0.14411367377754089 -0.20300768390859461 0 0.1551911012347072 -0.18912585225033091 0 0.19412983575714651 -0.2296462573798117 0 0.18524691204393889 -0.24695115827232009 0 0.17672649118940981 -0.23588978700105051 0 0.17069787027827901 -0.25057456271484019 0 0.18524691204393889 -0.24695115827232009 0 0.17672649118940981 -0.23588978700105051 0 0.17672649118940981 -0.23588978700105051 0 0.1830417698139177 -0.21903580995945879 0 0.1698779601495668 -0.2251855389737096 0 0.19412983575714651 -0.2296462573798117 0 0.17672649118940981 -0.23588978700105051 0 0.1830417698139177 -0.21903580995945879 0 0.1698779601495668 -0.2251855389737096 0 0.16503686351310001 -0.23823967079046349 0 0.15329761658879759 -0.22718912439172109 0 0.17672649118940981 -0.23588978700105051 0 0.1698779601495668 -0.2251855389737096 0 0.16503686351310001 -0.23823967079046349 0 0.15727187409670301 -0.25178947245951722 0 0.16503686351310001 -0.23823967079046349 0 0.15329761658879759 -0.22718912439172109 0 0.17069787027827901 -0.25057456271484019 0 0.17672649118940981 -0.23588978700105051 0 0.16503686351310001 -0.23823967079046349 0 0.15727187409670301 -0.25178947245951722 0 0.17069787027827901 -0.25057456271484019 0 0.16503686351310001 -0.23823967079046349 0 0.14664725338266091 -0.2472495350296324 0 0.15329761658879759 -0.22718912439172109 0 0.14025647073933059 -0.2397386016179498 0 0.15727187409670301 -0.25178947245951722 0 0.14664725338266091 -0.2472495350296324 0 0.15329761658879759 -0.22718912439172109 0 0.15727187409670301 -0.25178947245951722 0 0.15329761658879759 -0.22718912439172109 0 0.15329761658879759 -0.22718912439172109 0 0.13773121394974219 -0.22477331698626921 0 0.14025647073933059 -0.2397386016179498 0 0.12392817470783039 -0.21827741454854449 0 0.1166162361214069 -0.23488389125594281 0 0.13773121394974219 -0.22477331698626921 0 0.1166162361214069 -0.23488389125594281 0 0.13773121394974219 -0.22477331698626921 0 0.14025647073933059 -0.2397386016179498 0 0.1166162361214069 -0.23488389125594281 0 0.1284525449190799 -0.24687969302089219 0 0.14025647073933059 -0.2397386016179498 0 0.1166162361214069 -0.23488389125594281 0 0.14025647073933059 -0.2397386016179498 0 0.14664725338266091 -0.2472495350296324 0 0.1284525449190799 -0.24687969302089219 0 0.14025647073933059 -0.2397386016179498 0 0.14411367377754089 -0.20300768390859461 0 0.1551911012347072 -0.18912585225033091 0 0.1367041680810932 -0.17776425729014109 0 0.15329761658879759 -0.22718912439172109 0 0.13773121394974219 -0.22477331698626921 0 0.14411367377754089 -0.20300768390859461 0 0.11536460230474629 -0.20352698436675029 0 0.14411367377754089 -0.20300768390859461 0 0.12392817470783039 -0.21827741454854449 0 0.13773121394974219 -0.22477331698626921 0 0.14411367377754089 -0.20300768390859461 0 0.11536460230474629 -0.20352698436675029 0 0.12392817470783039 -0.21827741454854449 0 0.14411367377754089 -0.20300768390859461 0 0.12454488208232919 -0.1889002379084101 0 0.14411367377754089 -0.20300768390859461 0 0.1367041680810932 -0.17776425729014109 0 0.12454488208232919 -0.1889002379084101 0 0.11536460230474629 -0.20352698436675029 0 0.14411367377754089 -0.20300768390859461 0 0.12454488208232919 -0.1889002379084101 0 0.119803416229997 -0.17584258034360181 0 0.1367041680810932 -0.17776425729014109 0 0.12444326469747551 -0.1648802859662053 0 0.119803416229997 -0.17584258034360181 0 0.1367041680810932 -0.17776425729014109 0 0.1551911012347072 -0.18912585225033091 0 0.1367041680810932 -0.17776425729014109 0 0.15422859387261581 -0.17594444981729951 0 0.1367041680810932 -0.17776425729014109 0 0.15422859387261581 -0.17594444981729951 0 0.14605628994121839 -0.1666087274837024 0 0.15329955327209149 -0.15710932070567379 0 0.14605628994121839 -0.1666087274837024 0 0.16010535583960481 -0.1662141022351136 0 0.15422859387261581 -0.17594444981729951 0 0.14605628994121839 -0.1666087274837024 0 0.16010535583960481 -0.1662141022351136 0 0.15329955327209149 -0.15710932070567379 0 0.14605628994121839 -0.1666087274837024 0 0.1435831055093183 -0.1525854765095753 0 0.14605628994121839 -0.1666087274837024 0 0.13575491332210571 -0.16359195615992991 0 0.1435831055093183 -0.1525854765095753 0 0.13575491332210571 -0.16359195615992991 0 0.1310829860613914 -0.15325061453786609 0 0.1435831055093183 -0.1525854765095753 0 0.1367041680810932 -0.17776425729014109 0 0.14605628994121839 -0.1666087274837024 0 0.13575491332210571 -0.16359195615992991 0 0.12444326469747551 -0.1648802859662053 0 0.1367041680810932 -0.17776425729014109 0 0.13575491332210571 -0.16359195615992991 0 0.1203722275254924 -0.1547889228157035 0 0.12444326469747551 -0.1648802859662053 0 0.1310829860613914 -0.15325061453786609 0 0.12444326469747551 -0.1648802859662053 0 0.13575491332210571 -0.16359195615992991 0 0.1310829860613914 -0.15325061453786609 0 0.1203722275254924 -0.1547889228157035 0 0.1310829860613914 -0.15325061453786609 0 0.1297954289867197 -0.13653009208207589 0 0.1310829860613914 -0.15325061453786609 0 0.1374994290964581 -0.14653325608611439 0 0.1297954289867197 -0.13653009208207589 0 0.1374994290964581 -0.14653325608611439 0 0.1297954289867197 -0.13653009208207589 0 0.14514931917218121 -0.13885552055666009 0 0.1310829860613914 -0.15325061453786609 0 0.1374994290964581 -0.14653325608611439 0 0.1435831055093183 -0.1525854765095753 0 0.12641353394554081 -0.1142415228691516 0 0.1297954289867197 -0.13653009208207589 0 0.140555953988212 -0.1253292230732434 0 0.1297954289867197 -0.13653009208207589 0 0.140555953988212 -0.1253292230732434 0 0.14514931917218121 -0.13885552055666009 0 0.140555953988212 -0.1253292230732434 0 0.14514931917218121 -0.13885552055666009 0 0.1586032947602688 -0.12678746948929001 0 0.14514931917218121 -0.13885552055666009 0 0.15595142401618009 -0.14194839509748189 0 0.1586032947602688 -0.12678746948929001 0 0.14514931917218121 -0.13885552055666009 0 0.1435831055093183 -0.1525854765095753 0 0.15595142401618009 -0.14194839509748189 0 0.1374994290964581 -0.14653325608611439 0 0.14514931917218121 -0.13885552055666009 0 0.1435831055093183 -0.1525854765095753 0 0.15329955327209149 -0.15710932070567379 0 0.1435831055093183 -0.1525854765095753 0 0.15595142401618009 -0.14194839509748189 0 0.15329955327209149 -0.15710932070567379 0 0.15595142401618009 -0.14194839509748189 0 0.15329955327209149 -0.15710932070567379 0 0.15595142401618009 -0.14194839509748189 0 0.16549729059625151 -0.15613604896372091 0 0.15595142401618009 -0.14194839509748189 0 0.16549729059625151 -0.15613604896372091 0 0.1751753448101083 -0.1447980584280609 0 0.1586032947602688 -0.12678746948929001 0 0.1751753448101083 -0.1447980584280609 0 0.15595142401618009 -0.14194839509748189 0 0.1586032947602688 -0.12678746948929001 0 0.1751753448101083 -0.1447980584280609 0 0.1586032947602688 -0.12678746948929001 0 0.1728507704139213 -0.12952287417502389 0 0.1751753448101083 -0.1447980584280609 0 0.15595142401618009 -0.14194839509748189 0 0.1586032947602688 -0.12678746948929001 0 0.1938653442900406 -0.13382703263160059 0 0.18188866173396051 -0.1297279587035613 0 0.1751753448101083 -0.1447980584280609 0 0.17573578035134779 -0.11677801007918361 0 0.1728507704139213 -0.12952287417502389 0 0.18188866173396051 -0.1297279587035613 0 0.1728507704139213 -0.12952287417502389 0 0.18188866173396051 -0.1297279587035613 0 0.1751753448101083 -0.1447980584280609 0 0.19174739485994741 -0.16280864736683209 0 0.1751753448101083 -0.1447980584280609 0 0.17699652045418479 -0.15954682629848041 0 0.19174739485994741 -0.16280864736683209 0 0.1751753448101083 -0.1447980584280609 0 0.16549729059625151 -0.15613604896372091 0 0.1751753448101083 -0.1447980584280609 0 0.17699652045418479 -0.15954682629848041 0 0.19174739485994741 -0.16280864736683209 0 0.17699652045418479 -0.15954682629848041 0 0.18201440916677861 -0.16727214503626411 0 0.17236292753284141 -0.16767995033750629 0 0.18201440916677861 -0.16727214503626411 0 0.18249655470734499 -0.17643108503344221 0 0.17699652045418479 -0.15954682629848041 0 0.17236292753284141 -0.16767995033750629 0 0.18201440916677861 -0.16727214503626411 0 0.19226282961670851 -0.1703743539637729 0 0.18201440916677861 -0.16727214503626411 0 0.18249655470734499 -0.17643108503344221 0 0.18403401180727341 -0.18922402103030669 0 0.18249655470734499 -0.17643108503344221 0 0.16773188727574859 -0.18110659415470959 0 0.17236292753284141 -0.16767995033750629 0 0.18249655470734499 -0.17643108503344221 0 0.16773188727574859 -0.18110659415470959 0 0.1551911012347072 -0.18912585225033091 0 0.15422859387261581 -0.17594444981729951 0 0.16773188727574859 -0.18110659415470959 0 0.15422859387261581 -0.17594444981729951 0 0.16773188727574859 -0.18110659415470959 0 0.16010535583960481 -0.1662141022351136 0 0.15329955327209149 -0.15710932070567379 0 0.16549729059625151 -0.15613604896372091 0 0.16010535583960481 -0.1662141022351136 0 0.16549729059625151 -0.15613604896372091 0 0.17699652045418479 -0.15954682629848041 0 0.17236292753284141 -0.16767995033750629 0 0.16549729059625151 -0.15613604896372091 0 0.17236292753284141 -0.16767995033750629 0 0.16010535583960481 -0.1662141022351136 0 0.17236292753284141 -0.16767995033750629 0 0.16773188727574859 -0.18110659415470959 0 0.16010535583960481 -0.1662141022351136 0 
</DataArray>
</Points>
<Cells>
<DataArray type="UInt32" Name="connectivity" format="ascii">
0 1 2 3 4 5 6 7 8 9 10 11 12 13 14 15 16 17 18 19 20 21 22 23 24 25 26 27 28 29 30 31 32 33 34 35 36 37 38 39 40 41 42 43 44 45 46 47 48 49 50 51 52 53 54 55 56 57 58 59 60 61 62 63 64 65 66 67 68 69 70 71 72 73 74 75 76 77 78 79 80 81 82 83 84 85 86 87 88 89 90 91 92 93 94 95 96 97 98 99 100 101 102 103 104 105 106 107 108 109 110 111 112 113 114 115 116 117 118 119 120 121 122 123 124 125 126 127 128 129 130 131 132 133 134 135 136 137 138 139 140 141 142 143 144 145 146 147 148 149 150 151 152 153 154 155 156 157 158 159 160 161 162 163 164 165 166 167 168 169 170 171 172 173 174 175 176 177 178 179 180 181 182 183 184 185 186 187 188 189 190 191 192 193 194 195 196 197 198 199 200 201 202 203 204 205 206 207 208 209 210 211 212 213 214 215 216 217 218 219 220 221 222 223 224 225 226 227 228 229 230 231 232 233 234 235 236 237 238 239 240 241 242 243 244 245 246 247 248 249 250 251 252 253 254 255 256 257 258 259 260 261 262 263 264 265 266 267 268 269 270 271 272 273 274 275 276 277 278 279 280 281 282 283 284 285 286 287 288 289 290 291 292 293 294 295 296 297 298 299 300 301 302 303 304 305 306 307 308 309 310 311 312 313 314 315 316 317 318 319 320 321 322 323 324 325 326 327 328 329 330 331 332 333 334 335 336 337 338 339 340 341 342 343 344 345 346 347 348 349 350 351 352 353 354 355 356 357 358 359 360 361 362 363 364 365 366 367 368 369 370 371 372 373 374 375 376 377 378 379 380 381 382 383 384 385 386 387 388 389 390 391 392 393 394 395 396 397 398 399 400 401 402 403 404 405 406 407 408 409 410 411 412 413 414 415 416 417 418 419 420 421 422 423 424 425 426 427 428 429 430 431 432 433 434 435 436 437 438 439 440 441 442 443 444 445 446 447 448 449 450 451 452 453 454 455 456 457 458 459 460 461 462 463 464 465 466 467 468 469 470 471 472 473 474 475 476 477 478 479 480 481 482 483 484 485 486 487 488 489 490 491 492 493 494 495 496 497 498 499 500 501 502 503 504 505 506 507 508 509 510 511 512 513 514 515 516 517 518 519 520 521 522 523 524 525 526 527 528 529 530 531 532 533 534 535 536 537 538 539 540 541 542 543 544 545 546 547 548 549 550 551 552 553 554 555 556 557 558 559 560 561 562 563 564 565 566 567 568 569 570 571 572 573 574 575 576 577 578 579 580 581 582 583 584 585 586 587 588 589 590 591 592 593 594 595 596 597 598 599 600 601 602 603 604 605 606 607 608 609 610 611 612 613 614 615 616 617 618 619 620 621 622 623 624 625 626 627 628 629 630 631 632 633 634 635 636 637 638 639 640 641 642 643 644 645 646 647 648 649 650 651 652 653 654 655 656 657 658 659 660 661 662 663 664 665 666 667 668 669 670 671 672 673 674 675 676 677 678 679 680 681 682 683 684 685 686 687 688 689 690 691 692 693 694 695 696 697 698 699 700 701 702 703 704 705 706 707 708 709 710 711 712 713 714 715 716 717 718 719 720 721 722 723 724 725 726 727 728 729 730 731 732 733 734 735 736 737 738 739 740 741 742 743 744 745 746 747 748 749 750 751 752 753 754 755 756 757 758 759 760 761 762 763 764 765 766 767 768 769 770 771 772 773 774 775 776 777 778 779 780 781 782 783 784 785 786 787 788 789 790 791 792 793 794 795 796 797 798 799 800 801 802 803 804 805 806 807 808 809 810 811 812 813 814 815 816 817 818 819 820 821 822 823 824 825 826 827 828 829 830 831 832 833 834 835 836 837 838 839 840 841 842 843 844 845 846 847 848 849 850 851 852 853 854 855 856 857 858 859 860 861 862 863 864 865 866 867 868 869 870 871 872 873 874 875 876 877 878 879 880 881 882 883 884 885 886 887 888 889 890 891 892 893 894 895 896 897 898 899 900 901 902 903 904 905 906 907 908 909 910 911 912 913 914 915 916 917 918 919 920 921 922 923 924 925 926 927 928 929 930 931 932 933 934 935 936 937 938 939 940 941 942 943 944 945 946 947 948 949 950 951 952 953 954 955 956 957 958 959 960 961 962 963 964 965 966 967 968 969 970 971 972 973 974 975 976 977 978 979 980 981 982 983 984 985 986 987 988 989 990 991 992 993 994 995 996 997 998 999 1000 1001 1002 1003 1004 1005 1006 1007 1008 1009 1010 1011 1012 1013 1014 1015 1016 1017 1018 1019 1020 1021 1022 1023 1024 1025 1026 1027 1028 1029 1030 1031 1032 1033 1034 1035 1036 1037 1038 1039 1040 1041 1042 1043 1044 1045 1046 1047 1048 1049 1050 1051 1052 1053 1054 1055 1056 1057 1058 1059 1060 1061 1062 1063 1064 1065 1066 1067 1068 1069 1070 1071 1072 1073 1074 1075 1076 1077 1078 1079 1080 1081 1082 1083 1084 1085 1086 1087 1088 1089 1090 1091 1092 1093 1094 1095 1096 1097 1098 1099 1100 1101 1102 1103 1104 1105 1106 1107 1108 1109 1110 1111 1112 1113 1114 1115 1116 1117 1118 1119 1120 1121 1122 1123 1124 1125 1126 1127 1128 1129 1130 1131 1132 1133 1134 1135 1136 1137 1138 1139 1140 1141 1142 1143 1144 1145 1146 1147 1148 1149 1150 1151 1152 1153 1154 1155 1156 1157 1158 1159 1160 1161 1162 1163 1164 1165 1166 1167 1168 1169 1170 1171 1172 1173 1174 1175 1176 1177 1178 1179 1180 1181 1182 1183 1184 1185 1186 1187 1188 1189 1190 1191 1192 1193 1194 1195 1196 1197 1198 1199 1200 1201 1202 1203 1204 1205 1206 1207 1208 1209 1210 1211 1212 1213 1214 1215 1216 1217 1218 1219 1220 1221 1222 1223 1224 1225 1226 1227 1228 1229 1230 1231 1232 1233 1234 1235 1236 1237 1238 1239 1240 1241 1242 1243 1244 1245 1246 1247 1248 1249 1250 1251 1252 1253 1254 1255 1256 1257 1258 1259 1260 1261 1262 1263 1264 1265 1266 1267 1268 1269 1270 1271 1272 1273 1274 1275 1276 1277 1278 1279 1280 1281 1282 1283 1284 1285 1286 1287 1288 1289 1290 1291 1292 1293 1294 1295 1296 1297 1298 1299 1300 1301 1302 1303 1304 1305 1306 1307 1308 1309 1310 1311 1312 1313 1314 1315 1316 1317 1318 1319 1320 1321 1322 1323 1324 1325 1326 1327 1328 1329 1330 1331 1332 1333 1334 1335 1336 1337 1338 1339 1340 1341 1342 1343 1344 1345 1346 1347 1348 1349 1350 1351 1352 1353 1354 1355 1356 1357 1358 1359 1360 1361 1362 1363 1364 1365 1366 1367 1368 1369 1370 1371 1372 1373 1374 1375 1376 1377 1378 1379 1380 1381 1382 1383 1384 1385 1386 1387 1388 1389 1390 1391 1392 1393 1394 1395 1396 1397 1398 1399 1400 1401 1402 1403 1404 1405 1406 1407 1408 1409 1410 1411 1412 1413 1414 1415 1416 1417 1418 1419 1420 1421 1422 1423 1424 1425 1426 1427 1428 1429 1430 1431 1432 1433 1434 1435 1436 1437 1438 1439 1440 1441 1442 1443 1444 1445 1446 1447 1448 1449 1450 1451 1452 1453 1454 1455 1456 1457 1458 1459 1460 1461 1462 1463 1464 1465 1466 1467 1468 1469 1470 1471 1472 1473 1474 1475 1476 1477 1478 1479 1480 1481 1482 1483 1484 1485 1486 1487 1488 1489 1490 1491 1492 1493 1494 1495 1496 1497 1498 1499 1500 1501 1502 1503 1504 1505 1506 1507 1508 1509 1510 1511 1512 1513 1514 1515 1516 1517 1518 1519 1520 1521 1522 1523 1524 1525 1526 1527 1528 1529 1530 1531 1532 1533 1534 1535 1536 1537 1538 1539 1540 1541 1542 1543 1544 1545 1546 1547 1548 1549 1550 1551 1552 1553 1554 1555 1556 1557 1558 1559 1560 1561 1562 1563 1564 1565 1566 1567 1568 1569 1570 1571 1572 1573 1574 1575 1576 1577 1578 1579 1580 1581 1582 1583 1584 1585 1586 1587 1588 1589 1590 1591 1592 1593 1594 1595 1596 1597 1598 1599 1600 1601 1602 1603 1604 1605 1606 1607 1608 1609 1610 1611 1612 1613 1614 1615 1616 1617 1618 1619 1620 1621 1622 1623 1624 1625 1626 1627 1628 1629 1630 1631 1632 1633 1634 1635 1636 1637 1638 1639 1640 1641 1642 1643 1644 1645 1646 1647 1648 1649 1650 1651 1652 1653 1654 1655 1656 1657 1658 1659 1660 1661 1662 1663 1664 1665 1666 1667 1668 1669 1670 1671 1672 1673 1674 1675 1676 1677 1678 1679 1680 1681 1682 1683 1684 1685 1686 1687 1688 1689 1690 1691 1692 1693 1694 1695 1696 1697 1698 1699 1700 1701 1702 1703 1704 1705 1706 1707 1708 1709 1710 1711 1712 1713 1714 1715 1716 1717 1718 1719 1720 1721 1722 1723 1724 1725 1726 1727 1728 1729 1730 1731 1732 1733 1734 1735 1736 1737 1738 1739 1740 1741 1742 1743 1744 1745 1746 1747 1748 1749 1750 1751 1752 1753 1754 1755 1756 1757 1758 1759 1760 1761 1762 1763 1764 1765 1766 1767 1768 1769 1770 1771 1772 1773 1774 1775 1776 1777 1778 1779 1780 1781 1782 1783 1784 1785 1786 1787 1788 1789 1790 1791 1792 1793 1794 1795 1796 1797 1798 1799 1800 1801 1802 1803 1804 1805 1806 1807 1808 1809 1810 1811 1812 1813 1814 1815 1816 1817 1818 1819 1820 1821 1822 1823 1824 1825 1826 1827 1828 1829 1830 1831 1832 1833 1834 1835 1836 1837 1838 1839 1840 1841 1842 1843 1844 1845 1846 1847 1848 1849 1850 1851 1852 1853 1854 1855 1856 1857 1858 1859 1860 1861 1862 1863 1864 1865 1866 1867 1868 1869 1870 1871 1872 1873 1874 1875 1876 1877 1878 1879 1880 1881 1882 1883 1884 1885 1886 1887 1888 1889 1890 1891 1892 1893 1894 1895 1896 1897 1898 1899 1900 1901 1902 1903 1904 1905 1906 1907 1908 1909 1910 1911 1912 1913 1914 1915 1916 1917 1918 1919 1920 1921 1922 1923 1924 1925 1926 1927 1928 1929 1930 1931 1932 1933 1934 1935 1936 1937 1938 1939 1940 1941 1942 1943 1944 1945 1946 1947 1948 1949 1950 1951 1952 1953 1954 1955 1956 1957 1958 1959 1960 1961 1962 1963 1964 1965 1966 1967 1968 1969 1970 1971 1972 1973 1974 1975 1976 1977 1978 1979 1980 1981 1982 1983 1984 1985 1986 1987 1988 1989 1990 1991 1992 1993 1994 1995 1996 1997 1998 1999 2000 2001 2002 2003 2004 2005 2006 2007 2008 2009 2010 2011 2012 2013 2014 2015 2016 2017 2018 2019 2020 2021 2022 2023 2024 2025 2026 2027 2028 2029 2030 2031 2032 2033 2034 2035 2036 2037 2038 2039 2040 2041 2042 2043 2044 2045 2046 2047 2048 2049 2050 2051 2052 2053 2054 2055 2056 2057 2058 2059 2060 2061 2062 2063 2064 2065 2066 2067 2068 2069 2070 2071 2072 2073 2074 2075 2076 2077 2078 2079 2080 2081 2082 2083 2084 2085 2086 2087 2088 2089 2090 2091 2092 2093 2094 2095 2096 2097 2098 2099 2100 2101 2102 2103 2104 2105 2106 2107 2108 2109 2110 2111 2112 2113 2114 2115 2116 2117 2118 2119 2120 2121 2122 2123 2124 2125 2126 2127 2128 2129 2130 2131 2132 2133 2134 2135 2136 2137 2138 2139 2140 2141 2142 2143 2144 2145 2146 2147 2148 2149 2150 2151 2152 2153 2154 2155 2156 2157 2158 2159 2160 2161 2162 2163 2164 2165 2166 2167 2168 2169 2170 2171 2172 2173 2174 2175 2176 2177 2178 2179 2180 2181 2182 2183 2184 2185 2186 2187 2188 2189 2190 2191 2192 2193 2194 2195 2196 2197 2198 2199 2200 2201 2202 2203 2204 2205 2206 2207 2208 2209 2210 2211 2212 2213 2214 2215 2216 2217 2218 2219 2220 2221 2222 2223 2224 2225 2226 2227 2228 2229 2230 2231 2232 2233 2234 2235 2236 2237 2238 2239 2240 2241 2242 2243 2244 2245 2246 2247 2248 2249 2250 2251 2252 2253 2254 2255 2256 2257 2258 2259 2260 2261 2262 2263 2264 2265 2266 2267 2268 2269 2270 2271 2272 2273 2274 2275 2276 2277 2278 2279 2280 2281 2282 2283 2284 2285 2286 2287 2288 2289 2290 2291 2292 2293 2294 2295 2296 2297 2298 2299 2300 2301 2302 2303 2304 2305 2306 2307 2308 2309 2310 2311 2312 2313 2314 2315 2316 2317 2318 2319 2320 2321 2322 2323 2324 2325 2326 2327 2328 2329 2330 2331 2332 2333 2334 2335 2336 2337 2338 2339 2340 2341 2342 2343 2344 2345 2346 2347 2348 2349 2350 2351 2352 2353 2354 2355 2356 2357 2358 2359 2360 2361 2362 2363 2364 2365 2366 2367 2368 2369 2370 2371 2372 2373 2374 2375 2376 2377 2378 2379 2380 2381 2382 2383 2384 2385 2386 2387 2388 2389 2390 2391 2392 2393 2394 2395 2396 2397 2398 2399 2400 2401 2402 2403 2404 2405 2406 2407 2408 2409 2410 2411 2412 2413 2414 2415 2416 2417 2418 2419 2420 2421 2422 2423 2424 2425 2426 2427 2428 2429 2430 2431 2432 2433 2434 2435 2436 2437 2438 2439 2440 2441 2442 2443 2444 2445 2446 2447 2448 2449 2450 2451 2452 2453 2454 2455 2456 2457 2458 2459 2460 2461 2462 2463 2464 2465 2466 2467 2468 2469 2470 2471 2472 2473 2474 2475 2476 2477 2478 2479 2480 2481 2482 2483 2484 2485 2486 2487 2488 2489 2490 2491 2492 2493 2494 2495 2496 2497 2498 2499 2500 2501 2502 2503 2504 2505 2506 2507 2508 2509 2510 2511 2512 2513 2514 2515 2516 2517 2518 2519 2520 2521 2522 2523 2524 2525 2526 2527 2528 2529 2530 2531 2532 2533 2534 2535 2536 2537 2538 2539 2540 2541 2542 2543 2544 2545 2546 2547 2548 2549 2550 2551 2552 2553 2554 2555 2556 2557 2558 2559 2560 2561 2562 2563 2564 2565 2566 2567 2568 2569 2570 2571 2572 2573 2574 2575 2576 2577 2578 2579 2580 2581 2582 2583 2584 2585 2586 2587 2588 2589 2590 2591 2592 2593 2594 2595 2596 2597 2598 2599 2600 2601 2602 2603 2604 2605 2606 2607 2608 2609 2610 2611 2612 2613 2614 2615 2616 2617 2618 2619 2620 2621 2622 2623 2624 2625 2626 2627 2628 2629 2630 2631 2632 2633 2634 2635 2636 2637 2638 2639 2640 2641 2642 2643 2644 2645 2646 2647 2648 2649 2650 2651 2652 2653 2654 2655 2656 2657 2658 2659 2660 2661 2662 2663 2664 2665 2666 2667 2668 2669 2670 2671 2672 2673 2674 2675 2676 2677 2678 2679 2680 2681 2682 2683 2684 2685 2686 2687 2688 2689 2690 2691 2692 2693 2694 2695 2696 2697 2698 2699 2700 2701 2702 2703 2704 2705 2706 2707 2708 2709 2710 2711 2712 2713 2714 2715 2716 2717 2718 2719 2720 2721 2722 2723 2724 2725 2726 2727 2728 2729 2730 2731 2732 2733 2734 2735 2736 2737 2738 2739 2740 2741 2742 2743 2744 2745 2746 2747 2748 2749 2750 2751 2752 2753 2754 2755 2756 2757 2758 2759 2760 2761 2762 2763 2764 2765 2766 2767 2768 2769 2770 2771 2772 2773 2774 2775 2776 2777 2778 2779 2780 2781 2782 2783 2784 2785 2786 2787 2788 2789 2790 2791 2792 2793 2794 2795 2796 2797 2798 2799 2800 2801 2802 2803 2804 2805 2806 2807 2808 2809 2810 2811 2812 2813 2814 2815 2816 2817 2818 2819 2820 2821 2822 2823 2824 2825 2826 2827 2828 2829 2830 2831 2832 2833 2834 2835 2836 2837 2838 2839 2840 2841 2842 2843 2844 2845 2846 2847 2848 2849 2850 2851 2852 2853 2854 2855 2856 2857 2858 2859 2860 2861 2862 2863 2864 2865 2866 2867 2868 2869 2870 2871 2872 2873 2874 2875 2876 2877 2878 2879 2880 2881 2882 2883 2884 2885 2886 2887 2888 2889 2890 2891 2892 2893 2894 2895 2896 2897 2898 2899 2900 2901 2902 2903 2904 2905 2906 2907 2908 2909 2910 2911 2912 2913 2914 2915 2916 2917 2918 2919 2920 2921 2922 2923 2924 2925 2926 2927 2928 2929 2930 2931 2932 2933 2934 2935 2936 2937 2938 2939 2940 2941 2942 2943 2944 2945 2946 2947 2948 2949 2950 2951 2952 2953 2954 2955 2956 2957 2958 2959 2960 2961 2962 2963 2964 2965 2966 2967 2968 2969 2970 2971 2972 2973 2974 2975 2976 2977 2978 2979 2980 2981 2982 2983 2984 2985 2986 2987 2988 2989 2990 2991 2992 2993 2994 2995 2996 2997 2998 2999 3000 3001 3002 3003 3004 3005 3006 3007 3008 3009 3010 3011 3012 3013 3014 3015 3016 3017 3018 3019 3020 3021 3022 3023 3024 3025 3026 3027 3028 3029 3030 3031 3032 3033 3034 3035 3036 3037 3038 3039 3040 3041 3042 3043 3044 3045 3046 3047 3048 3049 3050 3051 3052 3053 3054 3055 3056 3057 3058 3059 3060 3061 3062 3063 3064 3065 3066 3067 3068 3069 3070 3071 3072 3073 3074 3075 3076 3077 3078 3079 3080 3081 3082 3083 3084 3085 3086 3087 3088 3089 3090 3091 3092 3093 3094 3095 3096 3097 3098 3099 3100 3101 3102 3103 3104 3105 3106 3107 3108 3109 3110 3111 3112 3113 3114 3115 3116 3117 3118 3119 3120 3121 3122 3123 3124 3125 3126 3127 3128 3129 3130 3131 3132 3133 3134 3135 3136 3137 3138 3139 3140 3141 3142 3143 3144 3145 3146 3147 3148 3149 3150 3151 3152 3153 3154 3155 3156 3157 3158 3159 3160 3161 3162 3163 3164 3165 3166 3167 3168 3169 3170 3171 3172 3173 3174 3175 3176 3177 3178 3179 3180 3181 3182 3183 3184 3185 3186 3187 3188 3189 3190 3191 3192 3193 3194 3195 3196 3197 3198 3199 3200 3201 3202 3203 3204 3205 3206 3207 3208 3209 3210 3211 3212 3213 3214 3215 3216 3217 3218 3219 3220 3221 3222 3223 3224 3225 3226 3227 3228 3229 3230 3231 3232 3233 3234 3235 3236 3237 3238 3239 3240 3241 3242 3243 3244 3245 3246 3247 3248 3249 3250 3251 3252 3253 3254 3255 3256 3257 3258 3259 3260 3261 3262 3263 3264 3265 3266 3267 3268 3269 3270 3271 3272 3273 3274 3275 3276 3277 3278 3279 3280 3281 3282 3283 3284 3285 3286 3287 3288 3289 3290 3291 3292 3293 3294 3295 3296 3297 3298 3299 3300 3301 3302 3303 3304 3305 3306 3307 3308 3309 3310 3311 3312 3313 3314 3315 3316 3317 3318 3319 3320 3321 3322 3323 3324 3325 3326 3327 3328 3329 3330 3331 3332 3333 3334 3335 3336 3337 3338 3339 3340 3341 3342 3343 3344 3345 3346 3347 3348 3349 3350 3351 3352 3353 3354 3355 3356 3357 3358 3359 3360 3361 3362 3363 3364 3365 3366 3367 3368 3369 3370 3371 3372 3373 3374 3375 3376 3377 3378 3379 3380 3381 3382 3383 3384 3385 3386 3387 3388 3389 3390 3391 3392 3393 3394 3395 3396 3397 3398 3399 3400 3401 3402 3403 3404 3405 3406 3407 3408 3409 3410 3411 3412 3413 3414 3415 3416 3417 3418 3419 3420 3421 3422 3423 3424 3425 3426 3427 3428 3429 3430 3431 3432 3433 3434 3435 3436 3437 3438 3439 3440 3441 3442 3443 3444 3445 3446 3447 3448 3449 3450 3451 3452 3453 3454 3455 3456 3457 3458 3459 3460 3461 3462 3463 3464 3465 3466 3467 3468 3469 3470 3471 3472 3473 3474 3475 3476 3477 3478 3479 3480 3481 3482 3483 3484 3485 3486 3487 3488 3489 3490 3491 3492 3493 3494 3495 3496 3497 3498 3499 3500 3501 3502 3503 3504 3505 3506 3507 3508 3509 3510 3511 3512 3513 3514 3515 3516 3517 3518 3519 3520 3521 3522 3523 3524 3525 3526 3527 3528 3529 3530 3531 3532 3533 3534 3535 3536 3537 3538 3539 3540 3541 3542 3543 3544 3545 3546 3547 3548 3549 3550 3551 3552 3553 3554 3555 3556 3557 3558 3559 3560 3561 3562 3563 3564 3565 3566 3567 3568 3569 3570 3571 3572 3573 3574 3575 3576 3577 3578 3579 3580 3581 3582 3583 3584 3585 3586 3587 3588 3589 3590 3591 3592 3593 3594 3595 3596 3597 3598 3599 3600 3601 3602 3603 3604 3605 3606 3607 3608 3609 3610 3611 3612 3613 3614 3615 3616 3617 3618 3619 3620 3621 3622 3623 3624 3625 3626 3627 3628 3629 3630 3631 3632 3633 3634 3635 3636 3637 3638 3639 3640 3641 3642 3643 3644 3645 3646 3647 3648 3649 3650 3651 3652 3653 3654 3655 3656 3657 3658 3659 3660 3661 3662 3663 3664 3665 3666 3667 3668 3669 3670 3671 3672 3673 3674 3675 3676 3677 3678 3679 3680 3681 3682 3683 3684 3685 3686 3687 3688 3689 3690 3691 3692 3693 3694 3695 3696 3697 3698 3699 3700 3701 3702 3703 3704 3705 3706 3707 3708 3709 3710 3711 3712 3713 3714 3715 3716 3717 3718 3719 3720 3721 3722 3723 3724 3725 3726 3727 3728 3729 3730 3731 3732 3733 3734 3735 3736 3737 3738 3739 3740 3741 3742 3743 3744 3745 3746 3747 3748 3749 3750 3751 3752 3753 3754 3755 3756 3757 3758 3759 3760 3761 3762 3763 3764 3765 3766 3767 3768 3769 3770 3771 3772 3773 3774 3775 3776 3777 3778 3779 3780 3781 3782 3783 3784 3785 3786 3787 3788 3789 3790 3791 3792 3793 3794 3795 3796 3797 3798 3799 3800 3801 3802 3803 3804 3805 3806 3807 3808 3809 3810 3811 3812 3813 3814 3815 3816 3817 3818 3819 3820 3821 3822 3823 3824 3825 3826 3827 3828 3829 3830 3831 3832 3833 3834 3835 3836 3837 3838 3839 3840 3841 3842 3843 3844 3845 3846 3847 3848 3849 3850 3851 3852 3853 3854 3855 3856 3857 3858 3859 3860 3861 3862 3863 3864 3865 3866 3867 3868 3869 3870 3871 3872 3873 3874 3875 3876 3877 3878 3879 3880 3881 3882 3883 3884 3885 3886 3887 3888 3889 3890 3891 3892 3893 3894 3895 3896 3897 3898 3899 3900 3901 3902 3903 3904 3905 3906 3907 3908 3909 3910 3911 3912 3913 3914 3915 3916 3917 3918 3919 3920 3921 3922 3923 3924 3925 3926 3927 3928 3929 3930 3931 3932 3933 3934 3935 3936 3937 3938 3939 3940 3941 3942 3943 3944 3945 3946 3947 3948 3949 3950 3951 3952 3953 3954 3955 3956 3957 3958 3959 3960 3961 3962 3963 3964 3965 3966 3967 3968 3969 3970 3971 3972 3973 3974 3975 3976 3977 3978 3979 3980 3981 3982 3983 3984 3985 3986 3987 3988 3989 3990 3991 3992 3993 3994 3995 3996 3997 3998 3999 4000 4001 4002 4003 4004 4005 4006 4007 4008 4009 4010 4011 4012 4013 4014 4015 4016 4017 4018 4019 4020 4021 4022 4023 4024 4025 4026 4027 4028 4029 4030 4031 4032 4033 4034 4035 4036 4037 4038 4039 4040 4041 4042 4043 4044 4045 4046 4047 4048 4049 4050 4051 4052 4053 4054 4055 4056 4057 4058 4059 4060 4061 4062 4063 4064 4065 4066 4067 4068 4069 4070 4071 4072 4073 4074 4075 4076 4077 4078 4079 4080 4081 4082 4083 4084 4085 4086 4087 4088 4089 4090 4091 4092 4093 4094 4095 4096 4097 4098 4099 4100 4101 4102 4103 4104 4105 4106 4107 4108 4109 4110 4111 4112 4113 4114 4115 4116 4117 4118 4119 4120 4121 4122 4123 4124 4125 4126 4127 4128 4129 4130 4131 4132 4133 4134 4135 4136 4137 4138 4139 4140 4141 4142 4143 4144 4145 4146 4147 4148 4149 4150 4151 4152 4153 4154 4155 4156 4157 4158 4159 4160 4161 4162 4163 4164 4165 4166 4167 4168 4169 4170 4171 4172 4173 4174 4175 4176 4177 4178 4179 4180 4181 4182 4183 4184 4185 4186 4187 4188 4189 4190 4191 4192 4193 4194 4195 4196 4197 4198 4199 4200 4201 4202 4203 4204 4205 4206 4207 4208 4209 4210 4211 4212 4213 4214 4215 4216 4217 4218 4219 4220 4221 4222 4223 4224 4225 4226 4227 4228 4229 4230 4231 4232 4233 4234 4235 4236 4237 4238 4239 4240 4241 4242 4243 4244 4245 4246 4247 4248 4249 4250 4251 4252 4253 4254 4255 4256 4257 4258 4259 4260 4261 4262 4263 4264 4265 4266 4267 4268 4269 4270 4271 4272 4273 4274 4275 4276 4277 4278 4279 4280 4281 4282 4283 4284 4285 4286 4287 4288 4289 4290 4291 4292 4293 4294 4295 4296 4297 4298 4299 4300 4301 4302 4303 4304 4305 4306 4307 4308 4309 4310 4311 4312 4313 4314 4315 4316 4317 4318 4319 4320 4321 4322 4323 4324 4325 4326 4327 4328 4329 4330 4331 4332 4333 4334 4335 4336 4337 4338 4339 4340 4341 4342 4343 4344 4345 4346 4347 4348 4349 4350 4351 4352 4353 4354 4355 4356 4357 4358 4359 4360 4361 4362 4363 4364 4365 4366 4367 4368 4369 4370 4371 4372 4373 4374 4375 4376 4377 4378 4379 4380 4381 4382 4383 4384 4385 4386 4387 4388 4389 4390 4391 4392 4393 4394 4395 4396 4397 4398 4399 4400 4401 4402 4403 4404 4405 4406 4407 4408 4409 4410 4411 4412 4413 4414 4415 4416 4417 4418 4419 4420 4421 4422 4423 4424 4425 4426 4427 4428 4429 4430 4431 4432 4433 4434 4435 4436 4437 4438 4439 4440 4441 4442 4443 4444 4445 4446 4447 4448 4449 4450 4451 4452 4453 4454 4455 4456 4457 4458 4459 4460 4461 4462 4463 4464 4465 4466 4467 4468 4469 4470 4471 4472 4473 4474 4475 4476 4477 4478 4479 4480 4481 4482 4483 4484 4485 4486 4487 4488 4489 4490 4491 4492 4493 4494 4495 4496 4497 4498 4499 4500 4501 4502 4503 4504 4505 4506 4507 4508 4509 4510 4511 4512 4513 4514 4515 4516 4517 4518 4519 4520 4521 4522 4523 4524 4525 4526 4527 4528 4529 4530 4531 4532 4533 4534 4535 4536 4537 4538 4539 4540 4541 4542 4543 4544 4545 4546 4547 4548 4549 4550 4551 4552 4553 4554 4555 4556 4557 4558 4559 4560 4561 4562 4563 4564 4565 4566 4567 4568 4569 4570 4571 4572 4573 4574 4575 4576 4577 4578 4579 4580 4581 4582 4583 4584 4585 4586 4587 4588 4589 4590 4591 4592 4593 4594 4595 4596 4597 4598 4599 4600 4601 4602 4603 4604 4605 4606 4607 4608 4609 4610 4611 4612 4613 4614 4615 4616 4617 4618 4619 4620 4621 4622 4623 4624 4625 4626 4627 4628 4629 4630 4631 4632 4633 4634 4635 4636 4637 4638 4639 4640 4641 4642 4643 4644 4645 4646 4647 4648 4649 4650 4651 4652 4653 4654 4655 4656 4657 4658 4659 4660 4661 4662 4663 4664 4665 4666 4667 4668 4669 4670 4671 4672 4673 4674 4675 4676 4677 4678 4679 4680 4681 4682 4683 4684 4685 4686 4687 4688 4689 4690 4691 4692 4693 4694 4695 4696 4697 4698 4699 4700 4701 4702 4703 4704 4705 4706 4707 4708 4709 4710 4711 4712 4713 4714 4715 4716 4717 4718 4719 4720 4721 4722 4723 4724 4725 4726 4727 4728 4729 4730 4731 4732 4733 4734 4735 4736 4737 4738 4739 4740 4741 4742 4743 4744 4745 4746 4747 4748 4749 4750 4751 4752 4753 4754 4755 4756 4757 4758 4759 4760 4761 4762 4763 4764 4765 4766 4767 4768 4769 4770 4771 4772 4773 4774 4775 4776 4777 4778 4779 4780 4781 4782 4783 4784 4785 4786 4787 4788 4789 4790 4791 4792 4793 4794 4795 4796 4797 4798 4799 4800 4801 4802 4803 4804 4805 4806 4807 4808 4809 4810 4811 4812 4813 4814 4815 4816 4817 4818 4819 4820 4821 4822 4823 4824 4825 4826 4827 4828 4829 4830 4831 4832 4833 4834 4835 4836 4837 4838 4839 4840 4841 4842 4843 4844 4845 4846 4847 4848 4849 4850 4851 4852 4853 4854 4855 4856 4857 4858 4859 4860 4861 4862 4863 4864 4865 4866 4867 4868 4869 4870 4871 4872 4873 4874 4875 4876 4877 4878 4879 4880 4881 4882 4883 4884 4885 4886 4887 4888 4889 4890 4891 4892 4893 4894 4895 4896 4897 4898 4899 4900 4901 4902 4903 4904 4905 4906 4907 4908 4909 4910 4911 4912 4913 4914 4915 4916 4917 4918 4919 4920 4921 4922 4923 4924 4925 4926 4927 4928 4929 4930 4931 4932 4933 4934 4935 4936 4937 4938 4939 4940 4941 4942 4943 4944 4945 4946 4947 4948 4949 4950 4951 4952 4953 4954 4955 4956 4957 4958 4959 4960 4961 4962 4963 4964 4965 4966 4967 4968 4969 4970 4971 4972 4973 4974 4975 4976 4977 4978 4979 4980 4981 4982 4983 4984 4985 4986 4987 4988 4989 4990 4991 4992 4993 4994 4995 4996 4997 4998 4999 5000 5001 5002 5003 5004 5005 5006 5007 5008 5009 5010 5011 5012 5013 5014 5015 5016 5017 5018 5019 5020 5021 5022 5023 5024 5025 5026 5027 5028 5029 5030 5031 5032 5033 5034 5035 5036 5037 5038 5039 5040 5041 5042 5043 5044 5045 5046 5047 5048 5049 5050 5051 5052 5053 5054 5055 5056 5057 5058 5059 5060 5061 5062 5063 5064 5065 5066 5067 5068 5069 5070 5071 5072 5073 5074 5075 5076 5077 5078 5079 5080 5081 5082 5083 5084 5085 5086 5087 5088 5089 5090 5091 5092 5093 5094 5095 5096 5097 5098 5099 5100 5101 5102 5103 5104 5105 5106 5107 5108 5109 5110 5111 5112 5113 5114 5115 5116 5117 5118 5119 5120 5121 5122 5123 5124 5125 5126 5127 5128 5129 5130 5131 5132 5133 5134 5135 5136 5137 5138 5139 5140 5141 5142 5143 5144 5145 5146 5147 5148 5149 5150 5151 5152 5153 5154 5155 5156 5157 5158 5159 5160 5161 5162 5163 5164 5165 5166 5167 5168 5169 5170 5171 5172 5173 5174 5175 5176 5177 5178 5179 5180 5181 5182 5183 5184 5185 5186 5187 5188 5189 5190 5191 5192 5193 5194 5195 5196 5197 5198 5199 5200 5201 5202 5203 5204 5205 5206 5207 5208 5209 5210 5211 5212 5213 5214 5215 5216 5217 5218 5219 5220 5221 5222 5223 5224 5225 5226 5227 5228 5229 5230 5231 5232 5233 5234 5235 5236 5237 5238 5239 5240 5241 5242 5243 5244 5245 5246 5247 5248 5249 5250 5251 5252 5253 5254 5255 5256 5257 5258 5259 5260 5261 5262 5263 5264 5265 5266 5267 5268 5269 5270 5271 5272 5273 5274 5275 5276 5277 5278 5279 5280 5281 5282 5283 5284 5285 5286 5287 5288 5289 5290 5291 5292 5293 5294 5295 5296 5297 5298 5299 5300 5301 5302 5303 5304 5305 5306 5307 5308 5309 5310 5311 5312 5313 5314 5315 5316 5317 5318 5319 5320 5321 5322 5323 5324 5325 5326 5327 5328 5329 5330 5331 5332 5333 5334 5335 5336 5337 5338 5339 5340 5341 5342 5343 5344 5345 5346 5347 5348 5349 5350 5351 5352 5353 5354 5355 5356 5357 5358 5359 5360 5361 5362 5363 5364 5365 5366 5367 5368 5369 5370 5371 5372 5373 5374 5375 5376 5377 5378 5379 5380 5381 5382 5383 5384 5385 5386 5387 5388 5389 5390 5391 5392 5393 5394 5395 5396 5397 5398 5399 5400 5401 5402 5403 5404 5405 5406 5407 5408 5409 5410 5411 5412 5413 5414 5415 5416 5417 5418 5419 5420 5421 5422 5423 5424 5425 5426 5427 5428 5429 5430 5431 5432 5433 5434 5435 5436 5437 5438 5439 5440 5441 5442 5443 5444 5445 5446 5447 5448 5449 5450 5451 5452 5453 5454 5455 5456 5457 5458 5459 5460 5461 5462 5463 5464 5465 5466 5467 5468 5469 5470 5471 5472 5473 5474 5475 5476 5477 5478 5479 5480 5481 5482 5483 5484 5485 5486 5487 5488 5489 5490 5491 5492 5493 5494 5495 5496 5497 5498 5499 5500 5501 5502 5503 5504 5505 5506 5507 5508 5509 5510 5511 5512 5513 5514 5515 5516 5517 5518 5519 5520 5521 5522 5523 5524 5525 5526 5527 5528 5529 5530 5531 5532 5533 5534 5535 5536 5537 5538 5539 5540 5541 5542 5543 5544 5545 5546 5547 5548 5549 5550 5551 5552 5553 5554 5555 5556 5557 5558 5559 5560 5561 5562 5563 5564 5565 5566 5567 5568 5569 5570 5571 5572 5573 5574 5575 5576 5577 5578 5579 5580 5581 5582 5583 5584 5585 5586 5587 5588 5589 5590 5591 5592 5593 5594 5595 5596 5597 5598 5599 5600 5601 5602 5603 5604 5605 5606 5607 5608 5609 5610 5611 5612 5613 5614 5615 5616 5617 5618 5619 5620 5621 5622 5623 5624 5625 5626 5627 5628 5629 5630 5631 5632 5633 5634 5635 5636 5637 5638 5639 5640 5641 5642 5643 5644 5645 5646 5647 5648 5649 5650 5651 5652 5653 5654 5655 5656 5657 5658 5659 5660 5661 5662 5663 5664 5665 5666 5667 5668 5669 5670 5671 5672 5673 5674 5675 5676 5677 5678 5679 5680 5681 5682 5683 5684 5685 5686 5687 5688 5689 5690 5691 5692 5693 5694 5695 5696 5697 5698 5699 5700 5701 5702 5703 5704 5705 5706 5707 5708 5709 5710 5711 5712 5713 5714 5715 5716 5717 5718 5719 5720 5721 5722 5723 5724 5725 5726 5727 5728 5729 5730 5731 5732 5733 5734 5735 5736 5737 5738 5739 5740 5741 5742 5743 5744 5745 5746 5747 5748 5749 5750 5751 5752 5753 5754 5755 5756 5757 5758 5759 5760 5761 5762 5763 5764 5765 5766 5767 5768 5769 5770 5771 5772 5773 5774 5775 5776 5777 5778 5779 5780 5781 5782 5783 5784 5785 5786 5787 5788 5789 5790 5791 5792 5793 5794 5795 5796 5797 5798 5799 5800 5801 5802 5803 5804 5805 5806 5807 5808 5809 5810 5811 5812 5813 5814 5815 5816 5817 5818 5819 5820 5821 5822 5823 5824 5825 5826 5827 5828 5829 5830 5831 5832 5833 5834 5835 5836 5837 5838 5839 5840 5841 5842 5843 5844 5845 5846 5847 5848 5849 5850 5851 5852 5853 5854 5855 5856 5857 5858 5859 5860 5861 5862 5863 5864 5865 5866 5867 5868 5869 5870 5871 5872 5873 5874 5875 5876 5877 5878 5879 5880 5881 5882 5883 5884 5885 5886 5887 5888 5889 5890 5891 5892 5893 5894 5895 5896 5897 5898 5899 5900 5901 5902 5903 5904 5905 5906 5907 5908 5909 5910 5911 5912 5913 5914 5915 5916 5917 5918 5919 5920 5921 5922 5923 5924 5925 5926 5927 5928 5929 5930 5931 5932 5933 5934 5935 5936 5937 5938 5939 5940 5941 5942 5943 5944 5945 5946 5947 5948 5949 5950 5951 5952 5953 5954 5955 5956 5957 5958 5959 5960 5961 5962 5963 5964 5965 5966 5967 5968 5969 5970 5971 5972 5973 5974 5975 5976 5977 5978 5979 5980 5981 5982 5983 5984 5985 5986 5987 5988 5989 5990 5991 5992 5993 5994 5995 5996 5997 5998 5999 6000 6001 6002 6003 6004 6005 6006 6007 6008 6009 6010 6011 6012 6013 6014 6015 6016 6017 6018 6019 6020 6021 6022 6023 6024 6025 6026 6027 6028 6029 6030 6031 6032 6033 6034 6035 6036 6037 6038 6039 6040 6041 6042 6043 6044 6045 6046 6047 6048 6049 6050 6051 6052 6053 6054 6055 6056 6057 6058 6059 6060 6061 6062 6063 6064 6065 6066 6067 6068 6069 6070 6071 6072 6073 6074 6075 6076 6077 6078 6079 6080 6081 6082 6083 6084 6085 6086 6087 6088 6089 6090 6091 6092 6093 6094 6095 6096 6097 6098 6099 6100 6101 6102 6103 6104 6105 6106 6107 6108 6109 6110 6111 6112 6113 6114 6115 6116 6117 6118 6119 6120 6121 6122 6123 6124 6125 6126 6127 6128 6129 6130 6131 6132 6133 6134 6135 6136 6137 6138 6139 6140 6141 6142 6143 6144 6145 6146 6147 6148 6149 6150 6151 6152 6153 6154 6155 6156 6157 6158 6159 6160 6161 6162 6163 6164 6165 6166 6167 6168 6169 6170 6171 6172 6173 6174 6175 6176 6177 6178 6179 6180 6181 6182 6183 6184 6185 6186 6187 6188 6189 6190 6191 6192 6193 6194 6195 6196 6197 6198 6199 6200 6201 6202 6203 6204 6205 6206 6207 6208 6209 6210 6211 6212 6213 6214 6215 6216 6217 6218 6219 6220 6221 6222 6223 6224 6225 6226 6227 6228 6229 6230 6231 6232 6233 6234 6235 6236 6237 6238 6239 6240 6241 6242 6243 6244 6245 6246 6247 6248 6249 6250 6251 6252 6253 6254 6255 6256 6257 6258 6259 6260 6261 6262 6263 6264 6265 6266 6267 6268 6269 6270 6271 6272 6273 6274 6275 6276 6277 6278 6279 6280 6281 6282 6283 6284 6285 6286 6287 6288 6289 6290 6291 6292 6293 6294 6295 6296 6297 6298 6299 6300 6301 6302 6303 6304 6305 6306 6307 6308 6309 6310 6311 6312 6313 6314 6315 6316 6317 6318 6319 6320 6321 6322 6323 6324 6325 6326 6327 6328 6329 6330 6331 6332 6333 6334 6335 6336 6337 6338 6339 6340 6341 6342 6343 6344 6345 6346 6347 6348 6349 6350 6351 6352 6353 6354 6355 6356 6357 6358 6359 6360 6361 6362 6363 6364 6365 6366 6367 6368 6369 6370 6371 6372 6373 6374 6375 6376 6377 6378 6379 6380 6381 6382 6383 6384 6385 6386 6387 6388 6389 6390 6391 6392 6393 6394 6395 6396 6397 6398 6399 6400 6401 6402 6403 6404 6405 6406 6407 6408 6409 6410 6411 6412 6413 6414 6415 6416 6417 6418 6419 6420 6421 6422 6423 6424 6425 6426 6427 6428 6429 6430 6431 6432 6433 6434 6435 6436 6437 6438 6439 6440 6441 6442 6443 6444 6445 6446 6447 6448 6449 6450 6451 6452 6453 6454 6455 6456 6457 6458 6459 6460 6461 6462 6463 6464 6465 6466 6467 6468 6469 6470 6471 6472 6473 6474 6475 6476 6477 6478 6479 6480 6481 6482 6483 6484 6485 6486 6487 6488 6489 6490 6491 6492 6493 6494 6495 6496 6497 6498 6499 6500 6501 6502 6503 6504 6505 6506 6507 6508 6509 6510 6511 6512 6513 6514 6515 6516 6517 6518 6519 6520 6521 6522 6523 6524 6525 6526 6527 6528 6529 6530 6531 6532 6533 6534 6535 6536 6537 6538 6539 6540 6541 6542 6543 6544 6545 6546 6547 6548 6549 6550 6551 6552 6553 6554 6555 6556 6557 6558 6559 6560 6561 6562 6563 6564 6565 6566 6567 6568 6569 6570 6571 6572 6573 6574 6575 6576 6577 6578 6579 6580 6581 6582 6583 6584 6585 6586 6587 6588 6589 6590 6591 6592 6593 6594 6595 6596 6597 6598 6599 6600 6601 6602 6603 6604 6605 6606 6607 6608 6609 6610 6611 6612 6613 6614 6615 6616 6617 6618 6619 6620 6621 6622 6623 6624 6625 6626 6627 6628 6629 6630 6631 6632 6633 6634 6635 6636 6637 6638 6639 6640 6641 6642 6643 6644 6645 6646 6647 6648 6649 6650 6651 6652 6653 6654 6655 6656 6657 6658 6659 6660 6661 6662 6663 6664 6665 6666 6667 6668 6669 6670 6671 6672 6673 6674 6675 6676 6677 6678 6679 6680 6681 6682 6683 6684 6685 6686 6687 6688 6689 6690 6691 6692 6693 6694 6695 6696 6697 6698 6699 6700 6701 6702 6703 6704 6705 6706 6707 6708 6709 6710 6711 6712 6713 6714 6715 6716 6717 6718 6719 6720 6721 6722 6723 6724 6725 6726 6727 6728 6729 6730 6731 6732 6733 6734 6735 6736 6737 6738 6739 6740 6741 6742 6743 6744 6745 6746 6747 6748 6749 6750 6751 6752 6753 6754 6755 6756 6757 6758 6759 6760 6761 6762 6763 6764 6765 6766 6767 6768 6769 6770 6771 6772 6773 6774 6775 6776 6777 6778 6779 6780 6781 6782 6783 6784 6785 6786 6787 6788 6789 6790 6791 6792 6793 6794 6795 6796 6797 6798 6799 6800 6801 6802 6803 6804 6805 6806 6807 6808 6809 6810 6811 6812 6813 6814 6815 6816 6817 6818 6819 6820 6821 6822 6823 6824 6825 6826 6827 6828 6829 6830 6831 6832 6833 6834 6835 6836 6837 6838 6839 6840 6841 6842 6843 6844 6845 6846 6847 6848 6849 6850 6851 6852 6853 6854 6855 6856 6857 6858 6859 6860 6861 6862 6863 6864 6865 6866 6867 6868 6869 6870 6871 6872 6873 6874 6875 6876 6877 6878 6879 6880 6881 6882 6883 6884 6885 6886 6887 6888 6889 6890 6891 6892 6893 6894 6895 6896 6897 6898 6899 6900 6901 6902 6903 6904 6905 6906 6907 6908 6909 6910 6911 6912 6913 6914 6915 6916 6917 6918 6919 6920 6921 6922 6923 6924 6925 6926 6927 6928 6929 6930 6931 6932 6933 6934 6935 6936 6937 6938 6939 6940 6941 6942 6943 6944 6945 6946 6947 6948 6949 6950 6951 6952 6953 6954 6955 6956 6957 6958 6959 6960 6961 6962 6963 6964 6965 6966 6967 6968 6969 6970 6971 6972 6973 6974 6975 6976 6977 6978 6979 6980 6981 6982 6983 6984 6985 6986 6987 6988 6989 6990 6991 6992 6993 6994 6995 6996 6997 6998 6999 7000 7001 7002 7003 7004 7005 7006 7007 7008 7009 7010 7011 7012 7013 7014 7015 7016 7017 7018 7019 7020 7021 7022 7023 7024 7025 7026 7027 7028 7029 7030 7031 7032 7033 7034 7035 7036 7037 7038 7039 7040 7041 7042 7043 7044 7045 7046 7047 7048 7049 7050 7051 7052 7053 7054 7055 7056 7057 7058 7059 7060 7061 7062 7063 7064 7065 7066 7067 7068 7069 7070 7071 7072 7073 7074 7075 7076 7077 7078 7079 7080 7081 7082 7083 7084 7085 7086 7087 7088 7089 7090 7091 7092 7093 7094 7095 7096 7097 7098 7099 7100 7101 7102 7103 7104 7105 7106 7107 7108 7109 7110 7111 7112 7113 7114 7115 7116 7117 7118 7119 7120 7121 7122 7123 7124 7125 7126 7127 7128 7129 7130 7131 7132 7133 7134 7135 7136 7137 7138 7139 7140 7141 7142 7143 7144 7145 7146 7147 7148 7149 7150 7151 7152 7153 7154 7155 7156 7157 7158 7159 7160 7161 7162 7163 7164 7165 7166 7167 7168 7169 7170 7171 7172 7173 7174 7175 7176 7177 7178 7179 7180 7181 7182 7183 7184 7185 7186 7187 7188 7189 7190 7191 7192 7193 7194 7195 7196 7197 7198 7199 7200 7201 7202 7203 7204 7205 7206 7207 7208 7209 7210 7211 7212 7213 7214 7215 7216 7217 7218 7219 7220 7221 7222 7223 7224 7225 7226 7227 7228 7229 7230 7231 7232 7233 7234 7235 7236 7237 7238 7239 7240 7241 7242 7243 7244 7245 7246 7247 7248 7249 7250 7251 7252 7253 7254 7255 7256 7257 7258 7259 7260 7261 7262 7263 7264 7265 7266 7267 7268 7269 7270 7271 7272 7273 7274 7275 7276 7277 7278 7279 7280 7281 7282 7283 7284 7285 7286 7287 7288 7289 7290 7291 7292 7293 7294 7295 7296 7297 7298 7299 7300 7301 7302 7303 7304 7305 7306 7307 7308 7309 7310 7311 7312 7313 7314 7315 7316 7317 7318 7319 7320 7321 7322 7323 7324 7325 7326 7327 7328 7329 7330 7331 7332 7333 7334 7335 7336 7337 7338 7339 7340 7341 7342 7343 7344 7345 7346 7347 7348 7349 7350 7351 7352 7353 7354 7355 7356 7357 7358 7359 7360 7361 7362 7363 7364 7365 7366 7367 7368 7369 7370 7371 7372 7373 7374 7375 7376 7377 7378 7379 7380 7381 7382 7383 7384 7385 7386 7387 7388 7389 7390 7391 7392 7393 7394 7395 7396 7397 7398 7399 7400 7401 7402 7403 7404 7405 7406 7407 7408 7409 7410 7411 7412 7413 7414 7415 7416 7417 7418 7419 7420 7421 7422 7423 7424 7425 7426 7427 7428 7429 7430 7431 7432 7433 7434 7435 7436 7437 7438 7439 7440 7441 7442 7443 7444 7445 7446 7447 7448 7449 7450 7451 7452 7453 7454 7455 7456 7457 7458 7459 7460 7461 7462 7463 7464 7465 7466 7467 7468 7469 7470 7471 7472 7473 7474 7475 7476 7477 7478 7479 7480 7481 7482 7483 7484 7485 7486 7487 7488 7489 7490 7491 7492 7493 7494 7495 7496 7497 7498 7499 7500 7501 7502 7503 7504 7505 7506 7507 7508 7509 7510 7511 7512 7513 7514 7515 7516 7517 7518 7519 7520 7521 7522 7523 7524 7525 7526 7527 7528 7529 7530 7531 7532 7533 7534 7535 7536 7537 7538 7539 7540 7541 7542 7543 7544 7545 7546 7547 7548 7549 7550 7551 7552 7553 7554 7555 7556 7557 7558 7559 7560 7561 7562 7563 7564 7565 7566 7567 7568 7569 7570 7571 7572 7573 7574 7575 7576 7577 7578 7579 7580 7581 7582 7583 7584 7585 7586 7587 7588 7589 7590 7591 7592 7593 7594 7595 7596 7597 7598 7599 7600 7601 7602 7603 7604 7605 7606 7607 7608 7609 7610 7611 7612 7613 7614 7615 7616 7617 7618 7619 7620 7621 7622 7623 7624 7625 7626 7627 7628 7629 7630 7631 7632 7633 7634 7635 7636 7637 7638 7639 7640 7641 7642 7643 7644 7645 7646 7647 7648 7649 7650 7651 7652 7653 7654 7655 7656 7657 7658 7659 7660 7661 7662 7663 7664 7665 7666 7667 7668 7669 7670 7671 7672 7673 7674 7675 7676 7677 7678 7679 7680 7681 7682 7683 7684 7685 7686 7687 7688 7689 7690 7691 7692 7693 7694 7695 7696 7697 7698 7699 7700 7701 7702 7703 7704 7705 7706 7707 7708 7709 7710 7711 7712 7713 7714 7715 7716 7717 7718 7719 7720 7721 7722 7723 7724 7725 7726 7727 7728 7729 7730 7731 7732 7733 7734 7735 7736 7737 7738 7739 7740 7741 7742 7743 7744 7745 7746 7747 7748 7749 7750 7751 7752 7753 7754 7755 7756 7757 7758 7759 7760 7761 7762 7763 7764 7765 7766 7767 7768 7769 7770 7771 7772 7773 7774 7775 7776 7777 7778 7779 7780 7781 7782 7783 7784 7785 7786 7787 7788 7789 7790 7791 7792 7793 7794 7795 7796 7797 7798 7799 7800 7801 7802 7803 7804 7805 7806 7807 7808 7809 7810 7811 7812 7813 7814 7815 7816 7817 7818 7819 7820 7821 7822 7823 7824 7825 7826 7827 7828 7829 7830 7831 7832 7833 7834 7835 7836 7837 7838 7839 7840 7841 7842 7843 7844 7845 7846 7847 7848 7849 7850 7851 7852 7853 7854 7855 7856 7857 7858 7859 7860 7861 7862 7863 7864 7865 7866 7867 7868 7869 7870 7871 7872 7873 7874 7875 7876 7877 7878 7879 7880 7881 7882 7883 7884 7885 7886 7887 7888 7889 7890 7891 7892 7893 7894 7895 7896 7897 7898 7899 7900 7901 7902 7903 7904 7905 7906 7907 7908 7909 7910 7911 7912 7913 7914 7915 7916 7917 7918 7919 7920 7921 7922 7923 7924 7925 7926 7927 7928 7929 7930 7931 7932 7933 7934 7935 7936 7937 7938 7939 7940 7941 7942 7943 7944 7945 7946 7947 7948 7949 7950 7951 7952 7953 7954 7955 7956 7957 7958 7959 7960 7961 7962 7963 7964 7965 7966 7967 7968 7969 7970 7971 7972 7973 7974 7975 7976 7977 7978 7979 7980 7981 7982 7983 7984 7985 7986 7987 7988 7989 7990 7991 7992 7993 7994 7995 7996 7997 7998 7999 8000 8001 8002 8003 8004 8005 8006 8007 8008 8009 8010 8011 8012 8013 8014 8015 8016 8017 8018 8019 8020 8021 8022 8023 8024 8025 8026 8027 8028 8029 8030 8031 8032 8033 8034 8035 8036 8037 8038 8039 8040 8041 8042 8043 8044 8045 8046 8047 8048 8049 8050 8051 8052 8053 8054 8055 8056 8057 8058 8059 8060 8061 8062 8063 8064 8065 8066 8067 8068 8069 8070 8071 8072 8073 8074 8075 8076 8077 8078 8079 8080 8081 8082 8083 8084 8085 8086 8087 8088 8089 8090 8091 8092 8093 8094 8095 8096 8097 8098 8099 8100 8101 8102 8103 8104 8105 8106 8107 8108 8109 8110 8111 8112 8113 8114 8115 8116 8117 8118 8119 8120 8121 8122 8123 8124 8125 8126 8127 8128 8129 8130 8131 8132 8133 8134 8135 8136 8137 8138 8139 8140 8141 8142 8143 8144 8145 8146 8147 8148 8149 8150 8151 8152 8153 8154 8155 8156 8157 8158 8159 8160 8161 8162 8163 8164 8165 8166 8167 8168 8169 8170 8171 8172 8173 8174 8175 8176 8177 8178 8179 8180 8181 8182 8183 8184 8185 8186 8187 8188 8189 8190 8191 8192 8193 8194 8195 8196 8197 8198 8199 8200 8201 8202 8203 8204 8205 8206 8207 8208 8209 8210 8211 8212 8213 8214 8215 8216 8217 8218 8219 8220 8221 8222 8223 8224 8225 8226 8227 8228 8229 8230 8231 8232 8233 8234 8235 8236 8237 8238 8239 8240 8241 8242 8243 8244 8245 8246 8247 8248 8249 8250 8251 8252 8253 8254 8255 8256 8257 8258 8259 8260 8261 8262 8263 8264 8265 8266 8267 8268 8269 8270 8271 8272 8273 8274 8275 8276 8277 8278 8279 8280 8281 8282 8283 8284 8285 8286 8287 8288 8289 8290 8291 8292 8293 8294 8295 8296 8297 8298 8299 8300 8301 8302 8303 8304 8305 8306 8307 8308 8309 8310 8311 8312 8313 8314 8315 8316 8317 8318 8319 8320 8321 8322 8323 8324 8325 8326 8327 8328 8329 8330 8331 8332 8333 8334 8335 8336 8337 8338 8339 8340 8341 8342 8343 8344 8345 8346 8347 8348 8349 8350 8351 8352 8353 8354 8355 8356 8357 8358 8359 8360 8361 8362 8363 8364 8365 8366 8367 8368 8369 8370 8371 8372 8373 8374 8375 8376 8377 8378 8379 8380 8381 8382 8383 8384 8385 8386 8387 8388 8389 8390 8391 8392 8393 8394 8395 8396 8397 8398 8399 8400 8401 8402 8403 8404 8405 8406 8407 8408 8409 8410 8411 8412 8413 8414 8415 8416 8417 8418 8419 8420 8421 8422 8423 8424 8425 8426 8427 8428 8429 8430 8431 8432 8433 8434 8435 8436 8437 8438 8439 8440 8441 8442 8443 8444 8445 8446 8447 8448 8449 8450 8451 8452 8453 8454 8455 8456 8457 8458 8459 8460 8461 8462 8463 8464 8465 8466 8467 8468 8469 8470 8471 8472 8473 8474 8475 8476 8477 8478 8479 8480 8481 8482 8483 8484 8485 8486 8487 8488 8489 8490 8491 8492 8493 8494 8495 8496 8497 8498 8499 8500 8501 8502 8503 8504 8505 8506 8507 8508 8509 8510 8511 8512 8513 8514 8515 8516 8517 8518 8519 8520 8521 8522 8523 8524 8525 8526 8527 8528 8529 8530 8531 8532 8533 8534 8535 8536 8537 8538 8539 8540 8541 8542 8543 8544 8545 8546 8547 8548 8549 8550 8551 8552 8553 8554 8555 8556 8557 8558 8559 8560 8561 8562 8563 8564 8565 8566 8567 8568 8569 8570 8571 8572 8573 8574 8575 8576 8577 8578 8579 8580 8581 8582 8583 8584 8585 8586 8587 8588 8589 8590 8591 8592 8593 8594 8595 8596 8597 8598 8599 8600 8601 8602 8603 8604 8605 8606 8607 8608 8609 8610 8611 8612 8613 8614 8615 8616 8617 8618 8619 8620 8621 8622 8623 8624 8625 8626 8627 8628 8629 8630 8631 8632 8633 8634 8635 8636 8637 8638 8639 8640 8641 8642 8643 8644 8645 8646 8647 8648 8649 8650 8651 8652 8653 8654 8655 8656 8657 8658 8659 8660 8661 8662 8663 8664 8665 8666 8667 8668 8669 8670 8671 8672 8673 8674 8675 8676 8677 8678 8679 8680 8681 8682 8683 8684 8685 8686 8687 8688 8689 8690 8691 8692 8693 8694 8695 8696 8697 8698 8699 8700 8701 8702 8703 8704 8705 8706 8707 8708 8709 8710 8711 8712 8713 8714 8715 8716 8717 8718 8719 8720 8721 8722 8723 8724 8725 8726 8727 8728 8729 8730 8731 8732 8733 8734 8735 8736 8737 8738 8739 8740 8741 8742 8743 8744 8745 8746 8747 8748 8749 8750 8751 8752 8753 8754 8755 8756 8757 8758 8759 8760 8761 8762 8763 8764 8765 8766 8767 8768 8769 8770 8771 8772 8773 8774 8775 8776 8777 8778 8779 8780 8781 8782 8783 8784 8785 8786 8787 8788 8789 8790 8791 8792 8793 8794 8795 8796 8797 8798 8799 8800 8801 8802 8803 8804 8805 8806 8807 8808 8809 8810 8811 8812 8813 8814 8815 8816 8817 8818 8819 8820 8821 8822 8823 8824 8825 8826 8827 8828 8829 8830 8831 8832 8833 8834 8835 8836 8837 8838 8839 8840 8841 8842 8843 8844 8845 8846 8847 8848 8849 8850 8851 8852 8853 8854 8855 8856 8857 8858 8859 8860 8861 8862 8863 8864 8865 8866 8867 8868 8869 8870 8871 8872 8873 8874 8875 8876 8877 8878 8879 8880 8881 8882 8883 8884 8885 8886 8887 8888 8889 8890 8891 8892 8893 8894 8895 8896 8897 8898 8899 8900 8901 8902 8903 8904 8905 8906 8907 8908 8909 8910 8911 8912 8913 8914 8915 8916 8917 8918 8919 8920 8921 8922 8923 8924 8925 8926 8927 8928 8929 8930 8931 8932 8933 8934 8935 8936 8937 8938 8939 8940 8941 8942 8943 8944 8945 8946 8947 8948 8949 8950 8951 8952 8953 8954 8955 8956 8957 8958 8959 8960 8961 8962 8963 8964 8965 8966 8967 8968 8969 8970 8971 8972 8973 8974 8975 8976 8977 8978 8979 8980 8981 8982 8983 8984 8985 8986 8987 8988 8989 8990 8991 8992 8993 8994 8995 8996 8997 8998 8999 9000 9001 9002 9003 9004 9005 9006 9007 9008 9009 9010 9011 9012 9013 9014 9015 9016 9017 9018 9019 9020 9021 9022 9023 9024 9025 9026 9027 9028 9029 9030 9031 9032 9033 9034 9035 9036 9037 9038 9039 9040 9041 9042 9043 9044 9045 9046 9047 9048 9049 9050 9051 9052 9053 9054 9055 9056 9057 9058 9059 9060 9061 9062 9063 9064 9065 9066 9067 9068 9069 9070 9071 9072 9073 9074 9075 9076 9077 9078 9079 9080 9081 9082 9083 9084 9085 9086 9087 9088 9089 9090 9091 9092 9093 9094 9095 9096 9097 9098 9099 9100 9101 9102 9103 9104 9105 9106 9107 9108 9109 9110 9111 9112 9113 9114 9115 9116 9117 9118 9119 9120 9121 9122 9123 9124 9125 9126 9127 9128 9129 9130 9131 9132 9133 9134 9135 9136 9137 9138 9139 9140 9141 9142 9143 9144 9145 9146 9147 9148 9149 9150 9151 9152 9153 9154 9155 9156 9157 9158 9159 9160 9161 9162 9163 9164 9165 9166 9167 9168 9169 9170 9171 9172 9173 9174 9175 9176 9177 9178 9179 9180 9181 9182 9183 9184 9185 9186 9187 9188 9189 9190 9191 9192 9193 9194 9195 9196 9197 9198 9199 9200 9201 9202 9203 9204 9205 9206 9207 9208 9209 9210 9211 9212 9213 9214 9215 9216 9217 9218 9219 9220 9221 9222 9223 9224 9225 9226 9227 9228 9229 9230 9231 9232 9233 9234 9235 9236 9237 9238 9239 9240 9241 9242 9243 9244 9245 9246 9247 9248 9249 9250 9251 9252 9253 9254 9255 9256 9257 9258 9259 9260 9261 9262 9263 9264 9265 9266 9267 9268 9269 9270 9271 9272 9273 9274 9275 9276 9277 9278 9279 9280 9281 9282 9283 9284 9285 9286 9287 9288 9289 9290 9291 9292 9293 9294 9295 9296 9297 9298 9299 9300 9301 9302 9303 9304 9305 9306 9307 9308 9309 9310 9311 9312 9313 9314 9315 9316 9317 9318 9319 9320 9321 9322 9323 9324 9325 9326 9327 9328 9329 9330 9331 9332 9333 9334 9335 9336 9337 9338 9339 9340 9341 9342 9343 9344 9345 9346 9347 9348 9349 9350 9351 9352 9353 9354 9355 9356 9357 9358 9359 9360 9361 9362 9363 9364 9365 9366 9367 9368 9369 9370 9371 9372 9373 9374 9375 9376 9377 9378 9379 9380 9381 9382 9383 9384 9385 9386 9387 9388 9389 9390 9391 9392 9393 9394 9395 9396 9397 9398 9399 9400 9401 9402 9403 9404 9405 9406 9407 9408 9409 9410 9411 9412 9413 9414 9415 9416 9417 9418 9419 9420 9421 9422 9423 9424 9425 9426 9427 9428 9429 9430 9431 9432 9433 9434 9435 9436 9437 9438 9439 9440 9441 9442 9443 9444 9445 9446 9447 9448 9449 9450 9451 9452 9453 9454 9455 9456 9457 9458 9459 9460 9461 9462 9463 9464 9465 9466 9467 9468 9469 9470 9471 9472 9473 9474 9475 9476 9477 9478 9479 9480 9481 9482 9483 9484 9485 9486 9487 9488 9489 9490 9491 9492 9493 9494 9495 9496 9497 9498 9499 9500 9501 9502 9503 9504 9505 9506 9507 9508 9509 9510 9511 9512 9513 9514 9515 9516 9517 9518 9519 9520 9521 9522 9523 9524 9525 9526 9527 9528 9529 9530 9531 9532 9533 9534 9535 9536 9537 9538 9539 9540 9541 9542 9543 9544 9545 9546 9547 9548 9549 9550 9551 9552 9553 9554 9555 9556 9557 9558 9559 9560 9561 9562 9563 9564 9565 9566 9567 9568 9569 9570 9571 9572 9573 9574 9575 9576 9577 9578 9579 9580 9581 9582 9583 9584 9585 9586 9587 9588 9589 9590 9591 9592 9593 9594 9595 9596 9597 9598 9599 9600 9601 9602 9603 9604 9605 9606 9607 9608 9609 9610 9611 9612 9613 9614 9615 9616 9617 9618 9619 9620 9621 9622 9623 9624 9625 9626 9627 9628 9629 9630 9631 9632 9633 9634 9635 9636 9637 9638 9639 9640 9641 9642 9643 9644 9645 9646 9647 9648 9649 9650 9651 9652 9653 9654 9655 9656 9657 9658 9659 9660 9661 9662 9663 9664 9665 9666 9667 9668 9669 9670 9671 9672 9673 9674 9675 9676 9677 9678 9679 9680 9681 9682 9683 9684 9685 9686 9687 9688 9689 9690 9691 9692 9693 9694 9695 9696 9697 9698 9699 9700 9701 9702 9703 9704 9705 9706 9707 9708 9709 9710 9711 9712 9713 9714 9715 9716 9717 9718 9719 9720 9721 9722 9723 9724 9725 9726 9727 9728 9729 9730 9731 9732 9733 9734 9735 9736 9737 9738 9739 9740 9741 9742 9743 9744 9745 9746 9747 9748 9749 9750 9751 9752 9753 9754 9755 9756 9757 9758 9759 9760 9761 9762 9763 9764 9765 9766 9767 9768 9769 9770 9771 9772 9773 9774 9775 9776 9777 9778 9779 9780 9781 9782 9783 9784 9785 9786 9787 9788 9789 9790 9791 9792 9793 9794 9795 9796 9797 9798 9799 9800 9801 9802 9803 9804 9805 9806 9807 9808 9809 9810 9811 9812 9813 9814 9815 9816 9817 9818 9819 9820 9821 9822 9823 9824 9825 9826 9827 9828 9829 9830 9831 9832 9833 9834 9835 9836 9837 9838 9839 9840 9841 9842 9843 9844 9845 9846 9847 9848 9849 9850 9851 9852 9853 9854 9855 9856 9857 9858 9859 9860 9861 9862 9863 9864 9865 9866 9867 9868 9869 9870 9871 9872 9873 9874 9875 9876 9877 9878 9879 9880 9881 9882 9883 9884 9885 9886 9887 9888 9889 9890 9891 9892 9893 9894 9895 9896 9897 9898 9899 9900 9901 9902 9903 9904 9905 9906 9907 9908 9909 9910 9911 9912 9913 9914 9915 9916 9917 9918 9919 9920 9921 9922 9923 9924 9925 9926 9927 9928 9929 9930 9931 9932 9933 9934 9935 9936 9937 9938 9939 9940 9941 9942 9943 9944 9945 9946 9947 9948 9949 9950 9951 9952 9953 9954 9955 9956 9957 9958 9959 9960 9961 9962 9963 9964 9965 9966 9967 9968 9969 9970 9971 9972 9973 9974 9975 9976 9977 9978 9979 9980 9981 9982 9983 9984 9985 9986 9987 9988 9989 9990 9991 9992 9993 9994 9995 9996 9997 9998 9999 10000 10001 10002 10003 10004 10005 10006 10007 10008 10009 10010 10011 10012 10013 10014 10015 10016 10017 10018 10019 10020 10021 10022 10023 10024 10025 10026 10027 10028 10029 10030 10031 10032 10033 10034 10035 10036 10037 10038 10039 10040 10041 10042 10043 10044 10045 10046 10047 10048 10049 10050 10051 10052 10053 10054 10055 10056 10057 10058 10059 10060 10061 10062 10063 10064 10065 10066 10067 10068 10069 10070 10071 10072 10073 10074 10075 10076 10077 10078 10079 10080 10081 10082 10083 10084 10085 10086 10087 10088 10089 10090 10091 10092 10093 10094 10095 10096 10097 10098 10099 10100 10101 10102 10103 10104 10105 10106 10107 10108 10109 10110 10111 10112 10113 10114 10115 10116 10117 10118 10119 10120 10121 10122 10123 10124 10125 10126 10127 10128 10129 10130 10131 10132 10133 10134 10135 10136 10137 10138 10139 10140 10141 10142 10143 10144 10145 10146 10147 10148 10149 10150 10151 10152 10153 10154 10155 10156 10157 10158 10159 10160 10161 10162 10163 10164 10165 10166 10167 10168 10169 10170 10171 10172 10173 10174 10175 10176 10177 10178 10179 10180 10181 10182 10183 10184 10185 10186 10187 10188 10189 10190 10191 10192 10193 10194 10195 10196 10197 10198 10199 10200 10201 10202 10203 10204 10205 10206 10207 10208 10209 10210 10211 10212 10213 10214 10215 10216 10217 10218 10219 10220 10221 10222 10223 10224 10225 10226 10227 10228 10229 10230 10231 10232 10233 10234 10235 10236 10237 10238 10239 10240 10241 10242 10243 10244 10245 10246 10247 10248 10249 10250 10251 10252 10253 10254 10255 10256 10257 10258 10259 10260 10261 10262 10263 10264 10265 10266 10267 10268 10269 10270 10271 10272 10273 10274 10275 10276 10277 10278 10279 10280 10281 10282 10283 10284 10285 10286 10287 10288 10289 10290 10291 10292 10293 10294 10295 10296 10297 10298 10299 10300 10301 10302 10303 10304 10305 10306 10307 10308 10309 10310 10311 10312 10313 10314 10315 10316 10317 10318 10319 10320 10321 10322 10323 10324 10325 10326 10327 10328 10329 10330 10331 10332 10333 10334 10335 10336 10337 10338 10339 10340 10341 10342 10343 10344 10345 10346 10347 10348 10349 10350 10351 10352 10353 10354 10355 10356 10357 10358 10359 10360 10361 10362 10363 10364 10365 10366 10367 10368 10369 10370 10371 10372 10373 10374 10375 10376 10377 10378 10379 10380 10381 10382 10383 10384 10385 10386 10387 10388 10389 10390 10391 10392 10393 10394 10395 10396 10397 10398 10399 10400 10401 10402 10403 10404 10405 10406 10407 10408 10409 10410 10411 10412 10413 10414 10415 10416 10417 10418 10419 10420 10421 10422 10423 10424 10425 10426 10427 10428 10429 10430 10431 10432 10433 10434 10435 10436 10437 10438 10439 10440 10441 10442 10443 10444 10445 10446 10447 10448 10449 10450 10451 10452 10453 10454 10455 10456 10457 10458 10459 10460 10461 10462 10463 10464 10465 10466 10467 10468 10469 10470 10471 10472 10473 10474 10475 10476 10477 10478 10479 10480 10481 10482 10483 10484 10485 10486 10487 10488 10489 10490 10491 10492 10493 10494 10495 10496 10497 10498 10499 10500 10501 10502 10503 10504 10505 10506 10507 10508 10509 10510 10511 10512 10513 10514 10515 10516 10517 10518 10519 10520 10521 10522 10523 10524 10525 10526 10527 10528 10529 10530 10531 10532 10533 10534 10535 10536 10537 10538 10539 10540 10541 10542 10543 10544 10545 10546 10547 10548 10549 10550 10551 10552 10553 10554 10555 10556 10557 10558 10559 10560 10561 10562 10563 10564 10565 10566 10567 10568 10569 10570 10571 10572 10573 10574 10575 10576 10577 10578 10579 10580 10581 10582 10583 10584 10585 10586 10587 10588 10589 10590 10591 10592 10593 10594 10595 10596 10597 10598 10599 10600 10601 10602 10603 10604 10605 10606 10607 10608 10609 10610 10611 10612 10613 10614 10615 10616 10617 10618 10619 10620 10621 10622 10623 10624 10625 10626 10627 10628 10629 10630 10631 10632 10633 10634 10635 10636 10637 10638 10639 10640 10641 10642 10643 10644 10645 10646 10647 10648 10649 10650 10651 10652 10653 10654 10655 10656 10657 10658 10659 10660 10661 10662 10663 10664 10665 10666 10667 10668 10669 10670 10671 10672 10673 10674 10675 10676 10677 10678 10679 10680 10681 10682 10683 10684 10685 10686 10687 10688 10689 10690 10691 10692 10693 10694 10695 10696 10697 10698 10699 10700 10701 10702 10703 10704 10705 10706 10707 10708 10709 10710 10711 10712 10713 10714 10715 10716 10717 10718 10719 10720 10721 10722 10723 10724 10725 10726 10727 10728 10729 10730 10731 10732 10733 10734 10735 10736 10737 10738 10739 10740 10741 10742 10743 10744 10745 10746 10747 10748 10749 10750 10751 10752 10753 10754 10755 10756 10757 10758 10759 10760 10761 10762 10763 10764 10765 10766 10767 10768 10769 10770 10771 10772 10773 10774 10775 10776 10777 10778 10779 10780 10781 10782 10783 10784 10785 10786 10787 10788 10789 10790 10791 10792 10793 10794 10795 10796 10797 10798 10799 10800 10801 10802 10803 10804 10805 10806 10807 10808 10809 10810 10811 10812 10813 10814 10815 10816 10817 10818 10819 10820 10821 10822 10823 10824 10825 10826 10827 10828 10829 10830 10831 10832 10833 10834 10835 10836 10837 10838 10839 10840 10841 10842 10843 10844 10845 10846 10847 10848 10849 10850 10851 10852 10853 10854 10855 10856 10857 10858 10859 10860 10861 10862 10863 10864 10865 10866 10867 10868 10869 10870 10871 10872 10873 10874 10875 10876 10877 10878 10879 10880 10881 10882 10883 10884 10885 10886 10887 10888 10889 10890 10891 10892 10893 10894 10895 10896 10897 10898 10899 10900 10901 10902 10903 10904 10905 10906 10907 10908 10909 10910 10911 10912 10913 10914 10915 10916 10917 10918 10919 10920 10921 10922 10923 10924 10925 10926 10927 10928 10929 10930 10931 10932 10933 10934 10935 10936 10937 10938 10939 10940 10941 10942 10943 10944 10945 10946 10947 10948 10949 10950 10951 10952 10953 10954 10955 10956 10957 10958 10959 10960 10961 10962 10963 10964 10965 10966 10967 10968 10969 10970 10971 10972 10973 10974 10975 10976 10977 10978 10979 10980 10981 10982 10983 10984 10985 10986 10987 10988 10989 10990 10991 10992 10993 10994 10995 10996 10997 10998 10999 11000 11001 11002 11003 11004 11005 11006 11007 11008 11009 11010 11011 11012 11013 11014 11015 11016 11017 11018 11019 11020 11021 11022 11023 11024 11025 11026 11027 11028 11029 11030 11031 11032 11033 11034 11035 11036 11037 11038 11039 11040 11041 11042 11043 11044 11045 11046 11047 11048 11049 11050 11051 11052 11053 11054 11055 11056 11057 11058 11059 11060 11061 11062 11063 11064 11065 11066 11067 11068 11069 11070 11071 11072 11073 11074 11075 11076 11077 11078 11079 11080 11081 11082 11083 11084 11085 11086 11087 11088 11089 11090 11091 11092 11093 11094 11095 11096 11097 11098 11099 11100 11101 11102 11103 11104 11105 11106 11107 11108 11109 11110 11111 11112 11113 11114 11115 11116 11117 11118 11119 11120 11121 11122 11123 11124 11125 11126 11127 11128 11129 11130 11131 11132 11133 11134 11135 11136 11137 11138 11139 11140 11141 11142 11143 11144 11145 11146 11147 11148 11149 11150 11151 11152 11153 11154 11155 11156 11157 11158 11159 11160 11161 11162 11163 11164 11165 11166 11167 11168 11169 11170 11171 11172 11173 11174 11175 11176 11177 11178 11179 11180 11181 11182 11183 11184 11185 11186 11187 11188 11189 11190 11191 11192 11193 11194 11195 11196 11197 11198 11199 11200 11201 11202 11203 11204 11205 11206 11207 11208 11209 11210 11211 11212 11213 11214 11215 11216 11217 11218 11219 11220 11221 11222 11223 11224 11225 11226 11227 11228 11229 11230 11231 11232 11233 11234 11235 11236 11237 11238 11239 11240 11241 11242 11243 11244 11245 11246 11247 11248 11249 11250 11251 11252 11253 11254 11255 11256 11257 11258 11259 11260 11261 11262 11263 11264 11265 11266 11267 11268 11269 11270 11271 11272 11273 11274 11275 11276 11277 11278 11279 11280 11281 11282 11283 11284 11285 11286 11287 11288 11289 11290 11291 11292 11293 11294 11295 11296 11297 11298 11299 11300 11301 11302 11303 11304 11305 11306 11307 11308 11309 11310 11311 11312 11313 11314 11315 11316 11317 11318 11319 11320 11321 11322 11323 11324 11325 11326 11327 11328 11329 11330 11331 11332 11333 11334 11335 11336 11337 11338 11339 11340 11341 11342 11343 11344 11345 11346 11347 11348 11349 11350 11351 11352 11353 11354 11355 11356 11357 11358 11359 11360 11361 11362 11363 11364 11365 11366 11367 11368 11369 11370 11371 11372 11373 11374 11375 11376 11377 11378 11379 11380 11381 11382 11383 11384 11385 11386 11387 11388 11389 11390 11391 11392 11393 11394 11395 11396 11397 11398 11399 11400 11401 11402 11403 11404 11405 11406 11407 11408 11409 11410 11411 11412 11413 11414 11415 11416 11417 11418 11419 11420 11421 11422 11423 11424 11425 11426 11427 11428 11429 11430 11431 11432 11433 11434 11435 11436 11437 11438 11439 11440 11441 11442 11443 11444 11445 11446 11447 11448 11449 11450 11451 11452 11453 11454 11455 11456 11457 11458 11459 11460 11461 11462 11463 11464 11465 11466 11467 11468 11469 11470 11471 11472 11473 11474 11475 11476 11477 11478 11479 11480 11481 11482 11483 11484 11485 11486 11487 11488 11489 11490 11491 11492 11493 11494 11495 11496 11497 11498 11499 11500 11501 11502 11503 11504 11505 11506 11507 11508 11509 11510 11511 11512 11513 11514 11515 11516 11517 11518 11519 11520 11521 11522 11523 11524 11525 11526 11527 11528 11529 11530 11531 11532 11533 11534 11535 11536 11537 11538 11539 11540 11541 11542 11543 11544 11545 11546 11547 11548 11549 11550 11551 11552 11553 11554 11555 11556 11557 11558 11559 11560 11561 11562 11563 11564 11565 11566 11567 11568 11569 11570 11571 11572 11573 11574 11575 11576 11577 11578 11579 11580 11581 11582 11583 11584 11585 11586 11587 11588 11589 11590 11591 11592 11593 11594 11595 11596 11597 11598 11599 11600 11601 11602 11603 11604 11605 11606 11607 11608 11609 11610 11611 11612 11613 11614 11615 11616 11617 11618 11619 11620 11621 11622 11623 11624 11625 11626 11627 11628 11629 11630 11631 11632 11633 11634 11635 11636 11637 11638 11639 11640 11641 11642 11643 11644 11645 11646 11647 11648 11649 11650 11651 11652 11653 11654 11655 11656 11657 11658 11659 11660 11661 11662 11663 11664 11665 11666 11667 11668 11669 11670 11671 11672 11673 11674 11675 11676 11677 11678 11679 11680 11681 11682 11683 11684 11685 11686 11687 11688 11689 11690 11691 11692 11693 11694 11695 11696 11697 11698 11699 11700 11701 11702 11703 11704 11705 11706 11707 11708 11709 11710 11711 11712 11713 11714 11715 11716 11717 11718 11719 11720 11721 11722 11723 11724 11725 11726 11727 11728 11729 11730 11731 11732 11733 11734 11735 11736 11737 11738 11739 11740 11741 11742 11743 11744 11745 11746 11747 11748 11749 11750 11751 11752 11753 11754 11755 11756 11757 11758 11759 11760 11761 11762 11763 11764 11765 11766 11767 11768 11769 11770 11771 11772 11773 11774 11775 11776 11777 11778 11779 11780 11781 11782 11783 11784 11785 11786 11787 11788 11789 11790 11791 11792 11793 11794 11795 11796 11797 11798 11799 11800 11801 11802 11803 11804 11805 11806 11807 11808 11809 11810 11811 11812 11813 11814 11815 11816 11817 11818 11819 11820 11821 11822 11823 11824 11825 11826 11827 11828 11829 11830 11831 11832 11833 11834 11835 11836 11837 11838 11839 11840 11841 11842 11843 11844 11845 11846 11847 11848 11849 11850 11851 11852 11853 11854 11855 11856 11857 11858 11859 11860 11861 11862 11863 11864 11865 11866 11867 11868 11869 11870 11871 11872 11873 11874 11875 11876 11877 11878 11879 11880 11881 11882 11883 11884 11885 11886 11887 11888 11889 11890 11891 11892 11893 11894 11895 11896 11897 11898 11899 11900 11901 11902 11903 11904 11905 11906 11907 11908 11909 11910 11911 11912 11913 11914 11915 11916 11917 11918 11919 11920 11921 11922 11923 11924 11925 11926 11927 11928 11929 11930 11931 11932 11933 11934 11935 11936 11937 11938 11939 11940 11941 11942 11943 11944 11945 11946 11947 11948 11949 11950 11951 11952 11953 11954 11955 11956 11957 11958 11959 11960 11961 11962 11963 11964 11965 11966 11967 11968 11969 11970 11971 11972 11973 11974 11975 11976 11977 11978 11979 11980 11981 11982 11983 11984 11985 11986 11987 11988 11989 11990 11991 11992 11993 11994 11995 11996 11997 11998 11999 12000 12001 12002 12003 12004 12005 12006 12007 12008 12009 12010 12011 12012 12013 12014 12015 12016 12017 12018 12019 12020 12021 12022 12023 12024 12025 12026 12027 12028 12029 12030 12031 12032 12033 12034 12035 12036 12037 12038 12039 12040 12041 12042 12043 12044 12045 12046 12047 12048 12049 12050 12051 12052 12053 12054 12055 12056 12057 12058 12059 12060 12061 12062 12063 12064 12065 12066 12067 12068 12069 12070 12071 12072 12073 12074 12075 12076 12077 12078 12079 12080 12081 12082 12083 12084 12085 12086 12087 12088 12089 12090 12091 12092 12093 12094 12095 12096 12097 12098 12099 12100 12101 12102 12103 12104 12105 12106 12107 12108 12109 12110 12111 12112 12113 12114 12115 12116 12117 12118 12119 12120 12121 12122 12123 12124 12125 12126 12127 12128 12129 12130 12131 12132 12133 12134 12135 12136 12137 12138 12139 12140 12141 12142 12143 12144 12145 12146 12147 12148 12149 12150 12151 12152 12153 12154 12155 12156 12157 12158 12159 12160 12161 12162 12163 12164 12165 12166 12167 12168 12169 12170 12171 12172 12173 12174 12175 12176 12177 12178 12179 12180 12181 12182 12183 12184 12185 12186 12187 12188 12189 12190 12191 12192 12193 12194 12195 12196 12197 12198 12199 12200 12201 12202 12203 12204 12205 12206 12207 12208 12209 12210 12211 12212 12213 12214 12215 12216 12217 12218 12219 12220 12221 12222 12223 12224 12225 12226 12227 12228 12229 12230 12231 12232 12233 12234 12235 12236 12237 12238 12239 12240 12241 12242 12243 12244 12245 12246 12247 12248 12249 12250 12251 12252 12253 12254 12255 12256 12257 12258 12259 12260 12261 12262 12263 12264 12265 12266 12267 12268 12269 12270 12271 12272 12273 12274 12275 12276 12277 12278 12279 12280 12281 12282 12283 12284 12285 12286 12287 12288 12289 12290 12291 12292 12293 12294 12295 12296 12297 12298 12299 12300 12301 12302 12303 12304 12305 12306 12307 12308 12309 12310 12311 12312 12313 12314 12315 12316 12317 12318 12319 12320 12321 12322 12323 12324 12325 12326 12327 12328 12329 12330 12331 12332 12333 12334 12335 12336 12337 12338 12339 12340 12341 12342 12343 12344 12345 12346 12347 12348 12349 12350 12351 12352 12353 12354 12355 12356 12357 12358 12359 12360 12361 12362 12363 12364 12365 12366 12367 12368 12369 12370 12371 12372 12373 12374 12375 12376 12377 12378 12379 12380 12381 12382 12383 12384 12385 12386 12387 12388 12389 12390 12391 12392 12393 12394 12395 12396 12397 12398 12399 12400 12401 12402 12403 12404 12405 12406 12407 12408 12409 12410 12411 12412 12413 12414 12415 12416 12417 12418 12419 12420 12421 12422 12423 12424 12425 12426 12427 12428 12429 12430 12431 12432 12433 12434 12435 12436 12437 12438 12439 12440 12441 12442 12443 12444 12445 12446 12447 12448 12449 12450 12451 12452 12453 12454 12455 12456 12457 12458 12459 12460 12461 12462 12463 12464 12465 12466 12467 12468 12469 12470 12471 12472 12473 12474 12475 12476 12477 12478 12479 12480 12481 12482 12483 12484 12485 12486 12487 12488 12489 12490 12491 12492 12493 12494 12495 12496 12497 12498 12499 12500 12501 12502 12503 12504 12505 12506 12507 12508 12509 12510 12511 12512 12513 12514 12515 12516 12517 12518 12519 12520 12521 12522 12523 12524 12525 12526 12527 12528 12529 12530 12531 12532 12533 12534 12535 12536 12537 12538 12539 12540 12541 12542 12543 12544 12545 12546 12547 12548 12549 12550 12551 12552 12553 12554 12555 12556 12557 12558 12559 12560 12561 12562 12563 12564 12565 12566 12567 12568 12569 12570 12571 12572 12573 12574 12575 12576 12577 12578 12579 12580 12581 12582 12583 12584 12585 12586 12587 12588 12589 12590 12591 12592 12593 12594 12595 12596 12597 12598 12599 12600 12601 12602 12603 12604 12605 12606 12607 12608 12609 12610 12611 12612 12613 12614 12615 12616 12617 12618 12619 12620 12621 12622 12623 12624 12625 12626 12627 12628 12629 12630 12631 12632 12633 12634 12635 12636 12637 12638 12639 12640 12641 12642 12643 12644 12645 12646 12647 12648 12649 12650 12651 12652 12653 12654 12655 12656 12657 12658 12659 12660 12661 12662 12663 12664 12665 12666 12667 12668 12669 12670 12671 12672 12673 12674 12675 12676 12677 12678 12679 12680 12681 12682 12683 12684 12685 12686 12687 12688 12689 12690 12691 12692 12693 12694 12695 12696 12697 12698 12699 12700 12701 12702 12703 12704 12705 12706 12707 12708 12709 12710 12711 12712 12713 12714 12715 12716 12717 12718 12719 12720 12721 12722 12723 12724 12725 12726 12727 12728 12729 12730 12731 12732 12733 12734 12735 12736 12737 12738 12739 12740 12741 12742 12743 12744 12745 12746 12747 12748 12749 12750 12751 12752 12753 12754 12755 12756 12757 12758 12759 12760 12761 12762 12763 12764 12765 12766 12767 12768 12769 12770 12771 12772 12773 12774 12775 12776 12777 12778 12779 12780 12781 12782 12783 12784 12785 12786 12787 12788 12789 12790 12791 12792 12793 12794 12795 12796 12797 12798 12799 12800 12801 12802 12803 12804 12805 12806 12807 12808 12809 12810 12811 12812 12813 12814 12815 12816 12817 12818 12819 12820 12821 12822 12823 12824 12825 12826 12827 12828 12829 12830 12831 12832 12833 12834 12835 12836 12837 12838 12839 12840 12841 12842 12843 12844 12845 12846 12847 12848 12849 12850 12851 12852 12853 12854 12855 12856 12857 12858 12859 12860 12861 12862 12863 12864 12865 12866 12867 12868 12869 12870 12871 12872 12873 12874 12875 12876 12877 12878 12879 12880 12881 12882 12883 12884 12885 12886 12887 12888 12889 12890 12891 12892 12893 12894 12895 12896 12897 12898 12899 12900 12901 12902 12903 12904 12905 12906 12907 12908 12909 12910 12911 12912 12913 12914 12915 12916 12917 12918 12919 12920 12921 12922 12923 12924 12925 12926 12927 12928 12929 12930 12931 12932 12933 12934 12935 12936 12937 12938 12939 12940 12941 12942 12943 12944 12945 12946 12947 12948 12949 12950 12951 12952 12953 12954 12955 12956 12957 12958 12959 12960 12961 12962 12963 12964 12965 12966 12967 12968 12969 12970 12971 12972 12973 12974 12975 12976 12977 12978 12979 12980 12981 12982 12983 12984 12985 12986 12987 12988 12989 12990 12991 12992 12993 12994 12995 12996 12997 12998 12999 13000 13001 13002 13003 13004 13005 13006 13007 13008 13009 13010 13011 13012 13013 13014 13015 13016 13017 13018 13019 13020 13021 13022 13023 13024 13025 13026 13027 13028 13029 13030 13031 13032 13033 13034 13035 13036 13037 13038 13039 13040 13041 13042 13043 13044 13045 13046 13047 13048 13049 13050 13051 13052 13053 13054 13055 13056 13057 13058 13059 13060 13061 13062 13063 13064 13065 13066 13067 13068 13069 13070 13071 13072 13073 13074 13075 13076 13077 13078 13079 13080 13081 13082 13083 13084 13085 13086 13087 13088 13089 13090 13091 13092 13093 13094 13095 13096 13097 13098 13099 13100 13101 13102 13103 13104 13105 13106 13107 13108 13109 13110 13111 13112 13113 13114 13115 13116 13117 13118 13119 13120 13121 13122 13123 13124 13125 13126 13127 13128 13129 13130 13131 13132 13133 13134 13135 13136 13137 13138 13139 13140 13141 13142 13143 13144 13145 13146 13147 13148 13149 13150 13151 13152 13153 13154 13155 13156 13157 13158 13159 13160 13161 13162 13163 13164 13165 13166 13167 13168 13169 13170 13171 13172 13173 13174 13175 13176 13177 13178 13179 13180 13181 13182 13183 13184 13185 13186 13187 13188 13189 13190 13191 13192 13193 13194 13195 13196 13197 13198 13199 13200 13201 13202 13203 13204 13205 13206 13207 13208 13209 13210 13211 13212 13213 13214 13215 13216 13217 13218 13219 13220 13221 13222 13223 13224 13225 13226 13227 13228 13229 13230 13231 13232 13233 13234 13235 13236 13237 13238 13239 13240 13241 13242 13243 13244 13245 13246 13247 13248 13249 13250 13251 13252 13253 13254 13255 13256 13257 13258 13259 13260 13261 13262 13263 13264 13265 13266 13267 13268 13269 13270 13271 13272 13273 13274 13275 13276 13277 13278 13279 13280 13281 13282 13283 13284 13285 13286 13287 13288 13289 13290 13291 13292 13293 13294 13295 13296 13297 13298 13299 13300 13301 13302 13303 13304 13305 13306 13307 13308 13309 13310 13311 13312 13313 13314 13315 13316 13317 13318 13319 13320 13321 13322 13323 13324 13325 13326 13327 13328 13329 13330 13331 13332 13333 13334 13335 13336 13337 13338 13339 13340 13341 13342 13343 13344 13345 13346 13347 13348 13349 13350 13351 13352 13353 13354 13355 13356 13357 13358 13359 13360 13361 13362 13363 13364 13365 13366 13367 13368 13369 13370 13371 13372 13373 13374 13375 13376 13377 13378 13379 13380 13381 13382 13383 13384 13385 13386 13387 13388 13389 13390 13391 13392 13393 13394 13395 13396 13397 13398 13399 13400 13401 13402 13403 13404 13405 13406 13407 13408 13409 13410 13411 13412 13413 13414 13415 13416 13417 13418 13419 13420 13421 13422 13423 13424 13425 13426 13427 13428 13429 13430 13431 13432 13433 13434 13435 13436 13437 13438 13439 13440 13441 13442 13443 13444 13445 13446 13447 13448 13449 13450 13451 13452 13453 13454 13455 13456 13457 13458 13459 13460 13461 13462 13463 13464 13465 13466 13467 13468 13469 13470 13471 13472 13473 13474 13475 13476 13477 13478 13479 13480 13481 13482 13483 13484 13485 13486 13487 13488 13489 13490 13491 13492 13493 13494 13495 13496 13497 13498 13499 13500 13501 13502 13503 13504 13505 13506 13507 13508 13509 13510 13511 13512 13513 13514 13515 13516 13517 13518 13519 13520 13521 13522 13523 13524 13525 13526 13527 13528 13529 13530 13531 13532 13533 13534 13535 13536 13537 13538 13539 13540 13541 13542 13543 13544 13545 13546 13547 13548 13549 13550 13551 13552 13553 13554 13555 13556 13557 13558 13559 13560 13561 13562 13563 13564 13565 13566 13567 13568 13569 13570 13571 13572 13573 13574 13575 13576 13577 13578 13579 13580 13581 13582 13583 13584 13585 13586 13587 13588 13589 13590 13591 13592 13593 13594 13595 13596 13597 13598 13599 13600 13601 13602 13603 13604 13605 13606 13607 13608 13609 13610 13611 13612 13613 13614 13615 13616 13617 13618 13619 13620 13621 13622 13623 13624 13625 13626 13627 13628 13629 13630 13631 13632 13633 13634 13635 13636 13637 13638 13639 13640 13641 13642 13643 13644 13645 13646 13647 13648 13649 13650 13651 13652 13653 13654 13655 13656 13657 13658 13659 13660 13661 13662 13663 13664 13665 13666 13667 13668 13669 13670 13671 13672 13673 13674 13675 13676 13677 13678 13679 13680 13681 13682 13683 13684 13685 13686 13687 13688 13689 13690 13691 13692 13693 13694 13695 13696 13697 13698 13699 13700 13701 13702 13703 13704 13705 13706 13707 13708 13709 13710 13711 13712 13713 13714 13715 13716 13717 13718 13719 13720 13721 13722 13723 13724 13725 13726 13727 13728 13729 13730 13731 13732 13733 13734 13735 13736 13737 13738 13739 13740 13741 13742 13743 13744 13745 13746 13747 13748 13749 13750 13751 13752 13753 13754 13755 13756 13757 13758 13759 13760 13761 13762 13763 13764 13765 13766 13767 13768 13769 13770 13771 13772 13773 13774 13775 13776 13777 13778 13779 13780 13781 13782 13783 13784 13785 13786 13787 13788 13789 13790 13791 13792 13793 13794 13795 13796 13797 13798 13799 13800 13801 13802 13803 13804 13805 13806 13807 13808 13809 13810 13811 13812 13813 13814 13815 13816 13817 13818 13819 13820 13821 13822 13823 13824 13825 13826 13827 13828 13829 13830 13831 13832 13833 13834 13835 13836 13837 13838 13839 13840 13841 13842 13843 13844 13845 13846 13847 13848 13849 13850 13851 13852 13853 13854 13855 13856 13857 13858 13859 13860 13861 13862 13863 13864 13865 13866 13867 13868 13869 13870 13871 13872 13873 13874 13875 13876 13877 13878 13879 13880 13881 13882 13883 13884 13885 13886 13887 13888 13889 13890 13891 13892 13893 13894 13895 13896 13897 13898 13899 13900 13901 13902 13903 13904 13905 13906 13907 13908 13909 13910 13911 13912 13913 13914 13915 13916 13917 13918 13919 13920 13921 13922 13923 13924 13925 13926 13927 13928 13929 13930 13931 13932 13933 13934 13935 13936 13937 13938 13939 13940 13941 13942 13943 13944 13945 13946 13947 13948 13949 13950 13951 13952 13953 13954 13955 13956 13957 13958 13959 13960 13961 13962 13963 13964 13965 13966 13967 13968 13969 13970 13971 13972 13973 13974 13975 13976 13977 13978 13979 13980 13981 13982 13983 13984 13985 13986 13987 13988 13989 13990 13991 13992 13993 13994 13995 13996 13997 13998 13999 14000 14001 14002 14003 14004 14005 14006 14007 14008 14009 14010 14011 14012 14013 14014 14015 14016 14017 14018 14019 14020 14021 14022 14023 14024 14025 14026 14027 14028 14029 14030 14031 14032 14033 14034 14035 14036 14037 14038 14039 14040 14041 14042 14043 14044 14045 14046 14047 14048 14049 14050 14051 14052 14053 14054 14055 14056 14057 14058 14059 14060 14061 14062 14063 14064 14065 14066 14067 14068 14069 14070 14071 14072 14073 14074 14075 14076 14077 14078 14079 14080 14081 14082 14083 14084 14085 14086 14087 14088 14089 14090 14091 14092 14093 14094 14095 14096 14097 14098 14099 14100 14101 14102 14103 14104 14105 14106 14107 14108 14109 14110 14111 14112 14113 14114 14115 14116 14117 14118 14119 14120 14121 14122 14123 14124 14125 14126 14127 14128 14129 14130 14131 14132 14133 14134 14135 14136 14137 14138 14139 14140 14141 14142 14143 14144 14145 14146 14147 14148 14149 14150 14151 14152 14153 14154 14155 14156 14157 14158 14159 14160 14161 14162 14163 14164 14165 14166 14167 14168 14169 14170 14171 14172 14173 14174 14175 14176 14177 14178 14179 14180 14181 14182 14183 14184 14185 14186 14187 14188 14189 14190 14191 14192 14193 14194 14195 14196 14197 14198 14199 14200 14201 14202 14203 14204 14205 14206 14207 14208 14209 14210 14211 14212 14213 14214 14215 14216 14217 14218 14219 14220 14221 14222 14223 14224 14225 14226 14227 14228 14229 14230 14231 14232 14233 14234 14235 14236 14237 14238 14239 14240 14241 14242 14243 14244 14245 14246 14247 14248 14249 14250 14251 14252 14253 14254 14255 14256 14257 14258 14259 14260 14261 14262 14263 14264 14265 14266 14267 14268 14269 14270 14271 14272 14273 14274 14275 14276 14277 14278 14279 14280 14281 14282 14283 14284 14285 14286 14287 14288 14289 14290 14291 14292 14293 14294 14295 14296 14297 14298 14299 14300 14301 14302 14303 14304 14305 14306 14307 14308 14309 14310 14311 14312 14313 14314 14315 14316 14317 14318 14319 14320 14321 14322 14323 14324 14325 14326 14327 14328 14329 14330 14331 14332 14333 14334 14335 14336 14337 14338 14339 14340 14341 14342 14343 14344 14345 14346 14347 14348 14349 14350 14351 14352 14353 14354 14355 14356 14357 14358 14359 14360 14361 14362 14363 14364 14365 14366 14367 14368 14369 14370 14371 14372 14373 14374 14375 14376 14377 14378 14379 14380 14381 14382 14383 14384 14385 14386 14387 14388 14389 14390 14391 14392 14393 14394 14395 14396 14397 14398 14399 14400 14401 14402 14403 14404 14405 14406 14407 14408 14409 14410 14411 14412 14413 14414 14415 14416 14417 14418 14419 14420 14421 14422 14423 14424 14425 14426 14427 14428 14429 14430 14431 14432 14433 14434 14435 14436 14437 14438 14439 14440 14441 14442 14443 14444 14445 14446 14447 14448 14449 14450 14451 14452 14453 14454 14455 14456 14457 14458 14459 14460 14461 14462 14463 14464 14465 14466 14467 14468 14469 14470 14471 14472 14473 14474 14475 14476 14477 14478 14479 14480 14481 14482 14483 14484 14485 14486 14487 14488 14489 14490 14491 14492 14493 14494 14495 14496 14497 14498 14499 14500 14501 14502 14503 14504 14505 14506 14507 14508 14509 14510 14511 14512 14513 14514 14515 14516 14517 14518 14519 14520 14521 14522 14523 14524 14525 14526 14527 14528 14529 14530 14531 14532 14533 14534 14535 14536 14537 14538 14539 14540 14541 14542 14543 14544 14545 14546 14547 14548 14549 14550 14551 14552 14553 14554 14555 14556 14557 14558 14559 14560 14561 14562 14563 14564 14565 14566 14567 14568 14569 14570 14571 14572 14573 14574 14575 14576 14577 14578 14579 14580 14581 14582 14583 14584 14585 14586 14587 14588 14589 14590 14591 14592 14593 14594 14595 14596 14597 14598 14599 14600 14601 14602 14603 14604 14605 14606 14607 14608 14609 14610 14611 14612 14613 14614 14615 14616 14617 14618 14619 14620 14621 14622 14623 14624 14625 14626 14627 14628 14629 14630 14631 14632 14633 14634 14635 14636 14637 14638 14639 14640 14641 14642 14643 14644 14645 14646 14647 14648 14649 14650 14651 14652 14653 14654 14655 14656 14657 14658 14659 14660 14661 14662 14663 14664 14665 14666 14667 14668 14669 14670 14671 14672 14673 14674 14675 14676 14677 14678 14679 14680 14681 14682 14683 14684 14685 14686 14687 14688 14689 14690 14691 14692 14693 14694 14695 14696 14697 14698 14699 14700 14701 14702 14703 14704 14705 14706 14707 14708 14709 14710 14711 14712 14713 14714 14715 14716 14717 14718 14719 14720 14721 14722 14723 14724 14725 14726 14727 14728 14729 14730 14731 14732 14733 14734 14735 14736 14737 14738 14739 14740 14741 14742 14743 14744 14745 14746 14747 14748 14749 14750 14751 14752 14753 14754 14755 14756 14757 14758 14759 14760 14761 14762 14763 14764 14765 14766 14767 14768 14769 14770 14771 14772 14773 14774 14775 14776 14777 14778 14779 14780 14781 14782 14783 14784 14785 14786 14787 14788 14789 14790 14791 14792 14793 14794 14795 14796 14797 14798 14799 14800 14801 14802 14803 14804 14805 14806 14807 14808 14809 14810 14811 14812 14813 14814 14815 14816 14817 14818 14819 14820 14821 14822 14823 14824 14825 14826 14827 14828 14829 14830 14831 14832 14833 14834 14835 14836 14837 14838 14839 14840 14841 14842 14843 14844 14845 14846 14847 14848 14849 14850 14851 14852 14853 14854 14855 14856 14857 14858 14859 14860 14861 14862 14863 14864 14865 14866 14867 14868 14869 14870 14871 14872 14873 14874 14875 14876 14877 14878 14879 14880 14881 14882 14883 14884 14885 14886 14887 14888 14889 14890 14891 14892 14893 14894 14895 14896 14897 14898 14899 14900 14901 14902 14903 14904 14905 14906 14907 14908 14909 14910 14911 14912 14913 14914 14915 14916 14917 14918 14919 14920 14921 14922 14923 14924 14925 14926 14927 14928 14929 14930 14931 14932 14933 14934 14935 14936 14937 14938 14939 14940 14941 14942 14943 14944 14945 14946 14947 14948 14949 14950 14951 14952 14953 14954 14955 14956 14957 14958 14959 14960 14961 14962 14963 14964 14965 14966 14967 14968 14969 14970 14971 14972 14973 14974 14975 14976 14977 14978 14979 14980 14981 14982 14983 14984 14985 14986 14987 14988 14989 14990 14991 14992 14993 14994 14995 14996 14997 14998 14999 15000 15001 15002 15003 15004 15005 15006 15007 15008 15009 15010 15011 15012 15013 15014 15015 15016 15017 15018 15019 15020 15021 15022 15023 15024 15025 15026 15027 15028 15029 15030 15031 15032 15033 15034 15035 15036 15037 15038 15039 15040 15041 15042 15043 15044 15045 15046 15047 15048 15049 15050 15051 15052 15053 15054 15055 15056 15057 15058 15059 15060 15061 15062 15063 15064 15065 15066 15067 15068 15069 15070 15071 15072 15073 15074 15075 15076 15077 15078 15079 15080 15081 15082 15083 15084 15085 15086 15087 15088 15089 15090 15091 15092 15093 15094 15095 15096 15097 15098 15099 15100 15101 15102 15103 15104 15105 15106 15107 15108 15109 15110 15111 15112 15113 15114 15115 15116 15117 15118 15119 15120 15121 15122 15123 15124 15125 15126 15127 15128 15129 15130 15131 15132 15133 15134 15135 15136 15137 15138 15139 15140 15141 15142 15143 15144 15145 15146 15147 15148 15149 15150 15151 15152 15153 15154 15155 15156 15157 15158 15159 15160 15161 15162 15163 15164 15165 15166 15167 15168 15169 15170 15171 15172 15173 15174 15175 15176 15177 15178 15179 15180 15181 15182 15183 15184 15185 15186 15187 15188 15189 15190 15191 15192 15193 15194 15195 15196 15197 15198 15199 15200 15201 15202 15203 15204 15205 15206 15207 15208 15209 15210 15211 15212 15213 15214 15215 15216 15217 15218 15219 15220 15221 15222 15223 15224 15225 15226 15227 15228 15229 15230 15231 15232 15233 15234 15235 15236 15237 15238 15239 15240 15241 15242 15243 15244 15245 15246 15247 15248 15249 15250 15251 15252 15253 15254 15255 15256 15257 15258 15259 15260 15261 15262 15263 15264 15265 15266 15267 15268 15269 15270 15271 15272 15273 15274 15275 15276 15277 15278 15279 15280 15281 15282 15283 15284 15285 15286 15287 15288 15289 15290 15291 15292 15293 15294 15295 15296 15297 15298 15299 15300 15301 15302 15303 15304 15305 15306 15307 15308 15309 15310 15311 15312 15313 15314 15315 15316 15317 15318 15319 15320 15321 15322 15323 15324 15325 15326 15327 15328 15329 15330 15331 15332 15333 15334 15335 15336 15337 15338 15339 15340 15341 15342 15343 15344 15345 15346 15347 15348 15349 15350 15351 15352 15353 15354 15355 15356 15357 15358 15359 15360 15361 15362 15363 15364 15365 15366 15367 15368 15369 15370 15371 15372 15373 15374 15375 15376 15377 15378 15379 15380 15381 15382 15383 15384 15385 15386 15387 15388 15389 15390 15391 15392 15393 15394 15395 15396 15397 15398 15399 15400 15401 15402 15403 15404 15405 15406 15407 15408 15409 15410 15411 15412 15413 15414 15415 15416 15417 15418 15419 15420 15421 15422 15423 15424 15425 15426 15427 15428 15429 15430 15431 15432 15433 15434 15435 15436 15437 15438 15439 15440 15441 15442 15443 15444 15445 15446 15447 15448 15449 15450 15451 15452 15453 15454 15455 15456 15457 15458 15459 15460 15461 15462 15463 15464 15465 15466 15467 15468 15469 15470 15471 15472 15473 15474 15475 15476 15477 15478 15479 15480 15481 15482 15483 15484 15485 15486 15487 15488 15489 15490 15491 15492 15493 15494 15495 15496 15497 15498 15499 15500 15501 15502 15503 15504 15505 15506 15507 15508 15509 15510 15511 15512 15513 15514 15515 15516 15517 15518 15519 15520 15521 15522 15523 15524 15525 15526 15527 15528 15529 15530 15531 15532 15533 15534 15535 15536 15537 15538 15539 15540 15541 15542 15543 15544 15545 15546 15547 15548 15549 15550 15551 15552 15553 15554 15555 15556 15557 15558 15559 15560 15561 15562 15563 15564 15565 15566 15567 15568 15569 15570 15571 15572 15573 15574 15575 15576 15577 15578 15579 15580 15581 15582 15583 15584 15585 15586 15587 15588 15589 15590 15591 15592 15593 15594 15595 15596 15597 15598 15599 15600 15601 15602 15603 15604 15605 15606 15607 15608 15609 15610 15611 15612 15613 15614 15615 15616 15617 15618 15619 15620 15621 15622 15623 15624 15625 15626 15627 15628 15629 15630 15631 15632 15633 15634 15635 15636 15637 15638 15639 15640 15641 15642 15643 15644 15645 15646 15647 15648 15649 15650 15651 15652 15653 15654 15655 15656 15657 15658 15659 15660 15661 15662 15663 15664 15665 15666 15667 15668 15669 15670 15671 15672 15673 15674 15675 15676 15677 15678 15679 15680 15681 15682 15683 15684 15685 15686 15687 15688 15689 15690 15691 15692 15693 15694 15695 15696 15697 15698 15699 15700 15701 15702 15703 15704 15705 15706 15707 15708 15709 15710 15711 15712 15713 15714 15715 15716 15717 15718 15719 15720 15721 15722 15723 15724 15725 15726 15727 15728 15729 15730 15731 15732 15733 15734 15735 15736 15737 15738 15739 15740 15741 15742 15743 15744 15745 15746 15747 15748 15749 15750 15751 15752 15753 15754 15755 15756 15757 15758 15759 15760 15761 15762 15763 15764 15765 15766 15767 15768 15769 15770 15771 15772 15773 15774 15775 15776 15777 15778 15779 15780 15781 15782 15783 15784 15785 15786 15787 15788 15789 15790 15791 15792 15793 15794 15795 15796 15797 15798 15799 15800 15801 15802 15803 15804 15805 15806 15807 15808 15809 15810 15811 15812 15813 15814 15815 15816 15817 15818 15819 15820 15821 15822 15823 15824 15825 15826 15827 15828 15829 15830 15831 15832 15833 15834 15835 15836 15837 15838 15839 15840 15841 15842 15843 15844 15845 15846 15847 15848 15849 15850 15851 15852 15853 15854 15855 15856 15857 15858 15859 15860 15861 15862 15863 15864 15865 15866 15867 15868 15869 15870 15871 15872 15873 15874 15875 15876 15877 15878 15879 15880 15881 15882 15883 15884 15885 15886 15887 15888 15889 15890 15891 15892 15893 15894 15895 15896 15897 15898 15899 15900 15901 15902 15903 15904 15905 15906 15907 15908 15909 15910 15911 15912 15913 15914 15915 15916 15917 15918 15919 15920 15921 15922 15923 15924 15925 15926 15927 15928 15929 15930 15931 15932 15933 15934 15935 15936 15937 15938 15939 15940 15941 15942 15943 15944 15945 15946 15947 15948 15949 15950 15951 15952 15953 15954 15955 15956 15957 15958 15959 15960 15961 15962 15963 15964 15965 15966 15967 15968 15969 15970 15971 15972 15973 15974 15975 15976 15977 15978 15979 15980 15981 15982 15983 15984 15985 15986 15987 15988 15989 15990 15991 15992 15993 15994 15995 15996 15997 15998 15999 16000 16001 16002 16003 16004 16005 16006 16007 16008 16009 16010 16011 16012 16013 16014 16015 16016 16017 16018 16019 16020 16021 16022 16023 16024 16025 16026 16027 16028 16029 16030 16031 16032 16033 16034 16035 16036 16037 16038 16039 16040 16041 16042 16043 16044 16045 16046 16047 16048 16049 16050 16051 16052 16053 16054 16055 16056 16057 16058 16059 16060 16061 16062 16063 16064 16065 16066 16067 16068 16069 16070 16071 16072 16073 16074 16075 16076 16077 16078 16079 16080 16081 16082 16083 16084 16085 16086 16087 16088 16089 16090 16091 16092 16093 16094 16095 16096 16097 16098 16099 16100 16101 16102 16103 16104 16105 16106 16107 16108 16109 16110 16111 16112 16113 16114 16115 16116 16117 16118 16119 16120 16121 16122 16123 16124 16125 16126 16127 16128 16129 16130 16131 16132 16133 16134 16135 16136 16137 16138 16139 16140 16141 16142 16143 16144 16145 16146 16147 16148 16149 16150 16151 16152 16153 16154 16155 16156 16157 16158 16159 16160 16161 16162 16163 16164 16165 16166 16167 16168 16169 16170 16171 16172 16173 16174 16175 16176 16177 16178 16179 16180 16181 16182 16183 16184 16185 16186 16187 16188 16189 16190 16191 16192 16193 16194 16195 16196 16197 16198 16199 16200 16201 16202 16203 16204 16205 16206 16207 16208 16209 16210 16211 16212 16213 16214 16215 16216 16217 16218 16219 16220 16221 16222 16223 16224 16225 16226 16227 16228 16229 16230 16231 16232 16233 16234 16235 16236 16237 16238 16239 16240 16241 16242 16243 16244 16245 16246 16247 16248 16249 16250 16251 16252 16253 16254 16255 16256 16257 16258 16259 16260 16261 16262 16263 16264 16265 16266 16267 16268 16269 16270 16271 16272 16273 16274 16275 16276 16277 16278 16279 16280 16281 16282 16283 16284 16285 16286 16287 16288 16289 16290 16291 16292 16293 16294 16295 16296 16297 16298 16299 16300 16301 16302 16303 16304 16305 16306 16307 16308 16309 16310 16311 16312 16313 16314 16315 16316 16317 16318 16319 16320 16321 16322 16323 16324 16325 16326 16327 16328 16329 16330 16331 16332 16333 16334 16335 16336 16337 16338 16339 16340 16341 16342 16343 16344 16345 16346 16347 16348 16349 16350 16351 16352 16353 16354 16355 16356 16357 16358 16359 16360 16361 16362 16363 16364 16365 16366 16367 16368 16369 16370 16371 16372 16373 16374 16375 16376 16377 16378 16379 16380 16381 16382 16383 16384 16385 16386 16387 16388 16389 16390 16391 16392 16393 16394 16395 16396 16397 16398 16399 16400 16401 16402 16403 16404 16405 16406 16407 16408 16409 16410 16411 16412 16413 16414 16415 16416 16417 16418 16419 16420 16421 16422 16423 16424 16425 16426 16427 16428 16429 16430 16431 16432 16433 16434 16435 16436 16437 16438 16439 16440 16441 16442 16443 16444 16445 16446 16447 16448 16449 16450 16451 16452 16453 16454 16455 16456 16457 16458 16459 16460 16461 16462 16463 16464 16465 16466 16467 16468 16469 16470 16471 16472 16473 16474 16475 16476 16477 16478 16479 16480 16481 16482 16483 16484 16485 16486 16487 16488 16489 16490 16491 16492 16493 16494 16495 16496 16497 16498 16499 16500 16501 16502 16503 16504 16505 16506 16507 16508 16509 16510 16511 16512 16513 16514 16515 16516 16517 16518 16519 16520 16521 16522 16523 16524 16525 16526 16527 16528 16529 16530 16531 16532 16533 16534 16535 16536 16537 16538 16539 16540 16541 16542 16543 16544 16545 16546 16547 16548 16549 16550 16551 16552 16553 16554 16555 16556 16557 16558 16559 16560 16561 16562 16563 16564 16565 16566 16567 16568 16569 16570 16571 16572 16573 16574 16575 16576 16577 16578 16579 16580 16581 16582 16583 16584 16585 16586 16587 16588 16589 16590 16591 16592 16593 16594 16595 16596 16597 16598 16599 16600 16601 16602 16603 16604 16605 16606 16607 16608 16609 16610 16611 16612 16613 16614 16615 16616 16617 16618 16619 16620 16621 16622 16623 16624 16625 16626 16627 16628 16629 16630 16631 16632 16633 16634 16635 16636 16637 16638 16639 16640 16641 16642 16643 16644 16645 16646 16647 16648 16649 16650 16651 16652 16653 16654 16655 16656 16657 16658 16659 16660 16661 16662 16663 16664 16665 16666 16667 16668 16669 16670 16671 16672 16673 16674 16675 16676 16677 16678 16679 16680 16681 16682 16683 16684 16685 16686 16687 16688 16689 16690 16691 16692 16693 16694 16695 16696 16697 16698 16699 16700 16701 16702 16703 16704 16705 16706 16707 16708 16709 16710 16711 16712 16713 16714 16715 16716 16717 16718 16719 16720 16721 16722 16723 16724 16725 16726 16727 16728 16729 16730 16731 16732 16733 16734 16735 16736 16737 16738 16739 16740 16741 16742 16743 16744 16745 16746 16747 16748 16749 16750 16751 16752 16753 16754 16755 16756 16757 16758 16759 16760 16761 16762 16763 16764 16765 16766 16767 16768 16769 16770 16771 16772 16773 16774 16775 16776 16777 16778 16779 16780 16781 16782 16783 16784 16785 16786 16787 16788 16789 16790 16791 16792 16793 16794 16795 16796 16797 16798 16799 16800 16801 16802 16803 16804 16805 16806 16807 16808 16809 16810 16811 16812 16813 16814 16815 16816 16817 16818 16819 16820 16821 16822 16823 16824 16825 16826 16827 16828 16829 16830 16831 16832 16833 16834 16835 16836 16837 16838 16839 16840 16841 16842 16843 16844 16845 16846 16847 16848 16849 16850 16851 16852 16853 16854 16855 16856 16857 16858 16859 16860 16861 16862 16863 16864 16865 16866 16867 16868 16869 16870 16871 16872 16873 16874 16875 16876 16877 16878 16879 16880 16881 16882 16883 16884 16885 16886 16887 16888 16889 16890 16891 16892 16893 16894 16895 16896 16897 16898 16899 16900 16901 16902 16903 16904 16905 16906 16907 16908 16909 16910 16911 16912 16913 16914 16915 16916 16917 16918 16919 16920 16921 16922 16923 16924 16925 16926 16927 16928 16929 16930 16931 16932 16933 16934 16935 16936 16937 16938 16939 16940 16941 16942 16943 16944 16945 16946 16947 16948 16949 16950 16951 16952 16953 16954 16955 16956 16957 16958 16959 16960 16961 16962 16963 16964 16965 16966 16967 16968 16969 16970 16971 16972 16973 16974 16975 16976 16977 16978 16979 16980 16981 16982 16983 16984 16985 16986 16987 16988 16989 16990 16991 16992 16993 16994 16995 16996 16997 16998 16999 17000 17001 17002 17003 17004 17005 17006 17007 17008 17009 17010 17011 17012 17013 17014 17015 17016 17017 17018 17019 17020 17021 17022 17023 17024 17025 17026 17027 17028 17029 17030 17031 17032 17033 17034 17035 17036 17037 17038 17039 17040 17041 17042 17043 17044 17045 17046 17047 17048 17049 17050 17051 17052 17053 17054 17055 17056 17057 17058 17059 17060 17061 17062 17063 17064 17065 17066 17067 17068 17069 17070 17071 17072 17073 17074 17075 17076 17077 17078 17079 17080 17081 17082 17083 17084 17085 17086 17087 17088 17089 17090 17091 17092 17093 17094 17095 17096 17097 17098 17099 17100 17101 17102 17103 17104 17105 17106 17107 17108 17109 17110 17111 17112 17113 17114 17115 17116 17117 17118 17119 17120 17121 17122 17123 17124 17125 17126 17127 17128 17129 17130 17131 17132 17133 17134 17135 17136 17137 17138 17139 17140 17141 17142 17143 17144 17145 17146 17147 17148 17149 17150 17151 17152 17153 17154 17155 17156 17157 17158 17159 17160 17161 17162 17163 17164 17165 17166 17167 17168 17169 17170 17171 17172 17173 17174 17175 17176 17177 17178 17179 17180 17181 17182 17183 17184 17185 17186 17187 17188 17189 17190 17191 17192 17193 17194 17195 17196 17197 17198 17199 17200 17201 17202 17203 17204 17205 17206 17207 17208 17209 17210 17211 17212 17213 17214 17215 17216 17217 17218 17219 17220 17221 17222 17223 17224 17225 17226 17227 17228 17229 17230 17231 17232 17233 17234 17235 17236 17237 17238 17239 17240 17241 17242 17243 17244 17245 17246 17247 17248 17249 17250 17251 17252 17253 17254 17255 17256 17257 17258 17259 17260 17261 17262 17263 17264 17265 17266 17267 17268 17269 17270 17271 17272 17273 17274 17275 17276 17277 17278 17279 17280 17281 17282 17283 17284 17285 17286 17287 17288 17289 17290 17291 17292 17293 17294 17295 17296 17297 17298 17299 17300 17301 17302 17303 17304 17305 17306 17307 17308 17309 17310 17311 17312 17313 17314 17315 17316 17317 17318 17319 17320 17321 17322 17323 17324 17325 17326 17327 17328 17329 17330 17331 17332 17333 17334 17335 17336 17337 17338 17339 17340 17341 17342 17343 17344 17345 17346 17347 17348 17349 17350 17351 17352 17353 17354 17355 17356 17357 17358 17359 17360 17361 17362 17363 17364 17365 17366 17367 17368 17369 17370 17371 17372 17373 17374 17375 17376 17377 17378 17379 17380 17381 17382 17383 17384 17385 17386 17387 17388 17389 17390 17391 17392 17393 17394 17395 17396 17397 17398 17399 17400 17401 17402 17403 17404 17405 17406 17407 17408 17409 17410 17411 17412 17413 17414 17415 17416 17417 17418 17419 17420 17421 17422 17423 17424 17425 17426 17427 17428 17429 17430 17431 17432 17433 17434 17435 17436 17437 17438 17439 17440 17441 17442 17443 17444 17445 17446 17447 17448 17449 17450 17451 17452 17453 17454 17455 17456 17457 17458 17459 17460 17461 17462 17463 17464 17465 17466 17467 17468 17469 17470 17471 17472 17473 17474 17475 17476 17477 17478 17479 17480 17481 17482 17483 17484 17485 17486 17487 17488 17489 17490 17491 17492 17493 17494 17495 17496 17497 17498 17499 17500 17501 17502 17503 17504 17505 17506 17507 17508 17509 17510 17511 17512 17513 17514 17515 17516 17517 17518 17519 17520 17521 17522 17523 17524 17525 17526 17527 17528 17529 17530 17531 17532 17533 17534 17535 17536 17537 17538 17539 17540 17541 17542 17543 17544 17545 17546 17547 17548 17549 17550 17551 17552 17553 17554 17555 17556 17557 17558 17559 17560 17561 17562 17563 17564 17565 17566 17567 17568 17569 17570 17571 17572 17573 17574 17575 17576 17577 17578 17579 17580 17581 17582 17583 17584 17585 17586 17587 17588 17589 17590 17591 17592 17593 17594 17595 17596 17597 17598 17599 17600 17601 17602 17603 17604 17605 17606 17607 17608 17609 17610 17611 17612 17613 17614 17615 17616 17617 17618 17619 17620 17621 17622 17623 17624 17625 17626 17627 17628 17629 17630 17631 17632 17633 17634 17635 17636 17637 17638 17639 17640 17641 17642 17643 17644 17645 17646 17647 17648 17649 17650 17651 17652 17653 17654 17655 17656 17657 17658 17659 17660 17661 17662 17663 17664 17665 17666 17667 17668 17669 17670 17671 17672 17673 17674 17675 17676 17677 17678 17679 17680 17681 17682 17683 17684 17685 17686 17687 17688 17689 17690 17691 17692 17693 17694 17695 17696 17697 17698 17699 17700 17701 17702 17703 17704 17705 17706 17707 17708 17709 17710 17711 17712 17713 17714 17715 17716 17717 17718 17719 17720 17721 17722 17723 17724 17725 17726 17727 17728 17729 17730 17731 17732 17733 17734 17735 17736 17737 17738 17739 17740 17741 17742 17743 17744 17745 17746 17747 17748 17749 17750 17751 17752 17753 17754 17755 17756 17757 17758 17759 17760 17761 17762 17763 17764 17765 17766 17767 17768 17769 17770 17771 17772 17773 17774 17775 17776 17777 17778 17779 17780 17781 17782 17783 17784 17785 17786 17787 17788 17789 17790 17791 17792 17793 17794 17795 17796 17797 17798 17799 17800 17801 17802 17803 17804 17805 17806 17807 17808 17809 17810 17811 17812 17813 17814 17815 17816 17817 17818 17819 17820 17821 17822 17823 17824 17825 17826 17827 17828 17829 17830 17831 17832 17833 17834 17835 17836 17837 17838 17839 17840 17841 17842 17843 17844 17845 17846 17847 17848 17849 17850 17851 17852 17853 17854 17855 17856 17857 17858 17859 17860 17861 17862 17863 17864 17865 17866 17867 17868 17869 17870 17871 17872 17873 17874 17875 17876 17877 17878 17879 17880 17881 17882 17883 17884 17885 17886 17887 17888 17889 17890 17891 17892 17893 17894 17895 17896 17897 17898 17899 17900 17901 17902 17903 17904 17905 17906 17907 17908 17909 17910 17911 17912 17913 17914 17915 17916 17917 17918 17919 17920 17921 17922 17923 17924 17925 17926 17927 17928 17929 17930 17931 17932 17933 17934 17935 17936 17937 17938 17939 17940 17941 17942 17943 17944 17945 17946 17947 17948 17949 17950 17951 17952 17953 17954 17955 17956 17957 17958 17959 17960 17961 17962 17963 17964 17965 17966 17967 17968 17969 17970 17971 17972 17973 17974 17975 17976 17977 17978 17979 17980 17981 17982 17983 17984 17985 17986 17987 17988 17989 17990 17991 17992 17993 17994 17995 17996 17997 17998 17999 18000 18001 18002 18003 18004 18005 18006 18007 18008 18009 18010 18011 18012 18013 18014 18015 18016 18017 18018 18019 18020 18021 18022 18023 18024 18025 18026 18027 18028 18029 18030 18031 18032 18033 18034 18035 18036 18037 18038 18039 18040 18041 18042 18043 18044 18045 18046 18047 18048 18049 18050 18051 18052 18053 18054 18055 18056 18057 18058 18059 18060 18061 18062 18063 18064 18065 18066 18067 18068 18069 18070 18071 18072 18073 18074 18075 18076 18077 18078 18079 18080 18081 18082 18083 18084 18085 18086 18087 18088 18089 18090 18091 18092 18093 18094 18095 18096 18097 18098 18099 18100 18101 18102 18103 18104 18105 18106 18107 18108 18109 18110 18111 18112 18113 18114 18115 18116 18117 18118 18119 18120 18121 18122 18123 18124 18125 18126 18127 18128 18129 18130 18131 18132 18133 18134 18135 18136 18137 18138 18139 18140 18141 18142 18143 18144 18145 18146 18147 18148 18149 18150 18151 18152 18153 18154 18155 18156 18157 18158 18159 18160 18161 18162 18163 18164 18165 18166 18167 18168 18169 18170 18171 18172 18173 18174 18175 18176 18177 18178 18179 18180 18181 18182 18183 18184 18185 18186 18187 18188 18189 18190 18191 18192 18193 18194 18195 18196 18197 18198 18199 18200 18201 18202 18203 18204 18205 18206 18207 18208 18209 18210 18211 18212 18213 18214 18215 18216 18217 18218 18219 18220 18221 18222 18223 18224 18225 18226 18227 18228 18229 18230 18231 18232 18233 18234 18235 18236 18237 18238 18239 18240 18241 18242 18243 18244 18245 18246 18247 18248 18249 18250 18251 18252 18253 18254 18255 18256 18257 18258 18259 18260 18261 18262 18263 18264 18265 18266 18267 18268 18269 18270 18271 18272 18273 18274 18275 18276 18277 18278 18279 18280 18281 18282 18283 18284 18285 18286 18287 18288 18289 18290 18291 18292 18293 18294 18295 18296 18297 18298 18299 18300 18301 18302 18303 18304 18305 18306 18307 18308 18309 18310 18311 18312 18313 18314 18315 18316 18317 18318 18319 18320 18321 18322 18323 18324 18325 18326 18327 18328 18329 18330 18331 18332 18333 18334 18335 18336 18337 18338 18339 18340 18341 18342 18343 18344 18345 18346 18347 18348 18349 18350 18351 18352 18353 18354 18355 18356 18357 18358 18359 18360 18361 18362 18363 18364 18365 18366 18367 18368 18369 18370 18371 18372 18373 18374 18375 18376 18377 18378 18379 18380 18381 18382 18383 18384 18385 18386 18387 18388 18389 18390 18391 18392 18393 18394 18395 18396 18397 18398 18399 18400 18401 18402 18403 18404 18405 18406 18407 18408 18409 18410 18411 18412 18413 18414 18415 18416 18417 18418 18419 18420 18421 18422 18423 18424 18425 18426 18427 18428 18429 18430 18431 18432 18433 18434 18435 18436 18437 18438 18439 18440 18441 18442 18443 18444 18445 18446 18447 18448 18449 18450 18451 18452 18453 18454 18455 18456 18457 18458 18459 18460 18461 18462 18463 18464 18465 18466 18467 18468 18469 18470 18471 18472 18473 18474 18475 18476 18477 18478 18479 18480 18481 18482 18483 18484 18485 18486 18487 18488 18489 18490 18491 18492 18493 18494 18495 18496 18497 18498 18499 18500 18501 18502 18503 18504 18505 18506 18507 18508 18509 18510 18511 18512 18513 18514 18515 18516 18517 18518 18519 18520 18521 18522 18523 18524 18525 18526 18527 18528 18529 18530 18531 18532 18533 18534 18535 18536 18537 18538 18539 18540 18541 18542 18543 18544 18545 18546 18547 18548 18549 18550 18551 18552 18553 18554 18555 18556 18557 18558 18559 18560 18561 18562 18563 18564 18565 18566 18567 18568 18569 18570 18571 18572 18573 18574 18575 18576 18577 18578 18579 18580 18581 18582 18583 18584 18585 18586 18587 18588 18589 18590 18591 18592 18593 18594 18595 18596 18597 18598 18599 18600 18601 18602 18603 18604 18605 18606 18607 18608 18609 18610 18611 18612 18613 18614 18615 18616 18617 18618 18619 18620 18621 18622 18623 18624 18625 18626 18627 18628 18629 18630 18631 18632 18633 18634 18635 18636 18637 18638 18639 18640 18641 18642 18643 18644 18645 18646 18647 18648 18649 18650 18651 18652 18653 18654 18655 18656 18657 18658 18659 18660 18661 18662 18663 18664 18665 18666 18667 18668 18669 18670 18671 18672 18673 18674 18675 18676 18677 18678 18679 18680 18681 18682 18683 18684 18685 18686 18687 18688 18689 18690 18691 18692 18693 18694 18695 18696 18697 18698 18699 18700 18701 18702 18703 18704 18705 18706 18707 18708 18709 18710 18711 18712 18713 18714 18715 18716 18717 18718 18719 18720 18721 18722 18723 18724 18725 18726 18727 18728 18729 18730 18731 18732 18733 18734 18735 18736 18737 18738 18739 18740 18741 18742 18743 18744 18745 18746 18747 18748 18749 18750 18751 18752 18753 18754 18755 18756 18757 18758 18759 18760 18761 18762 18763 18764 18765 18766 18767 18768 18769 18770 18771 18772 18773 18774 18775 18776 18777 18778 18779 18780 18781 18782 18783 18784 18785 18786 18787 18788 18789 18790 18791 18792 18793 18794 18795 18796 18797 18798 18799 18800 18801 18802 18803 18804 18805 18806 18807 18808 18809 18810 18811 18812 18813 18814 18815 18816 18817 18818 18819 18820 18821 18822 18823 18824 18825 18826 18827 18828 18829 18830 18831 18832 18833 18834 18835 18836 18837 18838 18839 18840 18841 18842 18843 18844 18845 18846 18847 18848 18849 18850 18851 18852 18853 18854 18855 18856 18857 18858 18859 18860 18861 18862 18863 18864 18865 18866 18867 18868 18869 18870 18871 18872 18873 18874 18875 18876 18877 18878 18879 18880 18881 18882 18883 18884 18885 18886 18887 18888 18889 18890 18891 18892 18893 18894 18895 18896 18897 18898 18899 18900 18901 18902 18903 18904 18905 18906 18907 18908 18909 18910 18911 18912 18913 18914 18915 18916 18917 18918 18919 18920 18921 18922 18923 18924 18925 18926 18927 18928 18929 18930 18931 18932 18933 18934 18935 18936 18937 18938 18939 18940 18941 18942 18943 18944 18945 18946 18947 18948 18949 18950 18951 18952 18953 18954 18955 18956 18957 18958 18959 18960 18961 18962 18963 18964 18965 18966 18967 18968 18969 18970 18971 18972 18973 18974 18975 18976 18977 18978 18979 18980 18981 18982 18983 18984 18985 18986 18987 18988 18989 18990 18991 18992 18993 18994 18995 18996 18997 18998 18999 19000 19001 19002 19003 19004 19005 19006 19007 19008 19009 19010 19011 19012 19013 19014 19015 19016 19017 19018 19019 19020 19021 19022 19023 19024 19025 19026 19027 19028 19029 19030 19031 19032 19033 19034 19035 19036 19037 19038 19039 19040 19041 19042 19043 19044 19045 19046 19047 19048 19049 19050 19051 19052 19053 19054 19055 19056 19057 19058 19059 19060 19061 19062 19063 19064 19065 19066 19067 19068 19069 19070 19071 19072 19073 19074 19075 19076 19077 19078 19079 19080 19081 19082 19083 19084 19085 19086 19087 19088 19089 19090 19091 19092 19093 19094 19095 19096 19097 19098 19099 19100 19101 19102 19103 19104 19105 19106 19107 19108 19109 19110 19111 19112 19113 19114 19115 19116 19117 19118 19119 19120 19121 19122 19123 19124 19125 19126 19127 19128 19129 19130 19131 19132 19133 19134 19135 19136 19137 19138 19139 19140 19141 19142 19143 19144 19145 19146 19147 19148 19149 19150 19151 19152 19153 19154 19155 19156 19157 19158 19159 19160 19161 19162 19163 19164 19165 19166 19167 19168 19169 19170 19171 19172 19173 19174 19175 19176 19177 19178 19179 19180 19181 19182 19183 19184 19185 19186 19187 19188 19189 19190 19191 19192 19193 19194 19195 19196 19197 19198 19199 19200 19201 19202 19203 19204 19205 19206 19207 19208 19209 19210 19211 19212 19213 19214 19215 19216 19217 19218 19219 19220 19221 19222 19223 19224 19225 19226 19227 19228 19229 19230 19231 19232 19233 19234 19235 19236 19237 19238 19239 19240 19241 19242 19243 19244 19245 19246 19247 19248 19249 19250 19251 19252 19253 19254 19255 19256 19257 19258 19259 19260 19261 19262 19263 19264 19265 19266 19267 19268 19269 19270 19271 19272 19273 19274 19275 19276 19277 19278 19279 19280 19281 19282 19283 19284 19285 19286 19287 19288 19289 19290 19291 19292 19293 19294 19295 19296 19297 19298 19299 19300 19301 19302 19303 19304 19305 19306 19307 19308 19309 19310 19311 19312 19313 19314 19315 19316 19317 19318 19319 19320 19321 19322 19323 19324 19325 19326 19327 19328 19329 19330 19331 19332 19333 19334 19335 19336 19337 19338 19339 19340 19341 19342 19343 19344 19345 19346 19347 19348 19349 19350 19351 19352 19353 19354 19355 19356 19357 19358 19359 19360 19361 19362 19363 19364 19365 19366 19367 19368 19369 19370 19371 19372 19373 19374 19375 19376 19377 19378 19379 19380 19381 19382 19383 19384 19385 19386 19387 19388 19389 19390 19391 19392 19393 19394 19395 19396 19397 19398 19399 19400 19401 19402 19403 19404 19405 19406 19407 19408 19409 19410 19411 19412 19413 19414 19415 19416 19417 19418 19419 19420 19421 19422 19423 19424 19425 19426 19427 19428 19429 19430 19431 19432 19433 19434 19435 19436 19437 19438 19439 19440 19441 19442 19443 19444 19445 19446 19447 19448 19449 19450 19451 19452 19453 19454 19455 19456 19457 19458 19459 19460 19461 19462 19463 19464 19465 19466 19467 19468 19469 19470 19471 19472 19473 19474 19475 19476 19477 19478 19479 19480 19481 19482 19483 19484 19485 19486 19487 19488 19489 19490 19491 19492 19493 19494 19495 19496 19497 19498 19499 19500 19501 19502 19503 19504 19505 19506 19507 19508 19509 19510 19511 19512 19513 19514 19515 19516 19517 19518 19519 19520 19521 19522 19523 19524 19525 19526 19527 19528 19529 19530 19531 19532 19533 19534 19535 19536 19537 19538 19539 19540 19541 19542 19543 19544 19545 19546 19547 19548 19549 19550 19551 19552 19553 19554 19555 19556 19557 19558 19559 19560 19561 19562 19563 19564 19565 19566 19567 19568 19569 19570 19571 19572 19573 19574 19575 19576 19577 19578 19579 19580 19581 19582 19583 19584 19585 19586 19587 19588 19589 19590 19591 19592 19593 19594 19595 19596 19597 19598 19599 19600 19601 19602 19603 19604 19605 19606 19607 19608 19609 19610 19611 19612 19613 19614 19615 19616 19617 19618 19619 19620 19621 19622 19623 19624 19625 19626 19627 19628 19629 19630 19631 19632 19633 19634 19635 19636 19637 19638 19639 19640 19641 19642 19643 19644 19645 19646 19647 19648 19649 19650 19651 19652 19653 19654 19655 19656 19657 19658 19659 19660 19661 19662 19663 19664 19665 19666 19667 19668 19669 19670 19671 19672 19673 19674 19675 19676 19677 19678 19679 19680 19681 19682 19683 19684 19685 19686 19687 19688 19689 19690 19691 19692 19693 19694 19695 19696 19697 19698 19699 19700 19701 19702 19703 19704 19705 19706 19707 19708 19709 19710 19711 19712 19713 19714 19715 19716 19717 19718 19719 19720 19721 19722 19723 19724 19725 19726 19727 19728 19729 19730 19731 19732 19733 19734 19735 19736 19737 19738 19739 19740 19741 19742 19743 19744 19745 19746 19747 19748 19749 19750 19751 19752 19753 19754 19755 19756 19757 19758 19759 19760 19761 19762 19763 19764 19765 19766 19767 19768 19769 19770 19771 19772 19773 19774 19775 19776 19777 19778 19779 19780 19781 19782 19783 19784 19785 19786 19787 19788 19789 19790 19791 19792 19793 19794 19795 19796 19797 19798 19799 19800 19801 19802 19803 19804 19805 19806 19807 19808 19809 19810 19811 19812 19813 19814 19815 19816 19817 19818 19819 19820 19821 19822 19823 19824 19825 19826 19827 19828 19829 19830 19831 19832 19833 19834 19835 19836 19837 19838 19839 19840 19841 19842 19843 19844 19845 19846 19847 19848 19849 19850 19851 19852 19853 19854 19855 19856 19857 19858 19859 19860 19861 19862 19863 19864 19865 19866 19867 19868 19869 19870 19871 19872 19873 19874 19875 19876 19877 19878 19879 19880 19881 19882 19883 19884 19885 19886 19887 19888 19889 19890 19891 19892 19893 19894 19895 19896 19897 19898 19899 19900 19901 19902 19903 19904 19905 19906 19907 19908 19909 19910 19911 19912 19913 19914 19915 19916 19917 19918 19919 19920 19921 19922 19923 19924 19925 19926 19927 19928 19929 19930 19931 19932 19933 19934 19935 19936 19937 19938 19939 19940 19941 19942 19943 19944 19945 19946 19947 19948 19949 19950 19951 19952 19953 19954 19955 19956 19957 19958 19959 19960 19961 19962 19963 19964 19965 19966 19967 19968 19969 19970 19971 19972 19973 19974 19975 19976 19977 19978 19979 19980 19981 19982 19983 19984 19985 19986 19987 19988 19989 19990 19991 19992 19993 19994 19995 19996 19997 19998 19999 20000 20001 20002 20003 20004 20005 20006 20007 20008 20009 20010 20011 20012 20013 20014 20015 20016 20017 20018 20019 20020 20021 20022 20023 20024 20025 20026 20027 20028 20029 20030 20031 20032 20033 20034 20035 20036 20037 20038 20039 20040 20041 20042 20043 20044 20045 20046 20047 20048 20049 20050 20051 20052 20053 20054 20055 20056 20057 20058 20059 20060 20061 20062 20063 20064 20065 20066 20067 20068 20069 20070 20071 20072 20073 20074 20075 20076 20077 20078 20079 20080 20081 20082 20083 20084 20085 20086 20087 20088 20089 20090 20091 20092 20093 20094 20095 20096 20097 20098 20099 20100 20101 20102 20103 20104 20105 20106 20107 20108 20109 20110 20111 20112 20113 20114 20115 20116 20117 20118 20119 20120 20121 20122 20123 20124 20125 20126 20127 20128 20129 20130 20131 20132 20133 20134 20135 20136 20137 20138 20139 20140 20141 20142 20143 20144 20145 20146 20147 20148 20149 20150 20151 20152 20153 20154 20155 20156 20157 20158 20159 20160 20161 20162 20163 20164 20165 20166 20167 20168 20169 20170 20171 20172 20173 20174 20175 20176 20177 20178 20179 20180 20181 20182 20183 20184 20185 20186 20187 20188 20189 20190 20191 20192 20193 20194 20195 20196 20197 20198 20199 20200 20201 20202 20203 20204 20205 20206 20207 20208 20209 20210 20211 20212 20213 20214 20215 20216 20217 20218 20219 20220 20221 20222 20223 20224 20225 20226 20227 20228 20229 20230 20231 20232 20233 20234 20235 20236 20237 20238 20239 20240 20241 20242 20243 20244 20245 20246 20247 20248 20249 20250 20251 20252 20253 20254 20255 20256 20257 20258 20259 20260 20261 20262 20263 20264 20265 20266 20267 20268 20269 20270 20271 20272 20273 20274 20275 20276 20277 20278 20279 20280 20281 20282 20283 20284 20285 20286 20287 20288 20289 20290 20291 20292 20293 20294 20295 20296 20297 20298 20299 20300 20301 20302 20303 20304 20305 20306 20307 20308 20309 20310 20311 20312 20313 20314 20315 20316 20317 20318 20319 20320 20321 20322 20323 20324 20325 20326 20327 20328 20329 20330 20331 20332 20333 20334 20335 20336 20337 20338 20339 20340 20341 20342 20343 20344 20345 20346 20347 20348 20349 20350 20351 20352 20353 20354 20355 20356 20357 20358 20359 20360 20361 20362 20363 20364 20365 20366 20367 20368 20369 20370 20371 20372 20373 20374 20375 20376 20377 20378 20379 20380 20381 20382 20383 20384 20385 20386 20387 20388 20389 20390 20391 20392 20393 20394 20395 20396 20397 20398 20399 20400 20401 20402 20403 20404 20405 20406 20407 20408 20409 20410 20411 20412 20413 20414 20415 20416 20417 20418 20419 20420 20421 20422 20423 20424 20425 20426 20427 20428 20429 20430 20431 20432 20433 20434 20435 20436 20437 20438 20439 20440 20441 20442 20443 20444 20445 20446 20447 20448 20449 20450 20451 20452 20453 20454 20455 20456 20457 20458 20459 20460 20461 20462 20463 20464 20465 20466 20467 20468 20469 20470 20471 20472 20473 20474 20475 20476 20477 20478 20479 20480 20481 20482 20483 20484 20485 20486 20487 20488 20489 20490 20491 20492 20493 20494 20495 20496 20497 20498 20499 20500 20501 20502 20503 20504 20505 20506 20507 20508 20509 20510 20511 20512 20513 20514 20515 20516 20517 20518 20519 20520 20521 20522 20523 20524 20525 20526 20527 20528 20529 20530 20531 20532 20533 20534 20535 20536 20537 20538 20539 20540 20541 20542 20543 20544 20545 20546 20547 20548 20549 20550 20551 20552 20553 20554 20555 20556 20557 20558 20559 20560 20561 20562 20563 20564 20565 20566 20567 20568 20569 20570 20571 20572 20573 20574 20575 20576 20577 20578 20579 20580 20581 20582 20583 20584 20585 20586 20587 20588 20589 20590 20591 20592 20593 20594 20595 20596 20597 20598 20599 20600 20601 20602 20603 20604 20605 20606 20607 20608 20609 20610 20611 20612 20613 20614 20615 20616 20617 20618 20619 20620 20621 20622 20623 20624 20625 20626 20627 20628 20629 20630 20631 20632 20633 20634 20635 20636 20637 20638 20639 20640 20641 20642 20643 20644 20645 20646 20647 20648 20649 20650 20651 20652 20653 20654 20655 20656 20657 20658 20659 20660 20661 20662 20663 20664 20665 20666 20667 20668 20669 20670 20671 20672 20673 20674 20675 20676 20677 20678 20679 20680 20681 20682 20683 20684 20685 20686 20687 20688 20689 20690 20691 20692 20693 20694 20695 20696 20697 20698 20699 20700 20701 20702 20703 20704 20705 20706 20707 20708 20709 20710 20711 20712 20713 20714 20715 20716 20717 20718 20719 20720 20721 20722 20723 20724 20725 20726 20727 20728 20729 20730 20731 20732 20733 20734 20735 20736 20737 20738 20739 20740 20741 20742 20743 20744 20745 20746 20747 20748 20749 20750 20751 20752 20753 20754 20755 20756 20757 20758 20759 20760 20761 20762 20763 20764 20765 20766 20767 20768 20769 20770 20771 20772 20773 20774 20775 20776 20777 20778 20779 20780 20781 20782 20783 20784 20785 20786 20787 20788 20789 20790 20791 20792 20793 20794 20795 20796 20797 20798 20799 20800 20801 20802 20803 20804 20805 20806 20807 20808 20809 20810 20811 20812 20813 20814 20815 20816 20817 20818 20819 20820 20821 20822 20823 20824 20825 20826 20827 20828 20829 20830 20831 20832 20833 20834 20835 20836 20837 20838 20839 20840 20841 20842 20843 20844 20845 20846 20847 20848 20849 20850 20851 20852 20853 20854 20855 20856 20857 20858 20859 20860 20861 20862 20863 20864 20865 20866 20867 20868 20869 20870 20871 20872 20873 20874 20875 20876 20877 20878 20879 20880 20881 20882 20883 20884 20885 20886 20887 20888 20889 20890 20891 20892 20893 20894 20895 20896 20897 20898 20899 20900 20901 20902 20903 20904 20905 20906 20907 20908 20909 20910 20911 20912 20913 20914 20915 20916 20917 20918 20919 20920 20921 20922 20923 20924 20925 20926 20927 20928 20929 20930 20931 20932 20933 20934 20935 20936 20937 20938 20939 20940 20941 20942 20943 20944 20945 20946 20947 20948 20949 20950 20951 20952 20953 20954 20955 20956 20957 20958 20959 20960 20961 20962 20963 20964 20965 20966 20967 20968 20969 20970 20971 20972 20973 20974 20975 20976 20977 20978 20979 20980 20981 20982 20983 20984 20985 20986 20987 20988 20989 20990 20991 20992 20993 20994 20995 20996 20997 20998 20999 21000 21001 21002 21003 21004 21005 21006 21007 21008 21009 21010 21011 21012 21013 21014 21015 21016 21017 21018 21019 21020 21021 21022 21023 21024 21025 21026 21027 21028 21029 21030 21031 21032 21033 21034 21035 21036 21037 21038 21039 21040 21041 21042 21043 21044 21045 21046 21047 21048 21049 21050 21051 21052 21053 21054 21055 21056 21057 21058 21059 21060 21061 21062 21063 21064 21065 21066 21067 21068 21069 21070 21071 21072 21073 21074 21075 21076 21077 21078 21079 21080 21081 21082 21083 21084 21085 21086 21087 21088 21089 21090 21091 21092 21093 21094 21095 21096 21097 21098 21099 21100 21101 21102 21103 21104 21105 21106 21107 21108 21109 21110 21111 21112 21113 21114 21115 21116 21117 21118 21119 21120 21121 21122 21123 21124 21125 21126 21127 21128 21129 21130 21131 21132 21133 21134 21135 21136 21137 21138 21139 21140 21141 21142 21143 21144 21145 21146 21147 21148 21149 21150 21151 21152 21153 21154 21155 21156 21157 21158 21159 21160 21161 21162 21163 21164 21165 21166 21167 21168 21169 21170 21171 21172 21173 21174 21175 21176 21177 21178 21179 21180 21181 21182 21183 21184 21185 21186 21187 21188 21189 21190 21191 21192 21193 21194 21195 21196 21197 21198 21199 21200 21201 21202 21203 21204 21205 21206 21207 21208 21209 21210 21211 21212 21213 21214 21215 21216 21217 21218 21219 21220 21221 21222 21223 21224 21225 21226 21227 21228 21229 21230 21231 21232 21233 21234 21235 21236 21237 21238 21239 21240 21241 21242 21243 21244 21245 21246 21247 21248 21249 21250 21251 21252 21253 21254 21255 21256 21257 21258 21259 21260 21261 21262 21263 21264 21265 21266 21267 21268 21269 21270 21271 21272 21273 21274 21275 21276 21277 21278 21279 21280 21281 21282 21283 21284 21285 21286 21287 21288 21289 21290 21291 21292 21293 21294 21295 21296 21297 21298 21299 21300 21301 21302 21303 21304 21305 21306 21307 21308 21309 21310 21311 21312 21313 21314 21315 21316 21317 21318 21319 21320 21321 21322 21323 21324 21325 21326 21327 21328 21329 21330 21331 21332 21333 21334 21335 21336 21337 21338 21339 21340 21341 21342 21343 21344 21345 21346 21347 21348 21349 21350 21351 21352 21353 21354 21355 21356 21357 21358 21359 21360 21361 21362 21363 21364 21365 21366 21367 21368 21369 21370 21371 21372 21373 21374 21375 21376 21377 21378 21379 21380 21381 21382 21383 21384 21385 21386 21387 21388 21389 21390 21391 21392 21393 21394 21395 21396 21397 21398 21399 21400 21401 21402 21403 21404 21405 21406 21407 21408 21409 21410 21411 21412 21413 21414 21415 21416 21417 21418 21419 21420 21421 21422 21423 21424 21425 21426 21427 21428 21429 21430 21431 21432 21433 21434 21435 21436 21437 21438 21439 21440 21441 21442 21443 21444 21445 21446 21447 21448 21449 21450 21451 21452 21453 21454 21455 21456 21457 21458 21459 21460 21461 21462 21463 21464 21465 21466 21467 21468 21469 21470 21471 21472 21473 21474 21475 21476 21477 21478 21479 21480 21481 21482 21483 21484 21485 21486 21487 21488 21489 21490 21491 21492 21493 21494 21495 21496 21497 21498 21499 21500 21501 21502 21503 21504 21505 21506 21507 21508 21509 21510 21511 21512 21513 21514 21515 21516 21517 21518 21519 21520 21521 21522 21523 21524 21525 21526 21527 21528 21529 21530 21531 21532 21533 21534 21535 21536 21537 21538 21539 21540 21541 21542 21543 21544 21545 21546 21547 21548 21549 21550 21551 21552 21553 21554 21555 21556 21557 21558 21559 21560 21561 21562 21563 21564 21565 21566 21567 21568 21569 21570 21571 21572 21573 21574 21575 21576 21577 21578 21579 21580 21581 21582 21583 21584 21585 21586 21587 21588 21589 21590 21591 21592 21593 21594 21595 21596 21597 21598 21599 21600 21601 21602 21603 21604 21605 21606 21607 21608 21609 21610 21611 21612 21613 21614 21615 21616 21617 21618 21619 21620 21621 21622 21623 21624 21625 21626 21627 21628 21629 21630 21631 21632 21633 21634 21635 21636 21637 21638 21639 21640 21641 21642 21643 21644 21645 21646 21647 21648 21649 21650 21651 21652 21653 21654 21655 21656 21657 21658 21659 21660 21661 21662 21663 21664 21665 21666 21667 21668 21669 21670 21671 21672 21673 21674 21675 21676 21677 21678 21679 21680 21681 21682 21683 21684 21685 21686 21687 21688 21689 21690 21691 21692 21693 21694 21695 21696 21697 21698 21699 21700 21701 21702 21703 21704 21705 21706 21707 21708 21709 21710 21711 21712 21713 21714 21715 21716 21717 21718 21719 21720 21721 21722 21723 21724 21725 21726 21727 21728 21729 21730 21731 21732 21733 21734 21735 21736 21737 21738 21739 21740 21741 21742 21743 21744 21745 21746 21747 21748 21749 21750 21751 21752 21753 21754 21755 21756 21757 21758 21759 21760 21761 21762 21763 21764 21765 21766 21767 21768 21769 21770 21771 21772 21773 21774 21775 21776 21777 21778 21779 21780 21781 21782 21783 21784 21785 21786 21787 21788 21789 21790 21791 21792 21793 21794 21795 21796 21797 21798 21799 21800 21801 21802 21803 21804 21805 21806 21807 21808 21809 21810 21811 21812 21813 21814 21815 21816 21817 21818 21819 21820 21821 21822 21823 21824 21825 21826 21827 21828 21829 21830 21831 21832 21833 21834 21835 21836 21837 21838 21839 21840 21841 21842 21843 21844 21845 21846 21847 21848 21849 21850 21851 21852 21853 21854 21855 21856 21857 21858 21859 21860 21861 21862 21863 21864 21865 21866 21867 21868 21869 21870 21871 21872 21873 21874 21875 21876 21877 21878 21879 21880 21881 21882 21883 21884 21885 21886 21887 21888 21889 21890 21891 21892 21893 21894 21895 21896 21897 21898 21899 21900 21901 21902 21903 21904 21905 21906 21907 21908 21909 21910 21911 21912 21913 21914 21915 21916 21917 21918 21919 21920 21921 21922 21923 21924 21925 21926 21927 21928 21929 21930 21931 21932 21933 21934 21935 21936 21937 21938 21939 21940 21941 21942 21943 21944 21945 21946 21947 21948 21949 21950 21951 21952 21953 21954 21955 21956 21957 21958 21959 21960 21961 21962 21963 21964 21965 21966 21967 21968 21969 21970 21971 21972 21973 21974 21975 21976 21977 21978 21979 21980 21981 21982 21983 21984 21985 21986 21987 21988 21989 21990 21991 21992 21993 21994 21995 21996 21997 21998 21999 22000 22001 22002 22003 22004 22005 22006 22007 22008 22009 22010 22011 22012 22013 22014 22015 22016 22017 22018 22019 22020 22021 22022 22023 22024 22025 22026 22027 22028 22029 22030 22031 22032 22033 22034 22035 22036 22037 22038 22039 22040 22041 22042 22043 22044 22045 22046 22047 22048 22049 22050 22051 22052 22053 22054 22055 22056 22057 22058 22059 22060 22061 22062 22063 22064 22065 22066 22067 22068 22069 22070 22071 22072 22073 22074 22075 22076 22077 22078 22079 22080 22081 22082 22083 22084 22085 22086 22087 22088 22089 22090 22091 22092 22093 22094 22095 22096 22097 22098 22099 22100 22101 22102 22103 22104 22105 22106 22107 22108 22109 22110 22111 22112 22113 22114 22115 22116 22117 22118 22119 22120 22121 22122 22123 22124 22125 22126 22127 22128 22129 22130 22131 22132 22133 22134 22135 22136 22137 22138 22139 22140 22141 22142 22143 22144 22145 22146 22147 22148 22149 22150 22151 22152 22153 22154 22155 22156 22157 22158 22159 22160 22161 22162 22163 22164 22165 22166 22167 22168 22169 22170 22171 22172 22173 22174 22175 22176 22177 22178 22179 22180 22181 22182 22183 22184 22185 22186 22187 22188 22189 22190 22191 22192 22193 22194 22195 22196 22197 22198 22199 22200 22201 22202 22203 22204 22205 22206 22207 22208 22209 22210 22211 22212 22213 22214 22215 22216 22217 22218 22219 22220 22221 22222 22223 22224 22225 22226 22227 22228 22229 22230 22231 22232 22233 22234 22235 22236 22237 22238 22239 22240 22241 22242 22243 22244 22245 22246 22247 22248 22249 22250 22251 22252 22253 22254 22255 22256 22257 22258 22259 22260 22261 22262 22263 22264 22265 22266 22267 22268 22269 22270 22271 22272 22273 22274 22275 22276 22277 22278 22279 22280 22281 22282 22283 22284 22285 22286 22287 22288 22289 22290 22291 22292 22293 22294 22295 22296 22297 22298 22299 22300 22301 22302 22303 22304 22305 22306 22307 22308 22309 22310 22311 22312 22313 22314 22315 22316 22317 22318 22319 22320 22321 22322 22323 22324 22325 22326 22327 22328 22329 22330 22331 22332 22333 22334 22335 22336 22337 22338 22339 22340 22341 22342 22343 22344 22345 22346 22347 22348 22349 22350 22351 22352 22353 22354 22355 22356 22357 22358 22359 22360 22361 22362 22363 22364 22365 22366 22367 22368 22369 22370 22371 22372 22373 22374 22375 22376 22377 22378 22379 22380 22381 22382 22383 22384 22385 22386 22387 22388 22389 22390 22391 22392 22393 22394 22395 22396 22397 22398 22399 22400 22401 22402 22403 22404 22405 22406 22407 22408 22409 22410 22411 22412 22413 22414 22415 22416 22417 22418 22419 22420 22421 22422 22423 22424 22425 22426 22427 22428 22429 22430 22431 22432 22433 22434 22435 22436 22437 22438 22439 22440 22441 22442 22443 22444 22445 22446 22447 22448 22449 22450 22451 22452 22453 22454 22455 22456 22457 22458 22459 22460 22461 22462 22463 22464 22465 22466 22467 22468 22469 22470 22471 22472 22473 22474 22475 22476 22477 22478 22479 22480 22481 22482 22483 22484 22485 22486 22487 22488 22489 22490 22491 22492 22493 22494 22495 22496 22497 22498 22499 22500 22501 22502 22503 22504 22505 22506 22507 22508 22509 22510 22511 22512 22513 22514 22515 22516 22517 22518 22519 22520 22521 22522 22523 22524 22525 22526 22527 22528 22529 22530 22531 22532 22533 22534 22535 22536 22537 22538 22539 22540 22541 22542 22543 22544 22545 22546 22547 22548 22549 22550 22551 22552 22553 22554 22555 22556 22557 22558 22559 22560 22561 22562 22563 22564 22565 22566 22567 22568 22569 22570 22571 22572 22573 22574 22575 22576 22577 22578 22579 22580 22581 22582 22583 22584 22585 22586 22587 22588 22589 22590 22591 22592 22593 22594 22595 22596 22597 22598 22599 22600 22601 22602 22603 22604 22605 22606 22607 22608 22609 22610 22611 22612 22613 22614 22615 22616 22617 22618 22619 22620 22621 22622 22623 22624 22625 22626 22627 22628 22629 22630 22631 22632 22633 22634 22635 22636 22637 22638 22639 22640 22641 22642 22643 22644 22645 22646 22647 22648 22649 22650 22651 22652 22653 22654 22655 22656 22657 22658 22659 22660 22661 22662 22663 22664 22665 22666 22667 22668 22669 22670 22671 22672 22673 22674 22675 22676 22677 22678 22679 22680 22681 22682 22683 22684 22685 22686 22687 22688 22689 22690 22691 22692 22693 22694 22695 22696 22697 22698 22699 22700 22701 22702 22703 22704 22705 22706 22707 22708 22709 22710 22711 22712 22713 22714 22715 22716 22717 22718 22719 22720 22721 22722 22723 22724 22725 22726 22727 22728 22729 22730 22731 22732 22733 22734 22735 22736 22737 22738 22739 22740 22741 22742 22743 22744 22745 22746 22747 22748 22749 22750 22751 22752 22753 22754 22755 22756 22757 22758 22759 22760 22761 22762 22763 22764 22765 22766 22767 22768 22769 22770 22771 22772 22773 22774 22775 22776 22777 22778 22779 22780 22781 22782 22783 22784 22785 22786 22787 22788 22789 22790 22791 22792 22793 22794 22795 22796 22797 22798 22799 22800 22801 22802 22803 22804 22805 22806 22807 22808 22809 22810 22811 22812 22813 22814 22815 22816 22817 22818 22819 22820 22821 22822 22823 22824 22825 22826 22827 22828 22829 22830 22831 22832 22833 22834 22835 22836 22837 22838 22839 22840 22841 22842 22843 22844 22845 22846 22847 22848 22849 22850 22851 22852 22853 22854 22855 22856 22857 22858 22859 22860 22861 22862 22863 22864 22865 22866 22867 22868 22869 22870 22871 22872 22873 22874 22875 22876 22877 22878 22879 22880 22881 22882 22883 22884 22885 22886 22887 22888 22889 22890 22891 22892 22893 22894 22895 22896 22897 22898 22899 22900 22901 22902 22903 22904 22905 22906 22907 22908 22909 22910 22911 22912 22913 22914 22915 22916 22917 22918 22919 22920 22921 22922 22923 22924 22925 22926 22927 22928 22929 22930 22931 22932 22933 22934 22935 22936 22937 22938 22939 22940 22941 22942 22943 22944 22945 22946 22947 22948 22949 22950 22951 22952 22953 22954 22955 22956 22957 22958 22959 22960 22961 22962 22963 22964 22965 22966 22967 22968 22969 22970 22971 22972 22973 22974 22975 22976 22977 22978 22979 22980 22981 22982 22983 22984 22985 22986 22987 22988 22989 22990 22991 22992 22993 22994 22995 22996 22997 22998 22999 23000 23001 23002 23003 23004 23005 23006 23007 23008 23009 23010 23011 23012 23013 23014 23015 23016 23017 23018 23019 23020 23021 23022 23023 23024 23025 23026 23027 23028 23029 23030 23031 23032 23033 23034 23035 23036 23037 23038 23039 23040 23041 23042 23043 23044 23045 23046 23047 23048 23049 23050 23051 23052 23053 23054 23055 23056 23057 23058 23059 23060 23061 23062 23063 23064 23065 23066 23067 23068 23069 23070 23071 23072 23073 23074 23075 23076 23077 23078 23079 23080 23081 23082 23083 23084 23085 23086 23087 23088 23089 23090 23091 23092 23093 23094 23095 23096 23097 23098 23099 23100 23101 23102 23103 23104 23105 23106 23107 23108 23109 23110 23111 23112 23113 23114 23115 23116 23117 23118 23119 23120 23121 23122 23123 23124 23125 23126 23127 23128 23129 23130 23131 23132 23133 23134 23135 23136 23137 23138 23139 23140 23141 23142 23143 23144 23145 23146 23147 23148 23149 23150 23151 23152 23153 23154 23155 23156 23157 23158 23159 23160 23161 23162 23163 23164 23165 23166 23167 23168 23169 23170 23171 23172 23173 23174 23175 23176 23177 23178 23179 23180 23181 23182 23183 23184 23185 23186 23187 23188 23189 23190 23191 23192 23193 23194 23195 23196 23197 23198 23199 23200 23201 23202 23203 23204 23205 23206 23207 23208 23209 23210 23211 23212 23213 23214 23215 23216 23217 23218 23219 23220 23221 23222 23223 23224 23225 23226 23227 23228 23229 23230 23231 23232 23233 23234 23235 23236 23237 23238 23239 23240 23241 23242 23243 23244 23245 23246 23247 23248 23249 23250 23251 23252 23253 23254 23255 23256 23257 23258 23259 23260 23261 23262 23263 23264 23265 23266 23267 23268 23269 23270 23271 23272 23273 23274 23275 23276 23277 23278 23279 23280 23281 23282 23283 23284 23285 23286 23287 23288 23289 23290 23291 23292 23293 23294 23295 23296 23297 23298 23299 23300 23301 23302 23303 23304 23305 23306 23307 23308 23309 23310 23311 23312 23313 23314 23315 23316 23317 23318 23319 23320 23321 23322 23323 23324 23325 23326 23327 23328 23329 23330 23331 23332 23333 23334 23335 23336 23337 23338 23339 23340 23341 23342 23343 23344 23345 23346 23347 23348 23349 23350 23351 23352 23353 23354 23355 23356 23357 23358 23359 23360 23361 23362 23363 23364 23365 23366 23367 23368 23369 23370 23371 23372 23373 23374 23375 23376 23377 23378 23379 23380 23381 23382 23383 23384 23385 23386 23387 23388 23389 23390 23391 23392 23393 23394 23395 23396 23397 23398 23399 23400 23401 23402 23403 23404 23405 23406 23407 23408 23409 23410 23411 23412 23413 23414 23415 23416 23417 23418 23419 23420 23421 23422 23423 23424 23425 23426 23427 23428 23429 23430 23431 23432 23433 23434 23435 23436 23437 23438 23439 23440 23441 23442 23443 23444 23445 23446 23447 23448 23449 23450 23451 23452 23453 23454 23455 23456 23457 23458 23459 23460 23461 23462 23463 23464 23465 23466 23467 23468 23469 23470 23471 23472 23473 23474 23475 23476 23477 23478 23479 23480 23481 23482 23483 23484 23485 23486 23487 23488 23489 23490 23491 23492 23493 23494 23495 23496 23497 23498 23499 23500 23501 23502 23503 23504 23505 23506 23507 23508 23509 23510 23511 23512 23513 23514 23515 23516 23517 23518 23519 23520 23521 23522 23523 23524 23525 23526 23527 23528 23529 23530 23531 23532 23533 23534 23535 23536 23537 23538 23539 23540 23541 23542 23543 23544 23545 23546 23547 23548 23549 23550 23551 23552 23553 23554 23555 23556 23557 23558 23559 23560 23561 23562 23563 23564 23565 23566 23567 23568 23569 23570 23571 23572 23573 23574 23575 23576 23577 23578 23579 23580 23581 23582 23583 23584 23585 23586 23587 23588 23589 23590 23591 23592 23593 23594 23595 23596 23597 23598 23599 23600 23601 23602 23603 23604 23605 23606 23607 23608 23609 23610 23611 23612 23613 23614 23615 23616 23617 23618 23619 23620 23621 23622 23623 23624 23625 23626 23627 23628 23629 23630 23631 23632 23633 23634 23635 23636 23637 23638 23639 23640 23641 23642 23643 23644 23645 23646 23647 23648 23649 23650 23651 23652 23653 23654 23655 23656 23657 23658 23659 23660 23661 23662 23663 23664 23665 23666 23667 23668 23669 23670 23671 23672 23673 23674 23675 23676 23677 23678 23679 23680 23681 23682 23683 23684 23685 23686 23687 23688 23689 23690 23691 23692 23693 23694 23695 23696 23697 23698 23699 23700 23701 23702 23703 23704 23705 23706 23707 23708 23709 23710 23711 23712 23713 23714 23715 23716 23717 23718 23719 23720 23721 23722 23723 23724 23725 23726 23727 23728 23729 23730 23731 23732 23733 23734 23735 23736 23737 23738 23739 23740 23741 23742 23743 23744 23745 23746 23747 23748 23749 23750 23751 23752 23753 23754 23755 23756 23757 23758 23759 23760 23761 23762 23763 23764 23765 23766 23767 23768 23769 23770 23771 23772 23773 23774 23775 23776 23777 23778 23779 23780 23781 23782 23783 23784 23785 23786 23787 23788 23789 23790 23791 23792 23793 23794 23795 23796 23797 23798 23799 23800 23801 23802 23803 23804 23805 23806 23807 23808 23809 23810 23811 23812 23813 23814 23815 23816 23817 23818 23819 23820 23821 23822 23823 23824 23825 23826 23827 23828 23829 23830 23831 23832 23833 23834 23835 23836 23837 23838 23839 23840 23841 23842 23843 23844 23845 23846 23847 23848 23849 23850 23851 23852 23853 23854 23855 23856 23857 23858 23859 23860 23861 23862 23863 23864 23865 23866 23867 23868 23869 23870 23871 23872 23873 23874 23875 23876 23877 23878 23879 23880 23881 23882 23883 23884 23885 23886 23887 23888 23889 23890 23891 23892 23893 23894 23895 23896 23897 23898 23899 23900 23901 23902 23903 23904 23905 23906 23907 23908 23909 23910 23911 23912 23913 23914 23915 23916 23917 23918 23919 23920 23921 23922 23923 23924 23925 23926 23927 23928 23929 23930 23931 23932 23933 23934 23935 23936 23937 23938 23939 23940 23941 23942 23943 23944 23945 23946 23947 23948 23949 23950 23951 23952 23953 23954 23955 23956 23957 23958 23959 23960 23961 23962 23963 23964 23965 23966 23967 23968 23969 23970 23971 23972 23973 23974 23975 23976 23977 23978 23979 23980 23981 23982 23983 23984 23985 23986 23987 23988 23989 23990 23991 23992 23993 23994 23995 23996 23997 23998 23999 24000 24001 24002 24003 24004 24005 24006 24007 24008 24009 24010 24011 24012 24013 24014 24015 24016 24017 24018 24019 24020 24021 24022 24023 24024 24025 24026 24027 24028 24029 24030 24031 24032 24033 24034 24035 24036 24037 24038 24039 24040 24041 24042 24043 24044 24045 24046 24047 24048 24049 24050 24051 24052 24053 24054 24055 24056 24057 24058 24059 24060 24061 24062 24063 24064 24065 24066 24067 24068 24069 24070 24071 24072 24073 24074 24075 24076 24077 24078 24079 24080 24081 24082 24083 24084 24085 24086 24087 24088 24089 24090 24091 24092 24093 24094 24095 24096 24097 24098 24099 24100 24101 24102 24103 24104 24105 24106 24107 24108 24109 24110 24111 24112 24113 24114 24115 24116 24117 24118 24119 24120 24121 24122 24123 24124 24125 24126 24127 24128 24129 24130 24131 24132 24133 24134 24135 24136 24137 24138 24139 24140 24141 24142 24143 24144 24145 24146 24147 24148 24149 24150 24151 24152 24153 24154 24155 24156 24157 24158 24159 24160 24161 24162 24163 24164 24165 24166 24167 24168 24169 24170 24171 24172 24173 24174 24175 24176 24177 24178 24179 24180 24181 24182 24183 24184 24185 24186 24187 24188 24189 24190 24191 24192 24193 24194 24195 24196 24197 24198 24199 24200 24201 24202 24203 24204 24205 24206 24207 24208 24209 24210 24211 24212 24213 24214 24215 24216 24217 24218 24219 24220 24221 24222 24223 24224 24225 24226 24227 24228 24229 24230 24231 24232 24233 24234 24235 24236 24237 24238 24239 24240 24241 24242 24243 24244 24245 24246 24247 24248 24249 24250 24251 24252 24253 24254 24255 24256 24257 24258 24259 24260 24261 24262 24263 24264 24265 24266 24267 24268 24269 24270 24271 24272 24273 24274 24275 24276 24277 24278 24279 24280 24281 24282 24283 24284 24285 24286 24287 24288 24289 24290 24291 24292 24293 24294 24295 24296 24297 24298 24299 24300 24301 24302 24303 24304 24305 24306 24307 24308 24309 24310 24311 24312 24313 24314 24315 24316 24317 24318 24319 24320 24321 24322 24323 24324 24325 24326 24327 24328 24329 24330 24331 24332 24333 24334 24335 24336 24337 24338 24339 24340 24341 24342 24343 24344 24345 24346 24347 24348 24349 24350 24351 24352 24353 24354 24355 24356 24357 24358 24359 24360 24361 24362 24363 24364 24365 24366 24367 24368 24369 24370 24371 24372 24373 24374 24375 24376 24377 24378 24379 24380 24381 24382 24383 24384 24385 24386 24387 24388 24389 24390 24391 24392 24393 24394 24395 24396 24397 24398 24399 24400 24401 24402 24403 24404 24405 24406 24407 24408 24409 24410 24411 24412 24413 24414 24415 24416 24417 24418 24419 24420 24421 24422 24423 24424 24425 24426 24427 24428 24429 24430 24431 24432 24433 24434 24435 24436 24437 24438 24439 24440 24441 24442 24443 24444 24445 24446 24447 24448 24449 24450 24451 24452 24453 24454 24455 24456 24457 24458 24459 24460 24461 24462 24463 24464 24465 24466 24467 24468 24469 24470 24471 24472 24473 24474 24475 24476 24477 24478 24479 24480 24481 24482 24483 24484 24485 24486 24487 24488 24489 24490 24491 24492 24493 24494 24495 24496 24497 24498 24499 24500 24501 24502 24503 24504 24505 24506 24507 24508 24509 24510 24511 24512 24513 24514 24515 24516 24517 24518 24519 24520 24521 24522 24523 24524 24525 24526 24527 24528 24529 24530 24531 24532 24533 24534 24535 24536 24537 24538 24539 24540 24541 24542 24543 24544 24545 24546 24547 24548 24549 24550 24551 24552 24553 24554 24555 24556 24557 24558 24559 24560 24561 24562 24563 24564 24565 24566 24567 24568 24569 24570 24571 24572 24573 24574 24575 24576 24577 24578 24579 24580 24581 24582 24583 24584 24585 24586 24587 24588 24589 24590 24591 24592 24593 24594 24595 24596 24597 24598 24599 24600 24601 24602 24603 24604 24605 24606 24607 24608 24609 24610 24611 24612 24613 24614 24615 24616 24617 24618 24619 24620 24621 24622 24623 24624 24625 24626 24627 24628 24629 24630 24631 24632 24633 24634 24635 24636 24637 24638 24639 24640 24641 24642 24643 24644 24645 24646 24647 24648 24649 24650 24651 24652 24653 24654 24655 24656 24657 24658 24659 24660 24661 24662 24663 24664 24665 24666 24667 24668 24669 24670 24671 24672 24673 24674 24675 24676 24677 24678 24679 24680 24681 24682 24683 24684 24685 24686 24687 24688 24689 24690 24691 24692 24693 24694 24695 24696 24697 24698 24699 24700 24701 24702 24703 24704 24705 24706 24707 24708 24709 24710 24711 24712 24713 24714 24715 24716 24717 24718 24719 24720 24721 24722 24723 24724 24725 24726 24727 24728 24729 24730 24731 24732 24733 24734 24735 24736 24737 24738 24739 24740 24741 24742 24743 24744 24745 24746 24747 24748 24749 24750 24751 24752 24753 24754 24755 24756 24757 24758 24759 24760 24761 24762 24763 24764 24765 24766 24767 24768 24769 24770 24771 24772 24773 24774 24775 24776 24777 24778 24779 24780 24781 24782 24783 24784 24785 24786 24787 24788 24789 24790 24791 24792 24793 24794 24795 24796 24797 24798 24799 24800 24801 24802 24803 24804 24805 24806 24807 24808 24809 24810 24811 24812 24813 24814 24815 24816 24817 24818 24819 24820 24821 24822 24823 24824 24825 24826 24827 24828 24829 24830 24831 24832 24833 24834 24835 24836 24837 24838 24839 24840 24841 24842 24843 24844 24845 24846 24847 24848 24849 24850 24851 24852 24853 24854 24855 24856 24857 24858 24859 24860 24861 24862 24863 24864 24865 24866 24867 24868 24869 24870 24871 24872 24873 24874 24875 24876 24877 24878 24879 24880 24881 24882 24883 24884 24885 24886 24887 24888 24889 24890 24891 24892 24893 24894 24895 24896 24897 24898 24899 24900 24901 24902 24903 24904 24905 24906 24907 24908 24909 24910 24911 24912 24913 24914 24915 24916 24917 24918 24919 24920 24921 24922 24923 24924 24925 24926 24927 24928 24929 24930 24931 24932 24933 24934 24935 24936 24937 24938 24939 24940 24941 24942 24943 24944 24945 24946 24947 24948 24949 24950 24951 24952 24953 24954 24955 24956 24957 24958 24959 24960 24961 24962 24963 24964 24965 24966 24967 24968 24969 24970 24971 24972 24973 24974 24975 24976 24977 24978 24979 24980 24981 24982 24983 24984 24985 24986 24987 24988 24989 24990 24991 24992 24993 24994 24995 24996 24997 24998 24999 25000 25001 25002 25003 25004 25005 25006 25007 25008 25009 25010 25011 25012 25013 25014 25015 25016 25017 25018 25019 25020 25021 25022 25023 25024 25025 25026 25027 25028 25029 25030 25031 25032 25033 25034 25035 25036 25037 25038 25039 25040 25041 25042 25043 25044 25045 25046 25047 25048 25049 25050 25051 25052 25053 25054 25055 25056 25057 25058 25059 25060 25061 25062 25063 25064 25065 25066 25067 25068 25069 25070 25071 25072 25073 25074 25075 25076 25077 25078 25079 25080 25081 25082 25083 25084 25085 25086 25087 25088 25089 25090 25091 25092 25093 25094 25095 25096 25097 25098 25099 25100 25101 25102 25103 25104 25105 25106 25107 25108 25109 25110 25111 25112 25113 25114 25115 25116 25117 25118 25119 25120 25121 25122 25123 25124 25125 25126 25127 25128 25129 25130 25131 25132 25133 25134 25135 25136 25137 25138 25139 25140 25141 25142 25143 25144 25145 25146 25147 25148 25149 25150 25151 25152 25153 25154 25155 25156 25157 25158 25159 25160 25161 25162 25163 25164 25165 25166 25167 25168 25169 25170 25171 25172 25173 25174 25175 25176 25177 25178 25179 25180 25181 25182 25183 25184 25185 25186 25187 25188 25189 25190 25191 25192 25193 25194 25195 25196 25197 25198 25199 25200 25201 25202 25203 25204 25205 25206 25207 25208 25209 25210 25211 25212 25213 25214 25215 25216 25217 25218 25219 25220 25221 25222 25223 25224 25225 25226 25227 25228 25229 25230 25231 25232 25233 25234 25235 25236 25237 25238 25239 25240 25241 25242 25243 25244 25245 25246 25247 25248 25249 25250 25251 25252 25253 25254 25255 25256 25257 25258 25259 25260 25261 25262 25263 25264 25265 25266 25267 25268 25269 25270 25271 25272 25273 25274 25275 25276 25277 25278 25279 25280 25281 25282 25283 25284 25285 25286 25287 25288 25289 25290 25291 25292 25293 25294 25295 25296 25297 25298 25299 25300 25301 25302 25303 25304 25305 25306 25307 25308 25309 25310 25311 25312 25313 25314 25315 25316 25317 25318 25319 25320 25321 25322 25323 25324 25325 25326 25327 25328 25329 25330 25331 25332 25333 25334 25335 25336 25337 25338 25339 25340 25341 25342 25343 25344 25345 25346 25347 25348 25349 25350 25351 25352 25353 25354 25355 25356 25357 25358 25359 25360 25361 25362 25363 25364 25365 25366 25367 25368 25369 25370 25371 25372 25373 25374 25375 25376 25377 25378 25379 25380 25381 25382 25383 25384 25385 25386 25387 25388 25389 25390 25391 25392 25393 25394 25395 25396 25397 25398 25399 25400 25401 25402 25403 25404 25405 25406 25407 25408 25409 25410 25411 25412 25413 25414 25415 25416 25417 25418 25419 25420 25421 25422 25423 25424 25425 25426 25427 25428 25429 25430 25431 25432 25433 25434 25435 25436 25437 25438 25439 25440 25441 25442 25443 25444 25445 25446 25447 25448 25449 25450 25451 25452 25453 25454 25455 25456 25457 25458 25459 25460 25461 25462 25463 25464 25465 25466 25467 25468 25469 25470 25471 25472 25473 25474 25475 25476 25477 25478 25479 25480 25481 25482 25483 25484 25485 25486 25487 25488 25489 25490 25491 25492 25493 25494 25495 25496 25497 25498 25499 25500 25501 25502 25503 25504 25505 25506 25507 25508 25509 25510 25511 25512 25513 25514 25515 25516 25517 25518 25519 25520 25521 25522 25523 25524 25525 25526 25527 25528 25529 25530 25531 25532 25533 25534 25535 25536 25537 25538 25539 25540 25541 25542 25543 25544 25545 25546 25547 25548 25549 25550 25551 25552 25553 25554 25555 25556 25557 25558 25559 25560 25561 25562 25563 25564 25565 25566 25567 25568 25569 25570 25571 25572 25573 25574 25575 25576 25577 25578 25579 25580 25581 25582 25583 25584 25585 25586 25587 25588 25589 25590 25591 25592 25593 25594 25595 25596 25597 25598 25599 25600 25601 25602 25603 25604 25605 25606 25607 25608 25609 25610 25611 25612 25613 25614 25615 25616 25617 25618 25619 25620 25621 25622 25623 25624 25625 25626 25627 25628 25629 25630 25631 25632 25633 25634 25635 25636 25637 25638 25639 25640 25641 25642 25643 25644 25645 25646 25647 25648 25649 25650 25651 25652 25653 25654 25655 25656 25657 25658 25659 25660 25661 25662 25663 25664 25665 25666 25667 25668 25669 25670 25671 25672 25673 25674 25675 25676 25677 25678 25679 25680 25681 25682 25683 25684 25685 25686 25687 25688 25689 25690 25691 25692 25693 25694 25695 25696 25697 25698 25699 25700 25701 25702 25703 25704 25705 25706 25707 25708 25709 25710 25711 25712 25713 25714 25715 25716 25717 25718 25719 25720 25721 25722 25723 25724 25725 25726 25727 25728 25729 25730 25731 25732 25733 25734 25735 25736 25737 25738 25739 25740 25741 25742 25743 25744 25745 25746 25747 25748 25749 25750 25751 25752 25753 25754 25755 25756 25757 25758 25759 25760 25761 25762 25763 25764 25765 25766 25767 25768 25769 25770 25771 25772 25773 25774 25775 25776 25777 25778 25779 25780 25781 25782 25783 25784 25785 25786 25787 25788 25789 25790 25791 25792 25793 25794 25795 25796 25797 25798 25799 25800 25801 25802 25803 25804 25805 25806 25807 25808 25809 25810 25811 25812 25813 25814 25815 25816 25817 25818 25819 25820 25821 25822 25823 25824 25825 25826 25827 25828 25829 25830 25831 25832 25833 25834 25835 25836 25837 25838 25839 25840 25841 25842 25843 25844 25845 25846 25847 25848 25849 25850 25851 25852 25853 25854 25855 25856 25857 25858 25859 25860 25861 25862 25863 25864 25865 25866 25867 25868 25869 25870 25871 25872 25873 25874 25875 25876 25877 25878 25879 25880 25881 25882 25883 25884 25885 25886 25887 25888 25889 25890 25891 25892 25893 25894 25895 25896 25897 25898 25899 25900 25901 25902 25903 25904 25905 25906 25907 25908 25909 25910 25911 25912 25913 25914 25915 25916 25917 25918 25919 25920 25921 25922 25923 25924 25925 25926 25927 25928 25929 25930 25931 25932 25933 25934 25935 25936 25937 25938 25939 25940 25941 25942 25943 25944 25945 25946 25947 25948 25949 25950 25951 25952 25953 25954 25955 25956 25957 25958 25959 25960 25961 25962 25963 25964 25965 25966 25967 25968 25969 25970 25971 25972 25973 25974 25975 25976 25977 25978 25979 25980 25981 25982 25983 25984 25985 25986 25987 25988 25989 25990 25991 25992 25993 25994 25995 25996 25997 25998 25999 26000 26001 26002 26003 26004 26005 26006 26007 26008 26009 26010 26011 26012 26013 26014 26015 26016 26017 26018 26019 26020 26021 26022 26023 26024 26025 26026 26027 26028 26029 26030 26031 26032 26033 26034 26035 26036 26037 26038 26039 26040 26041 26042 26043 26044 26045 26046 26047 26048 26049 26050 26051 26052 26053 26054 26055 26056 26057 26058 26059 26060 26061 26062 26063 26064 26065 26066 26067 26068 26069 26070 26071 26072 26073 26074 26075 26076 26077 26078 26079 26080 26081 26082 26083 26084 26085 26086 26087 26088 26089 26090 26091 26092 26093 26094 26095 26096 26097 26098 26099 26100 26101 26102 26103 26104 26105 26106 26107 26108 26109 26110 26111 26112 26113 26114 26115 26116 26117 26118 26119 26120 26121 26122 26123 26124 26125 26126 26127 26128 26129 26130 26131 26132 26133 26134 26135 26136 26137 26138 26139 26140 26141 26142 26143 26144 26145 26146 26147 26148 26149 26150 26151 26152 26153 26154 26155 26156 26157 26158 26159 26160 26161 26162 26163 26164 26165 26166 26167 26168 26169 26170 26171 26172 26173 26174 26175 26176 26177 26178 26179 26180 26181 26182 26183 26184 26185 26186 26187 26188 26189 26190 26191 26192 26193 26194 26195 26196 26197 26198 26199 26200 26201 26202 26203 26204 26205 26206 26207 26208 26209 26210 26211 26212 26213 26214 26215 26216 26217 26218 26219 26220 26221 26222 26223 26224 26225 26226 26227 26228 26229 26230 26231 26232 26233 26234 26235 26236 26237 26238 26239 26240 26241 26242 26243 26244 26245 26246 26247 26248 26249 26250 26251 26252 26253 26254 26255 26256 26257 26258 26259 26260 26261 26262 26263 26264 26265 26266 26267 26268 26269 26270 26271 26272 26273 26274 26275 26276 26277 26278 26279 26280 26281 26282 26283 26284 26285 26286 26287 26288 26289 26290 26291 26292 26293 26294 26295 26296 26297 26298 26299 26300 26301 26302 26303 26304 26305 26306 26307 26308 26309 26310 26311 26312 26313 26314 26315 26316 26317 26318 26319 26320 26321 26322 26323 26324 26325 26326 26327 26328 26329 26330 26331 26332 26333 26334 26335 26336 26337 26338 26339 26340 26341 26342 26343 26344 26345 26346 26347 26348 26349 26350 26351 26352 26353 26354 26355 26356 26357 26358 26359 26360 26361 26362 26363 26364 26365 26366 26367 26368 26369 26370 26371 26372 26373 26374 26375 26376 26377 26378 26379 26380 26381 26382 26383 26384 26385 26386 26387 26388 26389 26390 26391 26392 26393 26394 26395 26396 26397 26398 26399 26400 26401 26402 26403 26404 26405 26406 26407 26408 26409 26410 26411 26412 26413 26414 26415 26416 26417 26418 26419 26420 26421 26422 26423 26424 26425 26426 26427 26428 26429 26430 26431 26432 26433 26434 26435 26436 26437 26438 26439 26440 26441 26442 26443 26444 26445 26446 26447 26448 26449 26450 26451 26452 26453 26454 26455 26456 26457 26458 26459 26460 26461 26462 26463 26464 26465 26466 26467 26468 26469 26470 26471 26472 26473 26474 26475 26476 26477 26478 26479 26480 26481 26482 26483 26484 26485 26486 26487 26488 26489 26490 26491 26492 26493 26494 26495 26496 26497 26498 26499 26500 26501 26502 26503 26504 26505 26506 26507 26508 26509 26510 26511 26512 26513 26514 26515 26516 26517 26518 26519 26520 26521 26522 26523 26524 26525 26526 26527 26528 26529 26530 26531 26532 26533 26534 26535 26536 26537 26538 26539 26540 26541 26542 26543 26544 26545 26546 26547 26548 26549 26550 26551 26552 26553 26554 26555 26556 26557 26558 26559 26560 26561 26562 26563 26564 26565 26566 26567 26568 26569 26570 26571 26572 26573 26574 26575 26576 26577 26578 26579 26580 26581 26582 26583 26584 26585 26586 26587 26588 26589 26590 26591 26592 26593 26594 26595 26596 26597 26598 26599 26600 26601 26602 26603 26604 26605 26606 26607 26608 26609 26610 26611 26612 26613 26614 26615 26616 26617 26618 26619 26620 26621 26622 26623 26624 26625 26626 26627 26628 26629 26630 26631 26632 26633 26634 26635 26636 26637 26638 26639 26640 26641 26642 26643 26644 26645 26646 26647 26648 26649 26650 26651 26652 26653 26654 26655 26656 26657 26658 26659 26660 26661 26662 26663 26664 26665 26666 26667 26668 26669 26670 26671 26672 26673 26674 26675 26676 26677 26678 26679 26680 26681 26682 26683 26684 26685 26686 26687 26688 26689 26690 26691 26692 26693 26694 26695 26696 26697 26698 26699 26700 26701 26702 26703 26704 26705 26706 26707 26708 26709 26710 26711 26712 26713 26714 26715 26716 26717 26718 26719 26720 26721 26722 26723 26724 26725 26726 26727 26728 26729 26730 26731 26732 26733 26734 26735 26736 26737 26738 26739 26740 26741 26742 26743 26744 26745 26746 26747 26748 26749 26750 26751 26752 26753 26754 26755 26756 26757 26758 26759 26760 26761 26762 26763 26764 26765 26766 26767 26768 26769 26770 26771 26772 26773 26774 26775 26776 26777 26778 26779 26780 26781 26782 26783 26784 26785 26786 26787 26788 26789 26790 26791 26792 26793 26794 26795 26796 26797 26798 26799 26800 26801 26802 26803 26804 26805 26806 26807 26808 26809 26810 26811 26812 26813 26814 26815 26816 26817 26818 26819 26820 26821 26822 26823 26824 26825 26826 26827 26828 26829 26830 26831 26832 26833 26834 26835 26836 26837 26838 26839 26840 26841 26842 26843 26844 26845 26846 26847 26848 26849 26850 26851 26852 26853 26854 26855 26856 26857 26858 26859 26860 26861 26862 26863 26864 26865 26866 26867 26868 26869 26870 26871 26872 26873 26874 26875 26876 26877 26878 26879 26880 26881 26882 26883 26884 26885 26886 26887 26888 26889 26890 26891 26892 26893 26894 26895 26896 26897 26898 26899 26900 26901 26902 26903 26904 26905 26906 26907 26908 26909 26910 26911 26912 26913 26914 26915 26916 26917 26918 26919 26920 26921 26922 26923 26924 26925 26926 26927 26928 26929 26930 26931 26932 26933 26934 26935 26936 26937 26938 26939 26940 26941 26942 26943 26944 26945 26946 26947 26948 26949 26950 26951 26952 26953 26954 26955 26956 26957 26958 26959 26960 26961 26962 26963 26964 26965 26966 26967 26968 26969 26970 26971 26972 26973 26974 26975 26976 26977 26978 26979 26980 26981 26982 26983 26984 26985 26986 26987 26988 26989 26990 26991 26992 26993 26994 26995 26996 26997 26998 26999 27000 27001 27002 27003 27004 27005 27006 27007 27008 27009 27010 27011 27012 27013 27014 27015 27016 27017 27018 27019 27020 27021 27022 27023 27024 27025 27026 27027 27028 27029 27030 27031 27032 27033 27034 27035 27036 27037 27038 27039 27040 27041 27042 27043 27044 27045 27046 27047 27048 27049 27050 27051 27052 27053 27054 27055 27056 27057 27058 27059 27060 27061 27062 27063 27064 27065 27066 27067 27068 27069 27070 27071 27072 27073 27074 27075 27076 27077 27078 27079 27080 27081 27082 27083 27084 27085 27086 27087 27088 27089 27090 27091 27092 27093 27094 27095 27096 27097 27098 27099 27100 27101 27102 27103 27104 27105 27106 27107 27108 27109 27110 27111 27112 27113 27114 27115 27116 27117 27118 27119 27120 27121 27122 27123 27124 27125 27126 27127 27128 27129 27130 27131 27132 27133 27134 27135 27136 27137 27138 27139 27140 27141 27142 27143 27144 27145 27146 27147 27148 27149 27150 27151 27152 27153 27154 27155 27156 27157 27158 27159 27160 27161 27162 27163 27164 27165 27166 27167 27168 27169 27170 27171 27172 27173 27174 27175 27176 27177 27178 27179 27180 27181 27182 27183 27184 27185 27186 27187 27188 27189 27190 27191 27192 27193 27194 27195 27196 27197 27198 27199 27200 27201 27202 27203 27204 27205 27206 27207 27208 27209 27210 27211 27212 27213 27214 27215 27216 27217 27218 27219 27220 27221 27222 27223 27224 27225 27226 27227 27228 27229 27230 27231 27232 27233 27234 27235 27236 27237 27238 27239 27240 27241 27242 27243 27244 27245 27246 27247 27248 27249 27250 27251 27252 27253 27254 27255 27256 27257 27258 27259 27260 27261 27262 27263 27264 27265 27266 27267 27268 27269 27270 27271 27272 27273 27274 27275 27276 27277 27278 27279 27280 27281 27282 27283 27284 27285 27286 27287 27288 27289 27290 27291 27292 27293 27294 27295 27296 27297 27298 27299 27300 27301 27302 27303 27304 27305 27306 27307 27308 27309 27310 27311 27312 27313 27314 27315 27316 27317 27318 27319 27320 27321 27322 27323 27324 27325 27326 27327 27328 27329 27330 27331 27332 27333 27334 27335 27336 27337 27338 27339 27340 27341 27342 27343 27344 27345 27346 27347 27348 27349 27350 27351 27352 27353 27354 27355 27356 27357 27358 27359 27360 27361 27362 27363 27364 27365 27366 27367 27368 27369 27370 27371 27372 27373 27374 27375 27376 27377 27378 27379 27380 27381 27382 27383 27384 27385 27386 27387 27388 27389 27390 27391 27392 27393 27394 27395 27396 27397 27398 27399 27400 27401 27402 27403 27404 27405 27406 27407 27408 27409 27410 27411 27412 27413 27414 27415 27416 27417 27418 27419 27420 27421 27422 27423 27424 27425 27426 27427 27428 27429 27430 27431 27432 27433 27434 27435 27436 27437 27438 27439 27440 27441 27442 27443 27444 27445 27446 27447 27448 27449 27450 27451 27452 27453 27454 27455 27456 27457 27458 27459 27460 27461 27462 27463 27464 27465 27466 27467 27468 27469 27470 27471 27472 27473 27474 27475 27476 27477 27478 27479 27480 27481 27482 27483 27484 27485 27486 27487 27488 27489 27490 27491 27492 27493 27494 27495 27496 27497 27498 27499 27500 27501 27502 27503 27504 27505 27506 27507 27508 27509 27510 27511 27512 27513 27514 27515 27516 27517 27518 27519 27520 27521 27522 27523 27524 27525 27526 27527 27528 27529 27530 27531 27532 27533 27534 27535 27536 27537 27538 27539 27540 27541 27542 27543 27544 27545 27546 27547 27548 27549 27550 27551 27552 27553 27554 27555 27556 27557 27558 27559 27560 27561 27562 27563 27564 27565 27566 27567 27568 27569 27570 27571 27572 27573 27574 27575 27576 27577 27578 27579 27580 27581 27582 27583 27584 27585 27586 27587 27588 27589 27590 27591 27592 27593 27594 27595 27596 27597 27598 27599 27600 27601 27602 27603 27604 27605 27606 27607 27608 27609 27610 27611 27612 27613 27614 27615 27616 27617 27618 27619 27620 27621 27622 27623 27624 27625 27626 27627 27628 27629 27630 27631 27632 27633 27634 27635 27636 27637 27638 27639 27640 27641 27642 27643 27644 27645 27646 27647 27648 27649 27650 27651 27652 27653 27654 27655 27656 27657 27658 27659 27660 27661 27662 27663 27664 27665 27666 27667 27668 27669 27670 27671 27672 27673 27674 27675 27676 27677 27678 27679 27680 27681 27682 27683 27684 27685 27686 27687 27688 27689 27690 27691 27692 27693 27694 27695 27696 27697 27698 27699 27700 27701 27702 27703 27704 27705 27706 27707 27708 27709 27710 27711 27712 27713 27714 27715 27716 27717 27718 27719 27720 27721 27722 27723 27724 27725 27726 27727 27728 27729 27730 27731 27732 27733 27734 27735 27736 27737 27738 27739 27740 27741 27742 27743 27744 27745 27746 27747 27748 27749 27750 27751 27752 27753 27754 27755 27756 27757 27758 27759 27760 27761 27762 27763 27764 27765 27766 27767 27768 27769 27770 27771 27772 27773 27774 27775 27776 27777 27778 27779 27780 27781 27782 27783 27784 27785 27786 27787 27788 27789 27790 27791 27792 27793 27794 27795 27796 27797 27798 27799 27800 27801 27802 27803 27804 27805 27806 27807 27808 27809 27810 27811 27812 27813 27814 27815 27816 27817 27818 27819 27820 27821 27822 27823 27824 27825 27826 27827 27828 27829 27830 27831 27832 27833 27834 27835 27836 27837 27838 27839 27840 27841 27842 27843 27844 27845 27846 27847 27848 27849 27850 27851 27852 27853 27854 27855 27856 27857 27858 27859 27860 27861 27862 27863 27864 27865 27866 27867 27868 27869 27870 27871 27872 27873 27874 27875 27876 27877 27878 27879 27880 27881 27882 27883 27884 27885 27886 27887 27888 27889 27890 27891 27892 27893 27894 27895 27896 27897 27898 27899 27900 27901 27902 27903 27904 27905 27906 27907 27908 27909 27910 27911 27912 27913 27914 27915 27916 27917 27918 27919 27920 27921 27922 27923 27924 27925 27926 27927 27928 27929 27930 27931 27932 27933 27934 27935 27936 27937 27938 27939 27940 27941 27942 27943 27944 27945 27946 27947 27948 27949 27950 27951 27952 27953 27954 27955 27956 27957 27958 27959 27960 27961 27962 27963 27964 27965 27966 27967 27968 27969 27970 27971 27972 27973 27974 27975 27976 27977 27978 27979 27980 27981 27982 27983 27984 27985 27986 27987 27988 27989 27990 27991 27992 27993 27994 27995 27996 27997 27998 27999 28000 28001 28002 28003 28004 28005 28006 28007 28008 28009 28010 28011 28012 28013 28014 28015 28016 28017 28018 28019 28020 28021 28022 28023 28024 28025 28026 28027 28028 28029 28030 28031 28032 28033 28034 28035 28036 28037 28038 28039 28040 28041 28042 28043 28044 28045 28046 28047 28048 28049 28050 28051 28052 28053 28054 28055 28056 28057 28058 28059 28060 28061 28062 28063 28064 28065 28066 28067 28068 28069 28070 28071 28072 28073 28074 28075 28076 28077 28078 28079 28080 28081 28082 28083 28084 28085 28086 28087 28088 28089 28090 28091 28092 28093 28094 28095 28096 28097 28098 28099 28100 28101 28102 28103 28104 28105 28106 28107 28108 28109 28110 28111 28112 28113 28114 28115 28116 28117 28118 28119 28120 28121 28122 28123 28124 28125 28126 28127 28128 28129 28130 28131 28132 28133 28134 28135 28136 28137 28138 28139 28140 28141 28142 28143 28144 28145 28146 28147 28148 28149 28150 28151 28152 28153 28154 28155 28156 28157 28158 28159 28160 28161 28162 28163 28164 28165 28166 28167 28168 28169 28170 28171 28172 28173 28174 28175 28176 28177 28178 28179 28180 28181 28182 28183 28184 28185 28186 28187 28188 28189 28190 28191 28192 28193 28194 28195 28196 28197 28198 28199 28200 28201 28202 28203 28204 28205 28206 28207 28208 28209 28210 28211 28212 28213 28214 28215 28216 28217 28218 28219 28220 28221 28222 28223 28224 28225 28226 28227 28228 28229 28230 28231 28232 28233 28234 28235 28236 28237 28238 28239 28240 28241 28242 28243 28244 28245 28246 28247 28248 28249 28250 28251 28252 28253 28254 28255 28256 28257 28258 28259 28260 28261 28262 28263 28264 28265 28266 28267 28268 28269 28270 28271 28272 28273 28274 28275 28276 28277 28278 28279 28280 28281 28282 28283 28284 28285 28286 28287 28288 28289 28290 28291 28292 28293 28294 28295 28296 28297 28298 28299 28300 28301 28302 28303 28304 28305 28306 28307 28308 28309 28310 28311 28312 28313 28314 28315 28316 28317 28318 28319 28320 28321 28322 28323 28324 28325 28326 28327 28328 28329 28330 28331 28332 28333 28334 28335 28336 28337 28338 28339 28340 28341 28342 28343 28344 28345 28346 28347 28348 28349 28350 28351 28352 28353 28354 28355 28356 28357 28358 28359 28360 28361 28362 28363 28364 28365 28366 28367 28368 28369 28370 28371 28372 28373 28374 28375 28376 28377 28378 28379 28380 28381 28382 28383 28384 28385 28386 28387 28388 28389 28390 28391 28392 28393 28394 28395 28396 28397 28398 28399 28400 28401 28402 28403 28404 28405 28406 28407 28408 28409 28410 28411 28412 28413 28414 28415 28416 28417 28418 28419 28420 28421 28422 28423 28424 28425 28426 28427 28428 28429 28430 28431 28432 28433 28434 28435 28436 28437 28438 28439 28440 28441 28442 28443 28444 28445 28446 28447 28448 28449 28450 28451 28452 28453 28454 28455 28456 28457 28458 28459 28460 28461 28462 28463 28464 28465 28466 28467 28468 28469 28470 28471 28472 28473 28474 28475 28476 28477 28478 28479 28480 28481 28482 28483 28484 28485 28486 28487 28488 28489 28490 28491 28492 28493 28494 28495 28496 28497 28498 28499 28500 28501 28502 28503 28504 28505 28506 28507 28508 28509 28510 28511 28512 28513 28514 28515 28516 28517 28518 28519 28520 28521 28522 28523 28524 28525 28526 28527 28528 28529 28530 28531 28532 28533 28534 28535 28536 28537 28538 28539 28540 28541 28542 28543 28544 28545 28546 28547 28548 28549 28550 28551 28552 28553 28554 28555 28556 28557 28558 28559 28560 28561 28562 28563 28564 28565 28566 28567 28568 28569 28570 28571 28572 28573 28574 28575 28576 28577 28578 28579 28580 28581 28582 28583 28584 28585 28586 28587 28588 28589 28590 28591 28592 28593 28594 28595 28596 28597 28598 28599 28600 28601 28602 28603 28604 28605 28606 28607 28608 28609 28610 28611 28612 28613 28614 28615 28616 28617 28618 28619 28620 28621 28622 28623 28624 28625 28626 28627 28628 28629 28630 28631 28632 28633 28634 28635 28636 28637 28638 28639 28640 28641 28642 28643 28644 28645 28646 28647 28648 28649 28650 28651 28652 28653 28654 28655 28656 28657 28658 28659 28660 28661 28662 28663 28664 28665 28666 28667 28668 28669 28670 28671 28672 28673 28674 28675 28676 28677 28678 28679 28680 28681 28682 28683 28684 28685 28686 28687 28688 28689 28690 28691 28692 28693 28694 28695 28696 28697 28698 28699 28700 28701 28702 28703 28704 28705 28706 28707 28708 28709 28710 28711 28712 28713 28714 28715 28716 28717 28718 28719 28720 28721 28722 28723 28724 28725 28726 28727 28728 28729 28730 28731 28732 28733 28734 28735 28736 28737 28738 28739 28740 28741 28742 28743 28744 28745 28746 28747 28748 28749 28750 28751 28752 28753 28754 28755 28756 28757 28758 28759 28760 28761 28762 28763 28764 28765 28766 28767 28768 28769 28770 28771 28772 28773 28774 28775 28776 28777 28778 28779 28780 28781 28782 28783 28784 28785 28786 28787 28788 28789 28790 28791 28792 28793 28794 28795 28796 28797 28798 28799 28800 28801 28802 28803 28804 28805 28806 28807 28808 28809 28810 28811 28812 28813 28814 28815 28816 28817 28818 28819 28820 28821 28822 28823 28824 28825 28826 28827 28828 28829 28830 28831 28832 28833 28834 28835 28836 28837 28838 28839 28840 28841 28842 28843 28844 28845 28846 28847 28848 28849 28850 28851 28852 28853 28854 28855 28856 28857 28858 28859 28860 28861 28862 28863 28864 28865 28866 28867 28868 28869 28870 28871 28872 28873 28874 28875 28876 28877 28878 28879 28880 28881 28882 28883 28884 28885 28886 28887 28888 28889 28890 28891 28892 28893 28894 28895 28896 28897 28898 28899 28900 28901 28902 28903 28904 28905 28906 28907 28908 28909 28910 28911 28912 28913 28914 28915 28916 28917 28918 28919 28920 28921 28922 28923 28924 28925 28926 28927 28928 28929 28930 28931 28932 28933 28934 28935 28936 28937 28938 28939 28940 28941 28942 28943 28944 28945 28946 28947 28948 28949 28950 28951 28952 28953 28954 28955 28956 28957 28958 28959 28960 28961 28962 28963 28964 28965 28966 28967 28968 28969 28970 28971 28972 28973 28974 28975 28976 28977 28978 28979 28980 28981 28982 28983 28984 28985 28986 28987 28988 28989 28990 28991 28992 28993 28994 28995 28996 28997 28998 28999 29000 29001 29002 29003 29004 29005 29006 29007 29008 29009 29010 29011 29012 29013 29014 29015 29016 29017 29018 29019 29020 29021 29022 29023 29024 29025 29026 29027 29028 29029 29030 29031 29032 29033 29034 29035 29036 29037 29038 29039 29040 29041 29042 29043 29044 29045 29046 29047 29048 29049 29050 29051 29052 29053 29054 29055 29056 29057 29058 29059 29060 29061 29062 29063 29064 29065 29066 29067 29068 29069 29070 29071 29072 29073 29074 29075 29076 29077 29078 29079 29080 29081 29082 29083 29084 29085 29086 29087 29088 29089 29090 29091 29092 29093 29094 29095 29096 29097 29098 29099 29100 29101 29102 29103 29104 29105 29106 29107 29108 29109 29110 29111 29112 29113 29114 29115 29116 29117 29118 29119 29120 29121 29122 29123 29124 29125 29126 29127 29128 29129 29130 29131 29132 29133 29134 29135 29136 29137 29138 29139 29140 29141 29142 29143 29144 29145 29146 29147 29148 29149 29150 29151 29152 29153 29154 29155 29156 29157 29158 29159 29160 29161 29162 29163 29164 29165 29166 29167 29168 29169 29170 29171 29172 29173 29174 29175 29176 29177 29178 29179 29180 29181 29182 29183 29184 29185 29186 29187 29188 29189 29190 29191 29192 29193 29194 29195 29196 29197 29198 29199 29200 29201 29202 29203 29204 29205 29206 29207 29208 29209 29210 29211 29212 29213 29214 29215 29216 29217 29218 29219 29220 29221 29222 29223 29224 29225 29226 29227 29228 29229 29230 29231 29232 29233 29234 29235 29236 29237 29238 29239 29240 29241 29242 29243 29244 29245 29246 29247 29248 29249 29250 29251 29252 29253 29254 29255 29256 29257 29258 29259 29260 29261 29262 29263 29264 29265 29266 29267 29268 29269 29270 29271 29272 29273 29274 29275 29276 29277 29278 29279 29280 29281 29282 29283 29284 29285 29286 29287 29288 29289 29290 29291 29292 29293 29294 29295 29296 29297 29298 29299 29300 29301 29302 29303 29304 29305 29306 29307 29308 29309 29310 29311 29312 29313 29314 29315 29316 29317 29318 29319 29320 29321 29322 29323 29324 29325 29326 29327 29328 29329 29330 29331 29332 29333 29334 29335 29336 29337 29338 29339 29340 29341 29342 29343 29344 29345 29346 29347 29348 29349 29350 29351 29352 29353 29354 29355 29356 29357 29358 29359 29360 29361 29362 29363 29364 29365 29366 29367 29368 29369 29370 29371 29372 29373 29374 29375 29376 29377 29378 29379 29380 29381 29382 29383 29384 29385 29386 29387 29388 29389 29390 29391 29392 29393 29394 29395 29396 29397 29398 29399 29400 29401 29402 29403 29404 29405 29406 29407 29408 29409 29410 29411 29412 29413 29414 29415 29416 29417 29418 29419 29420 29421 29422 29423 29424 29425 29426 29427 29428 29429 29430 29431 29432 29433 29434 29435 29436 29437 29438 29439 29440 29441 29442 29443 29444 29445 29446 29447 29448 29449 29450 29451 29452 29453 29454 29455 29456 29457 29458 29459 29460 29461 29462 29463 29464 29465 29466 29467 29468 29469 29470 29471 29472 29473 29474 29475 29476 29477 29478 29479 29480 29481 29482 29483 29484 29485 29486 29487 29488 29489 29490 29491 29492 29493 29494 29495 29496 29497 29498 29499 29500 29501 29502 29503 29504 29505 29506 29507 29508 29509 29510 29511 29512 29513 29514 29515 29516 29517 29518 29519 29520 29521 29522 29523 29524 29525 29526 29527 29528 29529 29530 29531 29532 29533 29534 29535 29536 29537 29538 29539 29540 29541 29542 29543 29544 29545 29546 29547 29548 29549 29550 29551 29552 29553 29554 29555 29556 29557 29558 29559 29560 29561 29562 29563 29564 29565 29566 29567 29568 29569 29570 29571 29572 29573 29574 29575 29576 29577 29578 29579 29580 29581 29582 29583 29584 29585 29586 29587 29588 29589 29590 29591 29592 29593 29594 29595 29596 29597 29598 29599 29600 29601 29602 29603 29604 29605 29606 29607 29608 29609 29610 29611 29612 29613 29614 29615 29616 29617 29618 29619 29620 29621 29622 29623 29624 29625 29626 29627 29628 29629 29630 29631 29632 29633 29634 29635 29636 29637 29638 29639 29640 29641 29642 29643 29644 29645 29646 29647 29648 29649 29650 29651 29652 29653 29654 29655 29656 29657 29658 29659 29660 29661 29662 29663 29664 29665 29666 29667 29668 29669 29670 29671 29672 29673 29674 29675 29676 29677 29678 29679 29680 29681 29682 29683 29684 29685 29686 29687 29688 29689 29690 29691 29692 29693 29694 29695 29696 29697 29698 29699 29700 29701 29702 29703 29704 29705 29706 29707 29708 29709 29710 29711 29712 29713 29714 29715 29716 29717 29718 29719 29720 29721 29722 29723 29724 29725 29726 29727 29728 29729 29730 29731 29732 29733 29734 29735 29736 29737 29738 29739 29740 29741 29742 29743 29744 29745 29746 29747 29748 29749 29750 29751 29752 29753 29754 29755 29756 29757 29758 29759 29760 29761 29762 29763 29764 29765 29766 29767 29768 29769 29770 29771 29772 29773 29774 29775 29776 29777 29778 29779 29780 29781 29782 29783 29784 29785 29786 29787 29788 29789 29790 29791 29792 29793 29794 29795 29796 29797 29798 29799 29800 29801 29802 29803 29804 29805 29806 29807 29808 29809 29810 29811 29812 29813 29814 29815 29816 29817 29818 29819 29820 29821 29822 29823 29824 29825 29826 29827 29828 29829 29830 29831 29832 29833 29834 29835 29836 29837 29838 29839 29840 29841 29842 29843 29844 29845 29846 29847 29848 29849 29850 29851 29852 29853 29854 29855 29856 29857 29858 29859 29860 29861 29862 29863 29864 29865 29866 29867 29868 29869 29870 29871 29872 29873 29874 29875 29876 29877 29878 29879 29880 29881 29882 29883 29884 29885 29886 29887 29888 29889 29890 29891 29892 29893 29894 29895 29896 29897 29898 29899 29900 29901 29902 29903 29904 29905 29906 29907 29908 29909 29910 29911 29912 29913 29914 29915 29916 29917 29918 29919 29920 29921 29922 29923 29924 29925 29926 29927 29928 29929 29930 29931 29932 29933 29934 29935 29936 29937 29938 29939 29940 29941 29942 29943 29944 29945 29946 29947 29948 29949 29950 29951 29952 29953 29954 29955 29956 29957 29958 29959 29960 29961 29962 29963 29964 29965 29966 29967 29968 29969 29970 
</DataArray>
<DataArray type="UInt32" Name="offsets" format="ascii">
3 6 9 12 15 17 20 23 26 29 32 35 37 40 43 46 48 51 54 57 60 62 65 68 71 74 77 79 82 84 87 90 93 96 98 101 104 107 110 113 116 119 122 124 127 130 133 135 138 140 143 146 149 151 153 156 159 162 165 168 170 173 176 179 182 185 188 191 194 197 199 201 204 207 210 213 216 218 221 223 226 228 231 234 237 240 243 245 248 251 254 256 259 262 264 267 270 272 275 278 280 283 286 289 292 295 298 301 304 307 310 312 314 317 320 323 326 329 332 335 338 341 344 346 349 351 354 357 359 362 364 367 370 372 375 378 381 384 387 390 393 396 399 402 405 408 411 414 417 419 422 425 428 430 433 436 439 441 444 447 450 453 455 458 461 463 465 468 471 474 476 479 482 485 488 491 494 496 499 502 505 508 511 514 517 520 523 526 529 532 534 537 540 543 546 549 552 555 558 561 564 567 570 573 576 579 582 585 587 589 592 595 598 600 603 606 609 612 615 618 620 623 626 629 632 634 637 639 641 644 647 649 652 655 658 661 664 667 670 673 676 679 682 685 688 691 694 697 700 703 706 708 711 714 717 720 723 725 728 731 734 737 740 743 746 749 751 754 757 760 763 765 768 770 773 775 778 781 784 787 790 793 796 798 801 804 807 809 812 815 818 821 824 827 830 833 836 839 842 845 848 851 854 857 860 862 865 868 870 872 875 878 881 884 887 890 893 896 899 902 905 908 911 914 917 920 922 925 928 931 934 936 938 941 944 947 950 953 955 958 960 963 966 969 972 975 978 980 982 985 988 991 994 997 1000 1003 1006 1009 1012 1014 1017 1020 1023 1026 1029 1032 1035 1038 1041 1044 1047 1050 1053 1056 1059 1062 1065 1068 1071 1074 1077 1079 1082 1085 1088 1090 1093 1096 1099 1102 1104 1107 1110 1113 1116 1119 1122 1125 1128 1131 1134 1137 1140 1143 1146 1149 1152 1155 1158 1161 1164 1167 1170 1173 1176 1178 1181 1184 1186 1189 1192 1195 1198 1200 1203 1206 1209 1212 1215 1218 1221 1224 1227 1230 1233 1236 1239 1242 1245 1248 1251 1254 1257 1260 1263 1266 1269 1272 1275 1278 1281 1283 1286 1289 1291 1294 1297 1299 1302 1305 1308 1311 1314 1317 1320 1323 1326 1329 1331 1334 1337 1340 1343 1345 1348 1350 1353 1356 1359 1361 1364 1367 1370 1373 1375 1378 1381 1384 1387 1389 1392 1394 1397 1399 1402 1405 1408 1410 1413 1416 1419 1422 1425 1428 1431 1434 1437 1440 1442 1445 1448 1450 1453 1455 1458 1461 1463 1466 1468 1471 1474 1477 1480 1483 1486 1488 1491 1494 1497 1500 1502 1505 1507 1509 1512 1515 1518 1520 1523 1526 1529 1532 1535 1538 1541 1544 1547 1550 1553 1556 1559 1562 1565 1568 1571 1574 1577 1580 1583 1586 1589 1592 1595 1598 1601 1604 1607 1610 1613 1616 1619 1622 1625 1627 1630 1633 1635 1638 1641 1644 1647 1650 1652 1655 1658 1661 1664 1667 1670 1673 1676 1679 1682 1685 1688 1691 1694 1697 1700 1702 1705 1708 1711 1714 1717 1720 1722 1725 1728 1731 1734 1737 1740 1743 1746 1749 1752 1755 1758 1761 1764 1766 1769 1772 1775 1778 1781 1784 1787 1790 1793 1796 1799 1802 1804 1807 1810 1813 1816 1819 1822 1825 1828 1831 1834 1836 1839 1842 1845 1848 1851 1854 1857 1860 1863 1866 1869 1871 1874 1877 1880 1883 1885 1888 1891 1894 1897 1899 1902 1905 1908 1911 1914 1917 1920 1922 1925 1927 1930 1933 1935 1938 1940 1943 1946 1949 1951 1954 1957 1960 1963 1966 1969 1972 1975 1978 1981 1984 1987 1990 1993 1996 1999 2002 2005 2008 2011 2013 2016 2019 2022 2025 2028 2030 2033 2036 2039 2042 2045 2047 2050 2053 2056 2059 2062 2065 2068 2071 2074 2077 2080 2083 2086 2089 2092 2095 2098 2101 2104 2107 2110 2113 2116 2119 2122 2125 2128 2131 2134 2137 2140 2143 2146 2149 2152 2155 2158 2161 2164 2167 2170 2173 2176 2178 2181 2184 2187 2190 2193 2196 2199 2202 2205 2208 2211 2214 2217 2220 2223 2226 2229 2232 2235 2238 2241 2244 2247 2250 2253 2256 2259 2262 2265 2268 2271 2274 2277 2280 2283 2286 2289 2292 2295 2298 2301 2304 2307 2310 2313 2316 2319 2322 2324 2327 2330 2333 2335 2338 2340 2343 2345 2348 2351 2354 2357 2360 2363 2366 2369 2372 2375 2377 2380 2383 2386 2389 2391 2394 2397 2400 2403 2406 2409 2412 2415 2418 2421 2423 2426 2429 2432 2435 2437 2440 2443 2446 2449 2452 2455 2458 2460 2463 2466 2469 2472 2475 2478 2481 2484 2487 2490 2493 2495 2498 2501 2504 2507 2510 2513 2515 2518 2521 2524 2527 2530 2533 2536 2539 2542 2545 2548 2551 2554 2557 2560 2563 2565 2568 2571 2574 2576 2579 2582 2585 2588 2591 2594 2597 2600 2603 2606 2609 2612 2615 2618 2621 2623 2626 2629 2632 2634 2637 2640 2642 2644 2647 2649 2652 2655 2658 2661 2664 2667 2669 2672 2675 2678 2681 2684 2687 2690 2692 2695 2698 2701 2704 2707 2710 2713 2716 2719 2722 2725 2728 2731 2734 2737 2740 2743 2746 2749 2752 2755 2758 2761 2764 2767 2770 2773 2776 2779 2782 2785 2788 2791 2794 2797 2799 2802 2805 2808 2811 2814 2817 2820 2822 2825 2827 2830 2833 2836 2838 2841 2844 2847 2850 2853 2856 2859 2862 2864 2867 2870 2872 2875 2878 2880 2883 2885 2888 2891 2893 2896 2899 2902 2905 2908 2911 2914 2917 2919 2922 2924 2926 2929 2932 2935 2937 2940 2943 2946 2948 2951 2953 2956 2959 2961 2963 2966 2969 2971 2974 2977 2980 2983 2986 2989 2992 2994 2997 3000 3002 3005 3007 3010 3013 3015 3018 3021 3024 3027 3030 3032 3035 3038 3041 3044 3046 3049 3051 3054 3057 3059 3061 3064 3067 3070 3073 3076 3078 3081 3084 3087 3090 3093 3096 3099 3102 3105 3107 3110 3113 3116 3119 3122 3125 3128 3131 3134 3137 3140 3143 3146 3149 3152 3155 3158 3161 3164 3167 3170 3173 3176 3179 3182 3185 3188 3190 3193 3196 3199 3202 3205 3208 3211 3214 3217 3220 3223 3225 3228 3230 3233 3236 3239 3242 3245 3248 3251 3254 3257 3260 3263 3266 3269 3272 3275 3278 3281 3284 3287 3289 3292 3294 3297 3299 3302 3305 3308 3311 3314 3316 3319 3322 3324 3327 3330 3333 3336 3339 3342 3345 3348 3351 3354 3357 3360 3363 3366 3368 3371 3374 3377 3380 3383 3386 3389 3392 3395 3398 3401 3403 3406 3409 3412 3415 3417 3420 3423 3426 3429 3432 3435 3437 3440 3443 3446 3449 3452 3455 3457 3460 3463 3466 3469 3472 3475 3478 3481 3484 3487 3490 3493 3496 3499 3502 3505 3508 3511 3514 3516 3519 3522 3525 3527 3530 3533 3536 3539 3542 3545 3548 3551 3554 3557 3559 3562 3565 3568 3571 3574 3577 3579 3581 3584 3587 3590 3593 3596 3599 3602 3605 3608 3611 3614 3617 3620 3623 3626 3629 3631 3634 3637 3639 3642 3645 3648 3651 3653 3655 3658 3661 3664 3667 3670 3673 3676 3679 3682 3685 3688 3691 3694 3697 3700 3703 3706 3709 3712 3715 3718 3721 3724 3727 3730 3733 3736 3739 3742 3745 3748 3751 3754 3757 3760 3763 3766 3769 3772 3775 3778 3781 3783 3786 3789 3792 3795 3798 3801 3804 3807 3810 3813 3816 3819 3822 3824 3827 3830 3833 3836 3839 3842 3845 3847 3850 3853 3856 3859 3862 3865 3868 3871 3874 3877 3879 3882 3885 3887 3890 3893 3895 3898 3901 3904 3907 3910 3913 3916 3919 3922 3925 3928 3930 3933 3935 3938 3940 3943 3946 3949 3951 3954 3957 3960 3963 3966 3969 3972 3975 3978 3981 3984 3987 3990 3993 3996 3998 4001 4003 4006 4009 4011 4014 4017 4019 4022 4025 4028 4031 4033 4036 4039 4042 4045 4048 4051 4054 4057 4060 4063 4065 4068 4071 4074 4077 4080 4083 4086 4089 4092 4095 4098 4101 4103 4106 4109 4112 4115 4118 4121 4124 4127 4130 4133 4136 4139 4142 4145 4148 4150 4153 4156 4159 4162 4165 4168 4171 4173 4176 4179 4182 4185 4188 4191 4193 4196 4199 4202 4204 4206 4208 4210 4213 4216 4219 4222 4225 4228 4231 4234 4237 4240 4243 4246 4249 4252 4255 4258 4260 4263 4266 4269 4272 4275 4278 4280 4283 4285 4288 4291 4293 4296 4299 4302 4304 4306 4309 4312 4315 4317 4320 4323 4326 4329 4331 4334 4337 4340 4343 4346 4349 4352 4355 4358 4361 4364 4367 4370 4373 4376 4379 4382 4385 4388 4391 4394 4397 4400 4403 4406 4409 4412 4415 4418 4421 4424 4427 4430 4433 4436 4439 4442 4445 4448 4451 4454 4457 4460 4463 4465 4468 4470 4473 4476 4479 4482 4485 4488 4491 4494 4497 4500 4503 4506 4509 4512 4515 4518 4521 4524 4527 4530 4533 4536 4538 4541 4544 4547 4550 4553 4556 4559 4562 4565 4568 4571 4574 4577 4580 4583 4585 4588 4591 4594 4597 4600 4602 4605 4608 4611 4614 4617 4620 4623 4626 4629 4632 4635 4638 4641 4644 4647 4650 4653 4656 4659 4662 4665 4668 4671 4674 4676 4678 4681 4684 4687 4690 4693 4696 4699 4702 4705 4708 4711 4714 4717 4720 4723 4726 4729 4731 4734 4737 4740 4743 4746 4749 4752 4754 4756 4759 4762 4765 4768 4771 4774 4777 4780 4783 4786 4789 4792 4795 4798 4801 4804 4807 4810 4812 4814 4817 4820 4823 4826 4829 4832 4835 4838 4841 4844 4847 4850 4853 4856 4859 4862 4865 4868 4871 4874 4877 4880 4883 4886 4889 4892 4895 4898 4901 4904 4906 4909 4912 4914 4917 4920 4923 4925 4928 4931 4934 4937 4940 4943 4946 4949 4952 4955 4958 4961 4964 4967 4970 4973 4976 4979 4982 4985 4988 4991 4994 4997 4999 5002 5005 5008 5011 5014 5017 5020 5023 5026 5028 5031 5033 5035 5037 5040 5043 5046 5048 5051 5053 5056 5059 5062 5065 5067 5070 5073 5076 5079 5082 5085 5088 5091 5094 5097 5100 5103 5106 5109 5112 5115 5118 5121 5124 5127 5130 5133 5136 5139 5141 5144 5147 5150 5153 5155 5158 5160 5163 5166 5169 5172 5175 5178 5181 5184 5187 5190 5193 5196 5199 5202 5205 5208 5211 5214 5217 5220 5223 5226 5228 5231 5233 5236 5239 5242 5245 5248 5250 5252 5255 5258 5261 5263 5266 5268 5271 5274 5277 5280 5283 5286 5289 5292 5295 5298 5301 5304 5306 5309 5312 5315 5318 5321 5324 5327 5329 5332 5335 5338 5341 5344 5346 5349 5352 5355 5358 5360 5363 5366 5368 5371 5374 5376 5379 5382 5385 5388 5391 5394 5397 5400 5403 5405 5408 5411 5414 5417 5420 5423 5426 5429 5432 5435 5438 5441 5444 5446 5449 5452 5455 5457 5460 5463 5466 5469 5472 5475 5478 5481 5483 5486 5489 5491 5494 5497 5500 5503 5506 5508 5511 5514 5516 5519 5521 5524 5526 5529 5532 5534 5537 5540 5542 5545 5548 5551 5553 5556 5559 5562 5564 5566 5569 5571 5574 5577 5579 5582 5585 5588 5590 5593 5596 5599 5602 5605 5608 5610 5613 5616 5619 5622 5625 5628 5631 5634 5637 5639 5642 5645 5647 5650 5653 5655 5658 5660 5663 5666 5669 5672 5675 5678 5680 5682 5685 5688 5691 5694 5697 5700 5703 5706 5709 5712 5715 5718 5720 5723 5726 5729 5732 5735 5737 5740 5743 5746 5748 5750 5752 5755 5758 5761 5764 5767 5770 5773 5776 5778 5781 5784 5787 5790 5793 5796 5799 5802 5805 5808 5811 5814 5817 5820 5823 5825 5828 5831 5833 5836 5839 5842 5845 5848 5850 5853 5856 5859 5862 5864 5867 5870 5873 5876 5879 5881 5883 5886 5889 5892 5895 5898 5901 5904 5907 5910 5912 5915 5918 5920 5923 5926 5929 5931 5933 5935 5938 5941 5944 5946 5948 5951 5954 5957 5960 5963 5966 5968 5971 5974 5977 5980 5983 5985 5988 5991 5994 5996 5999 6002 6005 6008 6010 6013 6016 6018 6021 6024 6027 6029 6032 6034 6036 6039 6042 6045 6048 6050 6053 6055 6058 6061 6064 6067 6070 6073 6076 6079 6082 6085 6088 6091 6094 6097 6100 6103 6106 6109 6112 6115 6117 6120 6123 6126 6128 6131 6134 6137 6140 6143 6145 6148 6151 6154 6157 6160 6163 6166 6169 6172 6175 6178 6181 6184 6187 6190 6193 6196 6199 6202 6205 6208 6211 6214 6217 6220 6223 6226 6229 6232 6235 6238 6241 6244 6247 6250 6253 6256 6258 6261 6263 6266 6269 6272 6275 6278 6281 6284 6287 6290 6293 6296 6299 6302 6305 6307 6310 6312 6315 6318 6321 6324 6326 6329 6332 6334 6336 6339 6342 6345 6348 6351 6353 6356 6359 6362 6365 6368 6371 6374 6377 6380 6383 6386 6389 6392 6395 6398 6401 6404 6407 6410 6413 6416 6419 6422 6425 6428 6431 6434 6437 6440 6443 6446 6449 6451 6454 6457 6460 6463 6466 6469 6472 6475 6478 6481 6484 6487 6490 6493 6496 6499 6502 6505 6508 6511 6514 6517 6520 6522 6525 6527 6530 6533 6536 6539 6542 6545 6548 6551 6554 6557 6560 6563 6566 6569 6572 6575 6578 6581 6584 6586 6588 6591 6594 6597 6600 6603 6606 6609 6612 6615 6618 6621 6623 6626 6629 6632 6635 6638 6641 6644 6647 6650 6653 6656 6658 6661 6663 6666 6669 6672 6674 6677 6680 6683 6686 6689 6692 6695 6698 6701 6704 6707 6710 6713 6716 6719 6722 6725 6728 6731 6734 6737 6740 6743 6746 6749 6752 6755 6758 6761 6764 6767 6770 6773 6776 6779 6782 6784 6787 6789 6792 6795 6798 6801 6804 6807 6810 6813 6816 6819 6821 6824 6827 6830 6833 6836 6839 6841 6844 6847 6850 6853 6856 6859 6862 6865 6868 6871 6874 6877 6880 6883 6886 6889 6892 6894 6896 6899 6902 6905 6908 6911 6914 6917 6920 6923 6926 6929 6932 6935 6938 6941 6944 6947 6950 6952 6955 6958 6961 6964 6967 6970 6973 6976 6978 6981 6984 6987 6990 6993 6996 6999 7002 7005 7008 7011 7014 7017 7020 7023 7026 7029 7032 7035 7038 7041 7043 7046 7049 7052 7055 7058 7061 7064 7067 7070 7073 7076 7079 7082 7085 7088 7091 7094 7097 7100 7103 7106 7108 7111 7113 7116 7119 7122 7125 7127 7130 7133 7136 7139 7142 7145 7148 7151 7154 7157 7160 7163 7166 7169 7172 7175 7178 7181 7184 7187 7190 7193 7196 7199 7202 7205 7208 7211 7214 7217 7219 7221 7224 7227 7229 7232 7235 7238 7241 7244 7247 7250 7253 7256 7259 7262 7265 7268 7271 7273 7276 7278 7281 7284 7287 7290 7292 7295 7298 7301 7304 7307 7310 7313 7316 7319 7322 7325 7328 7331 7334 7337 7340 7343 7346 7349 7352 7355 7358 7361 7364 7367 7370 7373 7376 7379 7382 7385 7388 7391 7394 7396 7399 7402 7404 7406 7409 7412 7415 7418 7421 7424 7427 7430 7433 7436 7439 7442 7445 7448 7450 7452 7455 7458 7461 7464 7466 7469 7471 7473 7476 7479 7482 7485 7488 7491 7494 7497 7500 7502 7505 7508 7511 7514 7517 7520 7523 7526 7529 7532 7535 7537 7540 7543 7546 7549 7552 7554 7557 7560 7562 7565 7567 7570 7573 7576 7579 7581 7584 7586 7589 7592 7594 7597 7600 7603 7606 7609 7611 7614 7616 7619 7622 7625 7628 7630 7633 7636 7639 7642 7644 7647 7649 7652 7655 7658 7661 7664 7667 7670 7672 7675 7677 7680 7683 7686 7688 7690 7693 7696 7699 7701 7703 7706 7709 7712 7715 7718 7721 7724 7727 7730 7733 7736 7738 7741 7744 7747 7750 7753 7756 7759 7762 7764 7767 7770 7772 7775 7778 7781 7783 7786 7789 7792 7794 7797 7800 7803 7806 7809 7812 7815 7818 7821 7824 7827 7829 7832 7835 7838 7841 7844 7847 7850 7853 7856 7858 7861 7864 7867 7870 7873 7876 7878 7881 7884 7887 7890 7892 7895 7898 7901 7904 7907 7910 7913 7916 7919 7922 7925 7928 7931 7934 7937 7939 7942 7945 7948 7951 7954 7957 7960 7963 7966 7969 7972 7975 7978 7981 7984 7987 7990 7993 7996 7999 8001 8003 8006 8009 8012 8015 8018 8021 8023 8026 8028 8031 8034 8037 8040 8042 8045 8048 8051 8054 8057 8059 8062 8065 8068 8070 8073 8075 8077 8080 8083 8086 8089 8092 8094 8097 8100 8103 8106 8109 8112 8115 8118 8121 8124 8126 8129 8131 8134 8137 8140 8142 8145 8148 8151 8154 8157 8159 8162 8164 8167 8170 8173 8176 8179 8181 8184 8187 8190 8193 8196 8199 8202 8205 8207 8210 8213 8216 8219 8222 8224 8227 8230 8233 8236 8239 8242 8245 8248 8251 8254 8257 8260 8263 8265 8268 8271 8274 8277 8280 8283 8286 8289 8292 8295 8298 8301 8304 8307 8310 8313 8315 8318 8321 8324 8326 8329 8331 8334 8337 8339 8342 8345 8348 8351 8354 8357 8360 8362 8365 8367 8370 8373 8376 8379 8381 8384 8387 8390 8392 8395 8398 8401 8404 8406 8409 8412 8414 8417 8420 8423 8426 8428 8431 8434 8437 8440 8443 8446 8449 8452 8455 8457 8460 8463 8465 8468 8471 8474 8477 8480 8482 8484 8487 8490 8492 8495 8498 8500 8503 8506 8509 8512 8515 8518 8521 8524 8527 8530 8533 8536 8539 8542 8545 8548 8551 8554 8557 8560 8562 8565 8568 8571 8574 8577 8579 8582 8584 8587 8590 8592 8595 8597 8600 8603 8606 8609 8611 8614 8617 8620 8623 8625 8628 8631 8634 8637 8640 8643 8646 8649 8651 8654 8657 8659 8662 8665 8668 8670 8672 8675 8678 8680 8683 8686 8689 8691 8694 8696 8699 8702 8705 8708 8711 8714 8717 8720 8723 8726 8729 8732 8735 8738 8740 8743 8746 8749 8751 8754 8757 8760 8763 8765 8768 8771 8774 8777 8780 8783 8786 8789 8792 8795 8798 8801 8803 8806 8809 8811 8814 8817 8819 8822 8825 8828 8830 8833 8836 8839 8841 8843 8846 8849 8852 8855 8858 8861 8864 8867 8870 8873 8876 8879 8881 8884 8886 8889 8892 8894 8897 8900 8902 8905 8908 8911 8914 8917 8920 8923 8925 8927 8929 8931 8934 8937 8939 8942 8945 8948 8951 8953 8956 8958 8961 8964 8966 8969 8972 8975 8978 8981 8984 8987 8989 8992 8994 8997 9000 9003 9006 9009 9012 9015 9018 9020 9023 9026 9029 9032 9034 9037 9040 9042 9044 9047 9049 9052 9055 9058 9061 9063 9066 9069 9072 9074 9077 9080 9082 9085 9088 9090 9093 9095 9098 9100 9103 9106 9108 9111 9113 9116 9119 9122 9125 9128 9130 9133 9136 9139 9141 9144 9146 9149 9152 9155 9157 9160 9163 9166 9169 9172 9175 9178 9181 9184 9187 9190 9193 9196 9198 9201 9204 9206 9209 9212 9214 9217 9220 9223 9226 9228 9231 9234 9237 9239 9242 9245 9248 9251 9254 9257 9259 9262 9264 9267 9270 9273 9276 9279 9281 9284 9287 9290 9293 9295 9298 9301 9304 9307 9310 9313 9316 9319 9322 9325 9327 9330 9332 9335 9338 9341 9343 9346 9349 9351 9354 9357 9359 9362 9365 9368 9371 9373 9376 9379 9381 9384 9387 9390 9392 9395 9398 9401 9404 9406 9409 9412 9415 9418 9421 9424 9427 9429 9432 9434 9437 9440 9442 9445 9448 9451 9454 9457 9460 9463 9465 9468 9471 9474 9477 9479 9482 9485 9488 9491 9494 9497 9500 9502 9504 9507 9509 9512 9515 9518 9520 9523 9526 9529 9532 9535 9537 9540 9543 9546 9549 9552 9555 9558 9561 9564 9567 9569 9572 9575 9578 9581 9584 9587 9590 9592 9595 9598 9601 9604 9607 9610 9613 9615 9618 9621 9624 9627 9630 9633 9635 9638 9641 9644 9647 9650 9653 9656 9659 9662 9665 9668 9671 9674 9677 9680 9683 9686 9689 9692 9695 9698 9701 9704 9707 9710 9713 9716 9719 9722 9725 9728 9731 9734 9737 9740 9743 9746 9749 9752 9755 9758 9761 9764 9767 9770 9773 9776 9779 9782 9785 9788 9791 9794 9797 9800 9803 9806 9809 9812 9815 9818 9821 9823 9826 9828 9831 9833 9836 9839 9842 9845 9848 9851 9854 9857 9860 9863 9865 9868 9870 9872 9875 9877 9880 9883 9886 9889 9891 9894 9897 9900 9903 9905 9908 9911 9914 9917 9920 9923 9926 9929 9932 9935 9938 9940 9943 9946 9949 9952 9955 9958 9961 9964 9967 9970 9973 9976 9979 9982 9985 9988 9991 9993 9996 9999 10002 10005 10008 10011 10013 10016 10019 10022 10025 10028 10030 10033 10036 10039 10042 10045 10048 10050 10053 10056 10059 10062 10065 10068 10071 10074 10077 10080 10083 10086 10089 10092 10094 10097 10099 10102 10105 10108 10111 10113 10116 10119 10122 10124 10127 10130 10133 10136 10138 10140 10143 10145 10148 10151 10153 10156 10159 10162 10165 10168 10171 10174 10177 10180 10183 10186 10189 10192 10195 10198 10200 10203 10206 10208 10211 10214 10217 10219 10222 10225 10228 10231 10233 10236 10239 10242 10245 10248 10251 10254 10257 10259 10262 10265 10268 10271 10274 10277 10280 10283 10286 10289 10291 10294 10297 10300 10302 10305 10308 10311 10314 10317 10320 10323 10326 10329 10332 10335 10338 10341 10344 10347 10349 10352 10355 10358 10360 10363 10366 10368 10371 10373 10376 10379 10381 10383 10385 10388 10391 10394 10397 10399 10402 10405 10408 10411 10414 10416 10419 10422 10424 10427 10430 10433 10436 10439 10442 10445 10448 10451 10454 10457 10460 10462 10465 10468 10471 10474 10477 10479 10482 10485 10488 10491 10493 10495 10498 10501 10504 10507 10509 10512 10515 10518 10521 10524 10527 10530 10533 10536 10539 10542 10544 10547 10550 10553 10556 10559 10562 10565 10567 10570 10573 10575 10578 10581 10583 10586 10589 10592 10594 10597 10599 10602 10605 10608 10610 10612 10615 10617 10620 10623 10626 10629 10632 10635 10638 10641 10644 10647 10650 10653 10656 10659 10662 10665 10668 10671 10674 10677 10680 10683 10686 10688 10691 10694 10696 10699 10702 10705 10708 10711 10714 10717 10720 10723 10726 10729 10732 10735 10738 10741 10744 10747 10750 10753 10756 10759 10762 10765 10768 10771 10774 10777 10780 10783 10786 10789 10791 10794 10797 10800 10803 10805 10808 10811 10814 10817 10820 10823 10826 10828 10831 10834 10837 10840 10843 10845 10848 10850 10852 10855 10858 10861 10864 10867 10870 10873 10876 10879 10882 10885 10887 10890 10893 10896 10898 10901 10904 10907 10910 10913 10916 10919 10922 10925 10928 10931 10934 10937 10940 10943 10946 10949 10952 10955 10958 10961 10964 10967 10970 10973 10976 10979 10982 10985 10988 10991 10994 10996 10999 11002 11005 11008 11011 11013 11016 11018 11021 11024 11027 11030 11032 11035 11038 11041 11044 11047 11050 11053 11056 11059 11062 11065 11068 11071 11074 11077 11080 11083 11086 11088 11091 11094 11097 11100 11103 11106 11108 11110 11113 11116 11119 11122 11125 11128 11131 11134 11137 11140 11142 11144 11147 11150 11153 11156 11158 11161 11164 11166 11169 11172 11175 11178 11181 11184 11187 11190 11193 11196 11198 11201 11203 11206 11208 11211 11214 11217 11220 11223 11225 11228 11231 11234 11237 11240 11242 11245 11248 11251 11254 11257 11260 11263 11266 11269 11272 11275 11278 11281 11284 11287 11289 11292 11294 11297 11300 11303 11306 11309 11312 11315 11318 11321 11324 11327 11330 11333 11336 11339 11341 11344 11347 11350 11353 11356 11359 11362 11365 11368 11371 11374 11376 11379 11382 11385 11388 11391 11394 11397 11400 11403 11406 11409 11412 11415 11418 11421 11424 11427 11430 11433 11436 11439 11441 11444 11447 11450 11453 11456 11459 11462 11465 11468 11471 11474 11477 11480 11483 11485 11488 11491 11494 11497 11500 11503 11506 11509 11512 11515 11518 11521 11524 11527 11530 11533 11536 11539 11542 11545 11548 11551 11554 11557 11560 11563 11566 11569 11572 11575 11578 11581 11584 11587 11590 11593 11596 11599 11602 11605 11608 11610 11613 11616 11619 11622 11625 11628 11631 11634 11636 11639 11642 11645 11648 11651 11654 11657 11660 11663 11666 11669 11672 11675 11678 11680 11683 11686 11688 11691 11694 11697 11700 11703 11706 11709 11712 11715 11717 11720 11723 11726 11729 11732 11735 11738 11740 11742 11745 11748 11751 11754 11757 11760 11763 11766 11769 11772 11775 11778 11780 11783 11786 11789 11791 11794 11797 11800 11803 11806 11809 11812 11814 11817 11820 11822 11825 11828 11831 11834 11837 11840 11843 11846 11849 11852 11855 11858 11861 11863 11866 11869 11872 11874 11877 11880 11883 11886 11889 11891 11894 11897 11899 11901 11904 11907 11910 11912 11915 11918 11921 11923 11926 11929 11932 11934 11937 11940 11943 11946 11949 11952 11955 11958 11961 11964 11967 11970 11973 11975 11978 11981 11984 11987 11989 11992 11995 11998 12001 12004 12006 12009 12012 12015 12018 12021 12024 12026 12029 12032 12035 12038 12041 12044 12047 12050 12053 12056 12059 12062 12065 12068 12071 12074 12077 12080 12083 12086 12089 12092 12095 12098 12101 12104 12107 12110 12113 12116 12119 12122 12125 12128 12131 12134 12137 12140 12143 12146 12149 12152 12155 12158 12161 12163 12166 12169 12172 12175 12178 12181 12184 12187 12190 12193 12196 12199 12202 12204 12207 12210 12213 12216 12219 12221 12224 12227 12230 12233 12235 12238 12241 12244 12247 12249 12252 12255 12258 12260 12262 12265 12268 12270 12273 12275 12277 12280 12283 12286 12288 12291 12294 12297 12300 12303 12306 12309 12311 12314 12317 12320 12323 12325 12328 12331 12334 12337 12340 12343 12346 12349 12351 12354 12356 12359 12362 12364 12367 12370 12373 12376 12379 12382 12385 12388 12391 12394 12397 12399 12402 12404 12407 12410 12413 12416 12419 12422 12425 12427 12430 12433 12436 12439 12442 12444 12447 12450 12453 12456 12459 12462 12465 12468 12471 12473 12476 12479 12482 12485 12488 12491 12494 12497 12500 12503 12506 12509 12512 12515 12518 12521 12524 12527 12530 12533 12536 12539 12542 12545 12548 12551 12554 12557 12560 12563 12566 12569 12572 12575 12578 12581 12584 12587 12590 12593 12596 12598 12601 12604 12607 12610 12613 12616 12619 12622 12625 12628 12631 12634 12637 12640 12643 12646 12648 12651 12654 12657 12660 12663 12666 12669 12672 12675 12678 12681 12684 12687 12690 12693 12696 12699 12702 12705 12708 12711 12714 12717 12720 12723 12726 12729 12732 12735 12738 12741 12744 12747 12750 12753 12756 12759 12762 12765 12768 12771 12774 12777 12780 12783 12786 12789 12792 12795 12798 12801 12804 12807 12810 12813 12816 12819 12822 12825 12828 12831 12834 12837 12840 12843 12846 12849 12852 12855 12858 12861 12864 12867 12870 12873 12876 12879 12882 12885 12888 12891 12894 12897 12900 12903 12906 12909 12912 12915 12918 12921 12924 12927 12930 12933 12936 12939 12942 12945 12948 12951 12954 12957 12959 12962 12965 12968 12971 12974 12977 12980 12983 12986 12989 12992 12995 12998 13000 13003 13006 13009 13012 13015 13018 13021 13024 13027 13030 13032 13035 13038 13041 13044 13047 13050 13053 13056 13059 13062 13065 13068 13071 13074 13077 13080 13083 13086 13089 13092 13095 13098 13101 13104 13107 13110 13113 13115 13118 13121 13124 13127 13130 13133 13136 13139 13141 13144 13147 13150 13153 13156 13159 13162 13165 13168 13171 13174 13177 13180 13183 13186 13188 13191 13194 13197 13200 13203 13206 13209 13212 13215 13218 13221 13224 13226 13229 13232 13235 13238 13241 13244 13247 13250 13253 13256 13259 13262 13265 13268 13271 13274 13277 13280 13283 13286 13289 13292 13295 13298 13301 13304 13306 13308 13311 13314 13317 13320 13323 13326 13329 13331 13334 13337 13340 13343 13345 13348 13350 13353 13356 13359 13362 13364 13367 13370 13372 13375 13378 13380 13383 13386 13389 13392 13395 13398 13401 13404 13407 13410 13413 13416 13419 13422 13425 13428 13431 13434 13437 13440 13443 13446 13449 13452 13455 13458 13461 13464 13467 13470 13473 13476 13479 13482 13485 13488 13491 13494 13497 13500 13502 13505 13508 13511 13513 13516 13519 13522 13525 13528 13531 13534 13537 13540 13542 13545 13548 13551 13554 13557 13560 13562 13565 13568 13571 13573 13576 13579 13582 13584 13587 13590 13593 13596 13599 13602 13605 13607 13609 13611 13614 13616 13618 13621 13624 13626 13628 13631 13634 13637 13640 13643 13646 13649 13652 13655 13658 13661 13664 13667 13670 13673 13676 13679 13682 13685 13688 13691 13694 13697 13700 13703 13706 13708 13710 13713 13716 13719 13721 13723 13726 13728 13731 13733 13736 13738 13740 13743 13746 13749 13752 13755 13757 13760 13763 13766 13769 13771 13774 13777 13780 13783 13786 13789 13792 13794 13797 13799 13802 13805 13807 13810 13813 13816 13819 13821 13824 13827 13830 13833 13836 13839 13842 13845 13848 13851 13854 13857 13860 13863 13866 13869 13872 13874 13877 13880 13882 13885 13888 13890 13893 13896 13899 13902 13904 13907 13910 13913 13916 13919 13921 13924 13927 13930 13932 13935 13937 13940 13943 13946 13949 13952 13954 13956 13959 13961 13964 13967 13969 13972 13975 13978 13981 13984 13986 13989 13992 13995 13998 14001 14004 14007 14010 14012 14015 14018 14021 14024 14027 14030 14033 14036 14039 14041 14044 14047 14050 14053 14056 14059 14062 14065 14068 14071 14074 14077 14080 14083 14086 14089 14092 14095 14098 14101 14104 14107 14110 14113 14116 14119 14122 14125 14128 14131 14134 14137 14140 14143 14146 14149 14152 14155 14158 14161 14164 14167 14170 14173 14176 14179 14182 14185 14188 14191 14194 14197 14200 14203 14206 14209 14212 14215 14218 14221 14224 14227 14230 14233 14236 14239 14242 14245 14248 14251 14254 14257 14260 14263 14266 14269 14272 14274 14276 14279 14282 14284 14287 14290 14293 14296 14299 14302 14305 14307 14310 14313 14316 14319 14322 14325 14328 14331 14333 14336 14339 14342 14345 14348 14351 14354 14357 14359 14362 14365 14368 14371 14374 14377 14380 14383 14386 14389 14392 14395 14398 14401 14404 14407 14410 14413 14416 14419 14422 14425 14428 14431 14434 14437 14440 14442 14445 14448 14451 14453 14456 14459 14462 14464 14466 14469 14472 14474 14476 14479 14482 14484 14486 14489 14492 14495 14498 14501 14504 14507 14510 14513 14516 14519 14522 14525 14528 14531 14534 14537 14540 14543 14545 14548 14551 14554 14557 14559 14562 14565 14568 14571 14574 14577 14580 14583 14586 14589 14592 14595 14598 14600 14603 14606 14609 14612 14615 14618 14621 14624 14627 14630 14633 14635 14638 14641 14644 14646 14649 14652 14654 14656 14659 14662 14665 14668 14671 14674 14677 14680 14682 14685 14688 14691 14694 14697 14699 14702 14705 14708 14711 14714 14717 14720 14723 14726 14729 14732 14735 14738 14741 14743 14746 14748 14750 14753 14756 14759 14762 14765 14767 14770 14773 14776 14778 14781 14783 14786 14789 14791 14794 14797 14800 14803 14805 14808 14811 14814 14816 14819 14822 14825 14828 14830 14833 14836 14838 14841 14844 14846 14849 14852 14855 14858 14861 14864 14867 14870 14873 14876 14879 14882 14885 14888 14891 14894 14897 14900 14903 14906 14909 14912 14915 14918 14921 14924 14927 14930 14933 14936 14939 14942 14945 14948 14951 14954 14957 14960 14963 14966 14969 14972 14975 14978 14981 14984 14987 14990 14993 14996 14999 15002 15005 15008 15011 15014 15017 15020 15023 15026 15029 15032 15035 15038 15041 15044 15047 15050 15053 15056 15059 15062 15065 15068 15071 15074 15077 15080 15083 15086 15089 15092 15095 15098 15101 15104 15107 15110 15113 15116 15119 15122 15125 15128 15131 15134 15137 15140 15143 15146 15149 15152 15155 15158 15161 15164 15167 15170 15173 15176 15179 15182 15185 15188 15191 15194 15197 15200 15203 15206 15209 15212 15215 15218 15221 15224 15227 15230 15233 15236 15239 15242 15245 15248 15251 15254 15257 15260 15263 15266 15269 15272 15275 15278 15281 15284 15287 15290 15293 15296 15299 15302 15305 15308 15311 15314 15317 15320 15323 15326 15328 15331 15334 15337 15340 15343 15346 15349 15352 15355 15357 15359 15362 15365 15367 15370 15372 15375 15377 15380 15383 15386 15389 15392 15395 15398 15401 15404 15407 15410 15413 15416 15419 15422 15425 15428 15431 15434 15437 15440 15443 15446 15449 15452 15455 15458 15461 15464 15467 15470 15473 15476 15479 15482 15485 15488 15491 15494 15497 15500 15503 15506 15509 15512 15515 15518 15521 15524 15527 15530 15533 15536 15539 15542 15545 15548 15551 15554 15557 15560 15563 15566 15569 15572 15575 15578 15581 15584 15586 15589 15592 15595 15598 15601 15604 15607 15610 15613 15616 15619 15622 15625 15628 15631 15634 15637 15640 15643 15646 15649 15652 15655 15658 15661 15664 15667 15670 15673 15676 15679 15682 15685 15688 15691 15694 15697 15700 15703 15706 15709 15712 15715 15718 15720 15723 15726 15729 15732 15735 15738 15741 15744 15747 15750 15752 15755 15758 15761 15764 15767 15770 15773 15776 15779 15782 15784 15787 15790 15793 15796 15799 15802 15805 15808 15811 15814 15817 15820 15823 15826 15829 15832 15835 15837 15840 15843 15845 15848 15851 15854 15857 15860 15863 15866 15869 15872 15874 15877 15879 15882 15884 15887 15890 15893 15896 15899 15902 15905 15908 15910 15913 15916 15918 15921 15924 15927 15930 15933 15936 15939 15942 15944 15947 15950 15953 15956 15959 15962 15965 15968 15971 15974 15977 15980 15983 15986 15989 15992 15995 15998 16001 16004 16007 16010 16013 16016 16019 16022 16025 16028 16031 16033 16035 16038 16040 16043 16046 16049 16052 16054 16057 16060 16063 16066 16068 16070 16073 16076 16079 16082 16085 16088 16091 16094 16097 16100 16103 16106 16109 16112 16114 16117 16119 16121 16124 16127 16130 16132 16135 16138 16141 16144 16147 16150 16153 16156 16159 16162 16165 16168 16171 16174 16177 16180 16183 16186 16189 16191 16194 16197 16200 16203 16206 16209 16212 16215 16218 16221 16224 16227 16230 16233 16236 16239 16242 16245 16248 16251 16253 16256 16259 16262 16265 16268 16271 16274 16277 16280 16282 16285 16288 16290 16293 16296 16299 16302 16305 16308 16311 16313 16316 16319 16322 16325 16328 16331 16334 16337 16340 16343 16346 16349 16352 16355 16358 16361 16364 16367 16370 16373 16375 16378 16380 16382 16385 16387 16390 16393 16396 16399 16402 16405 16408 16411 16414 16417 16420 16423 16426 16429 16432 16435 16438 16441 16444 16447 16449 16452 16454 16457 16460 16463 16466 16469 16472 16475 16478 16481 16484 16487 16490 16492 16495 16498 16501 16504 16507 16510 16513 16516 16519 16522 16525 16527 16530 16533 16536 16539 16542 16545 16548 16551 16554 16557 16560 16563 16566 16569 16572 16575 16578 16581 16584 16587 16590 16593 16596 16598 16601 16604 16607 16610 16613 16616 16619 16622 16625 16628 16631 16634 16637 16640 16643 16646 16649 16652 16655 16657 16660 16663 16666 16669 16672 16674 16677 16680 16682 16685 16688 16690 16693 16696 16699 16702 16705 16708 16711 16714 16717 16720 16723 16726 16728 16731 16734 16736 16739 16742 16745 16748 16751 16754 16757 16760 16763 16766 16769 16772 16775 16778 16781 16784 16787 16790 16793 16796 16799 16802 16804 16807 16810 16813 16816 16818 16821 16823 16826 16829 16832 16835 16838 16841 16844 16847 16850 16853 16856 16859 16862 16864 16867 16869 16871 16874 16876 16879 16881 16884 16887 16890 16893 16896 16899 16901 16904 16907 16910 16913 16916 16919 16922 16925 16928 16931 16934 16937 16940 16943 16945 16948 16951 16954 16956 16959 16962 16965 16968 16971 16974 16976 16979 16982 16984 16987 16990 16993 16996 16999 17002 17005 17007 17010 17013 17016 17019 17022 17025 17028 17031 17034 17037 17040 17043 17046 17049 17052 17055 17058 17061 17064 17067 17070 17073 17075 17078 17080 17083 17086 17089 17092 17095 17098 17101 17103 17106 17109 17112 17115 17118 17121 17124 17127 17130 17132 17135 17138 17141 17144 17147 17150 17153 17156 17159 17162 17165 17168 17171 17174 17177 17180 17183 17186 17188 17191 17193 17196 17199 17202 17204 17207 17209 17212 17215 17218 17221 17224 17227 17229 17232 17235 17238 17241 17244 17247 17250 17253 17256 17259 17262 17264 17267 17270 17272 17275 17278 17281 17284 17287 17289 17291 17294 17296 17299 17302 17304 17306 17309 17311 17314 17317 17320 17323 17326 17329 17332 17335 17338 17341 17344 17347 17350 17353 17356 17359 17362 17365 17368 17371 17374 17377 17380 17383 17386 17389 17392 17394 17397 17400 17403 17405 17408 17411 17414 17417 17420 17423 17426 17429 17432 17435 17438 17441 17444 17447 17450 17452 17455 17458 17461 17464 17467 17470 17472 17475 17478 17481 17484 17487 17490 17492 17495 17498 17501 17504 17507 17510 17513 17516 17519 17522 17524 17526 17529 17532 17535 17538 17541 17544 17547 17550 17553 17556 17559 17562 17565 17568 17571 17573 17576 17579 17582 17584 17586 17589 17592 17595 17598 17601 17604 17607 17610 17613 17616 17619 17621 17624 17627 17630 17633 17636 17639 17642 17645 17648 17651 17654 17657 17660 17663 17666 17669 17672 17675 17678 17681 17684 17687 17690 17693 17696 17699 17702 17705 17708 17711 17714 17717 17720 17723 17726 17729 17732 17735 17738 17741 17744 17746 17749 17751 17754 17757 17760 17763 17766 17769 17772 17774 17777 17780 17783 17786 17789 17791 17794 17797 17800 17802 17805 17808 17811 17814 17817 17820 17823 17826 17829 17832 17835 17837 17839 17842 17844 17846 17849 17852 17854 17857 17860 17863 17865 17868 17871 17874 17877 17879 17882 17885 17888 17891 17894 17897 17900 17902 17905 17908 17911 17914 17917 17920 17923 17926 17929 17932 17935 17938 17941 17944 17947 17949 17952 17955 17958 17961 17964 17967 17970 17973 17975 17978 17981 17984 17986 17988 17990 17993 17996 17999 18001 18004 18007 18010 18012 18015 18018 18021 18024 18026 18028 18031 18033 18036 18039 18042 18044 18047 18050 18053 18056 18059 18061 18064 18067 18070 18073 18075 18078 18081 18084 18087 18089 18092 18095 18098 18101 18104 18107 18110 18113 18116 18119 18122 18125 18128 18131 18134 18137 18139 18142 18145 18148 18151 18153 18156 18158 18161 18164 18167 18170 18173 18176 18179 18182 18185 18188 18191 18194 18196 18199 18202 18205 18208 18211 18214 18217 18220 18223 18226 18229 18231 18234 18237 18240 18243 18246 18249 18252 18255 18257 18260 18263 18266 18268 18271 18273 18276 18279 18282 18285 18288 18291 18294 18297 18300 18303 18306 18309 18312 18315 18318 18321 18324 18327 18330 18333 18336 18339 18342 18345 18348 18351 18354 18357 18360 18363 18366 18369 18371 18374 18377 18380 18383 18386 18389 18392 18395 18398 18401 18404 18407 18410 18413 18416 18419 18422 18425 18428 18431 18434 18437 18440 18443 18446 18449 18452 18455 18458 18461 18464 18467 18470 18472 18475 18477 18480 18482 18485 18488 18491 18494 18497 18500 18503 18506 18509 18512 18515 18518 18521 18524 18526 18529 18532 18535 18537 18540 18543 18546 18549 18552 18555 18558 18561 18564 18567 18570 18572 18575 18578 18581 18584 18587 18590 18593 18596 18599 18602 18605 18608 18610 18613 18616 18619 18621 18624 18627 18630 18633 18636 18639 18642 18645 18648 18651 18654 18657 18660 18663 18666 18668 18671 18673 18676 18679 18682 18685 18688 18690 18693 18696 18699 18702 18705 18708 18711 18714 18717 18720 18723 18726 18729 18732 18735 18738 18741 18744 18747 18750 18753 18756 18759 18762 18765 18768 18771 18774 18777 18780 18783 18786 18789 18792 18795 18798 18801 18804 18807 18810 18813 18816 18819 18822 18825 18828 18831 18834 18837 18840 18843 18846 18849 18852 18855 18857 18859 18862 18865 18868 18871 18874 18877 18880 18883 18886 18888 18891 18894 18897 18900 18903 18906 18909 18912 18915 18917 18920 18923 18926 18928 18931 18934 18937 18940 18943 18946 18949 18952 18954 18957 18960 18963 18965 18968 18971 18974 18976 18979 18982 18985 18988 18991 18994 18997 19000 19003 19006 19009 19012 19015 19018 19021 19024 19027 19030 19033 19036 19039 19042 19045 19048 19051 19053 19056 19059 19062 19064 19067 19070 19073 19076 19079 19082 19085 19088 19091 19094 19097 19100 19103 19106 19109 19111 19114 19116 19119 19122 19125 19128 19131 19134 19136 19139 19142 19145 19148 19151 19154 19157 19159 19162 19165 19168 19170 19173 19176 19179 19182 19184 19187 19190 19192 19195 19198 19201 19204 19206 19209 19212 19215 19218 19221 19224 19226 19229 19232 19235 19238 19241 19244 19247 19250 19253 19256 19259 19262 19265 19268 19271 19274 19277 19280 19283 19286 19289 19292 19295 19298 19301 19304 19307 19309 19312 19315 19318 19320 19323 19326 19329 19332 19335 19338 19341 19344 19346 19348 19351 19354 19357 19360 19363 19366 19369 19371 19374 19377 19379 19382 19385 19388 19390 19393 19396 19398 19401 19404 19407 19409 19412 19414 19416 19419 19421 19423 19426 19429 19432 19434 19436 19439 19442 19445 19447 19450 19453 19456 19458 19461 19464 19467 19470 19473 19476 19479 19482 19485 19488 19491 19494 19497 19500 19503 19506 19509 19512 19515 19518 19520 19523 19526 19529 19532 19534 19537 19540 19543 19546 19549 19552 19555 19557 19560 19563 19565 19568 19571 19574 19577 19580 19582 19584 19587 19590 19592 19594 19597 19600 19603 19606 19609 19612 19615 19618 19620 19622 19625 19627 19630 19633 19636 19639 19641 19644 19647 19649 19652 19655 19658 19661 19664 19667 19670 19673 19676 19679 19682 19685 19687 19690 19693 19695 19698 19701 19704 19707 19710 19713 19716 19719 19722 19725 19728 19730 19733 19736 19739 19742 19745 19748 19751 19754 19757 19760 19763 19766 19769 19772 19775 19778 19781 19784 19787 19790 19793 19796 19799 19802 19805 19807 19810 19812 19815 19818 19821 19824 19827 19830 19832 19835 19838 19841 19844 19847 19850 19853 19856 19859 19862 19865 19868 19871 19874 19877 19880 19883 19886 19889 19892 19895 19898 19901 19904 19907 19910 19912 19915 19918 19921 19923 19926 19929 19932 19935 19938 19941 19943 19946 19949 19952 19954 19957 19960 19963 19966 19968 19971 19974 19977 19980 19983 19986 19989 19992 19995 19997 20000 20003 20006 20009 20012 20015 20018 20021 20024 20027 20030 20033 20036 20039 20042 20045 20048 20051 20054 20057 20060 20063 20065 20068 20071 20074 20077 20079 20082 20085 20088 20091 20094 20097 20100 20103 20106 20109 20112 20115 20118 20121 20124 20126 20129 20132 20135 20138 20141 20143 20146 20149 20152 20155 20158 20161 20163 20166 20169 20171 20174 20177 20180 20183 20186 20188 20191 20194 20197 20200 20203 20205 20208 20211 20214 20217 20220 20223 20226 20228 20231 20233 20236 20239 20242 20245 20247 20250 20253 20256 20258 20261 20264 20266 20269 20272 20275 20277 20280 20283 20286 20289 20291 20293 20296 20299 20302 20305 20308 20311 20313 20316 20319 20322 20324 20326 20329 20332 20335 20338 20341 20344 20347 20350 20353 20356 20359 20362 20365 20368 20371 20374 20377 20380 20383 20386 20389 20392 20395 20398 20401 20404 20407 20410 20412 20415 20418 20421 20424 20427 20430 20433 20436 20438 20441 20444 20447 20450 20452 20455 20458 20461 20464 20467 20470 20473 20476 20479 20482 20485 20488 20491 20493 20496 20498 20501 20504 20507 20510 20512 20515 20518 20521 20524 20527 20530 20533 20536 20539 20542 20545 20548 20551 20554 20557 20560 20563 20566 20569 20571 20574 20577 20580 20583 20586 20589 20592 20595 20598 20601 20604 20607 20609 20612 20614 20617 20620 20623 20625 20628 20631 20634 20637 20640 20643 20646 20649 20652 20655 20658 20661 20664 20667 20670 20673 20676 20679 20681 20684 20687 20690 20693 20696 20699 20701 20704 20707 20710 20713 20716 20719 20722 20724 20727 20730 20732 20735 20738 20741 20744 20747 20750 20753 20756 20759 20762 20765 20768 20771 20774 20777 20780 20783 20786 20788 20791 20794 20797 20800 20802 20805 20808 20811 20814 20817 20820 20823 20825 20827 20830 20833 20836 20838 20841 20844 20847 20850 20852 20855 20858 20861 20864 20867 20870 20873 20876 20878 20881 20884 20887 20890 20893 20896 20899 20902 20905 20907 20910 20913 20916 20919 20921 20924 20927 20930 20933 20936 20939 20941 20944 20947 20950 20953 20956 20959 20962 20965 20968 20970 20973 20976 20979 20982 20985 20988 20991 20994 20997 21000 21003 21006 21009 21011 21014 21017 21020 21022 21025 21027 21030 21033 21036 21038 21041 21044 21047 21050 21052 21055 21058 21061 21063 21066 21069 21072 21075 21077 21080 21083 21086 21089 21092 21095 21098 21101 21104 21106 21109 21112 21115 21118 21121 21124 21127 21130 21133 21136 21138 21141 21144 21147 21150 21152 21155 21158 21161 21164 21167 21170 21173 21176 21179 21182 21185 21188 21191 21194 21197 21200 21203 21206 21209 21212 21215 21218 21221 21223 21226 21228 21230 21233 21236 21239 21242 21245 21248 21250 21253 21256 21259 21261 21263 21266 21268 21270 21273 21275 21278 21281 21284 21287 21290 21292 21295 21298 21301 21304 21307 21310 21313 21315 21318 21321 21323 21326 21329 21332 21335 21338 21340 21342 21345 21348 21350 21352 21355 21358 21361 21364 21367 21370 21372 21375 21378 21380 21383 21385 21388 21391 21394 21397 21400 21403 21405 21408 21410 21413 21416 21419 21422 21425 21428 21431 21434 21437 21440 21443 21446 21448 21451 21454 21457 21460 21463 21466 21468 21471 21473 21476 21478 21481 21484 21487 21490 21493 21496 21499 21502 21505 21508 21511 21514 21517 21520 21523 21525 21528 21531 21534 21537 21539 21542 21545 21548 21550 21553 21556 21559 21562 21565 21568 21571 21573 21576 21579 21582 21585 21588 21590 21592 21595 21598 21601 21604 21606 21609 21612 21615 21618 21621 21624 21627 21629 21631 21634 21637 21640 21643 21646 21649 21651 21654 21656 21659 21662 21665 21668 21671 21674 21677 21680 21682 21685 21688 21691 21694 21697 21699 21702 21705 21707 21710 21713 21715 21718 21720 21723 21726 21729 21731 21733 21736 21739 21742 21745 21748 21751 21753 21756 21758 21761 21764 21767 21769 21772 21775 21777 21780 21783 21786 21789 21792 21795 21798 21801 21804 21807 21810 21813 21816 21819 21822 21825 21828 21830 21833 21836 21839 21841 21844 21846 21849 21852 21855 21858 21861 21863 21865 21868 21871 21874 21876 21879 21882 21885 21888 21891 21893 21896 21899 21902 21905 21908 21911 21914 21916 21919 21922 21925 21928 21931 21934 21937 21940 21943 21946 21948 21951 21953 21956 21959 21962 21965 21968 21971 21974 21977 21979 21982 21985 21987 21989 21992 21994 21997 22000 22002 22005 22008 22011 22014 22016 22019 22021 22024 22027 22030 22033 22035 22038 22041 22044 22047 22049 22052 22055 22058 22061 22063 22065 22068 22071 22074 22077 22080 22083 22086 22089 22091 22094 22097 22100 22103 22106 22108 22111 22114 22117 22120 22123 22126 22129 22132 22135 22138 22141 22144 22147 22150 22152 22155 22158 22160 22163 22166 22169 22172 22175 22177 22180 22183 22185 22188 22191 22194 22197 22199 22202 22205 22207 22209 22211 22214 22217 22220 22223 22225 22228 22230 22233 22236 22239 22241 22244 22247 22249 22252 22255 22258 22261 22264 22267 22270 22273 22276 22279 22282 22285 22288 22291 22294 22297 22300 22303 22306 22309 22312 22315 22318 22321 22324 22326 22329 22332 22335 22338 22341 22344 22347 22350 22352 22355 22358 22361 22364 22367 22370 22373 22376 22379 22382 22385 22388 22391 22394 22397 22400 22403 22405 22408 22411 22414 22417 22420 22423 22425 22427 22430 22432 22435 22438 22441 22443 22445 22448 22451 22454 22457 22460 22463 22466 22469 22472 22475 22478 22481 22484 22487 22489 22492 22494 22497 22500 22503 22506 22509 22512 22515 22518 22521 22524 22527 22530 22533 22536 22539 22542 22545 22548 22551 22554 22557 22560 22563 22566 22569 22572 22575 22578 22581 22584 22587 22590 22593 22596 22599 22602 22605 22608 22611 22614 22617 22620 22623 22626 22629 22632 22635 22638 22641 22643 22646 22649 22651 22654 22657 22660 22663 22666 22669 22672 22674 22677 22679 22682 22685 22688 22691 22694 22697 22700 22703 22706 22708 22711 22714 22717 22720 22722 22725 22728 22731 22734 22737 22739 22742 22745 22748 22751 22754 22757 22760 22763 22766 22769 22772 22775 22778 22781 22784 22787 22790 22793 22796 22799 22802 22805 22808 22811 22814 22817 22820 22822 22825 22828 22831 22834 22837 22840 22843 22845 22848 22851 22854 22857 22859 22862 22864 22867 22870 22873 22876 22878 22881 22884 22887 22889 22892 22895 22898 22901 22904 22907 22910 22913 22915 22918 22921 22924 22927 22930 22933 22936 22939 22942 22945 22948 22951 22954 22957 22960 22963 22966 22969 22972 22975 22978 22980 22983 22986 22989 22992 22995 22997 23000 23003 23006 23009 23011 23014 23017 23020 23023 23026 23028 23031 23034 23037 23040 23043 23045 23048 23051 23054 23057 23060 23063 23066 23069 23072 23075 23077 23080 23083 23086 23089 23092 23095 23098 23101 23104 23107 23110 23112 23115 23118 23121 23124 23127 23129 23132 23135 23138 23141 23144 23147 23150 23153 23156 23159 23162 23164 23167 23170 23173 23176 23179 23182 23185 23188 23191 23194 23197 23200 23203 23206 23209 23212 23215 23218 23221 23224 23227 23230 23233 23236 23239 23242 23245 23248 23251 23254 23257 23260 23263 23266 23269 23272 23275 23278 23281 23283 23286 23289 23291 23294 23297 23300 23303 23306 23309 23312 23315 23318 23321 23324 23327 23330 23333 23336 23339 23342 23345 23348 23351 23354 23357 23360 23363 23366 23369 23372 23375 23378 23381 23384 23387 23390 23392 23395 23398 23401 23404 23406 23409 23412 23415 23418 23421 23423 23426 23429 23432 23435 23437 23440 23443 23445 23448 23451 23454 23457 23460 23463 23466 23468 23470 23473 23476 23479 23482 23485 23487 23490 23492 23495 23498 23500 23503 23506 23508 23511 23514 23517 23520 23523 23526 23529 23532 23535 23538 23541 23544 23547 23550 23553 23556 23559 23562 23565 23568 23571 23574 23577 23580 23583 23586 23589 23592 23595 23598 23601 23604 23607 23610 23613 23616 23619 23622 23625 23628 23631 23634 23637 23640 23643 23646 23649 23652 23655 23658 23660 23663 23666 23669 23672 23675 23678 23681 23684 23687 23690 23693 23696 23699 23702 23705 23708 23710 23713 23715 23718 23721 23724 23727 23729 23732 23735 23737 23740 23742 23745 23747 23750 23753 23756 23759 23761 23764 23767 23770 23773 23776 23779 23782 23785 23788 23791 23794 23797 23800 23803 23806 23808 23811 23814 23817 23820 23823 23826 23829 23831 23834 23837 23840 23842 23845 23848 23851 23854 23857 23860 23863 23866 23868 23871 23873 23876 23879 23882 23884 23887 23890 23893 23896 23899 23901 23904 23907 23910 23913 23916 23919 23922 23925 23928 23931 23934 23937 23940 23943 23946 23949 23951 23954 23957 23959 23962 23965 23968 23971 23974 23977 23980 23983 23986 23989 23991 23994 23997 24000 24003 24006 24009 24012 24015 24017 24020 24022 24025 24028 24031 24034 24037 24040 24043 24046 24049 24052 24055 24057 24059 24062 24065 24068 24071 24074 24076 24079 24081 24084 24087 24090 24092 24095 24097 24100 24103 24106 24109 24112 24115 24118 24121 24123 24126 24129 24132 24134 24137 24140 24143 24146 24149 24152 24155 24158 24161 24164 24167 24170 24173 24176 24179 24182 24185 24188 24191 24194 24197 24200 24203 24206 24209 24212 24215 24218 24221 24224 24227 24230 24233 24236 24239 24241 24244 24247 24250 24253 24256 24259 24262 24265 24268 24271 24274 24277 24280 24283 24286 24289 24292 24295 24298 24301 24304 24307 24310 24312 24315 24318 24321 24324 24327 24330 24332 24335 24337 24340 24343 24345 24348 24351 24354 24357 24359 24362 24364 24367 24370 24373 24376 24379 24382 24385 24387 24390 24393 24396 24399 24402 24405 24408 24411 24414 24417 24420 24423 24426 24429 24432 24435 24438 24441 24444 24447 24450 24453 24455 24458 24461 24463 24466 24469 24472 24474 24477 24480 24483 24486 24489 24492 24495 24498 24501 24504 24507 24510 24513 24516 24519 24521 24524 24527 24530 24533 24536 24539 24542 24545 24547 24550 24553 24556 24559 24561 24564 24567 24570 24573 24576 24579 24582 24585 24587 24590 24593 24595 24597 24600 24603 24606 24609 24612 24615 24618 24621 24624 24627 24630 24633 24635 24638 24641 24643 24646 24649 24651 24654 24657 24660 24662 24665 24668 24671 24674 24677 24680 24683 24686 24689 24692 24694 24697 24700 24703 24706 24709 24712 24715 24718 24721 24724 24727 24730 24733 24736 24738 24740 24743 24746 24749 24752 24755 24758 24761 24764 24767 24770 24773 24776 24779 24782 24785 24788 24791 24794 24797 24800 24803 24806 24809 24812 24815 24818 24821 24824 24827 24830 24833 24836 24838 24841 24844 24846 24849 24852 24855 24858 24861 24864 24867 24870 24873 24876 24879 24882 24885 24887 24890 24893 24896 24899 24902 24905 24908 24911 24913 24916 24919 24922 24925 24928 24931 24934 24937 24939 24942 24945 24948 24951 24954 24957 24960 24963 24966 24969 24972 24975 24978 24981 24984 24987 24990 24993 24996 24999 25002 25005 25008 25011 25014 25017 25020 25023 25026 25029 25032 25035 25038 25041 25044 25047 25050 25053 25056 25058 25061 25064 25067 25070 25072 25075 25078 25081 25084 25087 25090 25093 25096 25099 25102 25105 25108 25111 25113 25116 25119 25122 25124 25127 25130 25133 25136 25139 25142 25144 25147 25150 25153 25156 25159 25161 25164 25167 25170 25172 25175 25178 25181 25184 25187 25189 25192 25195 25197 25200 25203 25206 25209 25212 25215 25218 25221 25224 25227 25230 25233 25236 25239 25242 25245 25248 25251 25254 25257 25260 25262 25265 25268 25271 25274 25277 25279 25282 25285 25288 25291 25294 25297 25300 25303 25306 25308 25311 25314 25317 25320 25323 25326 25329 25332 25335 25338 25341 25344 25347 25350 25353 25356 25359 25362 25365 25368 25371 25374 25377 25380 25383 25386 25388 25391 25394 25397 25400 25403 25405 25408 25411 25414 25417 25420 25423 25425 25428 25431 25434 25437 25440 25443 25445 25448 25451 25453 25456 25459 25462 25465 25468 25471 25474 25476 25478 25481 25483 25486 25488 25491 25494 25497 25499 25501 25504 25506 25508 25511 25514 25517 25520 25523 25526 25529 25532 25535 25538 25541 25544 25547 25550 25553 25556 25559 25562 25565 25568 25571 25574 25577 25580 25583 25586 25589 25592 25595 25598 25601 25603 25606 25609 25612 25615 25617 25620 25623 25625 25628 25630 25633 25636 25639 25641 25644 25647 25649 25652 25655 25657 25659 25662 25665 25668 25671 25674 25677 25680 25683 25686 25689 25692 25695 25698 25701 25703 25706 25708 25711 25714 25717 25720 25722 25725 25728 25731 25733 25736 25739 25742 25744 25746 25749 25752 25755 25758 25761 25764 25767 25770 25773 25776 25779 25782 25785 25787 25790 25793 25796 25799 25802 25805 25807 25809 25812 25815 25818 25820 25823 25826 25828 25831 25834 25837 25840 25842 25845 25848 25850 25853 25856 25858 25861 25864 25866 25868 25871 25873 25876 25878 25881 25883 25886 25888 25891 25894 25897 25899 25902 25904 25907 25909 25912 25915 25917 25920 25923 25926 25929 25931 25934 25937 25940 25943 25946 25949 25952 25955 25958 25961 25964 25967 25970 25973 25975 25978 25981 25984 25987 25990 25992 25995 25998 26001 26004 26007 26010 26012 26015 26018 26020 26023 26026 26029 26031 26034 26037 26039 26042 26044 26047 26050 26053 26056 26059 26062 26065 26068 26071 26074 26077 26080 26083 26086 26089 26092 26095 26097 26100 26103 26105 26108 26111 26114 26117 26119 26121 26124 26127 26130 26133 26136 26139 26142 26145 26148 26151 26154 26157 26160 26163 26166 26168 26171 26174 26177 26180 26183 26186 26189 26192 26195 26197 26200 26203 26206 26209 26212 26214 26217 26220 26223 26226 26229 26232 26235 26238 26241 26244 26246 26248 26251 26254 26257 26260 26263 26266 26269 26272 26275 26277 26280 26283 26286 26289 26292 26295 26298 26301 26304 26307 26310 26313 26316 26319 26321 26324 26327 26330 26332 26334 26337 26340 26342 26345 26348 26351 26353 26356 26359 26362 26364 26367 26370 26373 26376 26379 26381 26384 26387 26390 26393 26396 26399 26401 26404 26407 26410 26413 26415 26418 26421 26424 26427 26430 26433 26436 26439 26442 26444 26447 26450 26453 26456 26459 26461 26464 26467 26469 26472 26475 26478 26481 26484 26487 26490 26493 26496 26499 26502 26505 26508 26511 26514 26517 26520 26523 26526 26529 26531 26534 26537 26540 26543 26546 26549 26551 26554 26557 26560 26563 26566 26569 26572 26575 26578 26581 26584 26587 26590 26593 26596 26599 26602 26605 26608 26610 26613 26616 26619 26621 26624 26626 26629 26632 26635 26638 26641 26644 26646 26649 26651 26654 26657 26660 26663 26665 26668 26671 26674 26677 26680 26683 26686 26689 26692 26694 26697 26700 26703 26706 26709 26712 26715 26718 26721 26724 26727 26729 26732 26734 26736 26739 26742 26744 26747 26749 26752 26755 26758 26760 26763 26766 26769 26772 26775 26778 26781 26783 26786 26789 26792 26794 26797 26800 26803 26806 26809 26812 26815 26818 26821 26824 26827 26830 26833 26836 26839 26842 26845 26848 26851 26853 26856 26859 26861 26864 26867 26869 26872 26875 26878 26881 26883 26886 26889 26892 26894 26896 26899 26902 26905 26907 26910 26913 26916 26919 26921 26924 26926 26928 26931 26934 26936 26939 26942 26945 26948 26950 26953 26955 26958 26961 26964 26967 26970 26973 26975 26978 26981 26983 26986 26989 26992 26995 26998 27001 27003 27006 27009 27012 27014 27017 27020 27023 27025 27028 27031 27034 27037 27040 27043 27046 27049 27052 27055 27058 27061 27064 27067 27069 27072 27075 27078 27081 27083 27086 27089 27092 27094 27097 27100 27103 27105 27108 27111 27114 27117 27120 27123 27126 27128 27131 27134 27136 27139 27142 27145 27148 27150 27153 27156 27159 27161 27164 27167 27170 27173 27176 27179 27182 27185 27188 27191 27194 27197 27200 27203 27206 27209 27212 27215 27218 27221 27224 27227 27230 27233 27236 27239 27242 27245 27248 27251 27254 27257 27260 27263 27266 27269 27272 27275 27278 27281 27284 27286 27289 27292 27295 27298 27301 27304 27306 27309 27311 27314 27317 27319 27322 27325 27328 27331 27334 27337 27340 27343 27346 27349 27352 27355 27357 27359 27362 27365 27367 27370 27373 27376 27378 27381 27384 27387 27390 27392 27395 27398 27401 27404 27406 27409 27411 27414 27417 27420 27423 27426 27429 27431 27433 27436 27438 27440 27443 27446 27449 27451 27453 27456 27458 27460 27463 27466 27469 27471 27474 27477 27480 27483 27486 27488 27490 27492 27495 27498 27501 27504 27506 27509 27512 27515 27517 27520 27523 27526 27528 27531 27534 27536 27539 27542 27545 27547 27550 27553 27555 27558 27560 27562 27565 27567 27570 27573 27576 27578 27580 27583 27586 27589 27592 27594 27597 27599 27601 27604 27606 27609 27612 27615 27618 27621 27624 27627 27630 27632 27635 27638 27641 27644 27647 27650 27653 27656 27659 27662 27665 27667 27670 27673 27676 27678 27680 27683 27685 27688 27690 27693 27696 27698 27700 27703 27705 27707 27710 27713 27715 27718 27721 27724 27727 27729 27731 27734 27737 27739 27742 27745 27747 27750 27753 27755 27758 27760 27763 27765 27768 27770 27773 27776 27778 27781 27784 27787 27789 27792 27794 27796 27799 27802 27804 27807 27810 27813 27816 27819 27822 27825 27827 27830 27833 27836 27839 27842 27845 27847 27850 27853 27856 27858 27861 27864 27867 27870 27873 27875 27878 27881 27884 27886 27889 27892 27895 27897 27899 27902 27905 27908 27910 27913 27916 27919 27922 27924 27927 27930 27933 27936 27939 27942 27944 27947 27950 27953 27956 27959 27961 27964 27967 27970 27973 27976 27979 27982 27985 27988 27991 27993 27996 27999 28002 28005 28008 28011 28014 28017 28020 28023 28026 28029 28032 28035 28037 28040 28043 28046 28049 28052 28054 28057 28060 28063 28066 28069 28072 28075 28078 28081 28084 28087 28090 28093 28096 28099 28102 28105 28108 28111 28114 28117 28120 28123 28126 28129 28132 28135 28138 28141 28144 28147 28150 28153 28156 28159 28162 28165 28168 28171 28174 28177 28180 28183 28186 28189 28192 28195 28198 28201 28204 28206 28209 28212 28215 28217 28220 28223 28226 28229 28231 28234 28237 28240 28242 28245 28248 28251 28254 28257 28260 28263 28266 28269 28272 28275 28278 28281 28284 28286 28289 28292 28295 28297 28299 28302 28305 28308 28310 28313 28316 28318 28321 28324 28326 28329 28332 28335 28337 28340 28343 28346 28349 28352 28355 28358 28360 28362 28365 28368 28371 28373 28376 28379 28382 28385 28388 28390 28393 28396 28399 28402 28404 28407 28410 28413 28416 28419 28421 28424 28427 28430 28433 28435 28438 28441 28444 28447 28450 28453 28455 28458 28461 28463 28466 28469 28472 28475 28478 28481 28484 28487 28489 28492 28495 28498 28501 28504 28507 28510 28513 28516 28519 28522 28525 28528 28531 28534 28537 28539 28542 28545 28547 28550 28553 28556 28558 28561 28564 28567 28570 28572 28575 28578 28581 28583 28586 28589 28592 28595 28598 28600 28602 28605 28608 28611 28614 28617 28620 28623 28626 28629 28632 28635 28638 28641 28644 28647 28650 28653 28656 28659 28662 28665 28667 28670 28673 28676 28679 28682 28684 28686 28689 28692 28695 28698 28700 28703 28706 28709 28711 28714 28716 28719 28722 28724 28727 28730 28733 28736 28738 28741 28744 28747 28749 28751 28754 28756 28758 28761 28764 28766 28769 28772 28775 28777 28780 28783 28786 28788 28791 28793 28796 28798 28801 28804 28807 28809 28812 28814 28816 28819 28822 28825 28828 28831 28834 28837 28840 28843 28846 28849 28852 28855 28858 28861 28864 28866 28869 28871 28874 28876 28879 28881 28883 28886 28889 28892 28894 28897 28900 28903 28906 28908 28911 28914 28917 28920 28922 28925 28928 28931 28934 28937 28940 28943 28946 28948 28950 28953 28956 28958 28960 28963 28966 28969 28972 28975 28978 28981 28984 28987 28990 28993 28996 28999 29002 29005 29007 29010 29013 29016 29019 29021 29024 29027 29030 29033 29036 29039 29042 29045 29048 29051 29054 29057 29060 29063 29065 29068 29070 29073 29076 29079 29082 29084 29087 29090 29093 29096 29099 29102 29104 29107 29110 29112 29115 29118 29121 29124 29127 29130 29133 29136 29139 29142 29145 29148 29151 29154 29157 29160 29163 29166 29169 29172 29175 29178 29181 29184 29187 29190 29192 29195 29198 29201 29204 29207 29210 29213 29216 29219 29222 29225 29228 29230 29233 29236 29239 29242 29245 29247 29250 29253 29256 29258 29261 29264 29267 29270 29273 29275 29277 29280 29283 29285 29288 29291 29294 29297 29300 29303 29306 29309 29312 29315 29318 29320 29323 29326 29328 29331 29334 29337 29340 29343 29346 29349 29352 29355 29358 29361 29364 29367 29370 29373 29376 29379 29381 29384 29387 29390 29393 29396 29399 29402 29405 29408 29411 29414 29417 29420 29423 29426 29429 29431 29434 29437 29440 29443 29445 29448 29451 29454 29457 29459 29462 29465 29468 29470 29473 29475 29478 29481 29484 29487 29489 29492 29495 29498 29501 29504 29507 29510 29513 29516 29519 29522 29524 29527 29530 29533 29536 29539 29542 29544 29547 29550 29553 29556 29559 29562 29565 29568 29571 29574 29577 29580 29583 29586 29589 29592 29595 29598 29600 29603 29606 29609 29612 29615 29618 29621 29623 29626 29629 29632 29635 29638 29641 29644 29647 29650 29653 29656 29659 29662 29665 29668 29671 29674 29677 29680 29683 29686 29689 29692 29695 29698 29701 29704 29707 29710 29713 29716 29719 29722 29725 29728 29731 29733 29736 29739 29742 29745 29748 29750 29753 29756 29759 29762 29765 29768 29771 29774 29777 29780 29783 29786 29789 29791 29794 29797 29800 29803 29805 29808 29811 29814 29816 29819 29822 29825 29828 29831 29834 29837 29840 29843 29846 29849 29852 29855 29858 29861 29864 29867 29870 29873 29876 29879 29882 29885 29888 29891 29894 29897 29900 29902 29905 29908 29910 29913 29916 29918 29921 29924 29927 29930 29932 29935 29938 29941 29944 29947 29950 29953 29956 29959 29962 29965 29968 29971 
</DataArray>
<DataArray type="UInt32" Name="types" format="ascii">
5 5 5 5 5 3 5 5 5 5 5 5 3 5 5 5 3 5 5 5 5 3 5 5 5 5 5 3 5 3 5 5 5 5 3 5 5 5 5 5 5 5 5 3 5 5 5 3 5 3 5 5 5 3 3 5 5 5 5 5 3 5 5 5 5 5 5 5 5 5 3 3 5 5 5 5 5 3 5 3 5 3 5 5 5 5 5 3 5 5 5 3 5 5 3 5 5 3 5 5 3 5 5 5 5 5 5 5 5 5 5 3 3 5 5 5 5 5 5 5 5 5 5 3 5 3 5 5 3 5 3 5 5 3 5 5 5 5 5 5 5 5 5 5 5 5 5 5 5 3 5 5 5 3 5 5 5 3 5 5 5 5 3 5 5 3 3 5 5 5 3 5 5 5 5 5 5 3 5 5 5 5 5 5 5 5 5 5 5 5 3 5 5 5 5 5 5 5 5 5 5 5 5 5 5 5 5 5 3 3 5 5 5 3 5 5 5 5 5 5 3 5 5 5 5 3 5 3 3 5 5 3 5 5 5 5 5 5 5 5 5 5 5 5 5 5 5 5 5 5 5 3 5 5 5 5 5 3 5 5 5 5 5 5 5 5 3 5 5 5 5 3 5 3 5 3 5 5 5 5 5 5 5 3 5 5 5 3 5 5 5 5 5 5 5 5 5 5 5 5 5 5 5 5 5 3 5 5 3 3 5 5 5 5 5 5 5 5 5 5 5 5 5 5 5 5 3 5 5 5 5 3 3 5 5 5 5 5 3 5 3 5 5 5 5 5 5 3 3 5 5 5 5 5 5 5 5 5 5 3 5 5 5 5 5 5 5 5 5 5 5 5 5 5 5 5 5 5 5 5 5 3 5 5 5 3 5 5 5 5 3 5 5 5 5 5 5 5 5 5 5 5 5 5 5 5 5 5 5 5 5 5 5 5 5 3 5 5 3 5 5 5 5 3 5 5 5 5 5 5 5 5 5 5 5 5 5 5 5 5 5 5 5 5 5 5 5 5 5 5 5 3 5 5 3 5 5 3 5 5 5 5 5 5 5 5 5 5 3 5 5 5 5 3 5 3 5 5 5 3 5 5 5 5 3 5 5 5 5 3 5 3 5 3 5 5 5 3 5 5 5 5 5 5 5 5 5 5 3 5 5 3 5 3 5 5 3 5 3 5 5 5 5 5 5 3 5 5 5 5 3 5 3 3 5 5 5 3 5 5 5 5 5 5 5 5 5 5 5 5 5 5 5 5 5 5 5 5 5 5 5 5 5 5 5 5 5 5 5 5 5 5 5 3 5 5 3 5 5 5 5 5 3 5 5 5 5 5 5 5 5 5 5 5 5 5 5 5 5 3 5 5 5 5 5 5 3 5 5 5 5 5 5 5 5 5 5 5 5 5 5 3 5 5 5 5 5 5 5 5 5 5 5 5 3 5 5 5 5 5 5 5 5 5 5 3 5 5 5 5 5 5 5 5 5 5 5 3 5 5 5 5 3 5 5 5 5 3 5 5 5 5 5 5 5 3 5 3 5 5 3 5 3 5 5 5 3 5 5 5 5 5 5 5 5 5 5 5 5 5 5 5 5 5 5 5 5 3 5 5 5 5 5 3 5 5 5 5 5 3 5 5 5 5 5 5 5 5 5 5 5 5 5 5 5 5 5 5 5 5 5 5 5 5 5 5 5 5 5 5 5 5 5 5 5 5 5 5 5 5 5 5 5 3 5 5 5 5 5 5 5 5 5 5 5 5 5 5 5 5 5 5 5 5 5 5 5 5 5 5 5 5 5 5 5 5 5 5 5 5 5 5 5 5 5 5 5 5 5 5 5 5 3 5 5 5 3 5 3 5 3 5 5 5 5 5 5 5 5 5 5 3 5 5 5 5 3 5 5 5 5 5 5 5 5 5 5 3 5 5 5 5 3 5 5 5 5 5 5 5 3 5 5 5 5 5 5 5 5 5 5 5 3 5 5 5 5 5 5 3 5 5 5 5 5 5 5 5 5 5 5 5 5 5 5 5 3 5 5 5 3 5 5 5 5 5 5 5 5 5 5 5 5 5 5 5 3 5 5 5 3 5 5 3 3 5 3 5 5 5 5 5 5 3 5 5 5 5 5 5 5 3 5 5 5 5 5 5 5 5 5 5 5 5 5 5 5 5 5 5 5 5 5 5 5 5 5 5 5 5 5 5 5 5 5 5 5 3 5 5 5 5 5 5 5 3 5 3 5 5 5 3 5 5 5 5 5 5 5 5 3 5 5 3 5 5 3 5 3 5 5 3 5 5 5 5 5 5 5 5 3 5 3 3 5 5 5 3 5 5 5 3 5 3 5 5 3 3 5 5 3 5 5 5 5 5 5 5 3 5 5 3 5 3 5 5 3 5 5 5 5 5 3 5 5 5 5 3 5 3 5 5 3 3 5 5 5 5 5 3 5 5 5 5 5 5 5 5 5 3 5 5 5 5 5 5 5 5 5 5 5 5 5 5 5 5 5 5 5 5 5 5 5 5 5 5 5 3 5 5 5 5 5 5 5 5 5 5 5 3 5 3 5 5 5 5 5 5 5 5 5 5 5 5 5 5 5 5 5 5 5 3 5 3 5 3 5 5 5 5 5 3 5 5 3 5 5 5 5 5 5 5 5 5 5 5 5 5 5 3 5 5 5 5 5 5 5 5 5 5 5 3 5 5 5 5 3 5 5 5 5 5 5 3 5 5 5 5 5 5 3 5 5 5 5 5 5 5 5 5 5 5 5 5 5 5 5 5 5 5 3 5 5 5 3 5 5 5 5 5 5 5 5 5 5 3 5 5 5 5 5 5 3 3 5 5 5 5 5 5 5 5 5 5 5 5 5 5 5 5 3 5 5 3 5 5 5 5 3 3 5 5 5 5 5 5 5 5 5 5 5 5 5 5 5 5 5 5 5 5 5 5 5 5 5 5 5 5 5 5 5 5 5 5 5 5 5 5 5 5 5 5 3 5 5 5 5 5 5 5 5 5 5 5 5 5 3 5 5 5 5 5 5 5 3 5 5 5 5 5 5 5 5 5 5 3 5 5 3 5 5 3 5 5 5 5 5 5 5 5 5 5 5 3 5 3 5 3 5 5 5 3 5 5 5 5 5 5 5 5 5 5 5 5 5 5 5 3 5 3 5 5 3 5 5 3 5 5 5 5 3 5 5 5 5 5 5 5 5 5 5 3 5 5 5 5 5 5 5 5 5 5 5 5 3 5 5 5 5 5 5 5 5 5 5 5 5 5 5 5 3 5 5 5 5 5 5 5 3 5 5 5 5 5 5 3 5 5 5 3 3 3 3 5 5 5 5 5 5 5 5 5 5 5 5 5 5 5 5 3 5 5 5 5 5 5 3 5 3 5 5 3 5 5 5 3 3 5 5 5 3 5 5 5 5 3 5 5 5 5 5 5 5 5 5 5 5 5 5 5 5 5 5 5 5 5 5 5 5 5 5 5 5 5 5 5 5 5 5 5 5 5 5 5 5 5 5 5 5 5 3 5 3 5 5 5 5 5 5 5 5 5 5 5 5 5 5 5 5 5 5 5 5 5 5 3 5 5 5 5 5 5 5 5 5 5 5 5 5 5 5 3 5 5 5 5 5 3 5 5 5 5 5 5 5 5 5 5 5 5 5 5 5 5 5 5 5 5 5 5 5 5 3 3 5 5 5 5 5 5 5 5 5 5 5 5 5 5 5 5 5 3 5 5 5 5 5 5 5 3 3 5 5 5 5 5 5 5 5 5 5 5 5 5 5 5 5 5 5 3 3 5 5 5 5 5 5 5 5 5 5 5 5 5 5 5 5 5 5 5 5 5 5 5 5 5 5 5 5 5 5 3 5 5 3 5 5 5 3 5 5 5 5 5 5 5 5 5 5 5 5 5 5 5 5 5 5 5 5 5 5 5 5 3 5 5 5 5 5 5 5 5 5 3 5 3 3 3 5 5 5 3 5 3 5 5 5 5 3 5 5 5 5 5 5 5 5 5 5 5 5 5 5 5 5 5 5 5 5 5 5 5 5 3 5 5 5 5 3 5 3 5 5 5 5 5 5 5 5 5 5 5 5 5 5 5 5 5 5 5 5 5 5 3 5 3 5 5 5 5 5 3 3 5 5 5 3 5 3 5 5 5 5 5 5 5 5 5 5 5 5 3 5 5 5 5 5 5 5 3 5 5 5 5 5 3 5 5 5 5 3 5 5 3 5 5 3 5 5 5 5 5 5 5 5 5 3 5 5 5 5 5 5 5 5 5 5 5 5 5 3 5 5 5 3 5 5 5 5 5 5 5 5 3 5 5 3 5 5 5 5 5 3 5 5 3 5 3 5 3 5 5 3 5 5 3 5 5 5 3 5 5 5 3 3 5 3 5 5 3 5 5 5 3 5 5 5 5 5 5 3 5 5 5 5 5 5 5 5 5 3 5 5 3 5 5 3 5 3 5 5 5 5 5 5 3 3 5 5 5 5 5 5 5 5 5 5 5 5 3 5 5 5 5 5 3 5 5 5 3 3 3 5 5 5 5 5 5 5 5 3 5 5 5 5 5 5 5 5 5 5 5 5 5 5 5 3 5 5 3 5 5 5 5 5 3 5 5 5 5 3 5 5 5 5 5 3 3 5 5 5 5 5 5 5 5 5 3 5 5 3 5 5 5 3 3 3 5 5 5 3 3 5 5 5 5 5 5 3 5 5 5 5 5 3 5 5 5 3 5 5 5 5 3 5 5 3 5 5 5 3 5 3 3 5 5 5 5 3 5 3 5 5 5 5 5 5 5 5 5 5 5 5 5 5 5 5 5 5 5 5 3 5 5 5 3 5 5 5 5 5 3 5 5 5 5 5 5 5 5 5 5 5 5 5 5 5 5 5 5 5 5 5 5 5 5 5 5 5 5 5 5 5 5 5 5 5 5 5 3 5 3 5 5 5 5 5 5 5 5 5 5 5 5 5 5 3 5 3 5 5 5 5 3 5 5 3 3 5 5 5 5 5 3 5 5 5 5 5 5 5 5 5 5 5 5 5 5 5 5 5 5 5 5 5 5 5 5 5 5 5 5 5 5 5 5 3 5 5 5 5 5 5 5 5 5 5 5 5 5 5 5 5 5 5 5 5 5 5 5 3 5 3 5 5 5 5 5 5 5 5 5 5 5 5 5 5 5 5 5 5 5 3 3 5 5 5 5 5 5 5 5 5 5 5 3 5 5 5 5 5 5 5 5 5 5 5 3 5 3 5 5 5 3 5 5 5 5 5 5 5 5 5 5 5 5 5 5 5 5 5 5 5 5 5 5 5 5 5 5 5 5 5 5 5 5 5 5 5 5 3 5 3 5 5 5 5 5 5 5 5 5 5 3 5 5 5 5 5 5 3 5 5 5 5 5 5 5 5 5 5 5 5 5 5 5 5 5 3 3 5 5 5 5 5 5 5 5 5 5 5 5 5 5 5 5 5 5 3 5 5 5 5 5 5 5 5 3 5 5 5 5 5 5 5 5 5 5 5 5 5 5 5 5 5 5 5 5 5 3 5 5 5 5 5 5 5 5 5 5 5 5 5 5 5 5 5 5 5 5 5 3 5 3 5 5 5 5 3 5 5 5 5 5 5 5 5 5 5 5 5 5 5 5 5 5 5 5 5 5 5 5 5 5 5 5 5 5 5 3 3 5 5 3 5 5 5 5 5 5 5 5 5 5 5 5 5 5 3 5 3 5 5 5 5 3 5 5 5 5 5 5 5 5 5 5 5 5 5 5 5 5 5 5 5 5 5 5 5 5 5 5 5 5 5 5 5 5 5 5 3 5 5 3 3 5 5 5 5 5 5 5 5 5 5 5 5 5 5 3 3 5 5 5 5 3 5 3 3 5 5 5 5 5 5 5 5 5 3 5 5 5 5 5 5 5 5 5 5 5 3 5 5 5 5 5 3 5 5 3 5 3 5 5 5 5 3 5 3 5 5 3 5 5 5 5 5 3 5 3 5 5 5 5 3 5 5 5 5 3 5 3 5 5 5 5 5 5 5 3 5 3 5 5 5 3 3 5 5 5 3 3 5 5 5 5 5 5 5 5 5 5 5 3 5 5 5 5 5 5 5 5 3 5 5 3 5 5 5 3 5 5 5 3 5 5 5 5 5 5 5 5 5 5 5 3 5 5 5 5 5 5 5 5 5 3 5 5 5 5 5 5 3 5 5 5 5 3 5 5 5 5 5 5 5 5 5 5 5 5 5 5 5 3 5 5 5 5 5 5 5 5 5 5 5 5 5 5 5 5 5 5 5 5 3 3 5 5 5 5 5 5 3 5 3 5 5 5 5 3 5 5 5 5 5 3 5 5 5 3 5 3 3 5 5 5 5 5 3 5 5 5 5 5 5 5 5 5 5 3 5 3 5 5 5 3 5 5 5 5 5 3 5 3 5 5 5 5 5 3 5 5 5 5 5 5 5 5 3 5 5 5 5 5 3 5 5 5 5 5 5 5 5 5 5 5 5 5 3 5 5 5 5 5 5 5 5 5 5 5 5 5 5 5 5 3 5 5 5 3 5 3 5 5 3 5 5 5 5 5 5 5 3 5 3 5 5 5 5 3 5 5 5 3 5 5 5 5 3 5 5 3 5 5 5 5 3 5 5 5 5 5 5 5 5 5 3 5 5 3 5 5 5 5 5 3 3 5 5 3 5 5 3 5 5 5 5 5 5 5 5 5 5 5 5 5 5 5 5 5 5 5 5 3 5 5 5 5 5 3 5 3 5 5 3 5 3 5 5 5 5 3 5 5 5 5 3 5 5 5 5 5 5 5 5 3 5 5 3 5 5 5 3 3 5 5 3 5 5 5 3 5 3 5 5 5 5 5 5 5 5 5 5 5 5 5 5 3 5 5 5 3 5 5 5 5 3 5 5 5 5 5 5 5 5 5 5 5 5 3 5 5 3 5 5 3 5 5 5 3 5 5 5 3 3 5 5 5 5 5 5 5 5 5 5 5 5 3 5 3 5 5 3 5 5 3 5 5 5 5 5 5 5 3 3 3 3 5 5 3 5 5 5 5 3 5 3 5 5 3 5 5 5 5 5 5 5 3 5 3 5 5 5 5 5 5 5 5 3 5 5 5 5 3 5 5 3 3 5 3 5 5 5 5 3 5 5 5 3 5 5 3 5 5 3 5 3 5 3 5 5 3 5 3 5 5 5 5 5 3 5 5 5 3 5 3 5 5 5 3 5 5 5 5 5 5 5 5 5 5 5 5 5 3 5 5 3 5 5 3 5 5 5 5 3 5 5 5 3 5 5 5 5 5 5 3 5 3 5 5 5 5 5 3 5 5 5 5 3 5 5 5 5 5 5 5 5 5 5 3 5 3 5 5 5 3 5 5 3 5 5 3 5 5 5 5 3 5 5 3 5 5 5 3 5 5 5 5 3 5 5 5 5 5 5 5 3 5 3 5 5 3 5 5 5 5 5 5 5 3 5 5 5 5 3 5 5 5 5 5 5 5 3 3 5 3 5 5 5 3 5 5 5 5 5 3 5 5 5 5 5 5 5 5 5 5 3 5 5 5 5 5 5 5 3 5 5 5 5 5 5 5 3 5 5 5 5 5 5 3 5 5 5 5 5 5 5 5 5 5 5 5 5 5 5 5 5 5 5 5 5 5 5 5 5 5 5 5 5 5 5 5 5 5 5 5 5 5 5 5 5 5 5 5 5 5 5 5 5 5 5 5 5 5 5 5 5 5 5 5 5 5 3 5 3 5 3 5 5 5 5 5 5 5 5 5 5 3 5 3 3 5 3 5 5 5 5 3 5 5 5 5 3 5 5 5 5 5 5 5 5 5 5 5 3 5 5 5 5 5 5 5 5 5 5 5 5 5 5 5 5 5 3 5 5 5 5 5 5 3 5 5 5 5 5 3 5 5 5 5 5 5 3 5 5 5 5 5 5 5 5 5 5 5 5 5 5 3 5 3 5 5 5 5 3 5 5 5 3 5 5 5 5 3 3 5 3 5 5 3 5 5 5 5 5 5 5 5 5 5 5 5 5 5 5 3 5 5 3 5 5 5 3 5 5 5 5 3 5 5 5 5 5 5 5 5 3 5 5 5 5 5 5 5 5 5 5 3 5 5 5 3 5 5 5 5 5 5 5 5 5 5 5 5 5 5 5 3 5 5 5 3 5 5 3 5 3 5 5 3 3 3 5 5 5 5 3 5 5 5 5 5 3 5 5 3 5 5 5 5 5 5 5 5 5 5 5 5 3 5 5 5 5 5 3 5 5 5 5 3 3 5 5 5 5 3 5 5 5 5 5 5 5 5 5 5 5 3 5 5 5 5 5 5 5 3 5 5 3 5 5 3 5 5 5 3 5 3 5 5 5 3 3 5 3 5 5 5 5 5 5 5 5 5 5 5 5 5 5 5 5 5 5 5 5 5 5 5 3 5 5 3 5 5 5 5 5 5 5 5 5 5 5 5 5 5 5 5 5 5 5 5 5 5 5 5 5 5 5 5 5 5 5 3 5 5 5 5 3 5 5 5 5 5 5 5 3 5 5 5 5 5 3 5 3 3 5 5 5 5 5 5 5 5 5 5 5 3 5 5 5 3 5 5 5 5 5 5 5 5 5 5 5 5 5 5 5 5 5 5 5 5 5 5 5 5 5 5 5 5 5 5 5 5 3 5 5 5 5 5 3 5 3 5 5 5 5 3 5 5 5 5 5 5 5 5 5 5 5 5 5 5 5 5 5 5 3 5 5 5 5 5 5 3 3 5 5 5 5 5 5 5 5 5 5 3 3 5 5 5 5 3 5 5 3 5 5 5 5 5 5 5 5 5 5 3 5 3 5 3 5 5 5 5 5 3 5 5 5 5 5 3 5 5 5 5 5 5 5 5 5 5 5 5 5 5 5 3 5 3 5 5 5 5 5 5 5 5 5 5 5 5 5 5 5 3 5 5 5 5 5 5 5 5 5 5 5 3 5 5 5 5 5 5 5 5 5 5 5 5 5 5 5 5 5 5 5 5 5 3 5 5 5 5 5 5 5 5 5 5 5 5 5 5 3 5 5 5 5 5 5 5 5 5 5 5 5 5 5 5 5 5 5 5 5 5 5 5 5 5 5 5 5 5 5 5 5 5 5 5 5 5 5 5 5 5 3 5 5 5 5 5 5 5 5 3 5 5 5 5 5 5 5 5 5 5 5 5 5 5 3 5 5 3 5 5 5 5 5 5 5 5 5 3 5 5 5 5 5 5 5 3 3 5 5 5 5 5 5 5 5 5 5 5 5 3 5 5 5 3 5 5 5 5 5 5 5 3 5 5 3 5 5 5 5 5 5 5 5 5 5 5 5 5 3 5 5 5 3 5 5 5 5 5 3 5 5 3 3 5 5 5 3 5 5 5 3 5 5 5 3 5 5 5 5 5 5 5 5 5 5 5 5 5 3 5 5 5 5 3 5 5 5 5 5 3 5 5 5 5 5 5 3 5 5 5 5 5 5 5 5 5 5 5 5 5 5 5 5 5 5 5 5 5 5 5 5 5 5 5 5 5 5 5 5 5 5 5 5 5 5 5 5 5 5 5 5 5 3 5 5 5 5 5 5 5 5 5 5 5 5 5 3 5 5 5 5 5 3 5 5 5 5 3 5 5 5 5 3 5 5 5 3 3 5 5 3 5 3 3 5 5 5 3 5 5 5 5 5 5 5 3 5 5 5 5 3 5 5 5 5 5 5 5 5 3 5 3 5 5 3 5 5 5 5 5 5 5 5 5 5 5 3 5 3 5 5 5 5 5 5 5 3 5 5 5 5 5 3 5 5 5 5 5 5 5 5 5 3 5 5 5 5 5 5 5 5 5 5 5 5 5 5 5 5 5 5 5 5 5 5 5 5 5 5 5 5 5 5 5 5 5 5 5 5 5 5 5 5 5 3 5 5 5 5 5 5 5 5 5 5 5 5 5 5 5 5 3 5 5 5 5 5 5 5 5 5 5 5 5 5 5 5 5 5 5 5 5 5 5 5 5 5 5 5 5 5 5 5 5 5 5 5 5 5 5 5 5 5 5 5 5 5 5 5 5 5 5 5 5 5 5 5 5 5 5 5 5 5 5 5 5 5 5 5 5 5 5 5 5 5 5 5 5 5 5 5 5 5 5 5 5 5 5 5 5 5 5 5 5 5 5 5 5 5 5 5 5 5 5 5 3 5 5 5 5 5 5 5 5 5 5 5 5 5 3 5 5 5 5 5 5 5 5 5 5 3 5 5 5 5 5 5 5 5 5 5 5 5 5 5 5 5 5 5 5 5 5 5 5 5 5 5 5 3 5 5 5 5 5 5 5 5 3 5 5 5 5 5 5 5 5 5 5 5 5 5 5 5 3 5 5 5 5 5 5 5 5 5 5 5 5 3 5 5 5 5 5 5 5 5 5 5 5 5 5 5 5 5 5 5 5 5 5 5 5 5 5 5 3 3 5 5 5 5 5 5 5 3 5 5 5 5 3 5 3 5 5 5 5 3 5 5 3 5 5 3 5 5 5 5 5 5 5 5 5 5 5 5 5 5 5 5 5 5 5 5 5 5 5 5 5 5 5 5 5 5 5 5 5 5 5 5 5 5 5 5 3 5 5 5 3 5 5 5 5 5 5 5 5 5 3 5 5 5 5 5 5 3 5 5 5 3 5 5 5 3 5 5 5 5 5 5 5 3 3 3 5 3 3 5 5 3 3 5 5 5 5 5 5 5 5 5 5 5 5 5 5 5 5 5 5 5 5 5 5 5 5 5 5 3 3 5 5 5 3 3 5 3 5 3 5 3 3 5 5 5 5 5 3 5 5 5 5 3 5 5 5 5 5 5 5 3 5 3 5 5 3 5 5 5 5 3 5 5 5 5 5 5 5 5 5 5 5 5 5 5 5 5 5 3 5 5 3 5 5 3 5 5 5 5 3 5 5 5 5 5 3 5 5 5 3 5 3 5 5 5 5 5 3 3 5 3 5 5 3 5 5 5 5 5 3 5 5 5 5 5 5 5 5 3 5 5 5 5 5 5 5 5 5 3 5 5 5 5 5 5 5 5 5 5 5 5 5 5 5 5 5 5 5 5 5 5 5 5 5 5 5 5 5 5 5 5 5 5 5 5 5 5 5 5 5 5 5 5 5 5 5 5 5 5 5 5 5 5 5 5 5 5 5 5 5 5 5 5 5 5 5 5 5 5 5 5 5 5 5 5 5 3 3 5 5 3 5 5 5 5 5 5 5 3 5 5 5 5 5 5 5 5 3 5 5 5 5 5 5 5 5 3 5 5 5 5 5 5 5 5 5 5 5 5 5 5 5 5 5 5 5 5 5 5 5 5 5 5 5 3 5 5 5 3 5 5 5 3 3 5 5 3 3 5 5 3 3 5 5 5 5 5 5 5 5 5 5 5 5 5 5 5 5 5 5 5 3 5 5 5 5 3 5 5 5 5 5 5 5 5 5 5 5 5 5 3 5 5 5 5 5 5 5 5 5 5 5 3 5 5 5 3 5 5 3 3 5 5 5 5 5 5 5 5 3 5 5 5 5 5 3 5 5 5 5 5 5 5 5 5 5 5 5 5 5 3 5 3 3 5 5 5 5 5 3 5 5 5 3 5 3 5 5 3 5 5 5 5 3 5 5 5 3 5 5 5 5 3 5 5 3 5 5 3 5 5 5 5 5 5 5 5 5 5 5 5 5 5 5 5 5 5 5 5 5 5 5 5 5 5 5 5 5 5 5 5 5 5 5 5 5 5 5 5 5 5 5 5 5 5 5 5 5 5 5 5 5 5 5 5 5 5 5 5 5 5 5 5 5 5 5 5 5 5 5 5 5 5 5 5 5 5 5 5 5 5 5 5 5 5 5 5 5 5 5 5 5 5 5 5 5 5 5 5 5 5 5 5 5 5 5 5 5 5 5 5 5 5 5 5 5 5 5 5 5 5 5 5 5 5 5 5 5 5 5 5 5 5 5 5 5 5 5 5 5 5 5 5 5 5 5 5 5 5 5 5 5 5 5 5 5 5 5 5 3 5 5 5 5 5 5 5 5 5 3 3 5 5 3 5 3 5 3 5 5 5 5 5 5 5 5 5 5 5 5 5 5 5 5 5 5 5 5 5 5 5 5 5 5 5 5 5 5 5 5 5 5 5 5 5 5 5 5 5 5 5 5 5 5 5 5 5 5 5 5 5 5 5 5 5 5 5 5 5 5 5 5 5 5 5 5 5 3 5 5 5 5 5 5 5 5 5 5 5 5 5 5 5 5 5 5 5 5 5 5 5 5 5 5 5 5 5 5 5 5 5 5 5 5 5 5 5 5 5 5 5 5 3 5 5 5 5 5 5 5 5 5 5 3 5 5 5 5 5 5 5 5 5 5 3 5 5 5 5 5 5 5 5 5 5 5 5 5 5 5 5 5 3 5 5 3 5 5 5 5 5 5 5 5 5 3 5 3 5 3 5 5 5 5 5 5 5 5 3 5 5 3 5 5 5 5 5 5 5 5 3 5 5 5 5 5 5 5 5 5 5 5 5 5 5 5 5 5 5 5 5 5 5 5 5 5 5 5 5 5 3 3 5 3 5 5 5 5 3 5 5 5 5 3 3 5 5 5 5 5 5 5 5 5 5 5 5 5 5 3 5 3 3 5 5 5 3 5 5 5 5 5 5 5 5 5 5 5 5 5 5 5 5 5 5 5 3 5 5 5 5 5 5 5 5 5 5 5 5 5 5 5 5 5 5 5 5 3 5 5 5 5 5 5 5 5 5 3 5 5 3 5 5 5 5 5 5 5 3 5 5 5 5 5 5 5 5 5 5 5 5 5 5 5 5 5 5 5 5 3 5 3 3 5 3 5 5 5 5 5 5 5 5 5 5 5 5 5 5 5 5 5 5 5 5 3 5 3 5 5 5 5 5 5 5 5 5 5 5 5 3 5 5 5 5 5 5 5 5 5 5 5 3 5 5 5 5 5 5 5 5 5 5 5 5 5 5 5 5 5 5 5 5 5 5 5 3 5 5 5 5 5 5 5 5 5 5 5 5 5 5 5 5 5 5 5 3 5 5 5 5 5 3 5 5 3 5 5 3 5 5 5 5 5 5 5 5 5 5 5 5 3 5 5 3 5 5 5 5 5 5 5 5 5 5 5 5 5 5 5 5 5 5 5 5 5 5 3 5 5 5 5 3 5 3 5 5 5 5 5 5 5 5 5 5 5 5 5 3 5 3 3 5 3 5 3 5 5 5 5 5 5 3 5 5 5 5 5 5 5 5 5 5 5 5 5 5 3 5 5 5 3 5 5 5 5 5 5 3 5 5 3 5 5 5 5 5 5 5 3 5 5 5 5 5 5 5 5 5 5 5 5 5 5 5 5 5 5 5 5 5 5 3 5 3 5 5 5 5 5 5 5 3 5 5 5 5 5 5 5 5 5 3 5 5 5 5 5 5 5 5 5 5 5 5 5 5 5 5 5 5 3 5 3 5 5 5 3 5 3 5 5 5 5 5 5 3 5 5 5 5 5 5 5 5 5 5 5 3 5 5 3 5 5 5 5 5 3 3 5 3 5 5 3 3 5 3 5 5 5 5 5 5 5 5 5 5 5 5 5 5 5 5 5 5 5 5 5 5 5 5 5 5 5 3 5 5 5 3 5 5 5 5 5 5 5 5 5 5 5 5 5 5 5 3 5 5 5 5 5 5 3 5 5 5 5 5 5 3 5 5 5 5 5 5 5 5 5 5 3 3 5 5 5 5 5 5 5 5 5 5 5 5 5 5 5 3 5 5 5 3 3 5 5 5 5 5 5 5 5 5 5 5 3 5 5 5 5 5 5 5 5 5 5 5 5 5 5 5 5 5 5 5 5 5 5 5 5 5 5 5 5 5 5 5 5 5 5 5 5 5 5 5 5 5 3 5 3 5 5 5 5 5 5 5 3 5 5 5 5 5 3 5 5 5 3 5 5 5 5 5 5 5 5 5 5 5 3 3 5 3 3 5 5 3 5 5 5 3 5 5 5 5 3 5 5 5 5 5 5 5 3 5 5 5 5 5 5 5 5 5 5 5 5 5 5 5 3 5 5 5 5 5 5 5 5 3 5 5 5 3 3 3 5 5 5 3 5 5 5 3 5 5 5 5 3 3 5 3 5 5 5 3 5 5 5 5 5 3 5 5 5 5 3 5 5 5 5 3 5 5 5 5 5 5 5 5 5 5 5 5 5 5 5 5 3 5 5 5 5 3 5 3 5 5 5 5 5 5 5 5 5 5 5 5 3 5 5 5 5 5 5 5 5 5 5 5 3 5 5 5 5 5 5 5 5 3 5 5 5 3 5 3 5 5 5 5 5 5 5 5 5 5 5 5 5 5 5 5 5 5 5 5 5 5 5 5 5 5 5 5 5 5 5 5 3 5 5 5 5 5 5 5 5 5 5 5 5 5 5 5 5 5 5 5 5 5 5 5 5 5 5 5 5 5 5 5 5 5 3 5 3 5 3 5 5 5 5 5 5 5 5 5 5 5 5 5 5 3 5 5 5 3 5 5 5 5 5 5 5 5 5 5 5 3 5 5 5 5 5 5 5 5 5 5 5 5 3 5 5 5 3 5 5 5 5 5 5 5 5 5 5 5 5 5 5 5 3 5 3 5 5 5 5 5 3 5 5 5 5 5 5 5 5 5 5 5 5 5 5 5 5 5 5 5 5 5 5 5 5 5 5 5 5 5 5 5 5 5 5 5 5 5 5 5 5 5 5 5 5 5 5 5 5 5 5 5 5 5 5 5 3 3 5 5 5 5 5 5 5 5 5 3 5 5 5 5 5 5 5 5 5 3 5 5 5 3 5 5 5 5 5 5 5 5 3 5 5 5 3 5 5 5 3 5 5 5 5 5 5 5 5 5 5 5 5 5 5 5 5 5 5 5 5 5 5 5 5 5 3 5 5 5 3 5 5 5 5 5 5 5 5 5 5 5 5 5 5 5 3 5 3 5 5 5 5 5 5 3 5 5 5 5 5 5 5 3 5 5 5 3 5 5 5 5 3 5 5 3 5 5 5 5 3 5 5 5 5 5 5 3 5 5 5 5 5 5 5 5 5 5 5 5 5 5 5 5 5 5 5 5 5 5 5 5 5 5 5 3 5 5 5 3 5 5 5 5 5 5 5 5 3 3 5 5 5 5 5 5 5 3 5 5 3 5 5 5 3 5 5 3 5 5 5 3 5 3 3 5 3 3 5 5 5 3 3 5 5 5 3 5 5 5 3 5 5 5 5 5 5 5 5 5 5 5 5 5 5 5 5 5 5 5 5 3 5 5 5 5 3 5 5 5 5 5 5 5 3 5 5 3 5 5 5 5 5 3 3 5 5 3 3 5 5 5 5 5 5 5 5 3 3 5 3 5 5 5 5 3 5 5 3 5 5 5 5 5 5 5 5 5 5 5 5 3 5 5 3 5 5 5 5 5 5 5 5 5 5 5 3 5 5 5 5 5 5 5 5 5 5 5 5 5 5 5 5 5 5 5 5 5 5 5 5 5 3 5 3 5 5 5 5 5 5 3 5 5 5 5 5 5 5 5 5 5 5 5 5 5 5 5 5 5 5 5 5 5 5 5 5 5 3 5 5 5 3 5 5 5 5 5 5 3 5 5 5 3 5 5 5 5 3 5 5 5 5 5 5 5 5 5 3 5 5 5 5 5 5 5 5 5 5 5 5 5 5 5 5 5 5 5 5 5 5 3 5 5 5 5 3 5 5 5 5 5 5 5 5 5 5 5 5 5 5 5 3 5 5 5 5 5 3 5 5 5 5 5 5 3 5 5 3 5 5 5 5 5 3 5 5 5 5 5 3 5 5 5 5 5 5 5 3 5 3 5 5 5 5 3 5 5 5 3 5 5 3 5 5 5 3 5 5 5 5 3 3 5 5 5 5 5 5 3 5 5 5 3 3 5 5 5 5 5 5 5 5 5 5 5 5 5 5 5 5 5 5 5 5 5 5 5 5 5 5 5 5 3 5 5 5 5 5 5 5 5 3 5 5 5 5 3 5 5 5 5 5 5 5 5 5 5 5 5 5 3 5 3 5 5 5 5 3 5 5 5 5 5 5 5 5 5 5 5 5 5 5 5 5 5 5 5 3 5 5 5 5 5 5 5 5 5 5 5 5 3 5 3 5 5 5 3 5 5 5 5 5 5 5 5 5 5 5 5 5 5 5 5 5 5 3 5 5 5 5 5 5 3 5 5 5 5 5 5 5 3 5 5 3 5 5 5 5 5 5 5 5 5 5 5 5 5 5 5 5 5 5 3 5 5 5 5 3 5 5 5 5 5 5 5 3 3 5 5 5 3 5 5 5 5 3 5 5 5 5 5 5 5 5 3 5 5 5 5 5 5 5 5 5 3 5 5 5 5 3 5 5 5 5 5 5 3 5 5 5 5 5 5 5 5 5 3 5 5 5 5 5 5 5 5 5 5 5 5 5 3 5 5 5 3 5 3 5 5 5 3 5 5 5 5 3 5 5 5 3 5 5 5 5 3 5 5 5 5 5 5 5 5 5 3 5 5 5 5 5 5 5 5 5 5 3 5 5 5 5 3 5 5 5 5 5 5 5 5 5 5 5 5 5 5 5 5 5 5 5 5 5 5 5 3 5 3 3 5 5 5 5 5 5 3 5 5 5 3 3 5 3 3 5 3 5 5 5 5 5 3 5 5 5 5 5 5 5 3 5 5 3 5 5 5 5 5 3 3 5 5 3 3 5 5 5 5 5 5 3 5 5 3 5 3 5 5 5 5 5 5 3 5 3 5 5 5 5 5 5 5 5 5 5 5 5 3 5 5 5 5 5 5 3 5 3 5 3 5 5 5 5 5 5 5 5 5 5 5 5 5 5 5 3 5 5 5 5 3 5 5 5 3 5 5 5 5 5 5 5 3 5 5 5 5 5 3 3 5 5 5 5 3 5 5 5 5 5 5 5 3 3 5 5 5 5 5 5 3 5 3 5 5 5 5 5 5 5 5 3 5 5 5 5 5 3 5 5 3 5 5 3 5 3 5 5 5 3 3 5 5 5 5 5 5 3 5 3 5 5 5 3 5 5 3 5 5 5 5 5 5 5 5 5 5 5 5 5 5 5 5 5 3 5 5 5 3 5 3 5 5 5 5 5 3 3 5 5 5 3 5 5 5 5 5 3 5 5 5 5 5 5 5 3 5 5 5 5 5 5 5 5 5 5 3 5 3 5 5 5 5 5 5 5 5 3 5 5 3 3 5 3 5 5 3 5 5 5 5 3 5 3 5 5 5 5 3 5 5 5 5 3 5 5 5 5 3 3 5 5 5 5 5 5 5 5 3 5 5 5 5 5 3 5 5 5 5 5 5 5 5 5 5 5 5 5 5 3 5 5 3 5 5 5 5 5 3 5 5 3 5 5 5 5 3 5 5 3 3 3 5 5 5 5 3 5 3 5 5 5 3 5 5 3 5 5 5 5 5 5 5 5 5 5 5 5 5 5 5 5 5 5 5 5 5 5 5 5 5 3 5 5 5 5 5 5 5 5 3 5 5 5 5 5 5 5 5 5 5 5 5 5 5 5 5 5 3 5 5 5 5 5 5 3 3 5 3 5 5 5 3 3 5 5 5 5 5 5 5 5 5 5 5 5 5 5 3 5 3 5 5 5 5 5 5 5 5 5 5 5 5 5 5 5 5 5 5 5 5 5 5 5 5 5 5 5 5 5 5 5 5 5 5 5 5 5 5 5 5 5 5 5 5 5 5 5 5 5 3 5 5 3 5 5 5 5 5 5 5 3 5 3 5 5 5 5 5 5 5 5 5 3 5 5 5 5 3 5 5 5 5 5 3 5 5 5 5 5 5 5 5 5 5 5 5 5 5 5 5 5 5 5 5 5 5 5 5 5 5 5 3 5 5 5 5 5 5 5 3 5 5 5 5 3 5 3 5 5 5 5 3 5 5 5 3 5 5 5 5 5 5 5 5 3 5 5 5 5 5 5 5 5 5 5 5 5 5 5 5 5 5 5 5 5 5 3 5 5 5 5 5 3 5 5 5 5 3 5 5 5 5 5 3 5 5 5 5 5 3 5 5 5 5 5 5 5 5 5 5 3 5 5 5 5 5 5 5 5 5 5 5 3 5 5 5 5 5 3 5 5 5 5 5 5 5 5 5 5 5 3 5 5 5 5 5 5 5 5 5 5 5 5 5 5 5 5 5 5 5 5 5 5 5 5 5 5 5 5 5 5 5 5 5 5 5 5 5 5 5 3 5 5 3 5 5 5 5 5 5 5 5 5 5 5 5 5 5 5 5 5 5 5 5 5 5 5 5 5 5 5 5 5 5 5 5 5 3 5 5 5 5 3 5 5 5 5 5 3 5 5 5 5 3 5 5 3 5 5 5 5 5 5 5 3 3 5 5 5 5 5 3 5 3 5 5 3 5 5 3 5 5 5 5 5 5 5 5 5 5 5 5 5 5 5 5 5 5 5 5 5 5 5 5 5 5 5 5 5 5 5 5 5 5 5 5 5 5 5 5 5 5 5 5 5 5 5 5 5 5 3 5 5 5 5 5 5 5 5 5 5 5 5 5 5 5 5 3 5 3 5 5 5 5 3 5 5 3 5 3 5 3 5 5 5 5 3 5 5 5 5 5 5 5 5 5 5 5 5 5 5 5 3 5 5 5 5 5 5 5 3 5 5 5 3 5 5 5 5 5 5 5 5 3 5 3 5 5 5 3 5 5 5 5 5 3 5 5 5 5 5 5 5 5 5 5 5 5 5 5 5 5 3 5 5 3 5 5 5 5 5 5 5 5 5 5 3 5 5 5 5 5 5 5 5 3 5 3 5 5 5 5 5 5 5 5 5 5 5 3 3 5 5 5 5 5 3 5 3 5 5 5 3 5 3 5 5 5 5 5 5 5 5 3 5 5 5 3 5 5 5 5 5 5 5 5 5 5 5 5 5 5 5 5 5 5 5 5 5 5 5 5 5 5 5 5 5 5 5 5 5 5 5 3 5 5 5 5 5 5 5 5 5 5 5 5 5 5 5 5 5 5 5 5 5 5 5 3 5 5 5 5 5 5 3 5 3 5 5 3 5 5 5 5 3 5 3 5 5 5 5 5 5 5 3 5 5 5 5 5 5 5 5 5 5 5 5 5 5 5 5 5 5 5 5 5 5 3 5 5 3 5 5 5 3 5 5 5 5 5 5 5 5 5 5 5 5 5 5 5 3 5 5 5 5 5 5 5 5 3 5 5 5 5 3 5 5 5 5 5 5 5 5 3 5 5 3 3 5 5 5 5 5 5 5 5 5 5 5 5 3 5 5 3 5 5 3 5 5 5 3 5 5 5 5 5 5 5 5 5 5 3 5 5 5 5 5 5 5 5 5 5 5 5 5 5 3 3 5 5 5 5 5 5 5 5 5 5 5 5 5 5 5 5 5 5 5 5 5 5 5 5 5 5 5 5 5 5 5 5 3 5 5 3 5 5 5 5 5 5 5 5 5 5 5 5 5 3 5 5 5 5 5 5 5 5 3 5 5 5 5 5 5 5 5 3 5 5 5 5 5 5 5 5 5 5 5 5 5 5 5 5 5 5 5 5 5 5 5 5 5 5 5 5 5 5 5 5 5 5 5 5 5 5 5 3 5 5 5 5 3 5 5 5 5 5 5 5 5 5 5 5 5 5 3 5 5 5 3 5 5 5 5 5 5 3 5 5 5 5 5 3 5 5 5 3 5 5 5 5 5 3 5 5 3 5 5 5 5 5 5 5 5 5 5 5 5 5 5 5 5 5 5 5 5 5 3 5 5 5 5 5 3 5 5 5 5 5 5 5 5 5 3 5 5 5 5 5 5 5 5 5 5 5 5 5 5 5 5 5 5 5 5 5 5 5 5 5 5 3 5 5 5 5 5 3 5 5 5 5 5 5 3 5 5 5 5 5 5 3 5 5 3 5 5 5 5 5 5 5 3 3 5 3 5 3 5 5 5 3 3 5 3 3 5 5 5 5 5 5 5 5 5 5 5 5 5 5 5 5 5 5 5 5 5 5 5 5 5 5 5 5 5 5 5 3 5 5 5 5 3 5 5 3 5 3 5 5 5 3 5 5 3 5 5 3 3 5 5 5 5 5 5 5 5 5 5 5 5 5 5 3 5 3 5 5 5 5 3 5 5 5 3 5 5 5 3 3 5 5 5 5 5 5 5 5 5 5 5 5 5 3 5 5 5 5 5 5 3 3 5 5 5 3 5 5 3 5 5 5 5 3 5 5 3 5 5 3 5 5 3 3 5 3 5 3 5 3 5 3 5 5 5 3 5 3 5 3 5 5 3 5 5 5 5 3 5 5 5 5 5 5 5 5 5 5 5 5 5 5 3 5 5 5 5 5 3 5 5 5 5 5 5 3 5 5 3 5 5 5 3 5 5 3 5 3 5 5 5 5 5 5 5 5 5 5 5 5 5 5 5 5 5 3 5 5 3 5 5 5 5 3 3 5 5 5 5 5 5 5 5 5 5 5 5 5 5 5 3 5 5 5 5 5 5 5 5 5 3 5 5 5 5 5 3 5 5 5 5 5 5 5 5 5 5 3 3 5 5 5 5 5 5 5 5 5 3 5 5 5 5 5 5 5 5 5 5 5 5 5 5 3 5 5 5 3 3 5 5 3 5 5 5 3 5 5 5 3 5 5 5 5 5 3 5 5 5 5 5 5 3 5 5 5 5 3 5 5 5 5 5 5 5 5 5 3 5 5 5 5 5 3 5 5 3 5 5 5 5 5 5 5 5 5 5 5 5 5 5 5 5 5 5 5 5 3 5 5 5 5 5 5 3 5 5 5 5 5 5 5 5 5 5 5 5 5 5 5 5 5 5 5 3 5 5 5 3 5 3 5 5 5 5 5 5 3 5 3 5 5 5 5 3 5 5 5 5 5 5 5 5 5 3 5 5 5 5 5 5 5 5 5 5 5 3 5 3 3 5 5 3 5 3 5 5 5 3 5 5 5 5 5 5 5 3 5 5 5 3 5 5 5 5 5 5 5 5 5 5 5 5 5 5 5 5 5 5 5 3 5 5 3 5 5 3 5 5 5 5 3 5 5 5 3 3 5 5 5 3 5 5 5 5 3 5 3 3 5 5 3 5 5 5 5 3 5 3 5 5 5 5 5 5 3 5 5 3 5 5 5 5 5 5 3 5 5 5 3 5 5 5 3 5 5 5 5 5 5 5 5 5 5 5 5 5 5 3 5 5 5 5 3 5 5 5 3 5 5 5 3 5 5 5 5 5 5 5 3 5 5 3 5 5 5 5 3 5 5 5 3 5 5 5 5 5 5 5 5 5 5 5 5 5 5 5 5 5 5 5 5 5 5 5 5 5 5 5 5 5 5 5 5 5 5 5 5 5 5 5 5 5 3 5 5 5 5 5 5 3 5 3 5 5 3 5 5 5 5 5 5 5 5 5 5 5 5 3 3 5 5 3 5 5 5 3 5 5 5 5 3 5 5 5 5 3 5 3 5 5 5 5 5 5 3 3 5 3 3 5 5 5 3 3 5 3 3 5 5 5 3 5 5 5 5 5 3 3 3 5 5 5 5 3 5 5 5 3 5 5 5 3 5 5 3 5 5 5 3 5 5 3 5 3 3 5 3 5 5 5 3 3 5 5 5 5 3 5 3 3 5 3 5 5 5 5 5 5 5 5 3 5 5 5 5 5 5 5 5 5 5 5 3 5 5 5 3 3 5 3 5 3 5 5 3 3 5 3 3 5 5 3 5 5 5 5 3 3 5 5 3 5 5 3 5 5 3 5 3 5 3 5 3 5 5 3 5 5 5 3 5 3 3 5 5 3 5 5 5 5 5 5 5 3 5 5 5 5 5 5 3 5 5 5 3 5 5 5 5 5 3 5 5 5 3 5 5 5 3 3 5 5 5 3 5 5 5 5 3 5 5 5 5 5 5 3 5 5 5 5 5 3 5 5 5 5 5 5 5 5 5 5 3 5 5 5 5 5 5 5 5 5 5 5 5 5 5 3 5 5 5 5 5 3 5 5 5 5 5 5 5 5 5 5 5 5 5 5 5 5 5 5 5 5 5 5 5 5 5 5 5 5 5 5 5 5 5 5 5 5 5 5 5 5 5 5 5 5 5 5 5 5 5 5 3 5 5 5 3 5 5 5 5 3 5 5 5 3 5 5 5 5 5 5 5 5 5 5 5 5 5 5 3 5 5 5 3 3 5 5 5 3 5 5 3 5 5 3 5 5 5 3 5 5 5 5 5 5 5 3 3 5 5 5 3 5 5 5 5 5 3 5 5 5 5 3 5 5 5 5 5 3 5 5 5 5 3 5 5 5 5 5 5 3 5 5 3 5 5 5 5 5 5 5 5 3 5 5 5 5 5 5 5 5 5 5 5 5 5 5 5 5 3 5 5 3 5 5 5 3 5 5 5 5 3 5 5 5 3 5 5 5 5 5 3 3 5 5 5 5 5 5 5 5 5 5 5 5 5 5 5 5 5 5 5 5 5 3 5 5 5 5 5 3 3 5 5 5 5 3 5 5 5 3 5 3 5 5 3 5 5 5 5 3 5 5 5 3 3 5 3 3 5 5 3 5 5 5 3 5 5 5 3 5 3 5 3 5 5 5 3 5 3 3 5 5 5 5 5 5 5 5 5 5 5 5 5 5 5 5 3 5 3 5 3 5 3 3 5 5 5 3 5 5 5 5 3 5 5 5 5 3 5 5 5 5 5 5 5 5 3 3 5 5 3 3 5 5 5 5 5 5 5 5 5 5 5 5 5 5 5 3 5 5 5 5 3 5 5 5 5 5 5 5 5 5 5 5 5 5 5 3 5 3 5 5 5 5 3 5 5 5 5 5 5 3 5 5 3 5 5 5 5 5 5 5 5 5 5 5 5 5 5 5 5 5 5 5 5 5 5 5 5 5 5 3 5 5 5 5 5 5 5 5 5 5 5 5 3 5 5 5 5 5 3 5 5 5 3 5 5 5 5 5 3 3 5 5 3 5 5 5 5 5 5 5 5 5 5 5 3 5 5 3 5 5 5 5 5 5 5 5 5 5 5 5 5 5 5 5 5 3 5 5 5 5 5 5 5 5 5 5 5 5 5 5 5 5 3 5 5 5 5 3 5 5 5 5 3 5 5 5 3 5 3 5 5 5 5 3 5 5 5 5 5 5 5 5 5 5 5 3 5 5 5 5 5 5 3 5 5 5 5 5 5 5 5 5 5 5 5 5 5 5 5 5 5 3 5 5 5 5 5 5 5 3 5 5 5 5 5 5 5 5 5 5 5 5 5 5 5 5 5 5 5 5 5 5 5 5 5 5 5 5 5 5 5 5 5 5 5 5 3 5 5 5 5 5 3 5 5 5 5 5 5 5 5 5 5 5 5 5 3 5 5 5 5 3 5 5 5 3 5 5 5 5 5 5 5 5 5 5 5 5 5 5 5 5 5 5 5 5 5 5 5 5 5 5 5 5 3 5 5 3 5 5 3 5 5 5 5 3 5 5 5 5 5 5 5 5 5 5 5 5 5 
</DataArray>
</Cells>
<PointData Scalars="" Vectors="displacement," Tensors="">
<DataArray type="Float64" Name="displacement" NumberOfComponents="3" format="ascii">
0.054999280810913535 0.054998765510995792 0 0.054733487048217275 0.05401502376926267 0 0.048392606223558253 0.054997772981174767 0 0.054999280810913535 0.054998765510995792 0 0.054733487048217275 0.05401502376926267 0 0.054997299732531334 0.048253990100565136 0 0.054997299732531334 0.048253990100565136 0 0.057822340657833864 0.050018169890619538 0 0.05704034385544797 0.046806703818978522 0 0.054733487048217275 0.05401502376926267 0 0.054997299732531334 0.048253990100565136 0 0.057822340657833864 0.050018169890619538 0 0.060267072397719813 0.05033193040444868 0 0.061254696384433663 0.047774067091884267 0 0.058833101272685137 0.046826354956285905 0 0.0602452071810421 0.050162384519843735 0 0.059059870919177714 0.047199184289557515 0 0.057822340657833864 0.050018169890619538 0 0.060267072397719813 0.05033193040444868 0 0.059245865780828293 0.047486163464993278 0 0.057822340657833864 0.050018169890619538 0 0.059401467445967984 0.051642013064785233 0 0.058761920601952088 0.053135732679564035 0 0.054733487048217275 0.05401502376926267 0 0.057822340657833864 0.050018169890619538 0 0.058761920601952088 0.053135732679564035 0 0.057822340657833864 0.050018169890619538 0 0.059401467445967984 0.051642013064785233 0 0.060267072397719813 0.05033193040444868 0 0.059401467445967984 0.051642013064785233 0 0.060263277738428225 0.052314619330651048 0 0.060267072397719813 0.05033193040444868 0 0.058761920601952088 0.053135732679564035 0 0.060263277738428225 0.052314619330651048 0 0.060443846260972121 0.052331618162655684 0 0.05438720845197207 0.054701797650132701 0 0.054499565079682323 0.054785011554781674 0 0.059401467445967984 0.051642013064785233 0 0.058761920601952088 0.053135732679564035 0 0.060263277738428225 0.052314619330651048 0 0.050592204400712666 0.056422736213103605 0 0.048392606223558253 0.054997772981174767 0 0.04732855894240473 0.057315125280435322 0 0.054733487048217275 0.05401502376926267 0 0.050592204400712666 0.056422736213103605 0 0.048392606223558253 0.054997772981174767 0 0.054642201224054214 0.054183915330013696 0 0.05438720845197207 0.054701797650132701 0 0.048392606223558253 0.054997772981174767 0 0.04481246492935332 0.056815056929763359 0 0.043328022684485955 0.054999888073538485 0 0.048392606223558253 0.054997772981174767 0 0.04481246492935332 0.056815056929763359 0 0.04732855894240473 0.057315125280435322 0 0.060443846260972121 0.052331618162655684 0 0.05892040562169449 0.052141412035534664 0 0.05981008755819494 0.05259546741198156 0 0.04481246492935332 0.056815056929763359 0 0.04732855894240473 0.057315125280435322 0 0.044412375226030164 0.057573117543378044 0 0.054499565079682323 0.054785011554781674 0 0.04848304877445192 0.055159768989112366 0 0.060263277738428225 0.052314619330651048 0 0.060443846260972121 0.052331618162655684 0 0.05981008755819494 0.05259546741198156 0 0.043328022684485955 0.054999888073538485 0 0.043067791513098461 0.056551756796450407 0 0.040888252331467485 0.056397245663063651 0 0.04481246492935332 0.056815056929763359 0 0.043328022684485955 0.054999888073538485 0 0.043067791513098461 0.056551756796450407 0 0.04429983625563088 0.057633206783681272 0 0.043067791513098461 0.056551756796450407 0 0.041892957111177798 0.057331917909991571 0 0.041037424176822587 0.0574042714171435 0 0.041892957111177798 0.057331917909991571 0 0.041416837785390938 0.057158982579236323 0 0.04848304877445192 0.055159768989112366 0 0.040076921306150336 0.057448984064986303 0 0.04481246492935332 0.056815056929763359 0 0.04429983625563088 0.057633206783681272 0 0.043067791513098461 0.056551756796450407 0 0.046078488222744518 0.05746150901523922 0 0.04848304877445192 0.055159768989112366 0 0.043067791513098461 0.056551756796450407 0 0.041892957111177798 0.057331917909991571 0 0.040888252331467485 0.056397245663063651 0 0.041892957111177798 0.057331917909991571 0 0.041412697410713677 0.057268466485588615 0 0.040862114926868753 0.057045566563002872 0 0.041892957111177798 0.057331917909991571 0 0.040888252331467485 0.056397245663063651 0 0.040862114926868753 0.057045566563002872 0 0.041262619542585408 0.056918591360483529 0 0.041412697410713677 0.057268466485588615 0 0.041207832194592967 0.057533221020850053 0 0.041046500234515108 0.055484322627482686 0 0.038635359216006991 0.054186988344600832 0 0.041262619542585408 0.056918591360483529 0 0.041412697410713677 0.057268466485588615 0 0.041441705696766661 0.057128281414217198 0 0.041892957111177798 0.057331917909991571 0 0.041441705696766661 0.057128281414217198 0 0.041416837785390938 0.057158982579236323 0 0.041892957111177798 0.057331917909991571 0 0.041412697410713677 0.057268466485588615 0 0.041441705696766661 0.057128281414217198 0 0.041262619542585408 0.056918591360483529 0 0.041228346540847526 0.056897001763846981 0 0.040961296265445576 0.056240522587627732 0 0.041262619542585408 0.056918591360483529 0 0.041441705696766661 0.057128281414217198 0 0.041228346540847526 0.056897001763846981 0 0.041037424176822587 0.0574042714171435 0 0.041228346540847526 0.056897001763846981 0 0.041416837785390938 0.057158982579236323 0 0.041441705696766661 0.057128281414217198 0 0.041228346540847526 0.056897001763846981 0 0.041416837785390938 0.057158982579236323 0 0.05892040562169449 0.052141412035534664 0 0.058421295848389253 0.052951122044122244 0 0.059134270576534323 0.052884713244828074 0 0.04848304877445192 0.055159768989112366 0 0.049697976664480704 0.055060526301559984 0 0.058421295848389253 0.052951122044122244 0 0.058736418978501952 0.053429347529135023 0 0.059134270576534323 0.052884713244828074 0 0.058736418978501952 0.053429347529135023 0 0.05972692637200324 0.053279891222928151 0 0.058574942355045921 0.054450700190938103 0 0.058736418978501952 0.053429347529135023 0 0.057879799456115093 0.053770977591385972 0 0.058574942355045921 0.054450700190938103 0 0.0465766226024351 0.050874313277575099 0 0.056105151097799379 0.049063227374605695 0 0.058421295848389253 0.052951122044122244 0 0.058736418978501952 0.053429347529135023 0 0.057879799456115093 0.053770977591385972 0 0.049697976664480704 0.055060526301559984 0 0.0465766226024351 0.050874313277575099 0 0.039223262732364338 0.046354659615866704 0 0.037162871065948171 0.044404620009139834 0 0.036745276094306584 0.04596683622201958 0 0.039223262732364338 0.046354659615866704 0 0.037562334564973612 0.048448129794406977 0 0.036745276094306584 0.04596683622201958 0 0.041262619542585408 0.056918591360483529 0 0.040961296265445576 0.056240522587627732 0 0.041332781718923378 0.056754911696013308 0 0.0465766226024351 0.050874313277575099 0 0.038635359216006991 0.054186988344600832 0 0.060055077463808788 0.052353613686583846 0 0.061936659815643814 0.051510718464968214 0 0.060263277738428225 0.052314619330651048 0 0.05981008755819494 0.05259546741198156 0 0.05972692637200324 0.053279891222928151 0 0.060263277738428225 0.052314619330651048 0 0.060267072397719813 0.05033193040444868 0 0.062609991152695499 0.049666332320278082 0 0.058736418978501952 0.053429347529135023 0 0.059134270576534323 0.052884713244828074 0 0.05972692637200324 0.053279891222928151 0 0.05892040562169449 0.052141412035534664 0 0.05981008755819494 0.05259546741198156 0 0.059134270576534323 0.052884713244828074 0 0.05981008755819494 0.05259546741198156 0 0.059134270576534323 0.052884713244828074 0 0.05972692637200324 0.053279891222928151 0 0.061936659815643814 0.051510718464968214 0 0.056105151097799379 0.049063227374605695 0 0.062609991152695499 0.049666332320278082 0 0.062657181535699033 0.04783072426879207 0 0.064197515235192432 0.047028555504206329 0 0.062609991152695499 0.049666332320278082 0 0.061254696384433663 0.047774067091884267 0 0.062657181535699033 0.04783072426879207 0 0.060267072397719813 0.05033193040444868 0 0.062609991152695499 0.049666332320278082 0 0.061254696384433663 0.047774067091884267 0 0.061254696384433663 0.047774067091884267 0 0.062240951070182689 0.046373324011393005 0 0.060689664807857285 0.045834458050394433 0 0.062657181535699033 0.04783072426879207 0 0.063006614428081684 0.046910198475342071 0 0.062240951070182689 0.046373324011393005 0 0.061254696384433663 0.047774067091884267 0 0.062657181535699033 0.04783072426879207 0 0.062240951070182689 0.046373324011393005 0 0.062657181535699033 0.04783072426879207 0 0.063006614428081684 0.046910198475342071 0 0.064197515235192432 0.047028555504206329 0 0.063207551174426155 0.046282713453227604 0 0.063282551487793909 0.04613413740704609 0 0.062240951070182689 0.046373324011393005 0 0.063006614428081684 0.046910198475342071 0 0.063207551174426155 0.046282713453227604 0 0.062240951070182689 0.046373324011393005 0 0.057954380629368689 0.043828785210411343 0 0.057789628202654562 0.043731628956669918 0 0.057789628202654562 0.043731628956669918 0 0.060075929314455621 0.040699584733055398 0 0.063282551487793909 0.04613413740704609 0 0.062240951070182689 0.046373324011393005 0 0.06150794271738879 0.04418922740147499 0 0.05804357697020901 0.037796819593229003 0 0.058123719168439711 0.03739810163107448 0 0.057858993313534342 0.037507662645998079 0 0.062240951070182689 0.046373324011393005 0 0.060689664807857285 0.045834458050394433 0 0.06150794271738879 0.04418922740147499 0 0.060689664807857285 0.045834458050394433 0 0.06150794271738879 0.04418922740147499 0 0.059596084771021088 0.044213233998551565 0 0.051394903558674689 0.050050510393745834 0 0.053482203410714989 0.046233942634086138 0 0.051280520685411418 0.045339966390896429 0 0.0465766226024351 0.050874313277575099 0 0.046089446945633765 0.046945762882588948 0 0.051394903558674689 0.050050510393745834 0 0.049136823619552565 0.047710936020310464 0 0.051280520685411418 0.045339966390896429 0 0.056105151097799379 0.049063227374605695 0 0.051292743475566074 0.045842407547864811 0 0.05003238451455231 0.047819507725633724 0 0.050285583555667715 0.045594328357959096 0 0.051765032661776629 0.045331959456348943 0 0.057789628202654562 0.043731628956669918 0 0.056105151097799379 0.049063227374605695 0 0.048213530532000864 0.045944138603797091 0 0.05003238451455231 0.047819507725633724 0 0.050285583555667715 0.045594328357959096 0 0.063006614428081684 0.046910198475342071 0 0.063207551174426155 0.046282713453227604 0 0.064197515235192432 0.047028555504206329 0 0.063207551174426155 0.046282713453227604 0 0.063241675188786345 0.046085281235425164 0 0.064197515235192432 0.047028555504206329 0 0.048213530532000864 0.045944138603797091 0 0.051121157424839775 0.043327275585143474 0 0.049770292858983864 0.040824332293156011 0 0.048213530532000864 0.045944138603797091 0 0.051121157424839775 0.043327275585143474 0 0.050285583555667715 0.045594328357959096 0 0.057789628202654562 0.043731628956669918 0 0.054370451482474054 0.038794532368272495 0 0.051121157424839775 0.043327275585143474 0 0.050285583555667715 0.045594328357959096 0 0.051765032661776629 0.045331959456348943 0 0.053482203410714989 0.046233942634086138 0 0.051280520685411418 0.045339966390896429 0 0.053474297137169391 0.042988205343529241 0 0.051121157424839775 0.043327275585143474 0 0.051765032661776629 0.045331959456348943 0 0.053474297137169391 0.042988205343529241 0 0.051292743475566074 0.045842407547864811 0 0.053341940448497119 0.043225016385716394 0 0.051121157424839775 0.043327275585143474 0 0.049770292858983864 0.040824332293156011 0 0.053483910707048353 0.03916525809309835 0 0.051121157424839775 0.043327275585143474 0 0.053474297137169391 0.042988205343529241 0 0.053483910707048353 0.03916525809309835 0 0.054370451482474054 0.038794532368272495 0 0.047430023123041648 0.035734279989369434 0 0.058123719168439711 0.03739810163107448 0 0.05801454532334218 0.037164859274951882 0 0.058099221161298689 0.037087063593463067 0 0.049770292858983864 0.040824332293156011 0 0.053483910707048353 0.03916525809309835 0 0.051505529437196988 0.035890718734618118 0 0.044108187554950523 0.038666732070526136 0 0.047430023123041648 0.035734279989369434 0 0.034747139039093482 0.038702878886120728 0 0.034953952224220007 0.035346963210792892 0 0.03291583842962597 0.035449380154503364 0 0.057858993313534342 0.037507662645998079 0 0.057924526740123432 0.037252334207207763 0 0.057671293487715353 0.037298871125059717 0 0.060075929314455621 0.040699584733055398 0 0.058680442229276 0.039810451486561947 0 0.058123719168439711 0.03739810163107448 0 0.057858993313534342 0.037507662645998079 0 0.057924526740123432 0.037252334207207763 0 0.058123719168439711 0.03739810163107448 0 0.05801454532334218 0.037164859274951882 0 0.057924526740123432 0.037252334207207763 0 0.05801454532334218 0.037164859274951882 0 0.057924526740123432 0.037252334207207763 0 0.057946200571767283 0.037093690239615354 0 0.057924526740123432 0.037252334207207763 0 0.057894507759828337 0.037065967930714872 0 0.057946200571767283 0.037093690239615354 0 0.057924526740123432 0.037252334207207763 0 0.057671293487715353 0.037298871125059717 0 0.057894507759828337 0.037065967930714872 0 0.057671293487715353 0.037298871125059717 0 0.057625972848622808 0.036844138528704731 0 0.057894507759828337 0.037065967930714872 0 0.059826523057712112 0.042333595309473879 0 0.059596084771021088 0.044213233998551565 0 0.058224189166080499 0.042255719554416635 0 0.06150794271738879 0.04418922740147499 0 0.059826523057712112 0.042333595309473879 0 0.059596084771021088 0.044213233998551565 0 0.059596084771021088 0.044213233998551565 0 0.057851028050372899 0.04400007370013316 0 0.058224189166080499 0.042255719554416635 0 0.059826523057712112 0.042333595309473879 0 0.058224189166080499 0.042255719554416635 0 0.058414357427938289 0.040491827445133868 0 0.058680442229276 0.039810451486561947 0 0.057740770177174168 0.038680347961687171 0 0.058024861206734293 0.044216326072319019 0 0.056966564539797065 0.041611725914784875 0 0.058243185397245753 0.044498142644906466 0 0.055000066868434311 0.043100684278865917 0 0.05704034385544797 0.046806703818978522 0 0.057851028050372899 0.04400007370013316 0 0.058224189166080499 0.042255719554416635 0 0.056940983073811249 0.041462465987614175 0 0.058243185397245753 0.044498142644906466 0 0.055000066868434311 0.043100684278865917 0 0.056940983073811249 0.041462465987614175 0 0.058224189166080499 0.042255719554416635 0 0.056940983073811249 0.041462465987614175 0 0.058414357427938289 0.040491827445133868 0 0.054997299732531334 0.048253990100565136 0 0.055000066868434311 0.043100684278865917 0 0.05704034385544797 0.046806703818978522 0 0.057822340657833864 0.050018169890619538 0 0.05704034385544797 0.046806703818978522 0 0.059245865780828293 0.047486163464993278 0 0.061254696384433663 0.047774067091884267 0 0.060689664807857285 0.045834458050394433 0 0.058833101272685137 0.046826354956285905 0 0.060689664807857285 0.045834458050394433 0 0.059596084771021088 0.044213233998551565 0 0.058833101272685137 0.046826354956285905 0 0.058243185397245753 0.044498142644906466 0 0.05704034385544797 0.046806703818978522 0 0.059245865780828293 0.047486163464993278 0 0.059596084771021088 0.044213233998551565 0 0.057851028050372899 0.04400007370013316 0 0.058833101272685137 0.046826354956285905 0 0.058024861206734293 0.044216326072319019 0 0.059059870919177714 0.047199184289557515 0 0.027810958088745244 0.060799059131852642 0 0.026826750476641122 0.058840768389814543 0 0.026602066523227486 0.059911901317446468 0 0.029056460202264583 0.056337660366717487 0 0.027390958487592893 0.059640251669982977 0 0.028528192721708288 0.060445254367781261 0 0.028643536143061865 0.059441002650293076 0 0.029701799072048375 0.059057831269594491 0 0.028528192721708288 0.060445254367781261 0 0.028643536143061865 0.059441002650293076 0 0.027718024967299863 0.058986037218377745 0 0.029056460202264583 0.056337660366717487 0 0.031117271370304241 0.05623515399890424 0 0.028528192721708288 0.060445254367781261 0 0.029701799072048375 0.059057831269594491 0 0.030612540920529539 0.060257344438243807 0 0.02814457350067192 0.058685281002450067 0 0.031022575591603478 0.058317133795253488 0 0.028174513869091301 0.058585356232226056 0 0.029442690616196119 0.057990172440273581 0 0.03092298330319028 0.058915691520838857 0 0.029701799072048375 0.059057831269594491 0 0.028174513869091301 0.058585356232226056 0 0.030253700587747689 0.058536017034536578 0 0.029953427359392156 0.059026638717129307 0 0.031022575591603478 0.058317133795253488 0 0.028643536143061865 0.059441002650293076 0 0.029701799072048375 0.059057831269594491 0 0.028174513869091301 0.058585356232226056 0 0.028643536143061865 0.059441002650293076 0 0.027718024967299863 0.058986037218377745 0 0.028174513869091301 0.058585356232226056 0 0.028174513869091301 0.058585356232226056 0 0.028357168851271174 0.057438910651058966 0 0.026585084916439322 0.057176491973736331 0 0.028357168851271174 0.057438910651058966 0 0.028084603546180538 0.056251297966128801 0 0.026585084916439322 0.057176491973736331 0 0.028174513869091301 0.058585356232226056 0 0.028357168851271174 0.057438910651058966 0 0.029442690616196119 0.057990172440273581 0 0.028357168851271174 0.057438910651058966 0 0.029484101976840114 0.057027976598929025 0 0.029442690616196119 0.057990172440273581 0 0.028357168851271174 0.057438910651058966 0 0.028084603546180538 0.056251297966128801 0 0.029484101976840114 0.057027976598929025 0 0.028084603546180538 0.056251297966128801 0 0.02958054872690705 0.054999947096224154 0 0.026656411827442848 0.054999964136328662 0 0.028084603546180538 0.056251297966128801 0 0.02958054872690705 0.054999947096224154 0 0.029484101976840114 0.057027976598929025 0 0.02958054872690705 0.054999947096224154 0 0.029484101976840114 0.057027976598929025 0 0.031293515600120531 0.057142419401252691 0 0.030282132257249971 0.057766840082564212 0 0.031293515600120531 0.057142419401252691 0 0.03092298330319028 0.058915691520838857 0 0.029484101976840114 0.057027976598929025 0 0.030282132257249971 0.057766840082564212 0 0.031293515600120531 0.057142419401252691 0 0.029484101976840114 0.057027976598929025 0 0.029442690616196119 0.057990172440273581 0 0.030282132257249971 0.057766840082564212 0 0.029442690616196119 0.057990172440273581 0 0.030282132257249971 0.057766840082564212 0 0.03092298330319028 0.058915691520838857 0 0.031293515600120531 0.057142419401252691 0 0.033173830269897363 0.056985593648234648 0 0.03092298330319028 0.058915691520838857 0 0.033797095310804624 0.056599795412971568 0 0.031022575591603478 0.058317133795253488 0 0.031293515600120531 0.057142419401252691 0 0.032504758921089352 0.054999936749529542 0 0.033173830269897363 0.056985593648234648 0 0.02958054872690705 0.054999947096224154 0 0.031293515600120531 0.057142419401252691 0 0.032504758921089352 0.054999936749529542 0 0.032504758921089352 0.054999936749529542 0 0.033173830269897363 0.056985593648234648 0 0.035429066578522565 0.055000011067213125 0 0.033797095310804624 0.056599795412971568 0 0.035428623580281142 0.055000400217194351 0 0.03414676291231121 0.056315091972790776 0 0.035128714946430981 0.056988077790277175 0 0.035006625625497952 0.056220546138486885 0 0.03414676291231121 0.056315091972790776 0 0.034315377089122072 0.057708556240078757 0 0.035128714946430981 0.056988077790277175 0 0.03414676291231121 0.056315091972790776 0 0.034315377089122072 0.057708556240078757 0 0.032670521633219783 0.057638330426828546 0 0.033592100845051764 0.058343034562585577 0 0.031022575591603478 0.058317133795253488 0 0.032314327145763766 0.058433484110190212 0 0.031207314292252153 0.059210309636756796 0 0.030313933029691355 0.058431322249848344 0 0.029701799072048375 0.059057831269594491 0 0.031207314292252153 0.059210309636756796 0 0.030313933029691355 0.058431322249848344 0 0.031207314292252153 0.059210309636756796 0 0.030612540920529539 0.060257344438243807 0 0.032856602811374168 0.060018246415026365 0 0.029701799072048375 0.059057831269594491 0 0.031207314292252153 0.059210309636756796 0 0.030612540920529539 0.060257344438243807 0 0.031117271370304241 0.05623515399890424 0 0.031721874373780427 0.050277443975060787 0 0.032314327145763766 0.058433484110190212 0 0.031207314292252153 0.059210309636756796 0 0.032856602811374168 0.060018246415026365 0 0.029877599126797372 0.046118089158319685 0 0.032243735528367477 0.045859491410124076 0 0.031535241127627747 0.044330065232125009 0 0.031721874373780427 0.050277443975060787 0 0.034332166193374078 0.054565418553234157 0 0.031721874373780427 0.050277443975060787 0 0.032858243384012352 0.04551585728253222 0 0.033981635717588693 0.046100471225870035 0 0.033128935069286353 0.045976338410033374 0 0.033572120299228535 0.045694204579577243 0 0.032243735528367477 0.045859491410124076 0 0.031535241127627747 0.044330065232125009 0 0.033914906328721732 0.044277803846774627 0 0.036526133668613334 0.057370145243850278 0 0.035939779026597889 0.057717289608398691 0 0.03741331184437522 0.057647779103865773 0 0.034332166193374078 0.054565418553234157 0 0.035376098956517089 0.050399185098993479 0 0.036526133668613334 0.057370145243850278 0 0.036831426828689263 0.057049030205690465 0 0.03741331184437522 0.057647779103865773 0 0.036526133668613334 0.057370145243850278 0 0.036381732239510425 0.05705505420867861 0 0.036831426828689263 0.057049030205690465 0 0.036526133668613334 0.057370145243850278 0 0.036086918735829171 0.057330543611402544 0 0.035939779026597889 0.057717289608398691 0 0.036526133668613334 0.057370145243850278 0 0.036086918735829171 0.057330543611402544 0 0.036381732239510425 0.05705505420867861 0 0.032314327145763766 0.058433484110190212 0 0.032856602811374168 0.060018246415026365 0 0.034336417698798645 0.058468991093486689 0 0.036086918735829171 0.057330543611402544 0 0.035811534728410852 0.057227942633982724 0 0.036029855096716454 0.056927068747076724 0 0.033592100845051764 0.058343034562585577 0 0.034332166193374078 0.054565418553234157 0 0.034315377089122072 0.057708556240078757 0 0.035939779026597889 0.057717289608398691 0 0.035128714946430981 0.056988077790277175 0 0.035811534728410852 0.057227942633982724 0 0.035939779026597889 0.057717289608398691 0 0.035128714946430981 0.056988077790277175 0 0.036086918735829171 0.057330543611402544 0 0.035811534728410852 0.057227942633982724 0 0.035939779026597889 0.057717289608398691 0 0.035128714946430981 0.056988077790277175 0 0.035584828065282154 0.056749172410602094 0 0.035006625625497952 0.056220546138486885 0 0.035811534728410852 0.057227942633982724 0 0.035128714946430981 0.056988077790277175 0 0.035584828065282154 0.056749172410602094 0 0.035584828065282154 0.056749172410602094 0 0.035927061784776587 0.056358917979366215 0 0.036029855096716454 0.056927068747076724 0 0.035811534728410852 0.057227942633982724 0 0.035584828065282154 0.056749172410602094 0 0.036029855096716454 0.056927068747076724 0 0.035584828065282154 0.056749172410602094 0 0.035927061784776587 0.056358917979366215 0 0.035006625625497952 0.056220546138486885 0 0.035006625625497952 0.056220546138486885 0 0.035812102511262739 0.055699642217453042 0 0.035430391610936633 0.054999825640428927 0 0.03414676291231121 0.056315091972790776 0 0.035006625625497952 0.056220546138486885 0 0.035430391610936633 0.054999825640428927 0 0.035927061784776587 0.056358917979366215 0 0.035006625625497952 0.056220546138486885 0 0.035812102511262739 0.055699642217453042 0 0.035812102511262739 0.055699642217453042 0 0.035430391610936633 0.054999825640428927 0 0.036493858245408704 0.055000069450302745 0 0.036494689846928573 0.054999239043297059 0 0.038639659080193685 0.057327361170347986 0 0.036493858245408704 0.055000069450302745 0 0.036475127044065712 0.056042474216139865 0 0.037570703339691591 0.056511634400314557 0 0.035812102511262739 0.055699642217453042 0 0.036493858245408704 0.055000069450302745 0 0.036475127044065712 0.056042474216139865 0 0.035927061784776587 0.056358917979366215 0 0.035812102511262739 0.055699642217453042 0 0.036475127044065712 0.056042474216139865 0 0.036475127044065712 0.056042474216139865 0 0.036417526040651974 0.05659144560059591 0 0.037570703339691591 0.056511634400314557 0 0.036417526040651974 0.05659144560059591 0 0.036831426828689263 0.057049030205690465 0 0.037570703339691591 0.056511634400314557 0 0.035927061784776587 0.056358917979366215 0 0.036475127044065712 0.056042474216139865 0 0.036417526040651974 0.05659144560059591 0 0.035927061784776587 0.056358917979366215 0 0.036417526040651974 0.05659144560059591 0 0.036029855096716454 0.056927068747076724 0 0.036417526040651974 0.05659144560059591 0 0.036381732239510425 0.05705505420867861 0 0.036029855096716454 0.056927068747076724 0 0.036086918735829171 0.057330543611402544 0 0.036381732239510425 0.05705505420867861 0 0.036029855096716454 0.056927068747076724 0 0.036417526040651974 0.05659144560059591 0 0.036381732239510425 0.05705505420867861 0 0.036831426828689263 0.057049030205690465 0 0.036831426828689263 0.057049030205690465 0 0.037570703339691591 0.056511634400314557 0 0.03741331184437522 0.057647779103865773 0 0.043328022684485955 0.054999888073538485 0 0.036496921085353753 0.054999628564548972 0 0.040888252331467485 0.056397245663063651 0 0.036496921085353753 0.054999628564548972 0 0.039010261588949553 0.056966322940815814 0 0.040888252331467485 0.056397245663063651 0 0.039010261588949553 0.056966322940815814 0 0.040888252331467485 0.056397245663063651 0 0.040862114926868753 0.057045566563002872 0 0.039010261588949553 0.056966322940815814 0 0.040862114926868753 0.057045566563002872 0 0.041207832194592967 0.057533221020850053 0 0.041412697410713677 0.057268466485588615 0 0.040862114926868753 0.057045566563002872 0 0.041207832194592967 0.057533221020850053 0 0.037162871065948171 0.044404620009139834 0 0.033914906328721732 0.044277803846774627 0 0.034783123905116668 0.045631393022902117 0 0.038635359216006991 0.054186988344600832 0 0.035376098956517089 0.050399185098993479 0 0.038639659080193685 0.057327361170347986 0 0.038635359216006991 0.054186988344600832 0 0.037570703339691591 0.056511634400314557 0 0.038710055056514078 0.057664981795831419 0 0.03741331184437522 0.057647779103865773 0 0.033128935069286353 0.045976338410033374 0 0.034783123905116668 0.045631393022902117 0 0.033522899831723359 0.046501674160502694 0 0.032243735528367477 0.045859491410124076 0 0.033914906328721732 0.044277803846774627 0 0.034783123905116668 0.045631393022902117 0 0.032858243384012352 0.04551585728253222 0 0.034590283728326017 0.0457433418462493 0 0.034783123905116668 0.045631393022902117 0 0.035530575808096161 0.04704163687379994 0 0.033522899831723359 0.046501674160502694 0 0.034783123905116668 0.045631393022902117 0 0.036745276094306584 0.04596683622201958 0 0.035530575808096161 0.04704163687379994 0 0.037162871065948171 0.044404620009139834 0 0.034783123905116668 0.045631393022902117 0 0.036745276094306584 0.04596683622201958 0 0.037562334564973612 0.048448129794406977 0 0.036745276094306584 0.04596683622201958 0 0.035530575808096161 0.04704163687379994 0 0.037562334564973612 0.048448129794406977 0 0.035530575808096161 0.04704163687379994 0 0.034894701028280656 0.049035850503245118 0 0.033522899831723359 0.046501674160502694 0 0.032171343309537963 0.045403314087471072 0 0.033103055024552991 0.045431019716082703 0 0.033442604854958147 0.046606851065939627 0 0.033626883700449098 0.047088299006664752 0 0.035530575808096161 0.04704163687379994 0 0.033522899831723359 0.046501674160502694 0 0.034894701028280656 0.049035850503245118 0 0.032171343309537963 0.045403314087471072 0 0.03154527798380076 0.044510273376159037 0 0.032533543063275834 0.044319358762691413 0 0.032171343309537963 0.045403314087471072 0 0.032533543063275834 0.044319358762691413 0 0.033103055024552991 0.045431019716082703 0 0.053482203410714989 0.046233942634086138 0 0.053474297137169391 0.042988205343529241 0 0.055412356312418441 0.04243523739440784 0 0.046089446945633765 0.046945762882588948 0 0.039182786255025949 0.044688028570813811 0 0.037562334564973612 0.048448129794406977 0 0.034894701028280656 0.049035850503245118 0 0.036113542754883002 0.050943336490847452 0 0.033626883700449098 0.047088299006664752 0 0.039182786255025949 0.044688028570813811 0 0.044108187554950523 0.038666732070526136 0 0.039182786255025949 0.044688028570813811 0 0.053474297137169391 0.042988205343529241 0 0.053483910707048353 0.03916525809309835 0 0.055412356312418441 0.04243523739440784 0 0.034747139039093482 0.038702878886120728 0 0.036711698979977087 0.04206058577879182 0 0.038587623114854842 0.037912393821857363 0 0.039182786255025949 0.044688028570813811 0 0.034756011348981514 0.040446365482875987 0 0.034747139039093482 0.038702878886120728 0 0.038587623114854842 0.037912393821857363 0 0.034953952224220007 0.035346963210792892 0 0.031970444542310308 0.043285392905488482 0 0.032956173533845022 0.043177304620611048 0 0.032200749411960931 0.041985633061019247 0 0.031970444542310308 0.043285392905488482 0 0.032533543063275834 0.044319358762691413 0 0.032956173533845022 0.043177304620611048 0 0.03154527798380076 0.044510273376159037 0 0.031970444542310308 0.043285392905488482 0 0.032533543063275834 0.044319358762691413 0 0.032533543063275834 0.044319358762691413 0 0.033363361214122075 0.044400408207071876 0 0.032956173533845022 0.043177304620611048 0 0.032956173533845022 0.043177304620611048 0 0.033880295042033243 0.042844818186495409 0 0.033886964795306541 0.043717459326543931 0 0.032956173533845022 0.043177304620611048 0 0.033880295042033243 0.042844818186495409 0 0.033331144731855923 0.042119399281905195 0 0.033363361214122075 0.044400408207071876 0 0.033886964795306541 0.043717459326543931 0 0.034048229717656045 0.044949346456474998 0 0.033363361214122075 0.044400408207071876 0 0.032956173533845022 0.043177304620611048 0 0.033886964795306541 0.043717459326543931 0 0.033363361214122075 0.044400408207071876 0 0.03346502640772734 0.045268494285996067 0 0.034048229717656045 0.044949346456474998 0 0.033363361214122075 0.044400408207071876 0 0.03346502640772734 0.045268494285996067 0 0.033103055024552991 0.045431019716082703 0 0.032533543063275834 0.044319358762691413 0 0.033363361214122075 0.044400408207071876 0 0.033103055024552991 0.045431019716082703 0 0.03346502640772734 0.045268494285996067 0 0.033103055024552991 0.045431019716082703 0 0.033312246403494866 0.045874229714220581 0 0.03346502640772734 0.045268494285996067 0 0.033312246403494866 0.045874229714220581 0 0.033572120299228535 0.045694204579577243 0 0.033522899831723359 0.046501674160502694 0 0.033103055024552991 0.045431019716082703 0 0.033312246403494866 0.045874229714220581 0 0.033128935069286353 0.045976338410033374 0 0.033522899831723359 0.046501674160502694 0 0.033312246403494866 0.045874229714220581 0 0.033128935069286353 0.045976338410033374 0 0.033312246403494866 0.045874229714220581 0 0.033572120299228535 0.045694204579577243 0 0.03346502640772734 0.045268494285996067 0 0.033572120299228535 0.045694204579577243 0 0.034048229717656045 0.044949346456474998 0 0.033981635717588693 0.046100471225870035 0 0.033572120299228535 0.045694204579577243 0 0.034048229717656045 0.044949346456474998 0 0.031721874373780427 0.050277443975060787 0 0.033458474714100801 0.047689204658093919 0 0.033981635717588693 0.046100471225870035 0 0.034739013281801345 0.045248337690049253 0 0.034048229717656045 0.044949346456474998 0 0.031216413060604561 0.05118760783235983 0 0.030900279231039406 0.051190764717716816 0 0.031113249615783271 0.050941100225922159 0 0.031216413060604561 0.05118760783235983 0 0.031113249615783271 0.050941100225922159 0 0.031304068697915827 0.0509964350883646 0 0.031113249615783271 0.050941100225922159 0 0.031354980748770529 0.050636256535402185 0 0.031304068697915827 0.0509964350883646 0 0.034739013281801345 0.045248337690049253 0 0.034340890386477946 0.044034584178067569 0 0.035533925838591864 0.044226772775512423 0 0.033458474714100801 0.047689204658093919 0 0.031224508552265069 0.047396858090925906 0 0.034739013281801345 0.045248337690049253 0 0.034048229717656045 0.044949346456474998 0 0.034340890386477946 0.044034584178067569 0 0.034340890386477946 0.044034584178067569 0 0.034415775627819833 0.043107952821002465 0 0.034466038847728635 0.043365539500090769 0 0.033886964795306541 0.043717459326543931 0 0.034048229717656045 0.044949346456474998 0 0.034340890386477946 0.044034584178067569 0 0.033886964795306541 0.043717459326543931 0 0.034340890386477946 0.044034584178067569 0 0.034415775627819833 0.043107952821002465 0 0.033880295042033243 0.042844818186495409 0 0.033886964795306541 0.043717459326543931 0 0.034415775627819833 0.043107952821002465 0 0.034415775627819833 0.043107952821002465 0 0.03433851854616464 0.042814787892194651 0 0.03480726444218421 0.042950300102851016 0 0.033880295042033243 0.042844818186495409 0 0.034415775627819833 0.043107952821002465 0 0.03433851854616464 0.042814787892194651 0 0.034482584943539299 0.042690075209412412 0 0.033179683688015368 0.042376088155181568 0 0.03480726444218421 0.042950300102851016 0 0.033059073338071322 0.042081957405272125 0 0.033870392530290214 0.043111500036144876 0 0.034415775627819833 0.043107952821002465 0 0.034482584943539299 0.042690075209412412 0 0.03480726444218421 0.042950300102851016 0 0.034415775627819833 0.043107952821002465 0 0.034482584943539299 0.042690075209412412 0 0.034466038847728635 0.043365539500090769 0 0.034340890386477946 0.044034584178067569 0 0.034466038847728635 0.043365539500090769 0 0.035533925838591864 0.044226772775512423 0 0.034482584943539299 0.042690075209412412 0 0.034466038847728635 0.043365539500090769 0 0.035533925838591864 0.044226772775512423 0 0.034958452446209848 0.041153834249044417 0 0.031224508552265069 0.047396858090925906 0 0.034482584943539299 0.042690075209412412 0 0.033179683688015368 0.042376088155181568 0 0.033401734025256959 0.041001839779868481 0 0.029518009498518172 0.039185023499054894 0 0.031224508552265069 0.047396858090925906 0 0.033179683688015368 0.042376088155181568 0 0.032299916039398718 0.042338730935315962 0 0.033401734025256959 0.041001839779868481 0 0.033571460138439389 0.030106716684627961 0 0.029518009498518172 0.039185023499054894 0 0.033179683688015368 0.042376088155181568 0 0.033089111862835474 0.042116007702326506 0 0.032498463519303418 0.041733116850362399 0 0.033179683688015368 0.042376088155181568 0 0.033089111862835474 0.042116007702326506 0 0.032299916039398718 0.042338730935315962 0 0.033602363671374633 0.019351535958243474 0 0.033518223119221778 0.019262855447773949 0 0.033184140567491242 0.019271666224950097 0 0.033743090138379846 0.019223450238689214 0 0.033602363671374633 0.019351535958243474 0 0.033518223119221778 0.019262855447773949 0 0.027177191324703937 0.048312089515583689 0 0.027447735460264109 0.050791772916594834 0 0.025094680532193065 0.050507925513320125 0 0.027447735460264109 0.050791772916594834 0 0.025924657521415085 0.052300390526213866 0 0.027673920998415924 0.052541435871024403 0 0.031354980748770529 0.050636256535402185 0 0.031470608187482145 0.050917540053203321 0 0.031304068697915827 0.0509964350883646 0 0.031224508552265069 0.047396858090925906 0 0.028547516524704365 0.051352747563230959 0 0.027447735460264109 0.050791772916594834 0 0.025094680532193065 0.050507925513320125 0 0.025924657521415085 0.052300390526213866 0 0.031569188354790688 0.051201795583474333 0 0.031470608187482145 0.050917540053203321 0 0.031304068697915827 0.0509964350883646 0 0.031569188354790688 0.051201795583474333 0 0.031216413060604561 0.05118760783235983 0 0.031304068697915827 0.0509964350883646 0 0.029056460202264583 0.056337660366717487 0 0.028547516524704365 0.051352747563230959 0 0.026767658235033027 0.054082275721342693 0 0.027673920998415924 0.052541435871024403 0 0.028931472141701844 0.053926167324210281 0 0.026767658235033027 0.054082275721342693 0 0.025924657521415085 0.052300390526213866 0 0.027673920998415924 0.052541435871024403 0 0.033033885087107438 0.019496082599234132 0 0.033066655350620505 0.019493370252945796 0 0.032682529293761843 0.019606425666949978 0 0.033557295938608712 0.019373255752047031 0 0.033807616615169907 0.019483281634949345 0 0.033066655350620505 0.019493370252945796 0 0.033033885087107438 0.019496082599234132 0 0.033557295938608712 0.019373255752047031 0 0.033066655350620505 0.019493370252945796 0 0.033557295938608712 0.019373255752047031 0 0.033285344331434187 0.019363333449095937 0 0.033661388028140136 0.019196144098156759 0 0.033033885087107438 0.019496082599234132 0 0.033557295938608712 0.019373255752047031 0 0.033285344331434187 0.019363333449095937 0 0.033033885087107438 0.019496082599234132 0 0.033285344331434187 0.019363333449095937 0 0.032991708287473165 0.019462705043502764 0 0.033285344331434187 0.019363333449095937 0 0.033334190732293885 0.019315586850328335 0 0.032991708287473165 0.019462705043502764 0 0.033285344331434187 0.019363333449095937 0 0.033334190732293885 0.019315586850328335 0 0.033661388028140136 0.019196144098156759 0 0.033334190732293885 0.019315586850328335 0 0.033518223119221778 0.019262855447773949 0 0.033184140567491242 0.019271666224950097 0 0.033334190732293885 0.019315586850328335 0 0.033518223119221778 0.019262855447773949 0 0.033661388028140136 0.019196144098156759 0 0.033743090138379846 0.019223450238689214 0 0.033518223119221778 0.019262855447773949 0 0.033661388028140136 0.019196144098156759 0 0.033661388028140136 0.019196144098156759 0 0.033997132371065705 0.019010685765696627 0 0.034201078590345241 0.01910567707127413 0 0.033661388028140136 0.019196144098156759 0 0.034201078590345241 0.01910567707127413 0 0.034018893700839617 0.019261103935600064 0 0.033743090138379846 0.019223450238689214 0 0.033661388028140136 0.019196144098156759 0 0.033997132371065705 0.019010685765696627 0 0.033089111862835474 0.042116007702326506 0 0.032436447716582731 0.041413352852282224 0 0.032498463519303418 0.041733116850362399 0 0.033571460138439389 0.030106716684627961 0 0.032946157445382145 0.029710205512442446 0 0.03480726444218421 0.042950300102851016 0 0.034136927670579638 0.042391285917199935 0 0.034033799260212771 0.041547864161170268 0 0.032436447716582731 0.041413352852282224 0 0.032498463519303418 0.041733116850362399 0 0.031460408272152726 0.040553709867897234 0 0.032946157445382145 0.029710205512442446 0 0.032889201077098404 0.035615714405881869 0 0.033870392530290214 0.043111500036144876 0 0.032889201077098404 0.035615714405881869 0 0.03433851854616464 0.042814787892194651 0 0.03480726444218421 0.042950300102851016 0 0.034136927670579638 0.042391285917199935 0 0.033880295042033243 0.042844818186495409 0 0.03433851854616464 0.042814787892194651 0 0.034136927670579638 0.042391285917199935 0 0.034201078590345241 0.01910567707127413 0 0.034568996819125043 0.01929447729673895 0 0.034018893700839617 0.019261103935600064 0 0.033997132371065705 0.019010685765696627 0 0.034201078590345241 0.01910567707127413 0 0.034687561316298861 0.018974726498679071 0 0.034201078590345241 0.01910567707127413 0 0.034568996819125043 0.01929447729673895 0 0.034687561316298861 0.018974726498679071 0 0.034568996819125043 0.01929447729673895 0 0.034018893700839617 0.019261103935600064 0 0.034239282305549797 0.019420437847564958 0 0.034568996819125043 0.01929447729673895 0 0.034239282305549797 0.019420437847564958 0 0.034933955642680474 0.019531048160028087 0 0.033557295938608712 0.019373255752047031 0 0.034018893700839617 0.019261103935600064 0 0.034239282305549797 0.019420437847564958 0 0.033557295938608712 0.019373255752047031 0 0.033661388028140136 0.019196144098156759 0 0.034018893700839617 0.019261103935600064 0 0.033557295938608712 0.019373255752047031 0 0.033807616615169907 0.019483281634949345 0 0.034239282305549797 0.019420437847564958 0 0.033807616615169907 0.019483281634949345 0 0.034239282305549797 0.019420437847564958 0 0.034405546229413865 0.019610748111318733 0 0.034239282305549797 0.019420437847564958 0 0.034933955642680474 0.019531048160028087 0 0.034405546229413865 0.019610748111318733 0 0.034933955642680474 0.019531048160028087 0 0.035431726422994456 0.019594137186926836 0 0.035126764430496539 0.019652668891291417 0 0.034933955642680474 0.019531048160028087 0 0.035126764430496539 0.019652668891291417 0 0.034405546229413865 0.019610748111318733 0 0.039116964100702319 0.016629849427390018 0 0.039346602720417651 0.014147197223108421 0 0.039958479768005289 0.015756985679585615 0 0.035431726422994456 0.019594137186926836 0 0.035502221343714883 0.019619296891044625 0 0.035126764430496539 0.019652668891291417 0 0.037264747372324311 0.016935460515770162 0 0.038931877704887596 0.022608343650835368 0 0.035431726422994456 0.019594137186926836 0 0.035502221343714883 0.019619296891044625 0 0.035778179289998609 0.019591551374918876 0 0.035431726422994456 0.019594137186926836 0 0.035674255424771845 0.019478933771125907 0 0.035420205727872252 0.019348126357212451 0 0.035431726422994456 0.019594137186926836 0 0.035778179289998609 0.019591551374918876 0 0.035674255424771845 0.019478933771125907 0 0.039987907900716095 0.029098911892440148 0 0.04138782090867052 0.030251634948433401 0 0.040183434238576649 0.030493306110740737 0 0.038931877704887596 0.022608343650835368 0 0.035092294707841386 0.030280151044493928 0 0.038931877704887596 0.022608343650835368 0 0.03910135073932032 0.028555759568124346 0 0.040302249668264428 0.029640196259455971 0 0.040183434238576649 0.030493306110740737 0 0.03950085235182535 0.030087609575784002 0 0.034933955642680474 0.019531048160028087 0 0.035431726422994456 0.019594137186926836 0 0.035420205727872252 0.019348126357212451 0 0.034568996819125043 0.01929447729673895 0 0.034933955642680474 0.019531048160028087 0 0.035420205727872252 0.019348126357212451 0 0.034568996819125043 0.01929447729673895 0 0.035420205727872252 0.019348126357212451 0 0.034687561316298861 0.018974726498679071 0 0.032587928462829631 0.040561178778233786 0 0.031699528511135104 0.039489186718626362 0 0.032768733806148614 0.040583301043918288 0 0.032889201077098404 0.035615714405881869 0 0.033351578037715518 0.041094307316433605 0 0.034033799260212771 0.041547864161170268 0 0.033331144731855923 0.042119399281905195 0 0.032768733806148614 0.040583301043918288 0 0.033506658012646948 0.029496311720294106 0 0.032889201077098404 0.035615714405881869 0 0.034136927670579638 0.042391285917199935 0 0.034033799260212771 0.041547864161170268 0 0.033331144731855923 0.042119399281905195 0 0.033880295042033243 0.042844818186495409 0 0.034136927670579638 0.042391285917199935 0 0.033331144731855923 0.042119399281905195 0 0.032956173533845022 0.043177304620611048 0 0.033331144731855923 0.042119399281905195 0 0.032200749411960931 0.041985633061019247 0 0.032544595220945445 0.040186338660356279 0 0.032200749411960931 0.041985633061019247 0 0.032768733806148614 0.040583301043918288 0 0.04138782090867052 0.030251634948433401 0 0.040131275572908326 0.034011568218503499 0 0.040183434238576649 0.030493306110740737 0 0.033331144731855923 0.042119399281905195 0 0.032200749411960931 0.041985633061019247 0 0.032768733806148614 0.040583301043918288 0 0.035092294707841386 0.030280151044493928 0 0.036200844134053597 0.038800588298989254 0 0.035092294707841386 0.030280151044493928 0 0.033506658012646948 0.029496311720294106 0 0.032544595220945445 0.040186338660356279 0 0.032587928462829631 0.040561178778233786 0 0.032768733806148614 0.040583301043918288 0 0.040183434238576649 0.030493306110740737 0 0.039153849207581463 0.031654130596173967 0 0.03950085235182535 0.030087609575784002 0 0.040131275572908326 0.034011568218503499 0 0.040183434238576649 0.030493306110740737 0 0.039153849207581463 0.031654130596173967 0 0.039153849207581463 0.031654130596173967 0 0.038625611755054315 0.030356022448996493 0 0.03950085235182535 0.030087609575784002 0 0.037976732227050933 0.031762425161318684 0 0.037337097813675994 0.030511041122336397 0 0.038625611755054315 0.030356022448996493 0 0.039153849207581463 0.031654130596173967 0 0.037976732227050933 0.031762425161318684 0 0.038625611755054315 0.030356022448996493 0 0.037976732227050933 0.031762425161318684 0 0.038377701378689809 0.033649116576689272 0 0.036920603234885448 0.032815686584064439 0 0.039153849207581463 0.031654130596173967 0 0.037976732227050933 0.031762425161318684 0 0.038377701378689809 0.033649116576689272 0 0.040131275572908326 0.034011568218503499 0 0.039153849207581463 0.031654130596173967 0 0.038377701378689809 0.033649116576689272 0 0.038587623114854842 0.037912393821857363 0 0.038377701378689809 0.033649116576689272 0 0.036903377735166311 0.034570997819802621 0 0.034756011348981514 0.040446365482875987 0 0.036200844134053597 0.038800588298989254 0 0.038587623114854842 0.037912393821857363 0 0.040131275572908326 0.034011568218503499 0 0.038377701378689809 0.033649116576689272 0 0.038587623114854842 0.037912393821857363 0 0.036903377735166311 0.034570997819802621 0 0.034953952224220007 0.035346963210792892 0 0.038377701378689809 0.033649116576689272 0 0.036903377735166311 0.034570997819802621 0 0.036920603234885448 0.032815686584064439 0 0.036903377735166311 0.034570997819802621 0 0.035650967941165561 0.033667825282706461 0 0.036920603234885448 0.032815686584064439 0 0.036903377735166311 0.034570997819802621 0 0.035650967941165561 0.033667825282706461 0 0.034953952224220007 0.035346963210792892 0 0.035650967941165561 0.033667825282706461 0 0.035116164351246544 0.032982459792920936 0 0.034542044948501764 0.033804396944759445 0 0.03572789556184805 0.032499167226381534 0 0.036920603234885448 0.032815686584064439 0 0.036145314587314806 0.031467421325648649 0 0.035650967941165561 0.033667825282706461 0 0.035116164351246544 0.032982459792920936 0 0.03572789556184805 0.032499167226381534 0 0.035650967941165561 0.033667825282706461 0 0.03572789556184805 0.032499167226381534 0 0.036920603234885448 0.032815686584064439 0 0.035161292472186488 0.032405765131530928 0 0.03538793077434696 0.031852932414270577 0 0.034855661207595548 0.032033110225445825 0 0.035161292472186488 0.032405765131530928 0 0.03572789556184805 0.032499167226381534 0 0.03538793077434696 0.031852932414270577 0 0.035116164351246544 0.032982459792920936 0 0.035161292472186488 0.032405765131530928 0 0.03572789556184805 0.032499167226381534 0 0.036920603234885448 0.032815686584064439 0 0.037097598980307289 0.0316314052701639 0 0.036145314587314806 0.031467421325648649 0 0.037976732227050933 0.031762425161318684 0 0.036920603234885448 0.032815686584064439 0 0.037097598980307289 0.0316314052701639 0 0.037976732227050933 0.031762425161318684 0 0.037097598980307289 0.0316314052701639 0 0.037337097813675994 0.030511041122336397 0 0.037097598980307289 0.0316314052701639 0 0.036145314587314806 0.031467421325648649 0 0.037337097813675994 0.030511041122336397 0 0.03538793077434696 0.031852932414270577 0 0.036145314587314806 0.031467421325648649 0 0.034859730483953799 0.031226630665253632 0 0.036145314587314806 0.031467421325648649 0 0.035810692402659244 0.029716910913279607 0 0.034859730483953799 0.031226630665253632 0 0.03572789556184805 0.032499167226381534 0 0.03538793077434696 0.031852932414270577 0 0.036145314587314806 0.031467421325648649 0 0.035810692402659244 0.029716910913279607 0 0.037337097813675994 0.030511041122336397 0 0.038820327332272718 0.028453043680575489 0 0.042801021901184094 0.014731752998908661 0 0.041173600998431835 0.015274007176538344 0 0.042870976229120464 0.015452577984108066 0 0.038739948178550469 0.022203220465814296 0 0.040130148277483235 0.018754575297854414 0 0.036145314587314806 0.031467421325648649 0 0.035810692402659244 0.029716910913279607 0 0.037337097813675994 0.030511041122336397 0 0.037337097813675994 0.030511041122336397 0 0.038625611755054315 0.030356022448996493 0 0.038820327332272718 0.028453043680575489 0 0.038625611755054315 0.030356022448996493 0 0.03950085235182535 0.030087609575784002 0 0.038820327332272718 0.028453043680575489 0 0.038931877704887596 0.022608343650835368 0 0.040130148277483235 0.018754575297854414 0 0.039346602720417651 0.014147197223108421 0 0.040513546166557966 0.014944183003863878 0 0.039958479768005289 0.015756985679585615 0 0.040302249668264428 0.029640196259455971 0 0.03950085235182535 0.030087609575784002 0 0.038820327332272718 0.028453043680575489 0 0.040513546166557966 0.014944183003863878 0 0.040950544713447092 0.015954794016916903 0 0.042182292842581744 0.01599776628264404 0 0.040513546166557966 0.014944183003863878 0 0.040472139142048384 0.015404778648388811 0 0.040950544713447092 0.015954794016916903 0 0.040130148277483235 0.018754575297854414 0 0.041569154238077603 0.015669601672240404 0 0.040472139142048384 0.015404778648388811 0 0.039958479768005289 0.015756985679585615 0 0.040950544713447092 0.015954794016916903 0 0.040513546166557966 0.014944183003863878 0 0.040472139142048384 0.015404778648388811 0 0.039958479768005289 0.015756985679585615 0 0.039116964100702319 0.016629849427390018 0 0.039958479768005289 0.015756985679585615 0 0.04009977899620723 0.017312615298089966 0 0.039958479768005289 0.015756985679585615 0 0.040950544713447092 0.015954794016916903 0 0.04009977899620723 0.017312615298089966 0 0.040950544713447092 0.015954794016916903 0 0.042182292842581744 0.01599776628264404 0 0.041394153782024351 0.017471333932184158 0 0.041173600998431835 0.015274007176538344 0 0.042182292842581744 0.01599776628264404 0 0.042870976229120464 0.015452577984108066 0 0.042182292842581744 0.01599776628264404 0 0.042757441727499713 0.017391338415975646 0 0.04340011953297316 0.016146201829704738 0 0.042182292842581744 0.01599776628264404 0 0.042870976229120464 0.015452577984108066 0 0.04340011953297316 0.016146201829704738 0 0.042757441727499713 0.017391338415975646 0 0.042121432687991046 0.018865642274543022 0 0.04418540056014901 0.018106883998340338 0 0.042757441727499713 0.017391338415975646 0 0.041394153782024351 0.017471333932184158 0 0.042121432687991046 0.018865642274543022 0 0.042182292842581744 0.01599776628264404 0 0.042757441727499713 0.017391338415975646 0 0.041394153782024351 0.017471333932184158 0 0.04009977899620723 0.017312615298089966 0 0.040497913535113561 0.018773830183338523 0 0.038834527435212478 0.019191610705851812 0 0.040950544713447092 0.015954794016916903 0 0.041394153782024351 0.017471333932184158 0 0.04009977899620723 0.017312615298089966 0 0.041394153782024351 0.017471333932184158 0 0.040497913535113561 0.018773830183338523 0 0.042121432687991046 0.018865642274543022 0 0.041394153782024351 0.017471333932184158 0 0.04009977899620723 0.017312615298089966 0 0.040497913535113561 0.018773830183338523 0 0.040497913535113561 0.018773830183338523 0 0.042121432687991046 0.018865642274543022 0 0.04073076930970225 0.020507028637533273 0 0.040497913535113561 0.018773830183338523 0 0.04073076930970225 0.020507028637533273 0 0.038834527435212478 0.019191610705851812 0 0.042121432687991046 0.018865642274543022 0 0.04073076930970225 0.020507028637533273 0 0.043605661394087364 0.020222241532264248 0 0.042364533724189093 0.022312096843053089 0 0.04073076930970225 0.020507028637533273 0 0.043605661394087364 0.020222241532264248 0 0.042364533724189093 0.022312096843053089 0 0.042725103914735718 0.024024343120142764 0 0.04111331864916818 0.023937221637946655 0 0.042364533724189093 0.022312096843053089 0 0.039925161401759265 0.022566057945774338 0 0.04111331864916818 0.023937221637946655 0 0.042364533724189093 0.022312096843053089 0 0.039925161401759265 0.022566057945774338 0 0.04073076930970225 0.020507028637533273 0 0.039925161401759265 0.022566057945774338 0 0.04073076930970225 0.020507028637533273 0 0.038500294286760536 0.021484625418988424 0 0.036603059112103792 0.020861388045707138 0 0.035201504925642162 0.020539428358257311 0 0.035872654618239637 0.019933290310927616 0 0.037542745200962652 0.021230874795224654 0 0.03736256601034809 0.019850715444151176 0 0.04073076930970225 0.020507028637533273 0 0.038500294286760536 0.021484625418988424 0 0.038834527435212478 0.019191610705851812 0 0.039925161401759265 0.022566057945774338 0 0.038500294286760536 0.021484625418988424 0 0.037665930118792157 0.023060625527496083 0 0.037542745200962652 0.021230874795224654 0 0.037613216488317537 0.023059034009330921 0 0.036603059112103792 0.020861388045707138 0 0.037665930118792157 0.023060625527496083 0 0.035411905466606962 0.022067494831027261 0 0.036603059112103792 0.020861388045707138 0 0.035201504925642162 0.020539428358257311 0 0.035411905466606962 0.022067494831027261 0 0.035872654618239637 0.019933290310927616 0 0.035126764430496539 0.019652668891291417 0 0.034564612148085809 0.019905232229563415 0 0.035201504925642162 0.020539428358257311 0 0.035872654618239637 0.019933290310927616 0 0.034564612148085809 0.019905232229563415 0 0.037264747372324311 0.016935460515770162 0 0.03736256601034809 0.019850715444151176 0 0.039116964100702319 0.016629849427390018 0 0.04009977899620723 0.017312615298089966 0 0.038834527435212478 0.019191610705851812 0 0.035502221343714883 0.019619296891044625 0 0.035872654618239637 0.019933290310927616 0 0.035126764430496539 0.019652668891291417 0 0.034405546229413865 0.019610748111318733 0 0.033374401583337994 0.019655495656142649 0 0.034564612148085809 0.019905232229563415 0 0.035126764430496539 0.019652668891291417 0 0.034405546229413865 0.019610748111318733 0 0.034564612148085809 0.019905232229563415 0 0.033807616615169907 0.019483281634949345 0 0.034405546229413865 0.019610748111318733 0 0.033374401583337994 0.019655495656142649 0 0.033807616615169907 0.019483281634949345 0 0.033374401583337994 0.019655495656142649 0 0.033066655350620505 0.019493370252945796 0 0.033374401583337994 0.019655495656142649 0 0.03357516990277689 0.020093344598693628 0 0.032671624036603779 0.019741779720667312 0 0.033374401583337994 0.019655495656142649 0 0.034564612148085809 0.019905232229563415 0 0.03357516990277689 0.020093344598693628 0 0.035201504925642162 0.020539428358257311 0 0.033595171732667441 0.02093517366815623 0 0.03357516990277689 0.020093344598693628 0 0.035201504925642162 0.020539428358257311 0 0.034564612148085809 0.019905232229563415 0 0.03357516990277689 0.020093344598693628 0 0.035201504925642162 0.020539428358257311 0 0.033595171732667441 0.02093517366815623 0 0.035411905466606962 0.022067494831027261 0 0.033595171732667441 0.02093517366815623 0 0.03357516990277689 0.020093344598693628 0 0.032150538165157928 0.020137149987025853 0 0.03357516990277689 0.020093344598693628 0 0.032150538165157928 0.020137149987025853 0 0.032671624036603779 0.019741779720667312 0 0.032150538165157928 0.020137149987025853 0 0.031060123712123744 0.02031121394410754 0 0.031866151581570135 0.021235681779030732 0 0.033595171732667441 0.02093517366815623 0 0.032150538165157928 0.020137149987025853 0 0.031866151581570135 0.021235681779030732 0 0.031060123712123744 0.02031121394410754 0 0.030853601487414652 0.020104040332667009 0 0.029762979330053497 0.020112885262923794 0 0.031060123712123744 0.02031121394410754 0 0.031866151581570135 0.021235681779030732 0 0.029762979330053497 0.020112885262923794 0 0.032150538165157928 0.020137149987025853 0 0.031060123712123744 0.02031121394410754 0 0.030853601487414652 0.020104040332667009 0 0.032150538165157928 0.020137149987025853 0 0.032222520455697193 0.019449724303886723 0 0.030853601487414652 0.020104040332667009 0 0.033374401583337994 0.019655495656142649 0 0.032222520455697193 0.019449724303886723 0 0.032671624036603779 0.019741779720667312 0 0.032150538165157928 0.020137149987025853 0 0.032222520455697193 0.019449724303886723 0 0.032671624036603779 0.019741779720667312 0 0.033374401583337994 0.019655495656142649 0 0.032222520455697193 0.019449724303886723 0 0.033066655350620505 0.019493370252945796 0 0.032222520455697193 0.019449724303886723 0 0.033066655350620505 0.019493370252945796 0 0.032682529293761843 0.019606425666949978 0 0.055000066868434311 0.043100684278865917 0 0.054999633881963113 0.036173082277523777 0 0.056842537328790778 0.038347925618423179 0 0.05726741963202174 0.035667431770602137 0 0.057864626411891815 0.035647339389727917 0 0.057640874488227821 0.036313710028052906 0 0.057864626411891815 0.035647339389727917 0 0.05817678106178472 0.035145113067036882 0 0.057686804399355814 0.034458312337017238 0 0.05726741963202174 0.035667431770602137 0 0.057864626411891815 0.035647339389727917 0 0.057686804399355814 0.034458312337017238 0 0.057256049478864118 0.031050727243853715 0 0.056621567004687359 0.030748230742228832 0 0.05726741963202174 0.035667431770602137 0 0.056542182050080714 0.035018699428276012 0 0.057686804399355814 0.034458312337017238 0 0.056542182050080714 0.035018699428276012 0 0.055000367604835898 0.036169707895034479 0 0.054999534084174656 0.03365558064860788 0 0.055000239727654374 0.036172405343254034 0 0.056519609242827083 0.037386796538511347 0 0.056542182050080714 0.035018699428276012 0 0.055000367604835898 0.036169707895034479 0 0.056318914401549583 0.036460324491650375 0 0.05726741963202174 0.035667431770602137 0 0.056542182050080714 0.035018699428276012 0 0.056318914401549583 0.036460324491650375 0 0.056519609242827083 0.037386796538511347 0 0.057740770177174168 0.038680347961687171 0 0.055000066868434311 0.043100684278865917 0 0.056940983073811249 0.041462465987614175 0 0.056842537328790778 0.038347925618423179 0 0.056940983073811249 0.041462465987614175 0 0.056842537328790778 0.038347925618423179 0 0.058414357427938289 0.040491827445133868 0 0.05726741963202174 0.035667431770602137 0 0.057079876579245487 0.036909416193198187 0 0.057640874488227821 0.036313710028052906 0 0.05726741963202174 0.035667431770602137 0 0.056318914401549583 0.036460324491650375 0 0.057079876579245487 0.036909416193198187 0 0.057864626411891815 0.035647339389727917 0 0.057640874488227821 0.036313710028052906 0 0.058019544108124391 0.036298893940762481 0 0.057640874488227821 0.036313710028052906 0 0.057625972848622808 0.036844138528704731 0 0.058019544108124391 0.036298893940762481 0 0.057671293487715353 0.037298871125059717 0 0.057079876579245487 0.036909416193198187 0 0.057625972848622808 0.036844138528704731 0 0.057079876579245487 0.036909416193198187 0 0.057640874488227821 0.036313710028052906 0 0.057625972848622808 0.036844138528704731 0 0.057625972848622808 0.036844138528704731 0 0.057894507759828337 0.037065967930714872 0 0.058019544108124391 0.036298893940762481 0 0.057894507759828337 0.037065967930714872 0 0.058401006365571308 0.03640771371005426 0 0.058019544108124391 0.036298893940762481 0 0.058028855071870292 0.037348055076498597 0 0.057586523202065414 0.035441685293667216 0 0.057894507759828337 0.037065967930714872 0 0.058401006365571308 0.03640771371005426 0 0.058690001002051802 0.036289931324237919 0 0.057946200571767283 0.037093690239615354 0 0.057932493568109304 0.036995274321749615 0 0.057986426200277094 0.037044859999575436 0 0.057894507759828337 0.037065967930714872 0 0.057946200571767283 0.037093690239615354 0 0.057932493568109304 0.036995274321749615 0 0.05801454532334218 0.037164859274951882 0 0.057946200571767283 0.037093690239615354 0 0.057986426200277094 0.037044859999575436 0 0.058134007925514153 0.035708965520358286 0 0.057586523202065414 0.035441685293667216 0 0.058401006365571308 0.03640771371005426 0 0.058594299130416666 0.036252635645239673 0 0.058402120367638991 0.036084936708661461 0 0.057586523202065414 0.035441685293667216 0 0.052013399821226984 0.033932623974689623 0 0.057932493568109304 0.036995274321749615 0 0.057986426200277094 0.037044859999575436 0 0.057980586807708137 0.036920870936481276 0 0.055433155533136796 0.033060691250652079 0 0.053574204708086375 0.034853072655404674 0 0.05305889009027745 0.033998088192360117 0 0.058594299130416666 0.036252635645239673 0 0.058581376418577837 0.035867119082463067 0 0.058853190963350427 0.035787660773477295 0 0.057586523202065414 0.035441685293667216 0 0.051915949697012596 0.031199249656611038 0 0.058581376418577837 0.035867119082463067 0 0.058402120367638991 0.036084936708661461 0 0.058312458455430351 0.035760399918527419 0 0.058594299130416666 0.036252635645239673 0 0.058581376418577837 0.035867119082463067 0 0.058402120367638991 0.036084936708661461 0 0.058402120367638991 0.036084936708661461 0 0.058019544108124391 0.036298893940762481 0 0.058312458455430351 0.035760399918527419 0 0.058401006365571308 0.03640771371005426 0 0.058402120367638991 0.036084936708661461 0 0.058019544108124391 0.036298893940762481 0 0.047430023123041648 0.035734279989369434 0 0.037629847686096084 0.033726617165430281 0 0.034542044948501764 0.033804396944759445 0 0.03291583842962597 0.035449380154503364 0 0.034503497989466329 0.032026652485704007 0 0.035650967941165561 0.033667825282706461 0 0.034542044948501764 0.033804396944759445 0 0.034953952224220007 0.035346963210792892 0 0.034542044948501764 0.033804396944759445 0 0.034953952224220007 0.035346963210792892 0 0.03291583842962597 0.035449380154503364 0 0.05801454532334218 0.037164859274951882 0 0.058099221161298689 0.037087063593463067 0 0.057986426200277094 0.037044859999575436 0 0.047430023123041648 0.035734279989369434 0 0.052013399821226984 0.033932623974689623 0 0.058099221161298689 0.037087063593463067 0 0.057986426200277094 0.037044859999575436 0 0.057980586807708137 0.036920870936481276 0 0.051915949697012596 0.031199249656611038 0 0.052013399821226984 0.033932623974689623 0 0.049753667907727742 0.029607573666221375 0 0.04833407894372458 0.029333826870106404 0 0.048764190230537276 0.027966053522313652 0 0.052013399821226984 0.033932623974689623 0 0.042187470285817985 0.02820161580613411 0 0.04833407894372458 0.029333826870106404 0 0.048764190230537276 0.027966053522313652 0 0.045781576438662951 0.029157053487096116 0 0.04426621711601441 0.034030636884560511 0 0.043943848414334609 0.034133671635431809 0 0.043582244677344048 0.033946502951637376 0 0.043884830525040483 0.033426556575511149 0 0.04426621711601441 0.034030636884560511 0 0.043582244677344048 0.033946502951637376 0 0.042187470285817985 0.02820161580613411 0 0.037629847686096084 0.033726617165430281 0 0.032871377206224989 0.031022665460521067 0 0.034859730483953799 0.031226630665253632 0 0.034503497989466329 0.032026652485704007 0 0.03538793077434696 0.031852932414270577 0 0.034859730483953799 0.031226630665253632 0 0.034855661207595548 0.032033110225445825 0 0.034859730483953799 0.031226630665253632 0 0.034855661207595548 0.032033110225445825 0 0.034503497989466329 0.032026652485704007 0 0.034542044948501764 0.033804396944759445 0 0.034727081947595197 0.032632102942517976 0 0.034503497989466329 0.032026652485704007 0 0.035161292472186488 0.032405765131530928 0 0.034855661207595548 0.032033110225445825 0 0.034727081947595197 0.032632102942517976 0 0.034855661207595548 0.032033110225445825 0 0.034727081947595197 0.032632102942517976 0 0.034503497989466329 0.032026652485704007 0 0.035116164351246544 0.032982459792920936 0 0.034542044948501764 0.033804396944759445 0 0.034727081947595197 0.032632102942517976 0 0.035116164351246544 0.032982459792920936 0 0.035161292472186488 0.032405765131530928 0 0.034727081947595197 0.032632102942517976 0 0.042801021901184094 0.014731752998908661 0 0.042870976229120464 0.015452577984108066 0 0.044022000142477674 0.015372483908971658 0 0.042801021901184094 0.014731752998908661 0 0.044166110480035936 0.014352180812204452 0 0.044022000142477674 0.015372483908971658 0 0.038739948178550469 0.022203220465814296 0 0.042187470285817985 0.02820161580613411 0 0.035810692402659244 0.029716910913279607 0 0.032871377206224989 0.031022665460521067 0 0.034859730483953799 0.031226630665253632 0 0.044166110480035936 0.014352180812204452 0 0.044022000142477674 0.015372483908971658 0 0.044757578638095173 0.014704122370186586 0 0.04524778435856653 0.014549523171414971 0 0.048170299617080567 0.022769512407493839 0 0.045268770550080085 0.014529189487557345 0 0.046991678165890352 0.013143402778852703 0 0.046845138413045578 0.014717980680074483 0 0.042187470285817985 0.02820161580613411 0 0.048170299617080567 0.022769512407493839 0 0.04833407894372458 0.029333826870106404 0 0.045781576438662951 0.029157053487096116 0 0.048591245669653713 0.030742239208298966 0 0.050106926453585311 0.028443627324117576 0 0.049616955458147143 0.028887212999846101 0 0.050772376701294426 0.029553169222557886 0 0.048170299617080567 0.022769512407493839 0 0.052058414480121051 0.025080825647139381 0 0.049753667907727742 0.029607573666221375 0 0.04833407894372458 0.029333826870106404 0 0.048591245669653713 0.030742239208298966 0 0.051915949697012596 0.031199249656611038 0 0.048170299617080567 0.022769512407493839 0 0.046991678165890352 0.013143402778852703 0 0.046845138413045578 0.014717980680074483 0 0.048254874689537861 0.013916135390598227 0 0.046845138413045578 0.014717980680074483 0 0.048254874689537861 0.013916135390598227 0 0.047850833918789547 0.0160837548763084 0 0.046845138413045578 0.014717980680074483 0 0.045651901793516726 0.016245604903491598 0 0.047850833918789547 0.0160837548763084 0 0.045268770550080085 0.014529189487557345 0 0.046845138413045578 0.014717980680074483 0 0.045651901793516726 0.016245604903491598 0 0.042870976229120464 0.015452577984108066 0 0.044022000142477674 0.015372483908971658 0 0.04340011953297316 0.016146201829704738 0 0.045268770550080085 0.014529189487557345 0 0.045651901793516726 0.016245604903491598 0 0.04340011953297316 0.016146201829704738 0 0.04524778435856653 0.014549523171414971 0 0.043376034743645202 0.01618901858088596 0 0.057864626411891815 0.035647339389727917 0 0.058312458455430351 0.035760399918527419 0 0.05817678106178472 0.035145113067036882 0 0.058312458455430351 0.035760399918527419 0 0.058693703535341923 0.035526676940464928 0 0.05817678106178472 0.035145113067036882 0 0.057864626411891815 0.035647339389727917 0 0.058019544108124391 0.036298893940762481 0 0.058312458455430351 0.035760399918527419 0 0.058581376418577837 0.035867119082463067 0 0.058312458455430351 0.035760399918527419 0 0.058693703535341923 0.035526676940464928 0 0.052058414480121051 0.025080825647139381 0 0.057256049478864118 0.031050727243853715 0 0.058581376418577837 0.035867119082463067 0 0.058853190963350427 0.035787660773477295 0 0.058693703535341923 0.035526676940464928 0 0.051915949697012596 0.031199249656611038 0 0.052058414480121051 0.025080825647139381 0 0.052058414480121051 0.025080825647139381 0 0.05155679749536133 0.020404686560966116 0 0.048254874689537861 0.013916135390598227 0 0.047850833918789547 0.0160837548763084 0 0.050327293143753747 0.016894394907690242 0 0.051484251910242675 0.023127320505653536 0 0.054920464064661223 0.025509085728030245 0 0.053965093723868936 0.026889777590791433 0 0.053965093723868936 0.026889777590791433 0 0.055921239959858746 0.028075278611737458 0 0.055550167690533427 0.027479076301145319 0 0.05155679749536133 0.020404686560966116 0 0.05457839858998547 0.024507699138287563 0 0.054920464064661223 0.025509085728030245 0 0.053965093723868936 0.026889777590791433 0 0.055550167690533427 0.027479076301145319 0 0.050327293143753747 0.016894394907690242 0 0.048302444772427504 0.017848422390787006 0 0.049186181690147879 0.01969514967070099 0 0.047850833918789547 0.0160837548763084 0 0.050327293143753747 0.016894394907690242 0 0.048302444772427504 0.017848422390787006 0 0.048302444772427504 0.017848422390787006 0 0.049186181690147879 0.01969514967070099 0 0.047208450860591812 0.01902086766698078 0 0.050327293143753747 0.016894394907690242 0 0.049186181690147879 0.01969514967070099 0 0.053018437130069117 0.020284431739425644 0 0.045651901793516726 0.016245604903491598 0 0.04340011953297316 0.016146201829704738 0 0.04418540056014901 0.018106883998340338 0 0.045651901793516726 0.016245604903491598 0 0.04418540056014901 0.018106883998340338 0 0.046677703868588397 0.017659510627767262 0 0.042757441727499713 0.017391338415975646 0 0.04340011953297316 0.016146201829704738 0 0.04418540056014901 0.018106883998340338 0 0.04418540056014901 0.018106883998340338 0 0.046677703868588397 0.017659510627767262 0 0.045632058988385411 0.019157185838409866 0 0.045651901793516726 0.016245604903491598 0 0.047850833918789547 0.0160837548763084 0 0.046677703868588397 0.017659510627767262 0 0.047850833918789547 0.0160837548763084 0 0.048302444772427504 0.017848422390787006 0 0.046677703868588397 0.017659510627767262 0 0.048302444772427504 0.017848422390787006 0 0.046677703868588397 0.017659510627767262 0 0.047208450860591812 0.01902086766698078 0 0.049186181690147879 0.01969514967070099 0 0.047208450860591812 0.01902086766698078 0 0.046294420310133026 0.020772668139749918 0 0.047208450860591812 0.01902086766698078 0 0.045632058988385411 0.019157185838409866 0 0.046294420310133026 0.020772668139749918 0 0.046677703868588397 0.017659510627767262 0 0.047208450860591812 0.01902086766698078 0 0.045632058988385411 0.019157185838409866 0 0.04418540056014901 0.018106883998340338 0 0.045632058988385411 0.019157185838409866 0 0.043605661394087364 0.020222241532264248 0 0.045632058988385411 0.019157185838409866 0 0.043605661394087364 0.020222241532264248 0 0.046294420310133026 0.020772668139749918 0 0.042121432687991046 0.018865642274543022 0 0.04418540056014901 0.018106883998340338 0 0.043605661394087364 0.020222241532264248 0 0.042364533724189093 0.022312096843053089 0 0.043605661394087364 0.020222241532264248 0 0.044351447685085067 0.021707528582828966 0 0.043605661394087364 0.020222241532264248 0 0.044351447685085067 0.021707528582828966 0 0.046294420310133026 0.020772668139749918 0 0.044351447685085067 0.021707528582828966 0 0.046294420310133026 0.020772668139749918 0 0.045367075024580886 0.023284172976370286 0 0.046294420310133026 0.020772668139749918 0 0.045367075024580886 0.023284172976370286 0 0.048412514927673969 0.022492609086501053 0 0.045367075024580886 0.023284172976370286 0 0.049203931808799672 0.024677095503151274 0 0.046659200299586666 0.025280614065866791 0 0.045367075024580886 0.023284172976370286 0 0.048412514927673969 0.022492609086501053 0 0.049203931808799672 0.024677095503151274 0 0.042364533724189093 0.022312096843053089 0 0.045367075024580886 0.023284172976370286 0 0.042725103914735718 0.024024343120142764 0 0.042364533724189093 0.022312096843053089 0 0.044351447685085067 0.021707528582828966 0 0.045367075024580886 0.023284172976370286 0 0.049186181690147879 0.01969514967070099 0 0.051799807031397749 0.023737834908832439 0 0.053018437130069117 0.020284431739425644 0 0.049186181690147879 0.01969514967070099 0 0.048412514927673969 0.022492609086501053 0 0.051799807031397749 0.023737834908832439 0 0.049186181690147879 0.01969514967070099 0 0.046294420310133026 0.020772668139749918 0 0.048412514927673969 0.022492609086501053 0 0.048412514927673969 0.022492609086501053 0 0.049203931808799672 0.024677095503151274 0 0.051799807031397749 0.023737834908832439 0 0.049203931808799672 0.024677095503151274 0 0.051799807031397749 0.023737834908832439 0 0.05271734004819504 0.026450871546761973 0 0.051799807031397749 0.023737834908832439 0 0.055865694097223854 0.026015798171727993 0 0.05271734004819504 0.026450871546761973 0 0.055865694097223854 0.026015798171727993 0 0.05589062030720969 0.028125278472815197 0 0.055834225473158472 0.028323425090264392 0 0.055865694097223854 0.026015798171727993 0 0.055921239959858746 0.028075278611737458 0 0.05589062030720969 0.028125278472815197 0 0.051799807031397749 0.023737834908832439 0 0.055865694097223854 0.026015798171727993 0 0.053018437130069117 0.020284431739425644 0 0.055676474485171594 0.025734211065882407 0 0.05457839858998547 0.024507699138287563 0 0.055921239959858746 0.028075278611737458 0 0.05589062030720969 0.028125278472815197 0 0.055550167690533427 0.027479076301145319 0 0.05589062030720969 0.028125278472815197 0 0.056073306693423704 0.027442477182872772 0 0.05590102667400066 0.028811151458175512 0 0.056621567004687359 0.030748230742228832 0 0.056182662037570712 0.030929600593887507 0 0.054920464064661223 0.025509085728030245 0 0.056073306693423704 0.027442477182872772 0 0.055550167690533427 0.027479076301145319 0 0.05589062030720969 0.028125278472815197 0 0.056073306693423704 0.027442477182872772 0 0.055550167690533427 0.027479076301145319 0 0.056542182050080714 0.035018699428276012 0 0.054999534084174656 0.03365558064860788 0 0.056736846521903347 0.033078952399097326 0 0.056542182050080714 0.035018699428276012 0 0.057686804399355814 0.034458312337017238 0 0.056736846521903347 0.033078952399097326 0 0.05589062030720969 0.028125278472815197 0 0.05590102667400066 0.028811151458175512 0 0.055834225473158472 0.028323425090264392 0 0.056182662037570712 0.030929600593887507 0 0.054999793566169047 0.031136423973202237 0 0.054999534084174656 0.03365558064860788 0 0.056736846521903347 0.033078952399097326 0 0.054999975996563373 0.031137369278861182 0 0.05590102667400066 0.028811151458175512 0 0.054999735737281633 0.031129569633507045 0 0.055834225473158472 0.028323425090264392 0 0.054999735737281633 0.031129569633507045 0 0.055834225473158472 0.028323425090264392 0 0.054999433879957912 0.028084581772957574 0 0.055865694097223854 0.026015798171727993 0 0.055834225473158472 0.028323425090264392 0 0.05606052224869354 0.026830692885411875 0 0.055834225473158472 0.028323425090264392 0 0.054999433879957912 0.028084581772957574 0 0.05606052224869354 0.026830692885411875 0 0.054999433879957912 0.028084581772957574 0 0.05606052224869354 0.026830692885411875 0 0.054999611700438628 0.025031849596137769 0 0.05606052224869354 0.026830692885411875 0 0.056517723821238555 0.025413746016974787 0 0.055953896330036723 0.026521940809855083 0 0.05606052224869354 0.026830692885411875 0 0.056517723821238555 0.025413746016974787 0 0.054999611700438628 0.025031849596137769 0 0.056517723821238555 0.025413746016974787 0 0.054999611700438628 0.025031849596137769 0 0.05593663204745164 0.023303203386961145 0 0.054923542958288905 0.026643432399633075 0 0.055009764652431653 0.028230692598425599 0 0.05271734004819504 0.026450871546761973 0 0.055865694097223854 0.026015798171727993 0 0.054923542958288905 0.026643432399633075 0 0.05271734004819504 0.026450871546761973 0 0.055865694097223854 0.026015798171727993 0 0.05606052224869354 0.026830692885411875 0 0.055953896330036723 0.026521940809855083 0 0.054923542958288905 0.026643432399633075 0 0.055953896330036723 0.026521940809855083 0 0.055009764652431653 0.028230692598425599 0 0.055865694097223854 0.026015798171727993 0 0.054923542958288905 0.026643432399633075 0 0.055953896330036723 0.026521940809855083 0 0.056517723821238555 0.025413746016974787 0 0.055953896330036723 0.026521940809855083 0 0.055009764652431653 0.028230692598425599 0 0.056517723821238555 0.025413746016974787 0 0.059455177252820041 0.023876687380469878 0 0.058238247431581854 0.023559625704463332 0 0.056477915721878894 0.025548848664213197 0 0.056865076958916565 0.025989341263954597 0 0.059455177252820041 0.023876687380469878 0 0.059234974219323611 0.022500521150668647 0 0.060453195684675845 0.022459969906936775 0 0.059234974219323611 0.022500521150668647 0 0.059976038981893326 0.021474270658246749 0 0.060453195684675845 0.022459969906936775 0 0.059455177252820041 0.023876687380469878 0 0.059234974219323611 0.022500521150668647 0 0.058238247431581854 0.023559625704463332 0 0.059234974219323611 0.022500521150668647 0 0.058238247431581854 0.023559625704463332 0 0.057485358242425837 0.022676962198705988 0 0.059234974219323611 0.022500521150668647 0 0.058579151336489804 0.020759145893342577 0 0.057485358242425837 0.022676962198705988 0 0.059234974219323611 0.022500521150668647 0 0.059976038981893326 0.021474270658246749 0 0.059258744370973643 0.019488072388109578 0 0.05924250134412061 0.022274770696385698 0 0.05976404716314053 0.019651799968281952 0 0.059234974219323611 0.022500521150668647 0 0.058579151336489804 0.020759145893342577 0 0.06023400350439917 0.019769553096289572 0 0.059976038981893326 0.021474270658246749 0 0.059258744370973643 0.019488072388109578 0 0.060903314674335914 0.021255293510445604 0 0.054999611700438628 0.025031849596137769 0 0.05593663204745164 0.023303203386961145 0 0.054999476293498765 0.021978461492771047 0 0.056517723821238555 0.025413746016974787 0 0.058238247431581854 0.023559625704463332 0 0.057485358242425837 0.022676962198705988 0 0.056517723821238555 0.025413746016974787 0 0.05593663204745164 0.023303203386961145 0 0.057485358242425837 0.022676962198705988 0 0.058579151336489804 0.020759145893342577 0 0.057485358242425837 0.022676962198705988 0 0.0567315926943718 0.020410844166849733 0 0.05593663204745164 0.023303203386961145 0 0.057485358242425837 0.022676962198705988 0 0.0567315926943718 0.020410844166849733 0 0.05593663204745164 0.023303203386961145 0 0.054999476293498765 0.021978461492771047 0 0.0567315926943718 0.020410844166849733 0 0.054999476293498765 0.021978461492771047 0 0.054999781120536197 0.01892543814427889 0 0.0567315926943718 0.020410844166849733 0 0.054999781120536197 0.01892543814427889 0 0.056530440307398677 0.017512710871852716 0 0.0567315926943718 0.020410844166849733 0 0.054999781120536197 0.01892543814427889 0 0.056530440307398677 0.017512710871852716 0 0.054999777037711958 0.015872655102031188 0 0.056530440307398677 0.017512710871852716 0 0.0567315926943718 0.020410844166849733 0 0.058639375050002468 0.01800955537773391 0 0.058579151336489804 0.020759145893342577 0 0.0567315926943718 0.020410844166849733 0 0.058639375050002468 0.01800955537773391 0 0.058579151336489804 0.020759145893342577 0 0.06023400350439917 0.019769553096289572 0 0.058639375050002468 0.01800955537773391 0 0.05976404716314053 0.019651799968281952 0 0.060442880286122221 0.016735066045711396 0 0.06023400350439917 0.019769553096289572 0 0.058639375050002468 0.01800955537773391 0 0.060780036506454221 0.016928954640001749 0 0.058639375050002468 0.01800955537773391 0 0.059574129494030438 0.015582504429728479 0 0.057744814192780464 0.015528557426281278 0 0.058639375050002468 0.01800955537773391 0 0.059574129494030438 0.015582504429728479 0 0.060780036506454221 0.016928954640001749 0 0.059574129494030438 0.015582504429728479 0 0.060950416717507561 0.014450014502671953 0 0.060780036506454221 0.016928954640001749 0 0.059574129494030438 0.015582504429728479 0 0.060950416717507561 0.014450014502671953 0 0.059353017216739037 0.013616295806608742 0 0.057744814192780464 0.015528557426281278 0 0.057014075619397739 0.013411557356440751 0 0.059353017216739037 0.013616295806608742 0 0.059574129494030438 0.015582504429728479 0 0.057744814192780464 0.015528557426281278 0 0.059353017216739037 0.013616295806608742 0 0.054999777037711958 0.015872655102031188 0 0.057744814192780464 0.015528557426281278 0 0.057014075619397739 0.013411557356440751 0 0.054999777037711958 0.015872655102031188 0 0.057014075619397739 0.013411557356440751 0 0.054999783406807258 0.012820003283871657 0 0.056530440307398677 0.017512710871852716 0 0.054999777037711958 0.015872655102031188 0 0.057744814192780464 0.015528557426281278 0 0.056530440307398677 0.017512710871852716 0 0.058639375050002468 0.01800955537773391 0 0.057744814192780464 0.015528557426281278 0 0.062796366206301843 0.016095375455972515 0 0.062616006099117646 0.016652151486155731 0 0.063027352589154317 0.016819868087405179 0 0.06164144797361891 0.015967714835774503 0 0.061987112695245379 0.015288944548400409 0 0.062796366206301843 0.016095375455972515 0 0.062616006099117646 0.016652151486155731 0 0.063124744006213845 0.014919939278509188 0 0.060767537685977681 0.015467386817384533 0 0.060755328078727217 0.0157160044002954 0 0.060916837537404435 0.015742761663372323 0 0.060767537685977681 0.015467386817384533 0 0.060755328078727217 0.0157160044002954 0 0.06044415516039818 0.015327475501694105 0 0.060755328078727217 0.0157160044002954 0 0.060916837537404435 0.015742761663372323 0 0.061033899117369332 0.015719672654129387 0 0.060755328078727217 0.0157160044002954 0 0.060433192191038418 0.016288070207398975 0 0.061033899117369332 0.015719672654129387 0 0.062796366206301843 0.016095375455972515 0 0.063124744006213845 0.014919939278509188 0 0.062049174181697052 0.015697652925542042 0 0.063124744006213845 0.014919939278509188 0 0.062049174181697052 0.015697652925542042 0 0.061823428679011416 0.014170844678200789 0 0.060950416717507561 0.014450014502671953 0 0.062049174181697052 0.015697652925542042 0 0.061823428679011416 0.014170844678200789 0 0.060950416717507561 0.014450014502671953 0 0.060129855107113592 0.016521509740975722 0 0.062049174181697052 0.015697652925542042 0 0.060129855107113592 0.016521509740975722 0 0.062049174181697052 0.015697652925542042 0 0.061663022607651281 0.016955951416990449 0 0.060931674183125673 0.014610122794344841 0 0.060442880286122221 0.016735066045711396 0 0.062796366206301843 0.016095375455972515 0 0.062049174181697052 0.015697652925542042 0 0.063027352589154317 0.016819868087405179 0 0.062049174181697052 0.015697652925542042 0 0.061663022607651281 0.016955951416990449 0 0.063027352589154317 0.016819868087405179 0 0.061663022607651281 0.016955951416990449 0 0.062453409389226854 0.018640916498286936 0 0.063027352589154317 0.016819868087405179 0 0.061663022607651281 0.016955951416990449 0 0.06126056665799666 0.018738062888237487 0 0.062453409389226854 0.018640916498286936 0 0.059258744370973643 0.019488072388109578 0 0.060129855107113592 0.016521509740975722 0 0.06126056665799666 0.018738062888237487 0 0.060129855107113592 0.016521509740975722 0 0.061663022607651281 0.016955951416990449 0 0.06126056665799666 0.018738062888237487 0 0.059258744370973643 0.019488072388109578 0 0.06126056665799666 0.018738062888237487 0 0.060903314674335914 0.021255293510445604 0 0.062453409389226854 0.018640916498286936 0 0.064328634361448728 0.020412494049159822 0 0.062469870796289649 0.020733464526719387 0 0.06126056665799666 0.018738062888237487 0 0.062453409389226854 0.018640916498286936 0 0.062469870796289649 0.020733464526719387 0 0.062312031010220363 0.015508786964336586 0 0.063027352589154317 0.016819868087405179 0 0.06279938657984363 0.014751655180679432 0 0.062453409389226854 0.018640916498286936 0 0.063027352589154317 0.016819868087405179 0 0.064328634361448728 0.020412494049159822 0 0.064365588682109384 0.015146698047986075 0 0.058156789453470199 0.022177169327920111 0 0.062312031010220363 0.015508786964336586 0 0.061708427684974573 0.014844523231931476 0 0.06279938657984363 0.014751655180679432 0 0.062312031010220363 0.015508786964336586 0 0.063027352589154317 0.016819868087405179 0 0.062010291660582827 0.015871329541506187 0 0.062616006099117646 0.016652151486155731 0 0.063027352589154317 0.016819868087405179 0 0.062010291660582827 0.015871329541506187 0 0.062616006099117646 0.016652151486155731 0 0.062010291660582827 0.015871329541506187 0 0.060621890866990977 0.015226897286114854 0 0.06164144797361891 0.015967714835774503 0 0.06070266209160715 0.015225042733009949 0 0.062010291660582827 0.015871329541506187 0 0.061470551476587268 0.015262574537402254 0 0.060621890866990977 0.015226897286114854 0 0.062312031010220363 0.015508786964336586 0 0.062010291660582827 0.015871329541506187 0 0.061470551476587268 0.015262574537402254 0 0.062312031010220363 0.015508786964336586 0 0.061470551476587268 0.015262574537402254 0 0.061708427684974573 0.014844523231931476 0 0.061470551476587268 0.015262574537402254 0 0.061708427684974573 0.014844523231931476 0 0.060557047534227026 0.015082671490138838 0 0.052201551621467626 0.021578678614234698 0 0.047300944786767544 0.023587315562387325 0 0.042703563960823539 0.02728712670446809 0 0.042809476997498673 0.028021766616156771 0 0.041900276888510175 0.027610872563673599 0 0.042703563960823539 0.02728712670446809 0 0.041900276888510175 0.027610872563673599 0 0.042077546253741271 0.02701182811568514 0 0.042703563960823539 0.02728712670446809 0 0.042737814791798175 0.026696250299484837 0 0.042077546253741271 0.02701182811568514 0 0.042703563960823539 0.02728712670446809 0 0.043252953126120895 0.02747635271348603 0 0.043416347216918894 0.026871489010452727 0 0.042703563960823539 0.02728712670446809 0 0.043416347216918894 0.026871489010452727 0 0.042737814791798175 0.026696250299484837 0 0.043252953126120895 0.02747635271348603 0 0.042809476997498673 0.028021766616156771 0 0.044063385712804777 0.027747013113200946 0 0.042703563960823539 0.02728712670446809 0 0.043252953126120895 0.02747635271348603 0 0.042809476997498673 0.028021766616156771 0 0.052201551621467626 0.021578678614234698 0 0.058156789453470199 0.022177169327920111 0 0.044063385712804777 0.027747013113200946 0 0.043416347216918894 0.026871489010452727 0 0.043332246196191818 0.025865972297162053 0 0.058156789453470199 0.022177169327920111 0 0.062926262854211004 0.020952686558842935 0 0.062539153294757399 0.021354997978459841 0 0.062221314407211563 0.022173850290228184 0 0.061788863606581208 0.021420738157340982 0 0.043252953126120895 0.02747635271348603 0 0.044063385712804777 0.027747013113200946 0 0.043416347216918894 0.026871489010452727 0 0.058156789453470199 0.022177169327920111 0 0.050267161091074992 0.025055635135704683 0 0.062539153294757399 0.021354997978459841 0 0.062221314407211563 0.022173850290228184 0 0.06285855108360161 0.022761318248874014 0 0.050267161091074992 0.025055635135704683 0 0.05681569988316236 0.026411703440813065 0 0.062221314407211563 0.022173850290228184 0 0.06285855108360161 0.022761318248874014 0 0.061394134042177334 0.023077970125016688 0 0.043332246196191818 0.025865972297162053 0 0.043119297073876087 0.025919553265821488 0 0.043106812510975805 0.026159071474658433 0 0.043332246196191818 0.025865972297162053 0 0.043106812510975805 0.026159071474658433 0 0.043161169674008161 0.026435557269557184 0 0.050267161091074992 0.025055635135704683 0 0.048525427577456023 0.025235197472536025 0 0.043119297073876087 0.025919553265821488 0 0.043106812510975805 0.026159071474658433 0 0.042906777141903552 0.0261135537242888 0 0.043106812510975805 0.026159071474658433 0 0.042906777141903552 0.0261135537242888 0 0.042926655491217672 0.026381339650121561 0 0.043119297073876087 0.025919553265821488 0 0.042906777141903552 0.0261135537242888 0 0.042931482582647784 0.025907950495812047 0 0.042906777141903552 0.0261135537242888 0 0.042931482582647784 0.025907950495812047 0 0.042440665275528741 0.026046223757903771 0 0.042440665275528741 0.026046223757903771 0 0.042189560519008226 0.026238153663792754 0 0.042551451154390692 0.026317335350186721 0 0.042906777141903552 0.0261135537242888 0 0.042551451154390692 0.026317335350186721 0 0.042926655491217672 0.026381339650121561 0 0.042906777141903552 0.0261135537242888 0 0.042440665275528741 0.026046223757903771 0 0.042551451154390692 0.026317335350186721 0 0.042551451154390692 0.026317335350186721 0 0.042737814791798175 0.026696250299484837 0 0.042926655491217672 0.026381339650121561 0 0.042737814791798175 0.026696250299484837 0 0.042077546253741271 0.02701182811568514 0 0.042076997743564028 0.026526117034916304 0 0.042551451154390692 0.026317335350186721 0 0.042737814791798175 0.026696250299484837 0 0.042076997743564028 0.026526117034916304 0 0.042189560519008226 0.026238153663792754 0 0.042551451154390692 0.026317335350186721 0 0.042076997743564028 0.026526117034916304 0 0.043416347216918894 0.026871489010452727 0 0.042737814791798175 0.026696250299484837 0 0.043161169674008161 0.026435557269557184 0 0.043416347216918894 0.026871489010452727 0 0.043332246196191818 0.025865972297162053 0 0.043161169674008161 0.026435557269557184 0 0.043106812510975805 0.026159071474658433 0 0.043161169674008161 0.026435557269557184 0 0.042926655491217672 0.026381339650121561 0 0.042737814791798175 0.026696250299484837 0 0.043161169674008161 0.026435557269557184 0 0.042926655491217672 0.026381339650121561 0 0.06126056665799666 0.018738062888237487 0 0.060903314674335914 0.021255293510445604 0 0.062469870796289649 0.020733464526719387 0 0.059976038981893326 0.021474270658246749 0 0.060903314674335914 0.021255293510445604 0 0.060453195684675845 0.022459969906936775 0 0.060903314674335914 0.021255293510445604 0 0.061416441854289447 0.022073226420153504 0 0.060453195684675845 0.022459969906936775 0 0.062221314407211563 0.022173850290228184 0 0.061788863606581208 0.021420738157340982 0 0.061416441854289447 0.022073226420153504 0 0.060903314674335914 0.021255293510445604 0 0.061788863606581208 0.021420738157340982 0 0.061416441854289447 0.022073226420153504 0 0.060772394310561861 0.021292031623872953 0 0.062926262854211004 0.020952686558842935 0 0.062221314407211563 0.022173850290228184 0 0.061416441854289447 0.022073226420153504 0 0.061394134042177334 0.023077970125016688 0 0.059455177252820041 0.023876687380469878 0 0.060453195684675845 0.022459969906936775 0 0.061394134042177334 0.023077970125016688 0 0.061416441854289447 0.022073226420153504 0 0.060453195684675845 0.022459969906936775 0 0.061394134042177334 0.023077970125016688 0 0.055009764652431653 0.028230692598425599 0 0.050621122097248297 0.029406806216687661 0 0.05271734004819504 0.026450871546761973 0 0.050621122097248297 0.029406806216687661 0 0.049824851174388375 0.026744755186475993 0 0.05271734004819504 0.026450871546761973 0 0.056865076958916565 0.025989341263954597 0 0.05681569988316236 0.026411703440813065 0 0.050621122097248297 0.029406806216687661 0 0.049824851174388375 0.026744755186475993 0 0.047639164394140773 0.027412688591596582 0 0.049203931808799672 0.024677095503151274 0 0.049824851174388375 0.026744755186475993 0 0.046659200299586666 0.025280614065866791 0 0.049824851174388375 0.026744755186475993 0 0.047639164394140773 0.027412688591596582 0 0.046659200299586666 0.025280614065866791 0 0.049203931808799672 0.024677095503151274 0 0.049824851174388375 0.026744755186475993 0 0.05271734004819504 0.026450871546761973 0 0.04312619340025322 0.025917249883926283 0 0.043138267387013741 0.025759263259603017 0 0.043809139822524323 0.025644900263113293 0 0.050267161091074992 0.025055635135704683 0 0.043178321361064233 0.026416364419743824 0 0.043138267387013741 0.025759263259603017 0 0.043809139822524323 0.025644900263113293 0 0.04238416195407517 0.025059956809534732 0 0.043138267387013741 0.025759263259603017 0 0.04238416195407517 0.025059956809534732 0 0.042117457402460166 0.025627887721240614 0 0.042931482582647784 0.025907950495812047 0 0.042440665275528741 0.026046223757903771 0 0.042117457402460166 0.025627887721240614 0 0.042931482582647784 0.025907950495812047 0 0.043138267387013741 0.025759263259603017 0 0.042117457402460166 0.025627887721240614 0 0.04312619340025322 0.025917249883926283 0 0.043119297073876087 0.025919553265821488 0 0.043138267387013741 0.025759263259603017 0 0.043119297073876087 0.025919553265821488 0 0.042931482582647784 0.025907950495812047 0 0.043138267387013741 0.025759263259603017 0 0.045044483462479336 0.030056599050867352 0 0.047639164394140773 0.027412688591596582 0 0.043809139822524323 0.025644900263113293 0 0.045044483462479336 0.030056599050867352 0 0.050621122097248297 0.029406806216687661 0 0.047639164394140773 0.027412688591596582 0 0.047639164394140773 0.027412688591596582 0 0.046659200299586666 0.025280614065866791 0 0.043809139822524323 0.025644900263113293 0 0.045367075024580886 0.023284172976370286 0 0.046659200299586666 0.025280614065866791 0 0.043809139822524323 0.025644900263113293 0 0.045367075024580886 0.023284172976370286 0 0.043809139822524323 0.025644900263113293 0 0.042725103914735718 0.024024343120142764 0 0.043809139822524323 0.025644900263113293 0 0.042725103914735718 0.024024343120142764 0 0.04238416195407517 0.025059956809534732 0 0.04111331864916818 0.023937221637946655 0 0.04238416195407517 0.025059956809534732 0 0.04118258125205438 0.02490924430809514 0 0.042725103914735718 0.024024343120142764 0 0.04111331864916818 0.023937221637946655 0 0.04238416195407517 0.025059956809534732 0 0.04238416195407517 0.025059956809534732 0 0.04118258125205438 0.02490924430809514 0 0.042117457402460166 0.025627887721240614 0 0.042117457402460166 0.025627887721240614 0 0.040448023573485328 0.025421991308261376 0 0.041647483464460844 0.026053799166949745 0 0.04118258125205438 0.02490924430809514 0 0.042117457402460166 0.025627887721240614 0 0.040448023573485328 0.025421991308261376 0 0.040448023573485328 0.025421991308261376 0 0.039733454671797272 0.0243552422467638 0 0.038265590783488006 0.02482935466384234 0 0.04118258125205438 0.02490924430809514 0 0.040448023573485328 0.025421991308261376 0 0.039733454671797272 0.0243552422467638 0 0.039925161401759265 0.022566057945774338 0 0.039733454671797272 0.0243552422467638 0 0.037665930118792157 0.023060625527496083 0 0.039925161401759265 0.022566057945774338 0 0.04111331864916818 0.023937221637946655 0 0.039733454671797272 0.0243552422467638 0 0.04111331864916818 0.023937221637946655 0 0.04118258125205438 0.02490924430809514 0 0.039733454671797272 0.0243552422467638 0 0.035411905466606962 0.022067494831027261 0 0.03660405247058051 0.023820467968867307 0 0.035074182641152023 0.023647396389508631 0 0.037665930118792157 0.023060625527496083 0 0.035411905466606962 0.022067494831027261 0 0.03660405247058051 0.023820467968867307 0 0.03660405247058051 0.023820467968867307 0 0.038265590783488006 0.02482935466384234 0 0.036337376866208158 0.025100131130393329 0 0.03660405247058051 0.023820467968867307 0 0.036337376866208158 0.025100131130393329 0 0.035074182641152023 0.023647396389508631 0 0.039733454671797272 0.0243552422467638 0 0.037665930118792157 0.023060625527496083 0 0.038265590783488006 0.02482935466384234 0 0.037665930118792157 0.023060625527496083 0 0.03660405247058051 0.023820467968867307 0 0.038265590783488006 0.02482935466384234 0 0.038265590783488006 0.02482935466384234 0 0.0378822776884312 0.025876561865132805 0 0.039227887307527687 0.026003592931614399 0 0.038265590783488006 0.02482935466384234 0 0.0378822776884312 0.025876561865132805 0 0.036337376866208158 0.025100131130393329 0 0.0378822776884312 0.025876561865132805 0 0.038343440081338317 0.027018440483606011 0 0.039227887307527687 0.026003592931614399 0 0.0378822776884312 0.025876561865132805 0 0.036337376866208158 0.025100131130393329 0 0.037022420223923339 0.026669511958012454 0 0.036337376866208158 0.025100131130393329 0 0.037022420223923339 0.026669511958012454 0 0.035623463571728388 0.026293687134126331 0 0.035623463571728388 0.026293687134126331 0 0.034970574324860032 0.027370008801508593 0 0.036796672580318407 0.027841726420489515 0 0.037022420223923339 0.026669511958012454 0 0.035623463571728388 0.026293687134126331 0 0.036796672580318407 0.027841726420489515 0 0.0378822776884312 0.025876561865132805 0 0.037022420223923339 0.026669511958012454 0 0.038343440081338317 0.027018440483606011 0 0.037022420223923339 0.026669511958012454 0 0.038343440081338317 0.027018440483606011 0 0.036796672580318407 0.027841726420489515 0 0.039867465433665573 0.026951430606679122 0 0.040648150838289966 0.027567199661333388 0 0.038987045796096534 0.028116221131383907 0 0.038343440081338317 0.027018440483606011 0 0.039867465433665573 0.026951430606679122 0 0.038987045796096534 0.028116221131383907 0 0.038343440081338317 0.027018440483606011 0 0.039867465433665573 0.026951430606679122 0 0.039227887307527687 0.026003592931614399 0 0.042809476997498673 0.028021766616156771 0 0.041900276888510175 0.027610872563673599 0 0.041492492244865897 0.028213819151945495 0 0.040648150838289966 0.027567199661333388 0 0.041900276888510175 0.027610872563673599 0 0.041237315006707458 0.026833702027794781 0 0.040648150838289966 0.027567199661333388 0 0.041900276888510175 0.027610872563673599 0 0.041283562615433568 0.028312629811861896 0 0.042451995960115271 0.028562534969353019 0 0.047300944786767544 0.023587315562387325 0 0.042077546253741271 0.02701182811568514 0 0.041237315006707458 0.026833702027794781 0 0.042076997743564028 0.026526117034916304 0 0.041900276888510175 0.027610872563673599 0 0.042077546253741271 0.02701182811568514 0 0.041237315006707458 0.026833702027794781 0 0.039867465433665573 0.026951430606679122 0 0.040648150838289966 0.027567199661333388 0 0.041237315006707458 0.026833702027794781 0 0.039867465433665573 0.026951430606679122 0 0.041237315006707458 0.026833702027794781 0 0.040491925508887874 0.026233321866149191 0 0.041237315006707458 0.026833702027794781 0 0.041647483464460844 0.026053799166949745 0 0.040491925508887874 0.026233321866149191 0 0.041237315006707458 0.026833702027794781 0 0.042076997743564028 0.026526117034916304 0 0.041647483464460844 0.026053799166949745 0 0.042189560519008226 0.026238153663792754 0 0.042076997743564028 0.026526117034916304 0 0.041647483464460844 0.026053799166949745 0 0.042440665275528741 0.026046223757903771 0 0.042117457402460166 0.025627887721240614 0 0.041647483464460844 0.026053799166949745 0 0.042440665275528741 0.026046223757903771 0 0.042189560519008226 0.026238153663792754 0 0.041647483464460844 0.026053799166949745 0 0.040448023573485328 0.025421991308261376 0 0.041647483464460844 0.026053799166949745 0 0.040491925508887874 0.026233321866149191 0 0.040448023573485328 0.025421991308261376 0 0.039227887307527687 0.026003592931614399 0 0.040491925508887874 0.026233321866149191 0 0.040448023573485328 0.025421991308261376 0 0.038265590783488006 0.02482935466384234 0 0.039227887307527687 0.026003592931614399 0 0.039867465433665573 0.026951430606679122 0 0.039227887307527687 0.026003592931614399 0 0.040491925508887874 0.026233321866149191 0 0.030551462483748428 0.022461494015560284 0 0.029738878850500469 0.024185655711399835 0 0.02781975064644988 0.022137885330855273 0 0.030551462483748428 0.022461494015560284 0 0.031866151581570135 0.021235681779030732 0 0.029762979330053497 0.020112885262923794 0 0.031866151581570135 0.021235681779030732 0 0.032373082592769553 0.023376723315588377 0 0.033611147272081483 0.022468633115255369 0 0.030551462483748428 0.022461494015560284 0 0.032373082592769553 0.023376723315588377 0 0.031343380886246976 0.024170210170704528 0 0.030551462483748428 0.022461494015560284 0 0.031866151581570135 0.021235681779030732 0 0.032373082592769553 0.023376723315588377 0 0.032373082592769553 0.023376723315588377 0 0.033611147272081483 0.022468633115255369 0 0.034098150895477908 0.024687888852204399 0 0.033595171732667441 0.02093517366815623 0 0.031866151581570135 0.021235681779030732 0 0.033611147272081483 0.022468633115255369 0 0.035411905466606962 0.022067494831027261 0 0.033611147272081483 0.022468633115255369 0 0.035074182641152023 0.023647396389508631 0 0.033595171732667441 0.02093517366815623 0 0.035411905466606962 0.022067494831027261 0 0.033611147272081483 0.022468633115255369 0 0.033611147272081483 0.022468633115255369 0 0.035074182641152023 0.023647396389508631 0 0.034098150895477908 0.024687888852204399 0 0.036337376866208158 0.025100131130393329 0 0.035074182641152023 0.023647396389508631 0 0.034098150895477908 0.024687888852204399 0 0.035623463571728388 0.026293687134126331 0 0.034000563779150193 0.026396444119738089 0 0.034098150895477908 0.024687888852204399 0 0.036337376866208158 0.025100131130393329 0 0.035623463571728388 0.026293687134126331 0 0.034098150895477908 0.024687888852204399 0 0.035623463571728388 0.026293687134126331 0 0.034000563779150193 0.026396444119738089 0 0.034970574324860032 0.027370008801508593 0 0.034000563779150193 0.026396444119738089 0 0.033581935679182003 0.027570982813133246 0 0.034970574324860032 0.027370008801508593 0 0.034000563779150193 0.026396444119738089 0 0.032650724303988431 0.026539255717342832 0 0.033581935679182003 0.027570982813133246 0 0.034000563779150193 0.026396444119738089 0 0.032650724303988431 0.026539255717342832 0 0.032712022376586242 0.025114301982585754 0 0.034000563779150193 0.026396444119738089 0 0.034098150895477908 0.024687888852204399 0 0.032712022376586242 0.025114301982585754 0 0.032373082592769553 0.023376723315588377 0 0.034098150895477908 0.024687888852204399 0 0.032712022376586242 0.025114301982585754 0 0.032373082592769553 0.023376723315588377 0 0.032712022376586242 0.025114301982585754 0 0.031343380886246976 0.024170210170704528 0 0.031343380886246976 0.024170210170704528 0 0.03164428101833406 0.025552298432662018 0 0.030134012384774443 0.025563137344874014 0 0.032712022376586242 0.025114301982585754 0 0.031343380886246976 0.024170210170704528 0 0.03164428101833406 0.025552298432662018 0 0.032650724303988431 0.026539255717342832 0 0.032712022376586242 0.025114301982585754 0 0.03164428101833406 0.025552298432662018 0 0.032650724303988431 0.026539255717342832 0 0.03126937629480897 0.026659009287168203 0 0.032153023402232993 0.027600059141290809 0 0.032650724303988431 0.026539255717342832 0 0.03126937629480897 0.026659009287168203 0 0.03164428101833406 0.025552298432662018 0 0.03126937629480897 0.026659009287168203 0 0.03164428101833406 0.025552298432662018 0 0.030134012384774443 0.025563137344874014 0 0.03126937629480897 0.026659009287168203 0 0.030134012384774443 0.025563137344874014 0 0.03001733615877613 0.027015166193624738 0 0.030134012384774443 0.025563137344874014 0 0.029122682318712061 0.026275785887105347 0 0.03001733615877613 0.027015166193624738 0 0.029122682318712061 0.026275785887105347 0 0.03001733615877613 0.027015166193624738 0 0.028245268209282821 0.027110359368384181 0 0.030134012384774443 0.025563137344874014 0 0.029122682318712061 0.026275785887105347 0 0.028077469248153217 0.025431000665375139 0 0.030134012384774443 0.025563137344874014 0 0.029738878850500469 0.024185655711399835 0 0.028077469248153217 0.025431000665375139 0 0.030551462483748428 0.022461494015560284 0 0.031343380886246976 0.024170210170704528 0 0.029738878850500469 0.024185655711399835 0 0.031343380886246976 0.024170210170704528 0 0.030134012384774443 0.025563137344874014 0 0.029738878850500469 0.024185655711399835 0 0.026495639707308397 0.02593361249058633 0 0.027986386593905135 0.023254871068968969 0 0.029300400631197931 0.025770289437493831 0 0.026495639707308397 0.02593361249058633 0 0.027986386593905135 0.023254871068968969 0 0.024650458660190569 0.024389194469277325 0 0.029624588031173037 0.026611792255333708 0 0.02562046950344532 0.026521301005638005 0 0.03001733615877613 0.027015166193624738 0 0.030568180746475233 0.028060853054124216 0 0.028245268209282821 0.027110359368384181 0 0.030568180746475233 0.028060853054124216 0 0.028245268209282821 0.027110359368384181 0 0.026652381424980907 0.028960596815534173 0 0.03126937629480897 0.026659009287168203 0 0.03001733615877613 0.027015166193624738 0 0.03062295849286667 0.028128393445741293 0 0.030155392059116898 0.027441854882718768 0 0.029624588031173037 0.026611792255333708 0 0.031291488110776006 0.027908592852009282 0 0.032153023402232993 0.027600059141290809 0 0.032793544539199408 0.028589805959644467 0 0.029624588031173037 0.026611792255333708 0 0.031895005516685511 0.027193254391563299 0 0.03126937629480897 0.026659009287168203 0 0.03062295849286667 0.028128393445741293 0 0.032153023402232993 0.027600059141290809 0 0.029624588031173037 0.026611792255333708 0 0.030748083682708188 0.027426809624228936 0 0.031291488110776006 0.027908592852009282 0 0.032302880076376349 0.029507808429527781 0 0.032793544539199408 0.028589805959644467 0 0.032302880076376349 0.029507808429527781 0 0.032793544539199408 0.028589805959644467 0 0.033765312233956533 0.029864279580640623 0 0.032793544539199408 0.028589805959644467 0 0.034828323412145638 0.028673492456246768 0 0.033765312233956533 0.029864279580640623 0 0.032153023402232993 0.027600059141290809 0 0.032793544539199408 0.028589805959644467 0 0.033581935679182003 0.027570982813133246 0 0.032793544539199408 0.028589805959644467 0 0.033581935679182003 0.027570982813133246 0 0.034828323412145638 0.028673492456246768 0 0.032650724303988431 0.026539255717342832 0 0.032153023402232993 0.027600059141290809 0 0.033581935679182003 0.027570982813133246 0 0.034970574324860032 0.027370008801508593 0 0.034828323412145638 0.028673492456246768 0 0.036796672580318407 0.027841726420489515 0 0.033581935679182003 0.027570982813133246 0 0.034970574324860032 0.027370008801508593 0 0.034828323412145638 0.028673492456246768 0 0.034828323412145638 0.028673492456246768 0 0.033765312233956533 0.029864279580640623 0 0.035259953308899479 0.030052924431890973 0 0.034231776697678899 0.030985399074779922 0 0.033765312233956533 0.029864279580640623 0 0.035259953308899479 0.030052924431890973 0 0.031905954912012639 0.029631302031481451 0 0.032594673300438345 0.031254178184175266 0 0.030691124878252901 0.028242837658733547 0 0.029984842356519978 0.030403415781972497 0 0.032580950835941688 0.031358012734628321 0 0.034231776697678899 0.030985399074779922 0 0.033125896515313051 0.030818457212580676 0 0.032580950835941688 0.031358012734628321 0 0.032302880076376349 0.029507808429527781 0 0.033125896515313051 0.030818457212580676 0 0.033765312233956533 0.029864279580640623 0 0.034231776697678899 0.030985399074779922 0 0.033125896515313051 0.030818457212580676 0 0.033765312233956533 0.029864279580640623 0 0.030748083682708188 0.027426809624228936 0 0.031905954912012639 0.029631302031481451 0 0.029300400631197931 0.025770289437493831 0 0.030691124878252901 0.028242837658733547 0 0.027608497783659227 0.028160494803587163 0 0.030691124878252901 0.028242837658733547 0 0.02847460913227224 0.029775864959441158 0 0.027608497783659227 0.028160494803587163 0 0.030691124878252901 0.028242837658733547 0 0.02847460913227224 0.029775864959441158 0 0.029984842356519978 0.030403415781972497 0 0.027608497783659227 0.028160494803587163 0 0.026320167744100582 0.030757975088192661 0 0.024666919069951027 0.028763090077750748 0 0.02847460913227224 0.029775864959441158 0 0.027608497783659227 0.028160494803587163 0 0.026320167744100582 0.030757975088192661 0 0.026495639707308397 0.02593361249058633 0 0.029300400631197931 0.025770289437493831 0 0.027608497783659227 0.028160494803587163 0 0.026495639707308397 0.02593361249058633 0 0.027608497783659227 0.028160494803587163 0 0.024666919069951027 0.028763090077750748 0 0.038913470540648774 0.029392089359086312 0 0.038987045796096534 0.028116221131383907 0 0.037831794668055141 0.028717745190155811 0 0.060767537685977681 0.015467386817384533 0 0.06044415516039818 0.015327475501694105 0 0.060621890866990977 0.015226897286114854 0 0.059744789625596366 0.015182431995143816 0 0.06044415516039818 0.015327475501694105 0 0.060621890866990977 0.015226897286114854 0 0.049966832205795862 0.021692142548186671 0 0.047300944786767544 0.023587315562387325 0 0.059744789625596366 0.015182431995143816 0 0.060621890866990977 0.015226897286114854 0 0.060557047534227026 0.015082671490138838 0 0.040648150838289966 0.027567199661333388 0 0.041283562615433568 0.028312629811861896 0 0.038987045796096534 0.028116221131383907 0 0.061470551476587268 0.015262574537402254 0 0.060621890866990977 0.015226897286114854 0 0.060557047534227026 0.015082671490138838 0 0.038913470540648774 0.029392089359086312 0 0.040347379759863813 0.027838286810886365 0 0.038987045796096534 0.028116221131383907 0 0.047300944786767544 0.023587315562387325 0 0.036701079823830252 0.028822656147805964 0 0.038343440081338317 0.027018440483606011 0 0.038987045796096534 0.028116221131383907 0 0.036796672580318407 0.027841726420489515 0 0.038987045796096534 0.028116221131383907 0 0.036796672580318407 0.027841726420489515 0 0.037831794668055141 0.028717745190155811 0 0.034828323412145638 0.028673492456246768 0 0.036565158561231083 0.029510979441939339 0 0.035259953308899479 0.030052924431890973 0 0.034828323412145638 0.028673492456246768 0 0.036796672580318407 0.027841726420489515 0 0.036565158561231083 0.029510979441939339 0 0.036796672580318407 0.027841726420489515 0 0.036565158561231083 0.029510979441939339 0 0.037831794668055141 0.028717745190155811 0 0.038913470540648774 0.029392089359086312 0 0.036565158561231083 0.029510979441939339 0 0.037831794668055141 0.028717745190155811 0 0.038913470540648774 0.029392089359086312 0 0.036565158561231083 0.029510979441939339 0 0.037130384253712741 0.031016150206568519 0 0.049966832205795862 0.021692142548186671 0 0.04724093864624096 0.02381722104251879 0 0.036565158561231083 0.029510979441939339 0 0.035259953308899479 0.030052924431890973 0 0.037130384253712741 0.031016150206568519 0 0.034231776697678899 0.030985399074779922 0 0.037130384253712741 0.031016150206568519 0 0.035446821643053732 0.032714726819522928 0 0.034231776697678899 0.030985399074779922 0 0.035259953308899479 0.030052924431890973 0 0.037130384253712741 0.031016150206568519 0 0.058076281513240971 0.01589544629339654 0 0.060433192191038418 0.016288070207398975 0 0.058640339732408155 0.017361714670566859 0 0.058076281513240971 0.01589544629339654 0 0.060072719959803775 0.015603229773572784 0 0.060433192191038418 0.016288070207398975 0 0.059744789625596366 0.015182431995143816 0 0.058076281513240971 0.01589544629339654 0 0.060072719959803775 0.015603229773572784 0 0.060755328078727217 0.0157160044002954 0 0.06044415516039818 0.015327475501694105 0 0.060072719959803775 0.015603229773572784 0 0.059744789625596366 0.015182431995143816 0 0.06044415516039818 0.015327475501694105 0 0.060072719959803775 0.015603229773572784 0 0.060755328078727217 0.0157160044002954 0 0.060072719959803775 0.015603229773572784 0 0.060433192191038418 0.016288070207398975 0 0.060433192191038418 0.016288070207398975 0 0.060728109179475222 0.015994640214953407 0 0.060980028314742425 0.015788107753699994 0 0.060433192191038418 0.016288070207398975 0 0.060728109179475222 0.015994640214953407 0 0.061033899117369332 0.015719672654129387 0 0.060499230354477608 0.016411850613042862 0 0.06063047674380339 0.017012957357494387 0 0.060728109179475222 0.015994640214953407 0 0.060980028314742425 0.015788107753699994 0 0.060737313396435434 0.01588715807769648 0 0.060500881893332782 0.018836721699906429 0 0.058874211795311993 0.019062692046442498 0 0.058640339732408155 0.017361714670566859 0 0.060500881893332782 0.018836721699906429 0 0.058874211795311993 0.019062692046442498 0 0.0597753973155302 0.019702888234303766 0 0.060433192191038418 0.016288070207398975 0 0.060500881893332782 0.018836721699906429 0 0.058640339732408155 0.017361714670566859 0 0.058076281513240971 0.01589544629339654 0 0.058640339732408155 0.017361714670566859 0 0.055823855418603484 0.017853108759833231 0 0.058640339732408155 0.017361714670566859 0 0.055823855418603484 0.017853108759833231 0 0.05734281860852132 0.018845555927308549 0 0.04724093864624096 0.02381722104251879 0 0.046822461336160519 0.024553308788776328 0 0.055823855418603484 0.017853108759833231 0 0.05734281860852132 0.018845555927308549 0 0.055903143893797531 0.020075092682880043 0 0.058874211795311993 0.019062692046442498 0 0.05734281860852132 0.018845555927308549 0 0.057548935356406677 0.020658500577471452 0 0.058874211795311993 0.019062692046442498 0 0.058640339732408155 0.017361714670566859 0 0.05734281860852132 0.018845555927308549 0 0.058874211795311993 0.019062692046442498 0 0.057548935356406677 0.020658500577471452 0 0.0591875315300174 0.022202829766198546 0 0.05734281860852132 0.018845555927308549 0 0.057548935356406677 0.020658500577471452 0 0.055903143893797531 0.020075092682880043 0 0.055903143893797531 0.020075092682880043 0 0.056384081328641311 0.021506799683296506 0 0.054878840953440269 0.021820044639194052 0 0.057548935356406677 0.020658500577471452 0 0.055903143893797531 0.020075092682880043 0 0.056384081328641311 0.021506799683296506 0 0.056384081328641311 0.021506799683296506 0 0.055939082597238197 0.022581548325851838 0 0.054878840953440269 0.021820044639194052 0 0.056384081328641311 0.021506799683296506 0 0.055939082597238197 0.022581548325851838 0 0.057336565442858187 0.022418393985130264 0 0.055939082597238197 0.022581548325851838 0 0.057336565442858187 0.022418393985130264 0 0.056384670986825425 0.023869057035116173 0 0.055939082597238197 0.022581548325851838 0 0.054878840953440269 0.021820044639194052 0 0.054697173123162086 0.023287993777260596 0 0.057548935356406677 0.020658500577471452 0 0.056384081328641311 0.021506799683296506 0 0.057336565442858187 0.022418393985130264 0 0.057548935356406677 0.020658500577471452 0 0.057336565442858187 0.022418393985130264 0 0.0591875315300174 0.022202829766198546 0 0.057336565442858187 0.022418393985130264 0 0.0591875315300174 0.022202829766198546 0 0.057954106648861858 0.023829136420490022 0 0.059445722471528302 0.020400094802358947 0 0.060263657914298767 0.020288110811595962 0 0.0597753973155302 0.019702888234303766 0 0.059445722471528302 0.020400094802358947 0 0.060263657914298767 0.020288110811595962 0 0.059895758057790724 0.020754069217006399 0 0.06063047674380339 0.017012957357494387 0 0.06111456387450654 0.018677214749011413 0 0.060500881893332782 0.018836721699906429 0 0.060263657914298767 0.020288110811595962 0 0.0597753973155302 0.019702888234303766 0 0.060980028314742425 0.015788107753699994 0 0.06103460060984519 0.015083067347496539 0 0.060713094603435706 0.015591164695156107 0 0.058874211795311993 0.019062692046442498 0 0.059445722471528302 0.020400094802358947 0 0.0597753973155302 0.019702888234303766 0 0.058807924289257359 0.018693538529129621 0 0.059594498896301397 0.022318485596964234 0 0.026711134609066479 0.032939772431239106 0 0.028080417623946263 0.031486948209471358 0 0.02851278156855341 0.033195068468284537 0 0.02847460913227224 0.029775864959441158 0 0.026320167744100582 0.030757975088192661 0 0.028080417623946263 0.031486948209471358 0 0.026711134609066479 0.032939772431239106 0 0.026320167744100582 0.030757975088192661 0 0.028080417623946263 0.031486948209471358 0 0.02847460913227224 0.029775864959441158 0 0.028080417623946263 0.031486948209471358 0 0.029984842356519978 0.030403415781972497 0 0.028080417623946263 0.031486948209471358 0 0.029984842356519978 0.030403415781972497 0 0.029475564145347074 0.031977755404529601 0 0.029475564145347074 0.031977755404529601 0 0.02851278156855341 0.033195068468284537 0 0.030371049210603351 0.032868443352741333 0 0.028080417623946263 0.031486948209471358 0 0.029475564145347074 0.031977755404529601 0 0.02851278156855341 0.033195068468284537 0 0.02851278156855341 0.033195068468284537 0 0.030371049210603351 0.032868443352741333 0 0.029867530364846358 0.034085267437756819 0 0.030371049210603351 0.032868443352741333 0 0.031638095009464989 0.032100848929849803 0 0.031862991819818394 0.034165097056296896 0 0.029475564145347074 0.031977755404529601 0 0.030371049210603351 0.032868443352741333 0 0.030794112515879407 0.031782945703156783 0 0.030371049210603351 0.032868443352741333 0 0.031638095009464989 0.032100848929849803 0 0.030794112515879407 0.031782945703156783 0 0.029984842356519978 0.030403415781972497 0 0.029475564145347074 0.031977755404529601 0 0.030794112515879407 0.031782945703156783 0 0.029984842356519978 0.030403415781972497 0 0.030794112515879407 0.031782945703156783 0 0.032580950835941688 0.031358012734628321 0 0.031638095009464989 0.032100848929849803 0 0.030794112515879407 0.031782945703156783 0 0.032580950835941688 0.031358012734628321 0 0.034231776697678899 0.030985399074779922 0 0.035446821643053732 0.032714726819522928 0 0.034435675400733848 0.032727738233814321 0 0.034228376135773314 0.030512992543743522 0 0.033123169550400365 0.033202710208382148 0 0.034231776697678899 0.030985399074779922 0 0.032580950835941688 0.031358012734628321 0 0.032716786938466649 0.031700111232579681 0 0.031638095009464989 0.032100848929849803 0 0.032580950835941688 0.031358012734628321 0 0.032716786938466649 0.031700111232579681 0 0.031638095009464989 0.032100848929849803 0 0.032716786938466649 0.031700111232579681 0 0.031862991819818394 0.034165097056296896 0 0.033123169550400365 0.033202710208382148 0 0.037867120361061282 0.02955529232021685 0 0.055823855418603484 0.017853108759833231 0 0.055903143893797531 0.020075092682880043 0 0.053595723952183663 0.020497097950248129 0 0.035446821643053732 0.032714726819522928 0 0.034435675400733848 0.032727738233814321 0 0.034363044208114923 0.033999163962019345 0 0.046822461336160519 0.024553308788776328 0 0.037867120361061282 0.02955529232021685 0 0.037867120361061282 0.02955529232021685 0 0.041843502248722068 0.028259732162999488 0 0.055903143893797531 0.020075092682880043 0 0.053595723952183663 0.020497097950248129 0 0.054878840953440269 0.021820044639194052 0 0.041843502248722068 0.028259732162999488 0 0.040552119061484947 0.028700525070600617 0 0.053595723952183663 0.020497097950248129 0 0.054878840953440269 0.021820044639194052 0 0.053379246855435894 0.022291093955614041 0 0.053379246855435894 0.022291093955614041 0 0.053138718023526474 0.024081444528033076 0 0.054697173123162086 0.023287993777260596 0 0.054878840953440269 0.021820044639194052 0 0.053379246855435894 0.022291093955614041 0 0.054697173123162086 0.023287993777260596 0 0.030447706637113704 0.034881773991283969 0 0.029481397960976635 0.035760278802801589 0 0.030089483287252222 0.036843562940606166 0 0.030822593281888713 0.032431168706511859 0 0.030447706637113704 0.034881773991283969 0 0.029324180372100717 0.03456257136418215 0 0.030447706637113704 0.034881773991283969 0 0.029324180372100717 0.03456257136418215 0 0.029481397960976635 0.035760278802801589 0 0.029233195440011291 0.035970638606090274 0 0.029058897632634726 0.035866365379283817 0 0.029324180372100717 0.03456257136418215 0 0.029481397960976635 0.035760278802801589 0 0.028584206318477742 0.036391907154765042 0 0.030327999213501874 0.035545299353377816 0 0.029036248078922113 0.035720530798115137 0 0.028584206318477742 0.036391907154765042 0 0.030327999213501874 0.035545299353377816 0 0.029440017943001853 0.035018306327689853 0 0.029036248078922113 0.035720530798115137 0 0.030327999213501874 0.035545299353377816 0 0.029440017943001853 0.035018306327689853 0 0.030370039227090143 0.034703550209275631 0 0.031862991819818394 0.034165097056296896 0 0.030370039227090143 0.034703550209275631 0 0.029867530364846358 0.034085267437756819 0 0.030371049210603351 0.032868443352741333 0 0.031862991819818394 0.034165097056296896 0 0.029867530364846358 0.034085267437756819 0 0.029440017943001853 0.035018306327689853 0 0.030370039227090143 0.034703550209275631 0 0.029867530364846358 0.034085267437756819 0 0.037867120361061282 0.02955529232021685 0 0.029233195440011291 0.035970638606090274 0 0.031862991819818394 0.034165097056296896 0 0.030327999213501874 0.035545299353377816 0 0.030370039227090143 0.034703550209275631 0 0.02851278156855341 0.033195068468284537 0 0.029867530364846358 0.034085267437756819 0 0.028542078343658604 0.034625931897928869 0 0.02851278156855341 0.033195068468284537 0 0.028542078343658604 0.034625931897928869 0 0.027340360753187371 0.034488580193478571 0 0.028542078343658604 0.034625931897928869 0 0.027710659753046991 0.035418526614162935 0 0.027340360753187371 0.034488580193478571 0 0.029440017943001853 0.035018306327689853 0 0.028542078343658604 0.034625931897928869 0 0.028545798330007383 0.035362082181527033 0 0.029440017943001853 0.035018306327689853 0 0.029867530364846358 0.034085267437756819 0 0.028542078343658604 0.034625931897928869 0 0.029440017943001853 0.035018306327689853 0 0.028545798330007383 0.035362082181527033 0 0.029036248078922113 0.035720530798115137 0 0.029036248078922113 0.035720530798115137 0 0.028209447418226858 0.036018625676466548 0 0.028584206318477742 0.036391907154765042 0 0.028545798330007383 0.035362082181527033 0 0.029036248078922113 0.035720530798115137 0 0.028209447418226858 0.036018625676466548 0 0.028209447418226858 0.036018625676466548 0 0.027710659753046991 0.035418526614162935 0 0.027353805496454948 0.036258457866856282 0 0.028542078343658604 0.034625931897928869 0 0.028545798330007383 0.035362082181527033 0 0.027710659753046991 0.035418526614162935 0 0.028545798330007383 0.035362082181527033 0 0.028209447418226858 0.036018625676466548 0 0.027710659753046991 0.035418526614162935 0 0.027710659753046991 0.035418526614162935 0 0.026587777968628587 0.035640129422403001 0 0.027340360753187371 0.034488580193478571 0 0.027353805496454948 0.036258457866856282 0 0.026587777968628587 0.035640129422403001 0 0.02638947507577017 0.036680447186896198 0 0.027710659753046991 0.035418526614162935 0 0.027353805496454948 0.036258457866856282 0 0.026587777968628587 0.035640129422403001 0 0.026587777968628587 0.035640129422403001 0 0.02638947507577017 0.036680447186896198 0 0.025388671761231624 0.036416370955928472 0 0.026711134609066479 0.032939772431239106 0 0.02851278156855341 0.033195068468284537 0 0.027340360753187371 0.034488580193478571 0 0.026587777968628587 0.035640129422403001 0 0.027340360753187371 0.034488580193478571 0 0.025909042326328277 0.034270084489927292 0 0.026711134609066479 0.032939772431239106 0 0.027340360753187371 0.034488580193478571 0 0.025909042326328277 0.034270084489927292 0 0.026697731688139877 0.037372555205584974 0 0.027184634405561441 0.037681222827912746 0 0.026307876460859757 0.037891693853990986 0 0.026697731688139877 0.037372555205584974 0 0.027568123614391166 0.037280181964066857 0 0.027184634405561441 0.037681222827912746 0 0.026697731688139877 0.037372555205584974 0 0.026307876460859757 0.037891693853990986 0 0.025649319614236124 0.037615269238040004 0 0.026697731688139877 0.037372555205584974 0 0.02638947507577017 0.036680447186896198 0 0.025649319614236124 0.037615269238040004 0 0.027353805496454948 0.036258457866856282 0 0.02638947507577017 0.036680447186896198 0 0.027146779420864152 0.036831362492236362 0 0.026697731688139877 0.037372555205584974 0 0.02638947507577017 0.036680447186896198 0 0.027146779420864152 0.036831362492236362 0 0.026697731688139877 0.037372555205584974 0 0.027146779420864152 0.036831362492236362 0 0.027568123614391166 0.037280181964066857 0 0.027146779420864152 0.036831362492236362 0 0.028035299101590718 0.036694346718680868 0 0.027568123614391166 0.037280181964066857 0 0.028209447418226858 0.036018625676466548 0 0.027353805496454948 0.036258457866856282 0 0.028035299101590718 0.036694346718680868 0 0.027353805496454948 0.036258457866856282 0 0.027146779420864152 0.036831362492236362 0 0.028035299101590718 0.036694346718680868 0 0.028584206318477742 0.036391907154765042 0 0.028035299101590718 0.036694346718680868 0 0.02873947369875739 0.036710844869493345 0 0.028209447418226858 0.036018625676466548 0 0.028584206318477742 0.036391907154765042 0 0.028035299101590718 0.036694346718680868 0 0.028035299101590718 0.036694346718680868 0 0.028435443663361235 0.037168649472788015 0 0.02873947369875739 0.036710844869493345 0 0.028035299101590718 0.036694346718680868 0 0.027568123614391166 0.037280181964066857 0 0.028435443663361235 0.037168649472788015 0 0.027568123614391166 0.037280181964066857 0 0.027942424064256458 0.03778808054409117 0 0.028435443663361235 0.037168649472788015 0 0.027568123614391166 0.037280181964066857 0 0.027184634405561441 0.037681222827912746 0 0.027942424064256458 0.03778808054409117 0 0.03684608786668421 0.027822645681834537 0 0.040552119061484947 0.028700525070600617 0 0.028859074646889117 0.037679671164001699 0 0.028435443663361235 0.037168649472788015 0 0.029454507017007858 0.036615398409985185 0 0.027942424064256458 0.03778808054409117 0 0.028859074646889117 0.037679671164001699 0 0.028435443663361235 0.037168649472788015 0 0.028435443663361235 0.037168649472788015 0 0.02873947369875739 0.036710844869493345 0 0.029454507017007858 0.036615398409985185 0 0.029481397960976635 0.035760278802801589 0 0.028584206318477742 0.036391907154765042 0 0.029203774392190313 0.036468307085364908 0 0.028584206318477742 0.036391907154765042 0 0.02873947369875739 0.036710844869493345 0 0.029203774392190313 0.036468307085364908 0 0.029481397960976635 0.035760278802801589 0 0.029203774392190313 0.036468307085364908 0 0.030089483287252222 0.036843562940606166 0 0.02873947369875739 0.036710844869493345 0 0.029203774392190313 0.036468307085364908 0 0.029454507017007858 0.036615398409985185 0 0.033170078455039713 0.030342943271291965 0 0.040552119061484947 0.028700525070600617 0 0.053138718023526474 0.024081444528033076 0 0.054697173123162086 0.023287993777260596 0 0.055076893289576767 0.024858538416748375 0 0.040552119061484947 0.028700525070600617 0 0.052177970524664573 0.021854476861173779 0 0.045310291831411775 0.017429511971701919 0 0.04627650938461788 0.018252072277002141 0 0.047075101107190355 0.017970779778638181 0 0.04627650938461788 0.018252072277002141 0 0.047075101107190355 0.017970779778638181 0 0.047293237403931911 0.019312568056030453 0 0.04627650938461788 0.018252072277002141 0 0.045788842371887961 0.018626338208102087 0 0.046325437186964656 0.018956122607671138 0 0.048094456725778154 0.017433133276862443 0 0.049512130152321782 0.012660191846683388 0 0.04627650938461788 0.018252072277002141 0 0.046325437186964656 0.018956122607671138 0 0.04683535958609035 0.018847075796344585 0 0.045157946799374911 0.019150101229083512 0 0.045310291831411775 0.017429511971701919 0 0.045788842371887961 0.018626338208102087 0 0.045310291831411775 0.017429511971701919 0 0.04627650938461788 0.018252072277002141 0 0.045788842371887961 0.018626338208102087 0 0.045157946799374911 0.019150101229083512 0 0.045776874149198683 0.019102784661934172 0 0.045835163936429876 0.019683323089527006 0 0.045788842371887961 0.018626338208102087 0 0.045776874149198683 0.019102784661934172 0 0.046325437186964656 0.018956122607671138 0 0.045157946799374911 0.019150101229083512 0 0.045788842371887961 0.018626338208102087 0 0.045776874149198683 0.019102784661934172 0 0.046325437186964656 0.018956122607671138 0 0.045835163936429876 0.019683323089527006 0 0.046738908233019481 0.018800155637133931 0 0.045776874149198683 0.019102784661934172 0 0.046325437186964656 0.018956122607671138 0 0.045835163936429876 0.019683323089527006 0 0.04654257207527468 0.015179591442937622 0 0.049512130152321782 0.012660191846683388 0 0.045157946799374911 0.019150101229083512 0 0.045835163936429876 0.019683323089527006 0 0.044856704657702265 0.020899364897306563 0 0.045835163936429876 0.019683323089527006 0 0.046029017955947042 0.020809339404739387 0 0.046738908233019481 0.018800155637133931 0 0.047477463725504196 0.018637645884498913 0 0.046745404121905837 0.018626437329911105 0 0.045835163936429876 0.019683323089527006 0 0.046029017955947042 0.020809339404739387 0 0.044856704657702265 0.020899364897306563 0 0.046029017955947042 0.020809339404739387 0 0.044856704657702265 0.020899364897306563 0 0.044983365623733278 0.022643800323044895 0 0.047477463725504196 0.018637645884498913 0 0.04267317381258235 0.013589276790938234 0 0.048310470828785701 0.015423734785963613 0 0.046704187264657616 0.014516829915822061 0 0.049753838109242568 0.012311642500135566 0 0.036638084300870025 0.030900322276852875 0 0.033291570614738426 0.022935378804390599 0 0.028202595243568877 0.038105768649686969 0 0.027996735779274119 0.038294343385512478 0 0.028084544037218887 0.037962835335026465 0 0.028202595243568877 0.038105768649686969 0 0.028084544037218887 0.037962835335026465 0 0.02797349401506594 0.037666059761649294 0 0.03684608786668421 0.027822645681834537 0 0.036638084300870025 0.030900322276852875 0 0.028859074646889117 0.037679671164001699 0 0.028202595243568877 0.038105768649686969 0 0.028253487236016384 0.038021434804935063 0 0.028202595243568877 0.038105768649686969 0 0.028253487236016384 0.038021434804935063 0 0.027996735779274119 0.038294343385512478 0 0.027942424064256458 0.03778808054409117 0 0.028859074646889117 0.037679671164001699 0 0.028253487236016384 0.038021434804935063 0 0.027942424064256458 0.03778808054409117 0 0.028253487236016384 0.038021434804935063 0 0.027996735779274119 0.038294343385512478 0 0.027184634405561441 0.037681222827912746 0 0.027942424064256458 0.03778808054409117 0 0.02741236084875091 0.038063690020918028 0 0.027942424064256458 0.03778808054409117 0 0.02741236084875091 0.038063690020918028 0 0.027996735779274119 0.038294343385512478 0 0.02741236084875091 0.038063690020918028 0 0.027996735779274119 0.038294343385512478 0 0.027230315671402747 0.038796902318799391 0 0.028084544037218887 0.037962835335026465 0 0.028288305515369039 0.038098641183955805 0 0.028196271903241175 0.037547810984224508 0 0.026652627916723917 0.036933907511070868 0 0.027266033427914161 0.022006223517537723 0 0.027996735779274119 0.038294343385512478 0 0.028084544037218887 0.037962835335026465 0 0.028288305515369039 0.038098641183955805 0 0.027774034389432892 0.03777839495150468 0 0.026652627916723917 0.036933907511070868 0 0.026652627916723917 0.036933907511070868 0 0.025444676787811368 0.03288642694834211 0 0.025805998248427851 0.0276815673782893 0 0.025134657426680355 0.027761496059641136 0 0.025399837562308882 0.028179845538643583 0 0.02602037728412895 0.038120883929311726 0 0.025756376361613473 0.038012712555611859 0 0.025443041333418737 0.037836859840890594 0 0.02741236084875091 0.038063690020918028 0 0.027230315671402747 0.038796902318799391 0 0.026307876460859757 0.037891693853990986 0 0.026652627916723917 0.036933907511070868 0 0.026490987300036118 0.038329629852833391 0 0.02602037728412895 0.038120883929311726 0 0.025756376361613473 0.038012712555611859 0 0.026307876460859757 0.037891693853990986 0 0.027184634405561441 0.037681222827912746 0 0.02741236084875091 0.038063690020918028 0 0.026307876460859757 0.037891693853990986 0 0.058080317249919279 0.011697522850708677 0 0.054848148591935444 0.0089044102561703 0 0.057393092578586311 0.0069530503932103008 0 0.057851368670018846 0.018708093740206207 0 0.05364382041394896 0.003669573239951708 0 0.05432294569616819 0.012862312334165585 0 0.05692711734204646 0.012400659060387341 0 0.054060776544775299 0.011039490229822535 0 0.057201871899561121 0.013267983325088375 0 0.051763694629337893 0.0016385832007895255 0 0.058080317249919279 0.011697522850708677 0 0.054848148591935444 0.0089044102561703 0 0.052436082211174753 0.012709014719076997 0 0.054848148591935444 0.0089044102561703 0 0.052436082211174753 0.012709014719076997 0 0.051487057132609031 0.0042603205759394478 0 0.057851368670018846 0.018708093740206207 0 0.057201871899561121 0.013267983325088375 0 0.06111456387450654 0.018677214749011413 0 0.057201871899561121 0.013267983325088375 0 0.060263657914298767 0.020288110811595962 0 0.059895758057790724 0.020754069217006399 0 0.060208997736268872 0.021069456784016366 0 0.059654364082098829 0.02119389302169504 0 0.059895758057790724 0.020754069217006399 0 0.060208997736268872 0.021069456784016366 0 0.059594498896301397 0.022318485596964234 0 0.057851368670018846 0.018708093740206207 0 0.059445722471528302 0.020400094802358947 0 0.059654364082098829 0.02119389302169504 0 0.059895758057790724 0.020754069217006399 0 0.0591875315300174 0.022202829766198546 0 0.059533174677362806 0.025110739826161691 0 0.057954106648861858 0.023829136420490022 0 0.057954106648861858 0.023829136420490022 0 0.056384670986825425 0.023869057035116173 0 0.05697463405117436 0.025615458486537988 0 0.057336565442858187 0.022418393985130264 0 0.057954106648861858 0.023829136420490022 0 0.056384670986825425 0.023869057035116173 0 0.056384670986825425 0.023869057035116173 0 0.055076893289576767 0.024858538416748375 0 0.05697463405117436 0.025615458486537988 0 0.055939082597238197 0.022581548325851838 0 0.054697173123162086 0.023287993777260596 0 0.056384670986825425 0.023869057035116173 0 0.054697173123162086 0.023287993777260596 0 0.056384670986825425 0.023869057035116173 0 0.055076893289576767 0.024858538416748375 0 0.052177970524664573 0.021854476861173779 0 0.054500415667900093 0.014560586500811448 0 0.047075101107190355 0.017970779778638181 0 0.047293237403931911 0.019312568056030453 0 0.049472415801892197 0.018901743887770443 0 0.055821090495701761 0.0015467354902506064 0 0.054429752019815994 0.0017401771638407089 0 0.053904729197951765 0.00071908073199352578 0 0.049512130152321782 0.012660191846683388 0 0.054500415667900093 0.014560586500811448 0 0.046325437186964656 0.018956122607671138 0 0.046738908233019481 0.018800155637133931 0 0.046848081090389473 0.019076951377792379 0 0.057851368670018846 0.018708093740206207 0 0.054500415667900093 0.014560586500811448 0 0.059533174677362806 0.025110739826161691 0 0.057954106648861858 0.023829136420490022 0 0.05697463405117436 0.025615458486537988 0 0.054429752019815994 0.0017401771638407089 0 0.053904729197951765 0.00071908073199352578 0 0.052105097613383028 0.00044811855174630989 0 0.054500415667900093 0.014560586500811448 0 0.05364382041394896 0.003669573239951708 0 0.055821090495701761 0.0015467354902506064 0 0.053904729197951765 0.00071908073199352578 0 0.054133082580746547 -0.00027601379654899942 0 0.053904729197951765 0.00071908073199352578 0 0.054133082580746547 -0.00027601379654899942 0 0.053016641162812989 0.00015055920717802192 0 0.046738908233019481 0.018800155637133931 0 0.04413783812103781 0.01609611745286069 0 0.046352340725190726 0.016381242993282374 0 0.048310470828785701 0.015423734785963613 0 0.046738908233019481 0.018800155637133931 0 0.046352340725190726 0.016381242993282374 0 0.04413783812103781 0.01609611745286069 0 0.046352340725190726 0.016381242993282374 0 0.046704187264657616 0.014516829915822061 0 0.049512130152321782 0.012660191846683388 0 0.049290861932870092 0.0079382467362877369 0 0.046738908233019481 0.018800155637133931 0 0.046848081090389473 0.019076951377792379 0 0.04413783812103781 0.01609611745286069 0 0.04413783812103781 0.01609611745286069 0 0.046704187264657616 0.014516829915822061 0 0.045628789846905417 0.01280795292578122 0 0.048310470828785701 0.015423734785963613 0 0.046352340725190726 0.016381242993282374 0 0.046704187264657616 0.014516829915822061 0 0.04413783812103781 0.01609611745286069 0 0.041466827866165214 0.013262267676185496 0 0.045628789846905417 0.01280795292578122 0 0.049290861932870092 0.0079382467362877369 0 0.047492675665609989 0.0038242890895213055 0 0.054133082580746547 -0.00027601379654899942 0 0.052070312286902981 -0.0017121285020000971 0 0.051708795219341581 -0.0013167169100449826 0 0.052719838816107978 -0.0013174283376843551 0 0.0527698805156121 -0.00039324836756356662 0 0.05263510603731654 -0.0025275785372695656 0 0.052283226485488631 -0.0018541295501902119 0 0.053016641162812989 0.00015055920717802192 0 0.051631978666991207 -0.0013271578692111595 0 0.052070312286902981 -0.0017121285020000971 0 0.051708795219341581 -0.0013167169100449826 0 0.050686115669269803 0.0021904752044057583 0 0.047492675665609989 0.0038242890895213055 0 0.052103056660572501 -0.0027667166138467263 0 0.05364382041394896 0.003669573239951708 0 0.053904729197951765 0.00071908073199352578 0 0.052105097613383028 0.00044811855174630989 0 0.053016641162812989 0.00015055920717802192 0 0.054133082580746547 -0.00027601379654899942 0 0.051708795219341581 -0.0013167169100449826 0 0.053016641162812989 0.00015055920717802192 0 0.052283226485488631 -0.0018541295501902119 0 0.052105097613383028 0.00044811855174630989 0 0.053016641162812989 0.00015055920717802192 0 0.052283226485488631 -0.0018541295501902119 0 0.052583923577490053 -0.00041688690901948061 0 0.051620764944908699 -0.0017619619417587452 0 0.052583923577490053 -0.00041688690901948061 0 0.051620764944908699 -0.0017619619417587452 0 0.050685192035912749 -0.0012821373635995711 0 0.05364382041394896 0.003669573239951708 0 0.051763694629337893 0.0016385832007895255 0 0.054848148591935444 0.0089044102561703 0 0.057393092578586311 0.0069530503932103008 0 0.051487057132609031 0.0042603205759394478 0 0.051421304813455637 -0.0028310259341930142 0 0.050685192035912749 -0.0012821373635995711 0 0.05097000095303901 -0.0043316036547291154 0 0.051620764944908699 -0.0017619619417587452 0 0.051421304813455637 -0.0028310259341930142 0 0.050685192035912749 -0.0012821373635995711 0 0.051620764944908699 -0.0017619619417587452 0 0.051895613617038615 -0.0026371199665601777 0 0.051421304813455637 -0.0028310259341930142 0 0.052283226485488631 -0.0018541295501902119 0 0.051620764944908699 -0.0017619619417587452 0 0.051895613617038615 -0.0026371199665601777 0 0.05263510603731654 -0.0025275785372695656 0 0.052283226485488631 -0.0018541295501902119 0 0.051895613617038615 -0.0026371199665601777 0 0.05263510603731654 -0.0025275785372695656 0 0.051895613617038615 -0.0026371199665601777 0 0.051522475180903367 -0.0041947578832431066 0 0.051895613617038615 -0.0026371199665601777 0 0.051421304813455637 -0.0028310259341930142 0 0.051522475180903367 -0.0041947578832431066 0 0.053905586038991149 0.0022547126928990345 0 0.054393525506552312 0.0037580360545556354 0 0.054569556685446524 -0.00022519773706333049 0 0.051763694629337893 0.0016385832007895255 0 0.052827307102429485 -0.0023149640746781843 0 0.053905586038991149 0.0022547126928990345 0 0.052911988151974586 0.0022601070229513894 0 0.053390309048569194 0.00068555965075289306 0 0.053617386708685932 0.0030335634399747797 0 0.053905586038991149 0.0022547126928990345 0 0.052911988151974586 0.0022601070229513894 0 0.053617386708685932 0.0030335634399747797 0 0.052911988151974586 0.0022601070229513894 0 0.053143237021501616 0.00357062066644667 0 0.053617386708685932 0.0030335634399747797 0 0.053905586038991149 0.0022547126928990345 0 0.054393525506552312 0.0037580360545556354 0 0.051409927123493376 0.0021270651449952147 0 0.052911988151974586 0.0022601070229513894 0 0.052337075321751012 0.00013853640652278015 0 0.052911988151974586 0.0022601070229513894 0 0.052163954060588123 0.003707789260349671 0 0.053143237021501616 0.00357062066644667 0 0.051409927123493376 0.0021270651449952147 0 0.052163954060588123 0.003707789260349671 0 0.051137786210575562 0.004305113589319007 0 0.051409927123493376 0.0021270651449952147 0 0.052911988151974586 0.0022601070229513894 0 0.052163954060588123 0.003707789260349671 0 0.052163954060588123 0.003707789260349671 0 0.052702216527382731 0.0044906524117695251 0 0.053143237021501616 0.00357062066644667 0 0.052163954060588123 0.003707789260349671 0 0.052702216527382731 0.0044906524117695251 0 0.051783553998436406 0.0046496131001838546 0 0.053617386708685932 0.0030335634399747797 0 0.054393525506552312 0.0037580360545556354 0 0.053694602307179554 0.0036019980045322144 0 0.054393525506552312 0.0037580360545556354 0 0.053694602307179554 0.0036019980045322144 0 0.053660688007022825 0.0040759232553721977 0 0.052702216527382731 0.0044906524117695251 0 0.053143237021501616 0.00357062066644667 0 0.053660688007022825 0.0040759232553721977 0 0.053617386708685932 0.0030335634399747797 0 0.053694602307179554 0.0036019980045322144 0 0.053143237021501616 0.00357062066644667 0 0.053694602307179554 0.0036019980045322144 0 0.053143237021501616 0.00357062066644667 0 0.053660688007022825 0.0040759232553721977 0 0.052702216527382731 0.0044906524117695251 0 0.053660688007022825 0.0040759232553721977 0 0.053552358464030003 0.0046580927538347108 0 0.054393525506552312 0.0037580360545556354 0 0.053660688007022825 0.0040759232553721977 0 0.053552358464030003 0.0046580927538347108 0 0.054131863104171854 0.0057332653722831041 0 0.054393525506552312 0.0037580360545556354 0 0.053552358464030003 0.0046580927538347108 0 0.054131863104171854 0.0057332653722831041 0 0.052926578944277547 0.0051102960331850106 0 0.052329684209790242 0.0055105457289607125 0 0.054131863104171854 0.0057332653722831041 0 0.053552358464030003 0.0046580927538347108 0 0.052926578944277547 0.0051102960331850106 0 0.052702216527382731 0.0044906524117695251 0 0.053552358464030003 0.0046580927538347108 0 0.052926578944277547 0.0051102960331850106 0 0.052702216527382731 0.0044906524117695251 0 0.052125808305767185 0.0050724987924109016 0 0.052926578944277547 0.0051102960331850106 0 0.052702216527382731 0.0044906524117695251 0 0.052125808305767185 0.0050724987924109016 0 0.051783553998436406 0.0046496131001838546 0 0.052125808305767185 0.0050724987924109016 0 0.052926578944277547 0.0051102960331850106 0 0.052329684209790242 0.0055105457289607125 0 0.060139358878533583 0.014346815852109293 0 0.060158594369774283 0.014845967481217404 0 0.059792979479991716 0.014703661578743336 0 0.060139358878533583 0.014346815852109293 0 0.060597208200944282 0.014727226117355965 0 0.060158594369774283 0.014845967481217404 0 0.060942338582841475 0.014243694502320072 0 0.060139358878533583 0.014346815852109293 0 0.060597208200944282 0.014727226117355965 0 0.057201871899561121 0.013267983325088375 0 0.056198290900362574 0.0094757767010388797 0 0.06103460060984519 0.015083067347496539 0 0.060942338582841475 0.014243694502320072 0 0.060597208200944282 0.014727226117355965 0 0.052189825740937446 0.0046988248508874801 0 0.052247526096393826 0.0047947739385930518 0 0.053443602369720018 0.0046505388703629007 0 0.052208749136732464 0.0048940382079672978 0 0.052172569183395107 0.0048210071327448095 0 0.05212053616166365 0.0050062726094997284 0 0.052208749136732464 0.0048940382079672978 0 0.052342903065680117 0.0049171980415953515 0 0.052247526096393826 0.0047947739385930518 0 0.052208749136732464 0.0048940382079672978 0 0.052227589408677159 0.004953279590816039 0 0.05212053616166365 0.0050062726094997284 0 0.052208749136732464 0.0048940382079672978 0 0.052227589408677159 0.004953279590816039 0 0.052342903065680117 0.0049171980415953515 0 0.052342903065680117 0.0049171980415953515 0 0.052642316405382486 0.004894896922288337 0 0.052391073119675224 0.0049990759242969857 0 0.052227589408677159 0.004953279590816039 0 0.052342903065680117 0.0049171980415953515 0 0.052391073119675224 0.0049990759242969857 0 0.052642316405382486 0.004894896922288337 0 0.052391073119675224 0.0049990759242969857 0 0.052834969220025528 0.0050446447667766197 0 0.052342903065680117 0.0049171980415953515 0 0.052642316405382486 0.004894896922288337 0 0.052247526096393826 0.0047947739385930518 0 0.052208749136732464 0.0048940382079672978 0 0.052172569183395107 0.0048210071327448095 0 0.052247526096393826 0.0047947739385930518 0 0.056705522920602262 0.0097400237842383778 0 0.056088289158818208 0.0088571565698181681 0 0.052329684209790242 0.0055105457289607125 0 0.052172569183395107 0.0048210071327448095 0 0.05212053616166365 0.0050062726094997284 0 0.056198290900362574 0.0094757767010388797 0 0.056705522920602262 0.0097400237842383778 0 0.060139358878533583 0.014346815852109293 0 0.059245012013111775 0.014435600904805522 0 0.059792979479991716 0.014703661578743336 0 0.052125808305767185 0.0050724987924109016 0 0.052329684209790242 0.0055105457289607125 0 0.05212053616166365 0.0050062726094997284 0 0.05212053616166365 0.0050062726094997284 0 0.051997783465958548 0.0049165219152936049 0 0.052158766564551193 0.0049741788102245109 0 0.052125808305767185 0.0050724987924109016 0 0.05212053616166365 0.0050062726094997284 0 0.051997783465958548 0.0049165219152936049 0 0.052125808305767185 0.0050724987924109016 0 0.051997783465958548 0.0049165219152936049 0 0.051783553998436406 0.0046496131001838546 0 0.051997783465958548 0.0049165219152936049 0 0.052173078226665254 0.00498229528544429 0 0.052158766564551193 0.0049741788102245109 0 0.051997783465958548 0.0049165219152936049 0 0.052173078226665254 0.00498229528544429 0 0.051956399686402858 0.0048347695276440379 0 0.052173078226665254 0.00498229528544429 0 0.052158766564551193 0.0049741788102245109 0 0.052391073119675224 0.0049990759242969857 0 0.052227589408677159 0.004953279590816039 0 0.052158766564551193 0.0049741788102245109 0 0.052391073119675224 0.0049990759242969857 0 0.052227589408677159 0.004953279590816039 0 0.05212053616166365 0.0050062726094997284 0 0.052158766564551193 0.0049741788102245109 0 0.052173078226665254 0.00498229528544429 0 0.052391073119675224 0.0049990759242969857 0 0.052566422315119765 0.0051279255953970287 0 0.052173078226665254 0.00498229528544429 0 0.051956399686402858 0.0048347695276440379 0 0.052566422315119765 0.0051279255953970287 0 0.051956399686402858 0.0048347695276440379 0 0.052793668431079181 0.0053280155541138149 0 0.052566422315119765 0.0051279255953970287 0 0.051956399686402858 0.0048347695276440379 0 0.051783553998436406 0.0046496131001838546 0 0.051137786210575562 0.004305113589319007 0 0.051997783465958548 0.0049165219152936049 0 0.051956399686402858 0.0048347695276440379 0 0.051783553998436406 0.0046496131001838546 0 0.052163954060588123 0.003707789260349671 0 0.051783553998436406 0.0046496131001838546 0 0.051137786210575562 0.004305113589319007 0 0.051409927123493376 0.0021270651449952147 0 0.051137786210575562 0.004305113589319007 0 0.048325906469993088 0.0018802299620394557 0 0.051409927123493376 0.0021270651449952147 0 0.048325906469993088 0.0018802299620394557 0 0.050566303021267633 -3.0367563990406354e-05 0 0.051956399686402858 0.0048347695276440379 0 0.051137786210575562 0.004305113589319007 0 0.051895532177141213 0.005549077386439622 0 0.051182720919917782 0.0046047569544029497 0 0.050343237917169763 0.0021302274223688432 0 0.051956399686402858 0.0048347695276440379 0 0.051895532177141213 0.005549077386439622 0 0.052626067947093597 0.0054931622754407017 0 0.050343237917169763 0.0021302274223688432 0 0.053174310155945557 0.0035141256232253388 0 0.053649220269840786 0.0015022934080619551 0 0.053630466174862876 0.0014962207398884959 0 0.053628970426714349 0.0015390472506033673 0 0.05720324994581618 0.00066256652433891448 0 0.055092328472439341 0.0039307792925842265 0 0.053628970426714349 0.0015390472506033673 0 0.053610362074892115 0.0015096053320475553 0 0.053600980444881242 0.0015999269305146692 0 0.053630466174862876 0.0014962207398884959 0 0.053628970426714349 0.0015390472506033673 0 0.053610362074892115 0.0015096053320475553 0 0.058261841725598049 0.00071251066168605238 0 0.059393256933382037 0.0023221494845262884 0 0.05779688517575475 0.001998845863641581 0 0.060171881160670078 0.00060229909261096711 0 0.058261841725598049 0.00071251066168605238 0 0.059393256933382037 0.0023221494845262884 0 0.060171881160670078 0.00060229909261096711 0 0.058261841725598049 0.00071251066168605238 0 0.058551702950515552 -0.0003713222945832946 0 0.055092328472439341 0.0039307792925842265 0 0.056415205036184288 0.0047593788745601004 0 0.051956399686402858 0.0048347695276440379 0 0.052626067947093597 0.0054931622754407017 0 0.052793668431079181 0.0053280155541138149 0 0.053219500484264562 0.0055691497153381418 0 0.052793668431079181 0.0053280155541138149 0 0.053355235213551615 0.0053485412678881284 0 0.053174310155945557 0.0035141256232253388 0 0.055092328472439341 0.0039307792925842265 0 0.052626067947093597 0.0054931622754407017 0 0.053219500484264562 0.0055691497153381418 0 0.052793668431079181 0.0053280155541138149 0 0.055000017018175869 0.0006083460266755428 0 0.056459196093996598 0.0019481320138476457 0 0.056382403607422013 -6.0952218634698028e-05 0 0.058261841725598049 0.00071251066168605238 0 0.057229207080232533 0.0011493824143069635 0 0.056382403607422013 -6.0952218634698028e-05 0 0.058261841725598049 0.00071251066168605238 0 0.058551702950515552 -0.0003713222945832946 0 0.056382403607422013 -6.0952218634698028e-05 0 0.057229207080232533 0.0011493824143069635 0 0.056459196093996598 0.0019481320138476457 0 0.056382403607422013 -6.0952218634698028e-05 0 0.057229207080232533 0.0011493824143069635 0 0.05779688517575475 0.001998845863641581 0 0.056459196093996598 0.0019481320138476457 0 0.058261841725598049 0.00071251066168605238 0 0.057229207080232533 0.0011493824143069635 0 0.05779688517575475 0.001998845863641581 0 0.05779688517575475 0.001998845863641581 0 0.056459196093996598 0.0019481320138476457 0 0.057404891964410169 0.0036835091218808814 0 0.056459196093996598 0.0019481320138476457 0 0.056212836484321703 0.0032397879781598258 0 0.057404891964410169 0.0036835091218808814 0 0.059393256933382037 0.0023221494845262884 0 0.05779688517575475 0.001998845863641581 0 0.057404891964410169 0.0036835091218808814 0 0.055000017018175869 0.0006083460266755428 0 0.056459196093996598 0.0019481320138476457 0 0.05499989411659946 0.0036617791558982865 0 0.056459196093996598 0.0019481320138476457 0 0.056212836484321703 0.0032397879781598258 0 0.05499989411659946 0.0036617791558982865 0 0.055217610285874907 0.0051959422372783856 0 0.055093319496964062 0.0055966353538161821 0 0.054919581420829713 0.0059384874471507731 0 0.056212836484321703 0.0032397879781598258 0 0.055217610285874907 0.0051959422372783856 0 0.057404891964410169 0.0036835091218808814 0 0.055155657468089599 0.0052542875775260928 0 0.056415205036184288 0.0047593788745601004 0 0.056212836484321703 0.0032397879781598258 0 0.055217610285874907 0.0051959422372783856 0 0.05499989411659946 0.0036617791558982865 0 0.055093319496964062 0.0055966353538161821 0 0.054919581420829713 0.0059384874471507731 0 0.054571152927942616 0.0054675975901165375 0 0.055093319496964062 0.0055966353538161821 0 0.054571152927942616 0.0054675975901165375 0 0.055316609699253567 0.0058316285092308981 0 0.054571152927942616 0.0054675975901165375 0 0.055316609699253567 0.0058316285092308981 0 0.054989506893137072 0.0053013002425264149 0 0.055217610285874907 0.0051959422372783856 0 0.05499989411659946 0.0036617791558982865 0 0.054999343123388889 0.0067133653026395755 0 0.055217610285874907 0.0051959422372783856 0 0.055093319496964062 0.0055966353538161821 0 0.055316609699253567 0.0058316285092308981 0 0.055316609699253567 0.0058316285092308981 0 0.054999343123388889 0.0067133653026395755 0 0.055289091434313944 0.0076202076026624906 0 0.055217610285874907 0.0051959422372783856 0 0.055316609699253567 0.0058316285092308981 0 0.054999343123388889 0.0067133653026395755 0 0.052834969220025528 0.0050446447667766197 0 0.052566422315119765 0.0051279255953970287 0 0.053355235213551615 0.0053485412678881284 0 0.052391073119675224 0.0049990759242969857 0 0.052834969220025528 0.0050446447667766197 0 0.052566422315119765 0.0051279255953970287 0 0.052793668431079181 0.0053280155541138149 0 0.052566422315119765 0.0051279255953970287 0 0.053355235213551615 0.0053485412678881284 0 0.055092328472439341 0.0039307792925842265 0 0.053970674149374037 0.0062981626851027631 0 0.053219500484264562 0.0055691497153381418 0 0.054571152927942616 0.0054675975901165375 0 0.053355235213551615 0.0053485412678881284 0 0.054251564004983752 0.0063172974507716305 0 0.054919581420829713 0.0059384874471507731 0 0.054571152927942616 0.0054675975901165375 0 0.054571152927942616 0.0054675975901165375 0 0.053355235213551615 0.0053485412678881284 0 0.053443602369720018 0.0046505388703629007 0 0.054571152927942616 0.0054675975901165375 0 0.053443602369720018 0.0046505388703629007 0 0.054989506893137072 0.0053013002425264149 0 0.056705522920602262 0.0097400237842383778 0 0.056181129670311206 0.0064306580159425013 0 0.052642316405382486 0.004894896922288337 0 0.052247526096393826 0.0047947739385930518 0 0.053443602369720018 0.0046505388703629007 0 0.052834969220025528 0.0050446447667766197 0 0.053355235213551615 0.0053485412678881284 0 0.053443602369720018 0.0046505388703629007 0 0.052642316405382486 0.004894896922288337 0 0.052834969220025528 0.0050446447667766197 0 0.053443602369720018 0.0046505388703629007 0 0.059253007130223044 0.010207284753152919 0 0.059920901064669865 0.0095628741425746004 0 0.06028625280849978 0.010401671980058012 0 0.059002412395320787 0.0087212866385067631 0 0.059253007130223044 0.010207284753152919 0 0.059920901064669865 0.0095628741425746004 0 0.06050241037227904 0.0087125690398270669 0 0.059002412395320787 0.0087212866385067631 0 0.059920901064669865 0.0095628741425746004 0 0.056181129670311206 0.0064306580159425013 0 0.056010846614675099 0.0069484048118826393 0 0.059002412395320787 0.0087212866385067631 0 0.058091309219453997 0.0096439547284840575 0 0.059253007130223044 0.010207284753152919 0 0.059002412395320787 0.0087212866385067631 0 0.058091309219453997 0.0096439547284840575 0 0.057388326761994304 0.0083503787406980102 0 0.058091309219453997 0.0096439547284840575 0 0.059253007130223044 0.010207284753152919 0 0.058172775393569298 0.011401403664417033 0 0.059253007130223044 0.010207284753152919 0 0.060057167016883739 0.012014766315491868 0 0.06028625280849978 0.010401671980058012 0 0.055316609699253567 0.0058316285092308981 0 0.055289091434313944 0.0076202076026624906 0 0.054989506893137072 0.0053013002425264149 0 0.054999343123388889 0.0067133653026395755 0 0.055289091434313944 0.0076202076026624906 0 0.054999874326111954 0.0097675837389304045 0 0.055152310957492089 0.0074930902713755401 0 0.056010846614675099 0.0069484048118826393 0 0.058091309219453997 0.0096439547284840575 0 0.057388326761994304 0.0083503787406980102 0 0.056795122494618509 0.009721811106851377 0 0.055289091434313944 0.0076202076026624906 0 0.057388326761994304 0.0083503787406980102 0 0.056795122494618509 0.009721811106851377 0 0.058091309219453997 0.0096439547284840575 0 0.056795122494618509 0.009721811106851377 0 0.058172775393569298 0.011401403664417033 0 0.056795122494618509 0.009721811106851377 0 0.054999874326111954 0.0097675837389304045 0 0.056443988512176045 0.01149788809523423 0 0.055289091434313944 0.0076202076026624906 0 0.056795122494618509 0.009721811106851377 0 0.054999874326111954 0.0097675837389304045 0 0.054999874326111954 0.0097675837389304045 0 0.056443988512176045 0.01149788809523423 0 0.054999783406807258 0.012820003283871657 0 0.056795122494618509 0.009721811106851377 0 0.056443988512176045 0.01149788809523423 0 0.058172775393569298 0.011401403664417033 0 0.056443988512176045 0.01149788809523423 0 0.057014075619397739 0.013411557356440751 0 0.058172775393569298 0.011401403664417033 0 0.056443988512176045 0.01149788809523423 0 0.057014075619397739 0.013411557356440751 0 0.054999783406807258 0.012820003283871657 0 0.059253007130223044 0.010207284753152919 0 0.060057167016883739 0.012014766315491868 0 0.058172775393569298 0.011401403664417033 0 0.060057167016883739 0.012014766315491868 0 0.058172775393569298 0.011401403664417033 0 0.059353017216739037 0.013616295806608742 0 0.057014075619397739 0.013411557356440751 0 0.058172775393569298 0.011401403664417033 0 0.059353017216739037 0.013616295806608742 0 0.060057167016883739 0.012014766315491868 0 0.059353017216739037 0.013616295806608742 0 0.060991833457931098 0.013110444664744234 0 0.060950416717507561 0.014450014502671953 0 0.059353017216739037 0.013616295806608742 0 0.060991833457931098 0.013110444664744234 0 0.060950416717507561 0.014450014502671953 0 0.060991833457931098 0.013110444664744234 0 0.061823428679011416 0.014170844678200789 0 0.060057167016883739 0.012014766315491868 0 0.06201743138719247 0.012387588478550694 0 0.06028625280849978 0.010401671980058012 0 0.060057167016883739 0.012014766315491868 0 0.060991833457931098 0.013110444664744234 0 0.06201743138719247 0.012387588478550694 0 0.060517495383666894 0.013555409652034403 0 0.061571985417361523 0.01347834220093074 0 0.061274511949764528 0.010645066709285576 0 0.063124744006213845 0.014919939278509188 0 0.06201743138719247 0.012387588478550694 0 0.061823428679011416 0.014170844678200789 0 0.061987112695245379 0.015288944548400409 0 0.061287251356878618 0.012993421657622652 0 0.060991833457931098 0.013110444664744234 0 0.06201743138719247 0.012387588478550694 0 0.061823428679011416 0.014170844678200789 0 0.060916837537404435 0.015742761663372323 0 0.061033899117369332 0.015719672654129387 0 0.061571985417361523 0.01347834220093074 0 0.060916837537404435 0.015742761663372323 0 0.060517495383666894 0.013555409652034403 0 0.061571985417361523 0.01347834220093074 0 0.061072605944868866 0.015593189992547312 0 0.060808112006662668 0.014438474357358521 0 0.060728109179475222 0.015994640214953407 0 0.061033899117369332 0.015719672654129387 0 0.060737313396435434 0.01588715807769648 0 0.061033899117369332 0.015719672654129387 0 0.060737313396435434 0.01588715807769648 0 0.060384008565026841 0.01582706393600657 0 0.060737313396435434 0.01588715807769648 0 0.060384008565026841 0.01582706393600657 0 0.060713094603435706 0.015591164695156107 0 0.060980028314742425 0.015788107753699994 0 0.060737313396435434 0.01588715807769648 0 0.060713094603435706 0.015591164695156107 0 0.060384008565026841 0.01582706393600657 0 0.060469408870930733 0.015261068991075138 0 0.060713094603435706 0.015591164695156107 0 0.060384008565026841 0.01582706393600657 0 0.060469408870930733 0.015261068991075138 0 0.059770738443891275 0.015196510356568278 0 0.06103460060984519 0.015083067347496539 0 0.060469408870930733 0.015261068991075138 0 0.060713094603435706 0.015591164695156107 0 0.06103460060984519 0.015083067347496539 0 0.060469408870930733 0.015261068991075138 0 0.060597208200944282 0.014727226117355965 0 0.060469408870930733 0.015261068991075138 0 0.060597208200944282 0.014727226117355965 0 0.060158594369774283 0.014845967481217404 0 0.060469408870930733 0.015261068991075138 0 0.060158594369774283 0.014845967481217404 0 0.059770738443891275 0.015196510356568278 0 0.056705522920602262 0.0097400237842383778 0 0.061029419310595752 0.013410837809294735 0 0.059245012013111775 0.014435600904805522 0 0.059792979479991716 0.014703661578743336 0 0.059770738443891275 0.015196510356568278 0 0.060158594369774283 0.014845967481217404 0 0.059792979479991716 0.014703661578743336 0 0.059770738443891275 0.015196510356568278 0 0.060496761145003942 0.0098365283316024666 0 0.06028625280849978 0.010401671980058012 0 0.061274511949764528 0.010645066709285576 0 0.06050241037227904 0.0087125690398270669 0 0.060496761145003942 0.0098365283316024666 0 0.061274511949764528 0.010645066709285576 0 0.06050241037227904 0.0087125690398270669 0 0.059920901064669865 0.0095628741425746004 0 0.060496761145003942 0.0098365283316024666 0 0.059920901064669865 0.0095628741425746004 0 0.060496761145003942 0.0098365283316024666 0 0.06028625280849978 0.010401671980058012 0 0.061287251356878618 0.012993421657622652 0 0.060333909631970772 0.010628601825574647 0 0.060808112006662668 0.014438474357358521 0 0.061029419310595752 0.013410837809294735 0 0.060517495383666894 0.013555409652034403 0 0.06028625280849978 0.010401671980058012 0 0.061274511949764528 0.010645066709285576 0 0.0033166217236762917 0.034816159578270847 0 0.002695766017853287 0.033398792529681219 0 0.0016742355806469405 0.034353852073782221 0 0.0033166217236762917 0.034816159578270847 0 0.004313646138738649 0.033470122086517097 0 0.005067708316464763 0.03479010737962443 0 0.0033166217236762917 0.034816159578270847 0 0.004313646138738649 0.033470122086517097 0 0.002695766017853287 0.033398792529681219 0 0.0033166217236762917 0.034816159578270847 0 0.0016742355806469405 0.034353852073782221 0 0.00034490391032854462 0.035942551218344991 0 0.002695766017853287 0.033398792529681219 0 0.0012455216829090605 0.033236212534078935 0 0.0021126800209178855 0.032182084548870227 0 0.002695766017853287 0.033398792529681219 0 0.0012455216829090605 0.033236212534078935 0 0.0016742355806469405 0.034353852073782221 0 0.0012455216829090605 0.033236212534078935 0 -0.00018558761213747368 0.033257900336903248 0 0.00028281738681689306 0.034286869843729993 0 0.0012455216829090605 0.033236212534078935 0 -0.00018558761213747368 0.033257900336903248 0 0.00074165075144164171 0.032241788456103038 0 -0.00018558761213747368 0.033257900336903248 0 0.00028281738681689306 0.034286869843729993 0 -0.0014952083963269685 0.034069504278005147 0 0.00028281738681689306 0.034286869843729993 0 0.00034490391032854462 0.035942551218344991 0 -0.0014952083963269685 0.034069504278005147 0 0.00028281738681689306 0.034286869843729993 0 0.0016742355806469405 0.034353852073782221 0 0.00034490391032854462 0.035942551218344991 0 0.0012455216829090605 0.033236212534078935 0 0.00028281738681689306 0.034286869843729993 0 0.0016742355806469405 0.034353852073782221 0 -0.0045822817049063014 0.0013151481370979304 0 -0.0050753689415346127 0.0019073267269001826 0 -0.0016667135770007705 0.0043867915505104533 0 0.0033166217236762917 0.034816159578270847 0 0.00034490391032854462 0.035942551218344991 0 0.0048847564202634929 0.036514599296890417 0 -0.0045822817049063014 0.0013151481370979304 0 0.0034239964786398581 0.0027430762109892748 0 -0.0016667135770007705 0.0043867915505104533 0 -0.0022268133131831342 0.017760360045079311 0 0.0041735919576734223 0.019951250043394802 0 0.0048847564202634929 0.036514599296890417 0 0.0064427368767389585 0.035399927401729807 0 0.005067708316464763 0.03479010737962443 0 0.0033166217236762917 0.034816159578270847 0 0.0048847564202634929 0.036514599296890417 0 0.005067708316464763 0.03479010737962443 0 0.0041735919576734223 0.019951250043394802 0 0.0094527854073866956 0.019347184645363853 0 0.0064427368767389585 0.035399927401729807 0 0.0078160025064800218 0.035356604150989512 0 0.0083197380053873227 0.036852400326411419 0 0.0048847564202634929 0.036514599296890417 0 0.0064427368767389585 0.035399927401729807 0 0.0083197380053873227 0.036852400326411419 0 0.009384356253009098 0.036724877582934384 0 0.0087627477588460168 0.034349371459088042 0 0.0061161033484889308 0.033737071306607372 0 0.0064427368767389585 0.035399927401729807 0 0.0078160025064800218 0.035356604150989512 0 0.0061161033484889308 0.033737071306607372 0 0.0098754944041400793 0.035383306092648885 0 0.0059247793216958781 0.033938264751675197 0 0.0098754944041400793 0.035383306092648885 0 0.0090696926968349256 0.034849584864281968 0 0.0064427368767389585 0.035399927401729807 0 0.005067708316464763 0.03479010737962443 0 0.0061161033484889308 0.033737071306607372 0 0.004313646138738649 0.033470122086517097 0 0.005067708316464763 0.03479010737962443 0 0.0061161033484889308 0.033737071306607372 0 0.004313646138738649 0.033470122086517097 0 0.0061161033484889308 0.033737071306607372 0 0.0047552295618503186 0.031708109857753519 0 0.0061161033484889308 0.033737071306607372 0 0.0065178951171403314 0.032197955476419897 0 0.0047552295618503186 0.031708109857753519 0 0.0087627477588460168 0.034349371459088042 0 0.0065178951171403314 0.032197955476419897 0 0.0083722770846899486 0.031561323769617407 0 0.0087627477588460168 0.034349371459088042 0 0.0083722770846899486 0.031561323769617407 0 0.010569364149384289 0.032978681270672383 0 0.0087627477588460168 0.034349371459088042 0 0.0061161033484889308 0.033737071306607372 0 0.0065178951171403314 0.032197955476419897 0 0.0083722770846899486 0.031561323769617407 0 0.0082392950129681897 0.03004550795444386 0 0.010576886786256704 0.030628890408447844 0 0.0083722770846899486 0.031561323769617407 0 0.0082392950129681897 0.03004550795444386 0 0.0059904540695919833 0.029878234002278761 0 0.0047552295618503186 0.031708109857753519 0 0.0059904540695919833 0.029878234002278761 0 0.0039027220400648321 0.030118184441896168 0 0.0065178951171403314 0.032197955476419897 0 0.0083722770846899486 0.031561323769617407 0 0.0059904540695919833 0.029878234002278761 0 0.0065178951171403314 0.032197955476419897 0 0.0047552295618503186 0.031708109857753519 0 0.0059904540695919833 0.029878234002278761 0 0.0059904540695919833 0.029878234002278761 0 0.0039027220400648321 0.030118184441896168 0 0.0035773110375076941 0.028709583298605866 0 0.0039027220400648321 0.030118184441896168 0 0.0021726047102391711 0.029989925748873165 0 0.0035773110375076941 0.028709583298605866 0 0.0039027220400648321 0.030118184441896168 0 0.0030013285617910613 0.031170775739099623 0 0.0021726047102391711 0.029989925748873165 0 0.0047552295618503186 0.031708109857753519 0 0.0039027220400648321 0.030118184441896168 0 0.0030013285617910613 0.031170775739099623 0 0.0047552295618503186 0.031708109857753519 0 0.0030013285617910613 0.031170775739099623 0 0.0033796972017492754 0.032347692935892257 0 0.0030013285617910613 0.031170775739099623 0 0.0021126800209178855 0.032182084548870227 0 0.0014440803651780717 0.030997752116357528 0 0.0030013285617910613 0.031170775739099623 0 0.0021126800209178855 0.032182084548870227 0 0.0033796972017492754 0.032347692935892257 0 0.002695766017853287 0.033398792529681219 0 0.0021126800209178855 0.032182084548870227 0 0.0033796972017492754 0.032347692935892257 0 0.004313646138738649 0.033470122086517097 0 0.002695766017853287 0.033398792529681219 0 0.0033796972017492754 0.032347692935892257 0 0.004313646138738649 0.033470122086517097 0 0.0047552295618503186 0.031708109857753519 0 0.0033796972017492754 0.032347692935892257 0 -0.00030592346979086137 0.03217440065140649 0 0.00074165075144164171 0.032241788456103038 0 -4.0327024794765311e-06 0.031079622243836445 0 -0.00018558761213747368 0.033257900336903248 0 -0.00030592346979086137 0.03217440065140649 0 0.00074165075144164171 0.032241788456103038 0 0.0012455216829090605 0.033236212534078935 0 0.0021126800209178855 0.032182084548870227 0 0.00074165075144164171 0.032241788456103038 0 0.0021126800209178855 0.032182084548870227 0 0.00074165075144164171 0.032241788456103038 0 0.0014440803651780717 0.030997752116357528 0 0.00074165075144164171 0.032241788456103038 0 0.0014440803651780717 0.030997752116357528 0 -4.0327024794765311e-06 0.031079622243836445 0 0.0014440803651780717 0.030997752116357528 0 -4.0327024794765311e-06 0.031079622243836445 0 0.00015561258106511309 0.029912584343388515 0 0.0014440803651780717 0.030997752116357528 0 0.00015561258106511309 0.029912584343388515 0 0.0021726047102391711 0.029989925748873165 0 0.0030013285617910613 0.031170775739099623 0 0.0014440803651780717 0.030997752116357528 0 0.0021726047102391711 0.029989925748873165 0 0.00015561258106511309 0.029912584343388515 0 0.0021726047102391711 0.029989925748873165 0 0.0014426647452906016 0.028798905269629468 0 0.00015561258106511309 0.029912584343388515 0 -0.00015154038813965017 0.02895084422421983 0 0.0014426647452906016 0.028798905269629468 0 -0.00015154038813965017 0.02895084422421983 0 -0.0013527042707542347 0.029591965935424631 0 -0.0013169168666326619 0.028949395959341317 0 0.00015561258106511309 0.029912584343388515 0 -0.00015154038813965017 0.02895084422421983 0 -0.0013527042707542347 0.029591965935424631 0 0.00015561258106511309 0.029912584343388515 0 -0.0013527042707542347 0.029591965935424631 0 -0.0012367489496318757 0.030344311244098855 0 -0.0013527042707542347 0.029591965935424631 0 -0.0023240847580680733 0.029325130988972249 0 -0.0022198417946958874 0.029820859803843861 0 -0.0023240847580680733 0.029325130988972249 0 -0.0032634446691054181 0.029680108789585394 0 -0.0022198417946958874 0.029820859803843861 0 -0.0013527042707542347 0.029591965935424631 0 -0.0012367489496318757 0.030344311244098855 0 -0.0022198417946958874 0.029820859803843861 0 -0.0013169168666326619 0.028949395959341317 0 -0.0023240847580680733 0.029325130988972249 0 -0.0019076612440725599 0.028593744886922619 0 -0.0013527042707542347 0.029591965935424631 0 -0.0013169168666326619 0.028949395959341317 0 -0.0023240847580680733 0.029325130988972249 0 -0.0023240847580680733 0.029325130988972249 0 -0.0029280932493092556 0.029170196849143064 0 -0.0019076612440725599 0.028593744886922619 0 -0.0023240847580680733 0.029325130988972249 0 -0.0032634446691054181 0.029680108789585394 0 -0.0029280932493092556 0.029170196849143064 0 -0.0034409210624940013 0.029460771316373535 0 -0.0039999295643491327 0.029013479566218765 0 -0.0032634446691054181 0.029680108789585394 0 -0.0064802491844828591 0.029195098814080906 0 -0.00484434789118418 0.030263067128616931 0 -0.0032634446691054181 0.029680108789585394 0 -0.0057837127643347759 0.02779521086304991 0 -0.0064802491844828591 0.029195098814080906 0 -0.0032634446691054181 0.029680108789585394 0 -0.0026633757895102527 0.03044979214726377 0 -0.00484434789118418 0.030263067128616931 0 -0.0019698723697944356 0.03194657788632331 0 -0.0026633757895102527 0.03044979214726377 0 -0.0027267932925318238 0.033140500886486582 0 -0.0019698723697944356 0.03194657788632331 0 -0.0012528529196090185 0.031524521624500208 0 -0.0026633757895102527 0.03044979214726377 0 -0.00030592346979086137 0.03217440065140649 0 -4.0327024794765311e-06 0.031079622243836445 0 -0.0012528529196090185 0.031524521624500208 0 -0.0019698723697944356 0.03194657788632331 0 -0.0012528529196090185 0.031524521624500208 0 -0.0013319184758201165 0.032660975532247741 0 -0.00030592346979086137 0.03217440065140649 0 -0.0012528529196090185 0.031524521624500208 0 -0.0013319184758201165 0.032660975532247741 0 -4.0327024794765311e-06 0.031079622243836445 0 0.00015561258106511309 0.029912584343388515 0 -0.0012367489496318757 0.030344311244098855 0 -4.0327024794765311e-06 0.031079622243836445 0 -0.0012528529196090185 0.031524521624500208 0 -0.0012367489496318757 0.030344311244098855 0 -0.0012528529196090185 0.031524521624500208 0 -0.0012367489496318757 0.030344311244098855 0 -0.0026633757895102527 0.03044979214726377 0 -0.0012367489496318757 0.030344311244098855 0 -0.0022198417946958874 0.029820859803843861 0 -0.0026633757895102527 0.03044979214726377 0 -0.0032634446691054181 0.029680108789585394 0 -0.0022198417946958874 0.029820859803843861 0 -0.0026633757895102527 0.03044979214726377 0 -0.0074302171243589036 0.021977682757699887 0 -0.0055193350494811971 0.023666608900986777 0 -0.0074065405433671834 0.016489581550560739 0 -0.0066415262130274386 0.015482925916720543 0 -0.0079624459549708267 0.015537584476661591 0 -0.0057837127643347759 0.02779521086304991 0 -0.0064802491844828591 0.029195098814080906 0 -0.0074727387473509949 0.028961605318493011 0 -0.0057837127643347759 0.02779521086304991 0 -0.0074727387473509949 0.028961605318493011 0 -0.0065744494594053128 0.026934789639487876 0 -0.0064802491844828591 0.029195098814080906 0 -0.0074727387473509949 0.028961605318493011 0 -0.0081285002296645221 0.029191129615280798 0 -0.0081285002296645221 0.029191129615280798 0 -0.0080086333508902364 0.025791210254466835 0 -0.0061730988789940322 0.028057288295198966 0 -0.0074727387473509949 0.028961605318493011 0 -0.0081285002296645221 0.029191129615280798 0 -0.0061730988789940322 0.028057288295198966 0 -0.0064802491844828591 0.029195098814080906 0 -0.0081285002296645221 0.029191129615280798 0 -0.00484434789118418 0.030263067128616931 0 -0.0089338891586139887 0.030245532267533543 0 -0.0057389479907991774 0.023954225481037261 0 -0.0081285002296645221 0.029191129615280798 0 -0.0080086333508902364 0.025791210254466835 0 -0.011065582515227802 0.024263570267894229 0 -0.0081285002296645221 0.029191129615280798 0 -0.012436338181206192 0.028429634666355553 0 -0.011065582515227802 0.024263570267894229 0 -0.0014952083963269685 0.034069504278005147 0 -0.0027267932925318238 0.033140500886486582 0 -0.0052827739848851649 0.035037703586723701 0 -0.0026633757895102527 0.03044979214726377 0 -0.0027267932925318238 0.033140500886486582 0 -0.0052827739848851649 0.035037703586723701 0 0.00034490391032854462 0.035942551218344991 0 -0.0014952083963269685 0.034069504278005147 0 -0.0052827739848851649 0.035037703586723701 0 -0.00018558761213747368 0.033257900336903248 0 -0.0014952083963269685 0.034069504278005147 0 -0.0013319184758201165 0.032660975532247741 0 -0.0014952083963269685 0.034069504278005147 0 -0.0013319184758201165 0.032660975532247741 0 -0.0027267932925318238 0.033140500886486582 0 -0.00018558761213747368 0.033257900336903248 0 -0.00030592346979086137 0.03217440065140649 0 -0.0013319184758201165 0.032660975532247741 0 -0.0019698723697944356 0.03194657788632331 0 -0.0013319184758201165 0.032660975532247741 0 -0.0027267932925318238 0.033140500886486582 0 -0.0081285002296645221 0.029191129615280798 0 -0.0048679306381549953 0.031380071359348165 0 -0.00484434789118418 0.030263067128616931 0 -0.0034548678587549273 0.03391413424627928 0 -0.0057389479907991774 0.023954225481037261 0 -0.0026633757895102527 0.03044979214726377 0 -0.0048679306381549953 0.031380071359348165 0 -0.00484434789118418 0.030263067128616931 0 -0.0067762509950195877 0.0014257333122020073 0 -0.0065826405666726097 0.0020673293380211477 0 -0.0073308192568165113 0.0021680487677790991 0 -0.0057389479907991774 0.023954225481037261 0 -0.0094142774713727277 0.012399076643518886 0 -0.0050753689415346127 0.0019073267269001826 0 -0.0067762509950195877 0.0014257333122020073 0 -0.0065826405666726097 0.0020673293380211477 0 -0.0045822817049063014 0.0013151481370979304 0 -0.0050753689415346127 0.0019073267269001826 0 -0.0067762509950195877 0.0014257333122020073 0 -0.0022268133131831342 0.017760360045079311 0 -0.0057389479907991774 0.023954225481037261 0 -0.0065826405666726097 0.0020673293380211477 0 -0.0072363744869329222 0.0020247034423235871 0 -0.0067168053040877734 0.0021617380627870727 0 -0.0050753689415346127 0.0019073267269001826 0 -0.0065826405666726097 0.0020673293380211477 0 -0.0067168053040877734 0.0021617380627870727 0 -0.0065826405666726097 0.0020673293380211477 0 -0.0072363744869329222 0.0020247034423235871 0 -0.0073308192568165113 0.0021680487677790991 0 -0.0072363744869329222 0.0020247034423235871 0 -0.0075369326083578351 0.001885466510522257 0 -0.0073308192568165113 0.0021680487677790991 0 -0.0072363744869329222 0.0020247034423235871 0 -0.0075369326083578351 0.001885466510522257 0 -0.0077081580257711592 0.0017301237359158949 0 -0.0072363744869329222 0.0020247034423235871 0 -0.0073429704806052855 0.0020236125614091906 0 -0.0077081580257711592 0.0017301237359158949 0 -0.0072363744869329222 0.0020247034423235871 0 -0.0073429704806052855 0.0020236125614091906 0 -0.0067168053040877734 0.0021617380627870727 0 -0.0080086333508902364 0.025791210254466835 0 -0.0091204263006644699 0.023321933605219267 0 -0.0071103589364678432 0.022837209724224768 0 -0.0080086333508902364 0.025791210254466835 0 -0.0091204263006644699 0.023321933605219267 0 -0.011065582515227802 0.024263570267894229 0 -0.0075369326083578351 0.001885466510522257 0 -0.0073308192568165113 0.0021680487677790991 0 -0.0072282369016644548 0.001757925831126839 0 -0.0091204263006644699 0.023321933605219267 0 -0.011065582515227802 0.024263570267894229 0 -0.010387557282128172 0.020467325307754594 0 -0.0094142774713727277 0.012399076643518886 0 -0.0099551888103705868 0.00645828070543112 0 -0.0099134954984326212 0.0021314304466843225 0 -0.011681888742951405 0.0029332453290832759 0 -0.0084440470695964099 0.0048747038234510376 0 -0.0099551888103705868 0.00645828070543112 0 -0.0072660792680185899 0.014720967166363768 0 -0.0091204263006644699 0.023321933605219267 0 -0.010387557282128172 0.020467325307754594 0 -0.0071103589364678432 0.022837209724224768 0 -0.0099551888103705868 0.00645828070543112 0 -0.0094334185395063448 -0.00098983109595925231 0 -0.0081883879719786661 0.00090806133777231104 0 -0.0083039061861767335 0.00061914861904471927 0 -0.0083937282869368766 0.00020804160697490478 0 -0.0099134954984326212 0.0021314304466843225 0 -0.011681888742951405 0.0029332453290832759 0 -0.01090903688931058 -0.0005576678756177173 0 -0.0081883879719786661 0.00090806133777231104 0 -0.007952766794684837 0.0012279040263540437 0 -0.0083039061861767335 0.00061914861904471927 0 -0.0099551888103705868 0.00645828070543112 0 -0.0082087280667644171 0.0012962072893471276 0 -0.0075369326083578351 0.001885466510522257 0 -0.0072282369016644548 0.001757925831126839 0 -0.007952766794684837 0.0012279040263540437 0 -0.0084252958457578884 0.00044633868606141667 0 -0.0083039061861767335 0.00061914861904471927 0 -0.0088159543374884269 -0.00033370527381072453 0 -0.0083039061861767335 0.00061914861904471927 0 -0.0083937282869368766 0.00020804160697490478 0 -0.0088159543374884269 -0.00033370527381072453 0 -0.007952766794684837 0.0012279040263540437 0 -0.0084252958457578884 0.00044633868606141667 0 -0.0083039061861767335 0.00061914861904471927 0 -0.0073429704806052855 0.0020236125614091906 0 -0.0070197573893673653 0.0026231683689814126 0 -0.0067168053040877734 0.0021617380627870727 0 -0.0073429704806052855 0.0020236125614091906 0 -0.0080785924099405267 0.0014258932372542322 0 -0.0070197573893673653 0.0026231683689814126 0 -0.0073429704806052855 0.0020236125614091906 0 -0.0077081580257711592 0.0017301237359158949 0 -0.0080785924099405267 0.0014258932372542322 0 -0.0075369326083578351 0.001885466510522257 0 -0.007952766794684837 0.0012279040263540437 0 -0.0077081580257711592 0.0017301237359158949 0 -0.007952766794684837 0.0012279040263540437 0 -0.0077081580257711592 0.0017301237359158949 0 -0.0080785924099405267 0.0014258932372542322 0 -0.007952766794684837 0.0012279040263540437 0 -0.0084252958457578884 0.00044633868606141667 0 -0.0080785924099405267 0.0014258932372542322 0 -0.0080785924099405267 0.0014258932372542322 0 -0.0085019241413323357 0.00054134838360537585 0 -0.008931013117641497 0.00054542508275076901 0 -0.0084252958457578884 0.00044633868606141667 0 -0.0080785924099405267 0.0014258932372542322 0 -0.0085019241413323357 0.00054134838360537585 0 -0.0084252958457578884 0.00044633868606141667 0 -0.0085019241413323357 0.00054134838360537585 0 -0.0086614968209505969 5.0213671225812178e-05 0 -0.0085019241413323357 0.00054134838360537585 0 -0.008931013117641497 0.00054542508275076901 0 -0.0086614968209505969 5.0213671225812178e-05 0 -0.0080785924099405267 0.0014258932372542322 0 -0.008931013117641497 0.00054542508275076901 0 -0.009773424742023612 0.00094231382621952993 0 -0.0097749476902369934 0.0013702122814216596 0 -0.0042206187857600488 0.001656561295864925 0 -0.008931013117641497 0.00054542508275076901 0 -0.009773424742023612 0.00094231382621952993 0 -0.0096435336093602022 -0.00015076405402926889 0 -0.0042206187857600488 0.001656561295864925 0 -0.0070833612831312535 -0.0045554804822346201 0 0.001227319485221751 -0.011462364431223927 0 -0.0014529015998757087 -0.014228037620230128 0 -0.0015473599674362011 -0.0093903527331980347 0 0.001227319485221751 -0.011462364431223927 0 -0.0014529015998757087 -0.014228037620230128 0 0.0043883421111453541 -0.013094529320610063 0 -0.0042206187857600488 0.001656561295864925 0 0.0029545522616872539 0.0021664080349280729 0 -0.0049287336085007249 0.0157988710010744 0 0.001046613086953235 0.01757006718815023 0 0.00055295276537683049 0.013209056828126217 0 -0.0049287336085007249 0.0157988710010744 0 0.00055295276537683049 0.013209056828126217 0 -0.0049050254106088528 0.0090586433442925111 0 -0.0042206187857600488 0.001656561295864925 0 -0.0060008541966377633 0.0073233562302872151 0 0.00055295276537683049 0.013209056828126217 0 -0.0049050254106088528 0.0090586433442925111 0 0.001615722415825864 0.0081516651506003384 0 0.0034239964786398581 0.0027430762109892748 0 0.001615722415825864 0.0081516651506003384 0 -0.0016667135770007705 0.0043867915505104533 0 -0.0049050254106088528 0.0090586433442925111 0 0.001615722415825864 0.0081516651506003384 0 -0.0016667135770007705 0.0043867915505104533 0 -0.0050753689415346127 0.0019073267269001826 0 -0.0049050254106088528 0.0090586433442925111 0 -0.0016667135770007705 0.0043867915505104533 0 -0.0051267933863607101 0.001207494539265744 0 -0.0060008541966377633 0.0073233562302872151 0 0.0034239964786398581 0.0027430762109892748 0 0.0062332050546529631 0.0071759335052496553 0 0.010627105522262866 0.0044146996615300384 0 0.0062332050546529631 0.0071759335052496553 0 0.010627105522262866 0.0044146996615300384 0 0.01228088464843027 0.010584359566217101 0 0.0034239964786398581 0.0027430762109892748 0 0.001615722415825864 0.0081516651506003384 0 0.0062332050546529631 0.0071759335052496553 0 0.00055295276537683049 0.013209056828126217 0 0.001615722415825864 0.0081516651506003384 0 0.0061861835151142807 0.012171948977029331 0 0.001615722415825864 0.0081516651506003384 0 0.0062332050546529631 0.0071759335052496553 0 0.0061861835151142807 0.012171948977029331 0 0.0062332050546529631 0.0071759335052496553 0 0.0061861835151142807 0.012171948977029331 0 0.01228088464843027 0.010584359566217101 0 0.0061861835151142807 0.012171948977029331 0 0.0045859561833385418 0.015701536273877992 0 0.0079340745705584453 0.01631928924582263 0 0.0061861835151142807 0.012171948977029331 0 0.0079340745705584453 0.01631928924582263 0 0.010390544660077225 0.015042948520105409 0 0.0061861835151142807 0.012171948977029331 0 0.010390544660077225 0.015042948520105409 0 0.01228088464843027 0.010584359566217101 0 0.00055295276537683049 0.013209056828126217 0 0.0061861835151142807 0.012171948977029331 0 0.0045859561833385418 0.015701536273877992 0 0.0029545522616872539 0.0021664080349280729 0 0.0088038218884131814 0.0035646507001519008 0 0.001046613086953235 0.01757006718815023 0 0.00055295276537683049 0.013209056828126217 0 0.0045859561833385418 0.015701536273877992 0 0.0043883421111453541 -0.013094529320610063 0 0.010383399138540809 -0.012080276093257219 0 0.0067700472703182994 -0.010837573624228021 0 0.001046613086953235 0.01757006718815023 0 0.0045859561833385418 0.015701536273877992 0 0.007224422638760033 0.019254230273602867 0 0.0079340745705584453 0.01631928924582263 0 0.010567336872073823 0.018263001746651457 0 0.010390544660077225 0.015042948520105409 0 0.0045859561833385418 0.015701536273877992 0 0.0079340745705584453 0.01631928924582263 0 0.007224422638760033 0.019254230273602867 0 0.0079340745705584453 0.01631928924582263 0 0.007224422638760033 0.019254230273602867 0 0.010567336872073823 0.018263001746651457 0 0.007224422638760033 0.019254230273602867 0 0.010567336872073823 0.018263001746651457 0 0.013021724769949131 0.020321311668551788 0 0.012725892247134659 0.018764614370233412 0 0.013951418156347623 0.018890327831136582 0 0.013021724769949131 0.020321311668551788 0 0.010567336872073823 0.018263001746651457 0 0.012725892247134659 0.018764614370233412 0 0.013735039092208886 0.017422264333141067 0 0.010567336872073823 0.018263001746651457 0 0.012725892247134659 0.018764614370233412 0 0.013021724769949131 0.020321311668551788 0 0.010567336872073823 0.018263001746651457 0 0.010390544660077225 0.015042948520105409 0 0.013735039092208886 0.017422264333141067 0 0.010390544660077225 0.015042948520105409 0 0.013735039092208886 0.017422264333141067 0 0.01228088464843027 0.010584359566217101 0 0.013839438653267255 0.018082285848104986 0 0.012747518217682229 0.010582968425846061 0 0.01513269673909399 0.016481263028288975 0 0.013735039092208886 0.017422264333141067 0 0.013323342145379686 0.015114620028678874 0 0.01513269673909399 0.016481263028288975 0 0.01494636796953373 0.018192416469165314 0 0.016113703987192272 0.018124308625368346 0 0.01513269673909399 0.016481263028288975 0 0.01494636796953373 0.018192416469165314 0 0.013735039092208886 0.017422264333141067 0 0.01494636796953373 0.018192416469165314 0 0.013735039092208886 0.017422264333141067 0 0.013951418156347623 0.018890327831136582 0 0.012725892247134659 0.018764614370233412 0 0.013735039092208886 0.017422264333141067 0 0.013951418156347623 0.018890327831136582 0 0.01494636796953373 0.018192416469165314 0 0.016113703987192272 0.018124308625368346 0 0.015256823476426659 0.019470589326281155 0 0.01494636796953373 0.018192416469165314 0 0.013951418156347623 0.018890327831136582 0 0.015256823476426659 0.019470589326281155 0 0.016764194049077873 0.019338179130389068 0 0.016113703987192272 0.018124308625368346 0 0.015256823476426659 0.019470589326281155 0 0.016764194049077873 0.019338179130389068 0 0.017392501290317119 0.018380980932380549 0 0.016113703987192272 0.018124308625368346 0 0.016764194049077873 0.019338179130389068 0 0.017392501290317119 0.018380980932380549 0 0.018392858573908207 0.019752456084372583 0 0.017392501290317119 0.018380980932380549 0 0.018563696771059939 0.017778719709927629 0 0.016870574889891275 0.016879328726864661 0 0.017392501290317119 0.018380980932380549 0 0.016113703987192272 0.018124308625368346 0 0.016870574889891275 0.016879328726864661 0 0.019610936909540206 0.01943321782085031 0 0.018392858573908207 0.019752456084372583 0 0.018563696771059939 0.017778719709927629 0 0.017392501290317119 0.018380980932380549 0 0.018392858573908207 0.019752456084372583 0 0.018563696771059939 0.017778719709927629 0 0.019610936909540206 0.01943321782085031 0 0.018563696771059939 0.017778719709927629 0 0.020450318361107511 0.017936160599350132 0 0.017400917977345845 0.022265863536220599 0 0.022485087304504388 0.029666993207645393 0 0.017798874947954822 0.029952513652662945 0 0.019580694661028245 0.031468590976012546 0 0.019460394209487586 0.029725744440737986 0 0.018563696771059939 0.017778719709927629 0 0.018211984319246463 0.015876067038480692 0 0.020450318361107511 0.017936160599350132 0 0.018563696771059939 0.017778719709927629 0 0.018211984319246463 0.015876067038480692 0 0.016870574889891275 0.016879328726864661 0 0.018211984319246463 0.015876067038480692 0 0.016870574889891275 0.016879328726864661 0 0.01610083824455592 0.014318061007333951 0 0.01513269673909399 0.016481263028288975 0 0.016870574889891275 0.016879328726864661 0 0.01610083824455592 0.014318061007333951 0 0.01513269673909399 0.016481263028288975 0 0.016113703987192272 0.018124308625368346 0 0.016870574889891275 0.016879328726864661 0 0.017798874947954822 0.029952513652662945 0 0.015981988008080386 0.028410891108899331 0 0.017709839753926926 0.028519687319820495 0 0.017400917977345845 0.022265863536220599 0 0.015924537890798802 0.020758965195346042 0 0.015981988008080386 0.028410891108899331 0 0.017709839753926926 0.028519687319820495 0 0.016788427134137845 0.027386559145800592 0 0.017798874947954822 0.029952513652662945 0 0.018584422637587635 0.029042611027485673 0 0.019460394209487586 0.029725744440737986 0 0.017798874947954822 0.029952513652662945 0 0.018584422637587635 0.029042611027485673 0 0.017709839753926926 0.028519687319820495 0 0.018584422637587635 0.029042611027485673 0 0.017709839753926926 0.028519687319820495 0 0.019365448501660439 0.02797115089563924 0 0.015691702990174687 0.038974654824400899 0 0.019225234263079493 0.039556349774513257 0 0.019071449930286245 0.037068704471760069 0 0.015691702990174687 0.038974654824400899 0 0.019071449930286245 0.037068704471760069 0 0.016831500902330342 0.036458610746719959 0 0.016180882380057954 0.033553596988069652 0 0.020374605221600662 0.035457439414224967 0 0.017709839753926926 0.028519687319820495 0 0.016788427134137845 0.027386559145800592 0 0.019365448501660439 0.02797115089563924 0 0.015981988008080386 0.028410891108899331 0 0.016788427134137845 0.027386559145800592 0 0.014139759018837265 0.026824935261940127 0 0.015691702990174687 0.038974654824400899 0 0.012442599707914621 0.038447610992109534 0 0.014553671760696248 0.036015674577683031 0 0.016180882380057954 0.033553596988069652 0 0.012925339153321183 0.026812907432033347 0 0.015924537890798802 0.020758965195346042 0 0.012925339153321183 0.026812907432033347 0 0.0094527854073866956 0.019347184645363853 0 0.012747518217682229 0.010582968425846061 0 0.012925339153321183 0.026812907432033347 0 0.0094527854073866956 0.019347184645363853 0 0.014415786279788354 0.013027282251221777 0 0.012695041471371935 0.012721275194879429 0 0.013323342145379686 0.015114620028678874 0 0.01610083824455592 0.014318061007333951 0 0.014415786279788354 0.013027282251221777 0 0.013323342145379686 0.015114620028678874 0 0.01513269673909399 0.016481263028288975 0 0.01610083824455592 0.014318061007333951 0 0.013323342145379686 0.015114620028678874 0 0.025756376361613473 0.038012712555611859 0 0.026307876460859757 0.037891693853990986 0 0.025246609235831882 0.037924480978995867 0 0.025756376361613473 0.038012712555611859 0 0.025246609235831882 0.037924480978995867 0 0.025443041333418737 0.037836859840890594 0 0.025443041333418737 0.037836859840890594 0 0.025149411847569365 0.037552290374523609 0 0.025223024645331726 0.037338151390362402 0 0.025443041333418737 0.037836859840890594 0 0.025223024645331726 0.037338151390362402 0 0.025180342614237045 0.037474796502789703 0 0.025246609235831882 0.037924480978995867 0 0.025149411847569365 0.037552290374523609 0 0.025044202579401171 0.037841461193598526 0 0.025246609235831882 0.037924480978995867 0 0.025443041333418737 0.037836859840890594 0 0.025149411847569365 0.037552290374523609 0 0.025149411847569365 0.037552290374523609 0 0.025044202579401171 0.037841461193598526 0 0.025376505452671141 0.037580807242352833 0 0.025376505452671141 0.037580807242352833 0 0.025430746619491258 0.037065805714383865 0 0.02527027561877945 0.037163921811200644 0 0.025376505452671141 0.037580807242352833 0 0.025430746619491258 0.037065805714383865 0 0.02616774932196839 0.037219845293371454 0 0.025430746619491258 0.037065805714383865 0 0.02527027561877945 0.037163921811200644 0 0.025243018572315316 0.036438749978699676 0 0.025149411847569365 0.037552290374523609 0 0.025376505452671141 0.037580807242352833 0 0.02527027561877945 0.037163921811200644 0 0.025149411847569365 0.037552290374523609 0 0.02527027561877945 0.037163921811200644 0 0.025223024645331726 0.037338151390362402 0 0.025223024645331726 0.037338151390362402 0 0.025243018572315316 0.036438749978699676 0 0.025180342614237045 0.037474796502789703 0 0.024592507331847889 0.037242611695670287 0 0.023228637154969482 0.027671721253558868 0 0.025243018572315316 0.036438749978699676 0 0.024211059183615255 0.029659345355027039 0 0.015873705070987964 0.026105583930415708 0 0.02527027561877945 0.037163921811200644 0 0.025223024645331726 0.037338151390362402 0 0.025243018572315316 0.036438749978699676 0 0.028374636570902913 0.037395762743315367 0 0.027382099329965912 0.036509742046754154 0 0.028375774163266091 0.021384161694675941 0 0.019610936909540206 0.01943321782085031 0 0.020450318361107511 0.017936160599350132 0 0.020637371243702365 0.021668185628142912 0 0.025243018572315316 0.036438749978699676 0 0.024211059183615255 0.029659345355027039 0 0.027382099329965912 0.036509742046754154 0 0.024211059183615255 0.029659345355027039 0 0.027382099329965912 0.036509742046754154 0 0.028375774163266091 0.021384161694675941 0 0.022485087304504388 0.029666993207645393 0 0.021433897426886742 0.016269598315561906 0 0.025243018572315316 0.036438749978699676 0 0.027382099329965912 0.036509742046754154 0 0.02616774932196839 0.037219845293371454 0 0.022485087304504388 0.029666993207645393 0 0.023731876769604882 0.030916332595647095 0 0.02719621937997458 0.036718027438595376 0 0.02616774932196839 0.037219845293371454 0 0.026423185534435834 0.0380222568551579 0 0.025376505452671141 0.037580807242352833 0 0.02616774932196839 0.037219845293371454 0 0.026423185534435834 0.0380222568551579 0 0.022485087304504388 0.029666993207645393 0 0.022960882264248771 0.034200576046743758 0 0.02719621937997458 0.036718027438595376 0 0.027382099329965912 0.036509742046754154 0 0.02616774932196839 0.037219845293371454 0 0.025430746619491258 0.037065805714383865 0 0.025243018572315316 0.036438749978699676 0 0.02616774932196839 0.037219845293371454 0 0.018584422637587635 0.029042611027485673 0 0.019460394209487586 0.029725744440737986 0 0.019365448501660439 0.02797115089563924 0 0.020374605221600662 0.035457439414224967 0 0.02426115621825416 0.038733775138148172 0 0.022960882264248771 0.034200576046743758 0 0.020374605221600662 0.035457439414224967 0 0.026423185534435834 0.0380222568551579 0 0.026373857811577962 0.038710349002244016 0 0.025394744282027659 0.038456798843723258 0 0.019430055726706696 0.038565272865966824 0 0.021358262234437434 0.036951850513351862 0 0.021972998473728172 0.038641346719947463 0 0.019430055726706696 0.038565272865966824 0 0.021358262234437434 0.036951850513351862 0 0.019071449930286245 0.037068704471760069 0 0.020374605221600662 0.035457439414224967 0 0.019267876635753939 0.038378834152212958 0 0.021358262234437434 0.036951850513351862 0 0.021972998473728172 0.038641346719947463 0 0.024097152021238698 0.036927299603516893 0 0.025376505452671141 0.037580807242352833 0 0.026423185534435834 0.0380222568551579 0 0.025394744282027659 0.038456798843723258 0 0.025044202579401171 0.037841461193598526 0 0.025376505452671141 0.037580807242352833 0 0.025394744282027659 0.038456798843723258 0 0.025246609235831882 0.037924480978995867 0 0.025044202579401171 0.037841461193598526 0 0.024680792217540663 0.038128471632613535 0 0.02426115621825416 0.038733775138148172 0 0.024281909885956621 0.038209708675926463 0 0.025044202579401171 0.037841461193598526 0 0.025394744282027659 0.038456798843723258 0 0.024680792217540663 0.038128471632613535 0 0.021972998473728172 0.038641346719947463 0 0.024680792217540663 0.038128471632613535 0 0.024097152021238698 0.036927299603516893 0 0.024097152021238698 0.036927299603516893 0 0.025388671761231624 0.036416370955928472 0 0.025649319614236124 0.037615269238040004 0 0.02638947507577017 0.036680447186896198 0 0.025388671761231624 0.036416370955928472 0 0.025649319614236124 0.037615269238040004 0 0.024680792217540663 0.038128471632613535 0 0.024097152021238698 0.036927299603516893 0 0.025649319614236124 0.037615269238040004 0 0.025246609235831882 0.037924480978995867 0 0.024680792217540663 0.038128471632613535 0 0.025649319614236124 0.037615269238040004 0 0.026307876460859757 0.037891693853990986 0 0.025246609235831882 0.037924480978995867 0 0.025649319614236124 0.037615269238040004 0 0.025909042326328277 0.034270084489927292 0 0.025009043396323743 0.03537559526041973 0 0.024036199101635288 0.034187141120681622 0 0.025909042326328277 0.034270084489927292 0 0.024036199101635288 0.034187141120681622 0 0.02481622481603802 0.032838192004401266 0 0.026587777968628587 0.035640129422403001 0 0.025909042326328277 0.034270084489927292 0 0.025009043396323743 0.03537559526041973 0 0.024097152021238698 0.036927299603516893 0 0.025388671761231624 0.036416370955928472 0 0.025009043396323743 0.03537559526041973 0 0.026587777968628587 0.035640129422403001 0 0.025388671761231624 0.036416370955928472 0 0.025009043396323743 0.03537559526041973 0 0.024097152021238698 0.036927299603516893 0 0.025009043396323743 0.03537559526041973 0 0.022878911426575933 0.03531626083964913 0 0.021358262234437434 0.036951850513351862 0 0.024097152021238698 0.036927299603516893 0 0.022878911426575933 0.03531626083964913 0 0.022878911426575933 0.03531626083964913 0 0.024036199101635288 0.034187141120681622 0 0.022362909779218981 0.033006302898886661 0 0.025009043396323743 0.03537559526041973 0 0.022878911426575933 0.03531626083964913 0 0.024036199101635288 0.034187141120681622 0 0.022878911426575933 0.03531626083964913 0 0.020605799736926722 0.035050701288529128 0 0.022362909779218981 0.033006302898886661 0 0.020605799736926722 0.035050701288529128 0 0.019799803567461027 0.033058330443494953 0 0.022362909779218981 0.033006302898886661 0 0.021358262234437434 0.036951850513351862 0 0.022878911426575933 0.03531626083964913 0 0.020605799736926722 0.035050701288529128 0 0.019071449930286245 0.037068704471760069 0 0.020605799736926722 0.035050701288529128 0 0.017732720686554782 0.034586652656162342 0 0.021358262234437434 0.036951850513351862 0 0.019071449930286245 0.037068704471760069 0 0.020605799736926722 0.035050701288529128 0 0.020605799736926722 0.035050701288529128 0 0.019799803567461027 0.033058330443494953 0 0.017732720686554782 0.034586652656162342 0 0.019799803567461027 0.033058330443494953 0 0.017732720686554782 0.034586652656162342 0 0.017928826067663328 0.03245615993681171 0 0.019799803567461027 0.033058330443494953 0 0.020063407908845504 0.031102667608673883 0 0.017928826067663328 0.03245615993681171 0 0.020063407908845504 0.031102667608673883 0 0.017928826067663328 0.03245615993681171 0 0.016917932063081984 0.030551292374487272 0 0.020063407908845504 0.031102667608673883 0 0.016917932063081984 0.030551292374487272 0 0.01990911059184345 0.028880980706272399 0 0.020063407908845504 0.031102667608673883 0 0.022215928749651996 0.030245972945250686 0 0.01990911059184345 0.028880980706272399 0 0.020063407908845504 0.031102667608673883 0 0.022215928749651996 0.030245972945250686 0 0.022362909779218981 0.033006302898886661 0 0.019799803567461027 0.033058330443494953 0 0.020063407908845504 0.031102667608673883 0 0.022362909779218981 0.033006302898886661 0 0.024036199101635288 0.034187141120681622 0 0.022362909779218981 0.033006302898886661 0 0.02481622481603802 0.032838192004401266 0 0.022362909779218981 0.033006302898886661 0 0.024073937400536805 0.031144813730196102 0 0.02481622481603802 0.032838192004401266 0 0.022215928749651996 0.030245972945250686 0 0.022362909779218981 0.033006302898886661 0 0.024073937400536805 0.031144813730196102 0 0.022215928749651996 0.030245972945250686 0 0.024073937400536805 0.031144813730196102 0 0.024666919069951027 0.028763090077750748 0 0.026320167744100582 0.030757975088192661 0 0.024073937400536805 0.031144813730196102 0 0.02481622481603802 0.032838192004401266 0 0.026320167744100582 0.030757975088192661 0 0.024073937400536805 0.031144813730196102 0 0.024666919069951027 0.028763090077750748 0 0.026711134609066479 0.032939772431239106 0 0.025909042326328277 0.034270084489927292 0 0.02481622481603802 0.032838192004401266 0 0.026711134609066479 0.032939772431239106 0 0.026320167744100582 0.030757975088192661 0 0.02481622481603802 0.032838192004401266 0 0.012494211449240284 0.034361889868003238 0 0.01186694193967839 0.035967568792475146 0 0.014553671760696248 0.036015674577683031 0 0.012494211449240284 0.034361889868003238 0 0.010574694802516093 0.034801637908725903 0 0.010569364149384289 0.032978681270672383 0 0.0094202008577111175 0.036111937583541281 0 0.010574694802516093 0.034801637908725903 0 0.01186694193967839 0.035967568792475146 0 0.0087627477588460168 0.034349371459088042 0 0.010574694802516093 0.034801637908725903 0 0.010569364149384289 0.032978681270672383 0 0.0094202008577111175 0.036111937583541281 0 0.0087627477588460168 0.034349371459088042 0 0.010574694802516093 0.034801637908725903 0 0.012494211449240284 0.034361889868003238 0 0.010574694802516093 0.034801637908725903 0 0.01186694193967839 0.035967568792475146 0 0.011642639413264069 0.029216587836799725 0 0.0094339389526459528 0.027162781828880416 0 0.011237453499227458 0.027558811791188079 0 0.0098754944041400793 0.035383306092648885 0 0.012925339153321183 0.026812907432033347 0 0.0094202008577111175 0.036111937583541281 0 0.012442599707914621 0.038447610992109534 0 0.01186694193967839 0.035967568792475146 0 0.0098754944041400793 0.035383306092648885 0 0.0094527854073866956 0.019347184645363853 0 0.012442599707914621 0.038447610992109534 0 0.01186694193967839 0.035967568792475146 0 0.014553671760696248 0.036015674577683031 0 0.015691702990174687 0.038974654824400899 0 0.014553671760696248 0.036015674577683031 0 0.016831500902330342 0.036458610746719959 0 0.019071449930286245 0.037068704471760069 0 0.016831500902330342 0.036458610746719959 0 0.017732720686554782 0.034586652656162342 0 0.014553671760696248 0.036015674577683031 0 0.016831500902330342 0.036458610746719959 0 0.017732720686554782 0.034586652656162342 0 0.012494211449240284 0.034361889868003238 0 0.014553671760696248 0.036015674577683031 0 0.015001520425783271 0.033161125817075046 0 0.014553671760696248 0.036015674577683031 0 0.017732720686554782 0.034586652656162342 0 0.015001520425783271 0.033161125817075046 0 0.015001520425783271 0.033161125817075046 0 0.017928826067663328 0.03245615993681171 0 0.016917932063081984 0.030551292374487272 0 0.017732720686554782 0.034586652656162342 0 0.015001520425783271 0.033161125817075046 0 0.017928826067663328 0.03245615993681171 0 0.015001520425783271 0.033161125817075046 0 0.016917932063081984 0.030551292374487272 0 0.013726252447703856 0.030838755248785595 0 0.013726252447703856 0.030838755248785595 0 0.012488354799079929 0.032382439113594716 0 0.010576886786256704 0.030628890408447844 0 0.012494211449240284 0.034361889868003238 0 0.015001520425783271 0.033161125817075046 0 0.012488354799079929 0.032382439113594716 0 0.012494211449240284 0.034361889868003238 0 0.012488354799079929 0.032382439113594716 0 0.010569364149384289 0.032978681270672383 0 0.015001520425783271 0.033161125817075046 0 0.013726252447703856 0.030838755248785595 0 0.012488354799079929 0.032382439113594716 0 0.012488354799079929 0.032382439113594716 0 0.010569364149384289 0.032978681270672383 0 0.010576886786256704 0.030628890408447844 0 0.0083722770846899486 0.031561323769617407 0 0.010569364149384289 0.032978681270672383 0 0.010576886786256704 0.030628890408447844 0 0.010576886786256704 0.030628890408447844 0 0.011365894705421991 0.028798510213063018 0 0.0085867328168988 0.028489133290486371 0 0.011365894705421991 0.028798510213063018 0 0.010885587453479419 0.026755421709495235 0 0.0085867328168988 0.028489133290486371 0 0.011365894705421991 0.028798510213063018 0 0.013967406026974933 0.028735317747788265 0 0.010885587453479419 0.026755421709495235 0 0.013726252447703856 0.030838755248785595 0 0.010576886786256704 0.030628890408447844 0 0.011365894705421991 0.028798510213063018 0 0.013726252447703856 0.030838755248785595 0 0.011365894705421991 0.028798510213063018 0 0.013967406026974933 0.028735317747788265 0 0.016917932063081984 0.030551292374487272 0 0.013726252447703856 0.030838755248785595 0 0.013967406026974933 0.028735317747788265 0 0.016917932063081984 0.030551292374487272 0 0.017688546536893762 0.026860285908260419 0 0.013967406026974933 0.028735317747788265 0 0.017791623520471127 0.028130410755415926 0 0.014288070361381857 0.028744379723407144 0 0.017800326826474276 0.029465769908574 0 0.013967406026974933 0.028735317747788265 0 0.014393225706262431 0.026375079758351669 0 0.017800326826474276 0.029465769908574 0 0.014393225706262431 0.026375079758351669 0 0.018881242372466966 0.026746261051840404 0 0.014393225706262431 0.026375079758351669 0 0.018881242372466966 0.026746261051840404 0 0.016054669795166347 0.023633974329671924 0 0.014393225706262431 0.026375079758351669 0 0.013480207084026226 0.024327989449723225 0 0.016054669795166347 0.023633974329671924 0 0.014393225706262431 0.026375079758351669 0 0.010894060217905659 0.024020665330652023 0 0.010885587453479419 0.026755421709495235 0 0.014393225706262431 0.026375079758351669 0 0.010894060217905659 0.024020665330652023 0 0.013480207084026226 0.024327989449723225 0 0.010894060217905659 0.024020665330652023 0 0.010885587453479419 0.026755421709495235 0 0.0085749006989223938 0.024178797052315348 0 0.013967406026974933 0.028735317747788265 0 0.014393225706262431 0.026375079758351669 0 0.010885587453479419 0.026755421709495235 0 0.026495639707308397 0.02593361249058633 0 0.024666919069951027 0.028763090077750748 0 0.023847731579350884 0.0265408792078335 0 0.022215928749651996 0.030245972945250686 0 0.024666919069951027 0.028763090077750748 0 0.022393706754210093 0.028002432289416162 0 0.022393706754210093 0.028002432289416162 0 0.023847731579350884 0.0265408792078335 0 0.021252205067132008 0.025542022732668552 0 0.024666919069951027 0.028763090077750748 0 0.022393706754210093 0.028002432289416162 0 0.023847731579350884 0.0265408792078335 0 0.022393706754210093 0.028002432289416162 0 0.01990911059184345 0.028880980706272399 0 0.021252205067132008 0.025542022732668552 0 0.022215928749651996 0.030245972945250686 0 0.022393706754210093 0.028002432289416162 0 0.01990911059184345 0.028880980706272399 0 0.016917932063081984 0.030551292374487272 0 0.017688546536893762 0.026860285908260419 0 0.01990911059184345 0.028880980706272399 0 0.017791623520471127 0.028130410755415926 0 0.021814518606698342 0.027501820266406289 0 0.017688546536893762 0.026860285908260419 0 0.01990911059184345 0.028880980706272399 0 0.021252205067132008 0.025542022732668552 0 0.017800326826474276 0.029465769908574 0 0.018881242372466966 0.026746261051840404 0 0.022259190811859061 0.029491714987106565 0 0.018881242372466966 0.026746261051840404 0 0.022751151194520522 0.02687158237290236 0 0.020593574151561267 0.024571499831571777 0 0.018881242372466966 0.026746261051840404 0 0.022751151194520522 0.02687158237290236 0 0.022259190811859061 0.029491714987106565 0 0.022751151194520522 0.02687158237290236 0 0.022259190811859061 0.029491714987106565 0 0.026652381424980907 0.028960596815534173 0 0.021814518606698342 0.027501820266406289 0 0.02562046950344532 0.026521301005638005 0 0.023847731579350884 0.0265408792078335 0 0.021252205067132008 0.025542022732668552 0 0.024650458660190569 0.024389194469277325 0 0.022751151194520522 0.02687158237290236 0 0.026652381424980907 0.028960596815534173 0 0.025658636196676479 0.026280041751635373 0 0.028245268209282821 0.027110359368384181 0 0.026652381424980907 0.028960596815534173 0 0.025658636196676479 0.026280041751635373 0 0.026495639707308397 0.02593361249058633 0 0.023847731579350884 0.0265408792078335 0 0.024650458660190569 0.024389194469277325 0 0.029738878850500469 0.024185655711399835 0 0.02766691167014651 0.023767714791015249 0 0.02781975064644988 0.022137885330855273 0 0.02766691167014651 0.023767714791015249 0 0.026098814986370105 0.024228777224288581 0 0.026569422598172437 0.023061683675273906 0 0.02766691167014651 0.023767714791015249 0 0.028077469248153217 0.025431000665375139 0 0.026098814986370105 0.024228777224288581 0 0.029738878850500469 0.024185655711399835 0 0.02766691167014651 0.023767714791015249 0 0.028077469248153217 0.025431000665375139 0 0.028245268209282821 0.027110359368384181 0 0.028077469248153217 0.025431000665375139 0 0.025658636196676479 0.026280041751635373 0 0.028077469248153217 0.025431000665375139 0 0.025658636196676479 0.026280041751635373 0 0.026098814986370105 0.024228777224288581 0 0.029122682318712061 0.026275785887105347 0 0.028245268209282821 0.027110359368384181 0 0.028077469248153217 0.025431000665375139 0 0.025658636196676479 0.026280041751635373 0 0.026098814986370105 0.024228777224288581 0 0.023519551170874602 0.024524306297012105 0 0.022751151194520522 0.02687158237290236 0 0.025658636196676479 0.026280041751635373 0 0.023519551170874602 0.024524306297012105 0 0.026098814986370105 0.024228777224288581 0 0.023519551170874602 0.024524306297012105 0 0.024716059256760847 0.022318726786500816 0 0.026098814986370105 0.024228777224288581 0 0.026569422598172437 0.023061683675273906 0 0.024716059256760847 0.022318726786500816 0 0.023519551170874602 0.024524306297012105 0 0.02142507736040997 0.022804575637901479 0 0.024716059256760847 0.022318726786500816 0 0.023519551170874602 0.024524306297012105 0 0.020593574151561267 0.024571499831571777 0 0.02142507736040997 0.022804575637901479 0 0.022751151194520522 0.02687158237290236 0 0.023519551170874602 0.024524306297012105 0 0.020593574151561267 0.024571499831571777 0 0.020593574151561267 0.024571499831571777 0 0.02142507736040997 0.022804575637901479 0 0.018485498378927975 0.022522425998905964 0 0.02142507736040997 0.022804575637901479 0 0.019386233694436785 0.020562139326149007 0 0.018485498378927975 0.022522425998905964 0 0.02142507736040997 0.022804575637901479 0 0.019386233694436785 0.020562139326149007 0 0.022058107374671353 0.021070206021008956 0 0.019386233694436785 0.020562139326149007 0 0.022058107374671353 0.021070206021008956 0 0.019182375767346466 0.018216235559765339 0 0.022058107374671353 0.021070206021008956 0 0.019182375767346466 0.018216235559765339 0 0.022575556993211149 0.016984534172556964 0 0.022058107374671353 0.021070206021008956 0 0.024857794480397009 0.02026073996358534 0 0.02315369255338403 0.018285874579969608 0 0.022413918709588049 0.020554395644558233 0 0.021709317863358099 0.018488774936365398 0 0.02495977500174678 0.020296327421514535 0 0.021709317863358099 0.018488774936365398 0 0.022058107374671353 0.021070206021008956 0 0.024716059256760847 0.022318726786500816 0 0.024857794480397009 0.02026073996358534 0 0.02142507736040997 0.022804575637901479 0 0.022058107374671353 0.021070206021008956 0 0.024716059256760847 0.022318726786500816 0 0.024716059256760847 0.022318726786500816 0 0.024857794480397009 0.02026073996358534 0 0.02781975064644988 0.022137885330855273 0 0.026569422598172437 0.023061683675273906 0 0.024716059256760847 0.022318726786500816 0 0.02781975064644988 0.022137885330855273 0 0.024857794480397009 0.02026073996358534 0 0.027245495704795591 0.020081881935105409 0 0.02781975064644988 0.022137885330855273 0 0.024857794480397009 0.02026073996358534 0 0.027245495704795591 0.020081881935105409 0 0.026382894740124837 0.01723877774977842 0 0.027245495704795591 0.020081881935105409 0 0.02781975064644988 0.022137885330855273 0 0.029762979330053497 0.020112885262923794 0 0.030551462483748428 0.022461494015560284 0 0.02781975064644988 0.022137885330855273 0 0.029762979330053497 0.020112885262923794 0 0.02766691167014651 0.023767714791015249 0 0.026569422598172437 0.023061683675273906 0 0.02781975064644988 0.022137885330855273 0 0.012150571129377962 0.022166250270192846 0 0.010332104712065759 0.019582483645384223 0 0.009225048512703669 0.021510355954907735 0 0.010894060217905659 0.024020665330652023 0 0.009225048512703669 0.021510355954907735 0 0.0085749006989223938 0.024178797052315348 0 0.010894060217905659 0.024020665330652023 0 0.012150571129377962 0.022166250270192846 0 0.009225048512703669 0.021510355954907735 0 0.010894060217905659 0.024020665330652023 0 0.012150571129377962 0.022166250270192846 0 0.013480207084026226 0.024327989449723225 0 0.012150571129377962 0.022166250270192846 0 0.013480207084026226 0.024327989449723225 0 0.016054669795166347 0.023633974329671924 0 0.020593574151561267 0.024571499831571777 0 0.016054669795166347 0.023633974329671924 0 0.018485498378927975 0.022522425998905964 0 0.018881242372466966 0.026746261051840404 0 0.020593574151561267 0.024571499831571777 0 0.016054669795166347 0.023633974329671924 0 0.016054669795166347 0.023633974329671924 0 0.018485498378927975 0.022522425998905964 0 0.015561307575145296 0.021270587252758832 0 0.015929030155680427 0.023545390398143788 0 0.015055218312486926 0.020769600893101106 0 0.012150571129377962 0.022166250270192846 0 0.016054669795166347 0.023633974329671924 0 0.014115469062977637 0.020284603720607176 0 0.019386233694436785 0.020562139326149007 0 0.015561307575145296 0.021270587252758832 0 0.016848529502874549 0.019010902596045008 0 0.019386233694436785 0.020562139326149007 0 0.018485498378927975 0.022522425998905964 0 0.015561307575145296 0.021270587252758832 0 0.019386233694436785 0.020562139326149007 0 0.019182375767346466 0.018216235559765339 0 0.016848529502874549 0.019010902596045008 0 0.019182375767346466 0.018216235559765339 0 0.016848529502874549 0.019010902596045008 0 0.016828704692146333 0.015827784462205289 0 0.015561307575145296 0.021270587252758832 0 0.016848529502874549 0.019010902596045008 0 0.014403721162558853 0.018057242224329823 0 0.016848529502874549 0.019010902596045008 0 0.014403721162558853 0.018057242224329823 0 0.016828704692146333 0.015827784462205289 0 0.015055218312486926 0.020769600893101106 0 0.011942503364178189 0.018194020001192308 0 0.011942503364178189 0.018194020001192308 0 0.010329680585427749 0.019484164739141583 0 0.010540910085176998 0.019056987359217605 0 0.010332104712065759 0.019582483645384223 0 0.010027665563666233 0.018904024031848484 0 0.012150571129377962 0.022166250270192846 0 0.014115469062977637 0.020284603720607176 0 0.010332104712065759 0.019582483645384223 0 0.014115469062977637 0.020284603720607176 0 0.012848485469500046 0.01720907803091843 0 0.010332104712065759 0.019582483645384223 0 0.010332104712065759 0.019582483645384223 0 0.0090953472229395732 0.019494832069486816 0 0.009225048512703669 0.021510355954907735 0 0.010332104712065759 0.019582483645384223 0 0.0090953472229395732 0.019494832069486816 0 0.010027665563666233 0.018904024031848484 0 0.0090953472229395732 0.019494832069486816 0 0.0091938803479291575 0.018808356790842553 0 0.010027665563666233 0.018904024031848484 0 0.0090953472229395732 0.019494832069486816 0 0.0081077153219484433 0.019109804925583642 0 0.0091938803479291575 0.018808356790842553 0 0.0090953472229395732 0.019494832069486816 0 0.0081077153219484433 0.019109804925583642 0 0.0075605492035426313 0.02041489641466528 0 0.0081077153219484433 0.019109804925583642 0 0.0075605492035426313 0.02041489641466528 0 0.0063907681579723919 0.019728272059776539 0 0.0081077153219484433 0.019109804925583642 0 0.0063907681579723919 0.019728272059776539 0 0.0071747171460150158 0.018789580843594743 0 0.0090953472229395732 0.019494832069486816 0 0.0075605492035426313 0.02041489641466528 0 0.009225048512703669 0.021510355954907735 0 0.0063907681579723919 0.019728272059776539 0 0.0046520900616895608 0.020316801481245192 0 0.005501520872279844 0.018789481486730968 0 0.0075605492035426313 0.02041489641466528 0 0.0063907681579723919 0.019728272059776539 0 0.006104665287260779 0.020960665216433968 0 0.0063907681579723919 0.019728272059776539 0 0.006104665287260779 0.020960665216433968 0 0.0046520900616895608 0.020316801481245192 0 0.006104665287260779 0.020960665216433968 0 0.0048586938754103925 0.021580327263161871 0 0.0046520900616895608 0.020316801481245192 0 0.006104665287260779 0.020960665216433968 0 0.0048586938754103925 0.021580327263161871 0 0.0058327632229617215 0.022329326495637673 0 0.006104665287260779 0.020960665216433968 0 0.0058327632229617215 0.022329326495637673 0 0.0070772911121559411 0.021992150941254774 0 0.0035379462527503638 0.021492790544136841 0 0.0070772911121559411 0.021992150941254774 0 0.0060619473841760424 0.024030664086483317 0 0.0046854042724856501 0.021946610910866776 0 0.0068408423336474974 0.02193951862961175 0 0.0046854042724856501 0.021946610910866776 0 0.0022616279134508332 0.022086474205170663 0 0.0035379462527503638 0.021492790544136841 0 0.00096636863233865681 0.02351701977306624 0 0.00031528940179722262 0.021531378544647903 0 0.0048586938754103925 0.021580327263161871 0 0.0058327632229617215 0.022329326495637673 0 0.0042845750590001629 0.022649193520211761 0 0.0075605492035426313 0.02041489641466528 0 0.009225048512703669 0.021510355954907735 0 0.0070772911121559411 0.021992150941254774 0 0.0075605492035426313 0.02041489641466528 0 0.006104665287260779 0.020960665216433968 0 0.0070772911121559411 0.021992150941254774 0 0.009225048512703669 0.021510355954907735 0 0.0070772911121559411 0.021992150941254774 0 0.0085749006989223938 0.024178797052315348 0 0.010885587453479419 0.026755421709495235 0 0.0085749006989223938 0.024178797052315348 0 0.0073110308351698322 0.02617769826813417 0 0.0073110308351698322 0.02617769826813417 0 0.0060619473841760424 0.024030664086483317 0 0.0037537376683391376 0.025852397967623644 0 0.0070772911121559411 0.021992150941254774 0 0.0085749006989223938 0.024178797052315348 0 0.0060619473841760424 0.024030664086483317 0 0.0085749006989223938 0.024178797052315348 0 0.0073110308351698322 0.02617769826813417 0 0.0060619473841760424 0.024030664086483317 0 0.0035379462527503638 0.021492790544136841 0 0.0060619473841760424 0.024030664086483317 0 0.0031304314553020742 0.02424061007390307 0 0.0035379462527503638 0.021492790544136841 0 0.0031304314553020742 0.02424061007390307 0 0.00096636863233865681 0.02351701977306624 0 0.0031304314553020742 0.02424061007390307 0 0.0016094254681975314 0.025047821392498369 0 0.00096636863233865681 0.02351701977306624 0 0.0016094254681975314 0.025047821392498369 0 0.0037537376683391376 0.025852397967623644 0 0.00081994755268325573 0.026458897562505058 0 0.0031304314553020742 0.02424061007390307 0 0.0016094254681975314 0.025047821392498369 0 0.0037537376683391376 0.025852397967623644 0 0.0060619473841760424 0.024030664086483317 0 0.0031304314553020742 0.02424061007390307 0 0.0037537376683391376 0.025852397967623644 0 0.0037537376683391376 0.025852397967623644 0 0.0024825088322590759 0.027405423131683902 0 0.0053417656514412066 0.027693262713678574 0 0.0037537376683391376 0.025852397967623644 0 0.00081994755268325573 0.026458897562505058 0 0.0024825088322590759 0.027405423131683902 0 0.00081994755268325573 0.026458897562505058 0 0.0024825088322590759 0.027405423131683902 0 0.0005057375700930906 0.027853988435308622 0 0.0024825088322590759 0.027405423131683902 0 0.0005057375700930906 0.027853988435308622 0 0.0014426647452906016 0.028798905269629468 0 0.0024825088322590759 0.027405423131683902 0 0.0014426647452906016 0.028798905269629468 0 0.0035773110375076941 0.028709583298605866 0 0.0021726047102391711 0.029989925748873165 0 0.0014426647452906016 0.028798905269629468 0 0.0035773110375076941 0.028709583298605866 0 -0.00015154038813965017 0.02895084422421983 0 0.0005057375700930906 0.027853988435308622 0 0.0014426647452906016 0.028798905269629468 0 0.0024825088322590759 0.027405423131683902 0 0.0035773110375076941 0.028709583298605866 0 0.0053417656514412066 0.027693262713678574 0 0.0059904540695919833 0.029878234002278761 0 0.0085867328168988 0.028489133290486371 0 0.0053417656514412066 0.027693262713678574 0 0.0059904540695919833 0.029878234002278761 0 0.0035773110375076941 0.028709583298605866 0 0.0053417656514412066 0.027693262713678574 0 0.0082392950129681897 0.03004550795444386 0 0.0059904540695919833 0.029878234002278761 0 0.0085867328168988 0.028489133290486371 0 0.0082392950129681897 0.03004550795444386 0 0.010576886786256704 0.030628890408447844 0 0.0085867328168988 0.028489133290486371 0 0.010885587453479419 0.026755421709495235 0 0.0073110308351698322 0.02617769826813417 0 0.0085867328168988 0.028489133290486371 0 0.0073110308351698322 0.02617769826813417 0 0.0085867328168988 0.028489133290486371 0 0.0053417656514412066 0.027693262713678574 0 0.0073110308351698322 0.02617769826813417 0 0.0037537376683391376 0.025852397967623644 0 0.0053417656514412066 0.027693262713678574 0 -0.0040648768304024138 0.027620248601385688 0 -0.0055193350494811971 0.023666608900986777 0 -0.0033391919496855329 0.026770836273693786 0 -0.0058762851520174518 0.026503540950210066 0 -0.004314865230345198 0.028077670163959394 0 -0.0033391919496855329 0.026770836273693786 0 -0.0058762851520174518 0.026503540950210066 0 -0.0042224790843362857 0.02511627197123931 0 -0.0066384301989789903 0.02053565946436367 0 -0.0055193350494811971 0.023666608900986777 0 -0.0072968787723690833 0.014702487765567247 0 -0.0066415262130274386 0.015482925916720543 0 -0.0079624459549708267 0.015537584476661591 0 -0.0033391919496855329 0.026770836273693786 0 -0.0041126305464173592 0.028021020277886277 0 -0.0025685763978037842 0.02781060243581341 0 -0.0029280932493092556 0.029170196849143064 0 -0.0041126305464173592 0.028021020277886277 0 -0.0025685763978037842 0.02781060243581341 0 -0.0039999295643491327 0.029013479566218765 0 -0.0055193350494811971 0.023666608900986777 0 -0.0029280932493092556 0.029170196849143064 0 -0.0019076612440725599 0.028593744886922619 0 -0.0025685763978037842 0.02781060243581341 0 -0.0019076612440725599 0.028593744886922619 0 -0.0025685763978037842 0.02781060243581341 0 -0.00097814545786453029 0.027380941823656555 0 -0.00015154038813965017 0.02895084422421983 0 0.0005057375700930906 0.027853988435308622 0 -0.00069438123265163775 0.028310744728593906 0 -0.00015154038813965017 0.02895084422421983 0 -0.0013169168666326619 0.028949395959341317 0 -0.00069438123265163775 0.028310744728593906 0 -0.0013169168666326619 0.028949395959341317 0 -0.0019076612440725599 0.028593744886922619 0 -0.00069438123265163775 0.028310744728593906 0 -0.0019076612440725599 0.028593744886922619 0 -0.00069438123265163775 0.028310744728593906 0 -0.00097814545786453029 0.027380941823656555 0 0.0005057375700930906 0.027853988435308622 0 -0.00069438123265163775 0.028310744728593906 0 -0.00097814545786453029 0.027380941823656555 0 0.00081994755268325573 0.026458897562505058 0 0.0005057375700930906 0.027853988435308622 0 -0.00097814545786453029 0.027380941823656555 0 0.00081994755268325573 0.026458897562505058 0 -0.00097814545786453029 0.027380941823656555 0 -0.00069802098819439539 0.026303248500375891 0 -0.0033391919496855329 0.026770836273693786 0 -0.001982149447265589 0.026328016408843417 0 -0.0024759581205675528 0.025038425956289037 0 -0.0033391919496855329 0.026770836273693786 0 -0.0025685763978037842 0.02781060243581341 0 -0.001982149447265589 0.026328016408843417 0 -0.0025685763978037842 0.02781060243581341 0 -0.00097814545786453029 0.027380941823656555 0 -0.001982149447265589 0.026328016408843417 0 -0.00097814545786453029 0.027380941823656555 0 -0.00069802098819439539 0.026303248500375891 0 -0.001982149447265589 0.026328016408843417 0 -0.0024759581205675528 0.025038425956289037 0 -0.00050545286028480215 0.025122461216026789 0 -0.0012473835994917233 0.023377729519026749 0 -0.001982149447265589 0.026328016408843417 0 -0.0024759581205675528 0.025038425956289037 0 -0.00050545286028480215 0.025122461216026789 0 -0.00069802098819439539 0.026303248500375891 0 -0.001982149447265589 0.026328016408843417 0 -0.00050545286028480215 0.025122461216026789 0 0.0016094254681975314 0.025047821392498369 0 -0.00050545286028480215 0.025122461216026789 0 0.00096636863233865681 0.02351701977306624 0 0.0016094254681975314 0.025047821392498369 0 0.00081994755268325573 0.026458897562505058 0 -0.00050545286028480215 0.025122461216026789 0 0.00081994755268325573 0.026458897562505058 0 -0.00069802098819439539 0.026303248500375891 0 -0.00050545286028480215 0.025122461216026789 0 -0.00050545286028480215 0.025122461216026789 0 0.00096636863233865681 0.02351701977306624 0 -0.0012473835994917233 0.023377729519026749 0 0.00096636863233865681 0.02351701977306624 0 -0.0012473835994917233 0.023377729519026749 0 0.00031528940179722262 0.021531378544647903 0 -0.0012473835994917233 0.023377729519026749 0 -0.0034331866247720492 0.02338022830864302 0 -0.002499105562080437 0.021820722275589535 0 -0.0024759581205675528 0.025038425956289037 0 -0.0012473835994917233 0.023377729519026749 0 -0.0034331866247720492 0.02338022830864302 0 -0.0034331866247720492 0.02338022830864302 0 -0.0042224790843362857 0.02511627197123931 0 -0.0051854415390956664 0.023465167662070345 0 -0.0039776325983118819 0.023130247120688549 0 -0.0027568794479011617 0.020881831248663798 0 -0.0024759581205675528 0.025038425956289037 0 -0.0034331866247720492 0.02338022830864302 0 -0.0042224790843362857 0.02511627197123931 0 -0.0033391919496855329 0.026770836273693786 0 -0.0024759581205675528 0.025038425956289037 0 -0.0042224790843362857 0.02511627197123931 0 -0.0058762851520174518 0.026503540950210066 0 -0.0042224790843362857 0.02511627197123931 0 -0.0058131174902010772 0.024798964437747033 0 -0.0042224790843362857 0.02511627197123931 0 -0.0058131174902010772 0.024798964437747033 0 -0.0051854415390956664 0.023465167662070345 0 -0.0034331866247720492 0.02338022830864302 0 -0.0051854415390956664 0.023465167662070345 0 -0.0050489212995286975 0.022107615969800331 0 -0.0058131174902010772 0.024798964437747033 0 -0.0051854415390956664 0.023465167662070345 0 -0.0065241436703250954 0.023539739073542912 0 -0.0051854415390956664 0.023465167662070345 0 -0.0055799297565036826 0.022162198869378119 0 -0.0050489212995286975 0.022107615969800331 0 -0.0051854415390956664 0.023465167662070345 0 -0.0055799297565036826 0.022162198869378119 0 -0.0065241436703250954 0.023539739073542912 0 0.00081463387030138721 0.022854794679181344 0 0.0010268442587069383 0.023017458643447872 0 0.0015003389198359248 0.021921568842100645 0 -0.0044637400758960671 0.019278310910571517 0 -0.0027568794479011617 0.020881831248663798 0 -0.0031005489229240842 0.019802973151245226 0 -0.003129034463486407 0.019847596741879386 0 -0.0031756518856840038 0.019812323560710079 0 -0.0024079830385078404 0.019607478402104427 0 -0.0027568794479011617 0.020881831248663798 0 -0.0044637400758960671 0.019278310910571517 0 -0.0024079830385078404 0.019607478402104427 0 -0.0024079830385078404 0.019607478402104427 0 0.0014583910274102746 0.021809655550555234 0 -0.0034331866247720492 0.02338022830864302 0 -0.0050633607299876556 0.022100712569557205 0 -0.002499105562080437 0.021820722275589535 0 0.00246075675556347 0.021945843443221452 0 0.0015003389198359248 0.021921568842100645 0 0.0026702674998165207 0.022856766364440537 0 0.0010268442587069383 0.023017458643447872 0 0.0015003389198359248 0.021921568842100645 0 0.0026702674998165207 0.022856766364440537 0 -0.0027568794479011617 0.020881831248663798 0 0.00022464495363276845 0.02248022731060343 0 0.00246075675556347 0.021945843443221452 0 0.0015003389198359248 0.021921568842100645 0 0.0021780830752712913 0.021011674579842068 0 0.0014583910274102746 0.021809655550555234 0 0.0021041993329980707 0.021059193993021808 0 0.0010270613386585187 0.022370320939141791 0 0.00071586426195968905 0.021402183049564739 0 0.0015929603581211894 0.021617613060893857 0 0.0015929603581211894 0.021617613060893857 0 0.0010016533415504844 0.020686848481871578 0 0.0021780830752712913 0.021011674579842068 0 0.00071586426195968905 0.021402183049564739 0 0.0015929603581211894 0.021617613060893857 0 0.0010016533415504844 0.020686848481871578 0 -0.0012473835994917233 0.023377729519026749 0 0.00031528940179722262 0.021531378544647903 0 -0.002499105562080437 0.021820722275589535 0 0.0022616279134508332 0.022086474205170663 0 0.00022464495363276845 0.02248022731060343 0 0.0042845750590001629 0.022649193520211761 0 0.0026702674998165207 0.022856766364440537 0 0.0033720516566826389 0.021676877716896869 0 0.00246075675556347 0.021945843443221452 0 0.0033720516566826389 0.021676877716896869 0 0.0021780830752712913 0.021011674579842068 0 0.00246075675556347 0.021945843443221452 0 0.0026702674998165207 0.022856766364440537 0 0.0033720516566826389 0.021676877716896869 0 0.0048586938754103925 0.021580327263161871 0 0.0042845750590001629 0.022649193520211761 0 0.0033720516566826389 0.021676877716896869 0 0.0048586938754103925 0.021580327263161871 0 0.0033720516566826389 0.021676877716896869 0 0.0046520900616895608 0.020316801481245192 0 0.0033720516566826389 0.021676877716896869 0 0.0029367042057569718 0.020128869432644126 0 0.0021780830752712913 0.021011674579842068 0 0.0033720516566826389 0.021676877716896869 0 0.0046520900616895608 0.020316801481245192 0 0.0029367042057569718 0.020128869432644126 0 0.0029367042057569718 0.020128869432644126 0 0.0020473195388106239 0.019561628178425289 0 0.0027930062803906597 0.018725996596847535 0 0.0046520900616895608 0.020316801481245192 0 0.0029367042057569718 0.020128869432644126 0 0.003977634385422789 0.019225042380120828 0 0.0046520900616895608 0.020316801481245192 0 0.003977634385422789 0.019225042380120828 0 0.005501520872279844 0.018789481486730968 0 0.0010016533415504844 0.020686848481871578 0 0.0016784767378799023 0.020262812618192516 0 0.00060870433454908695 0.019918935720149213 0 0.0010016533415504844 0.020686848481871578 0 0.0016784767378799023 0.020262812618192516 0 0.0021780830752712913 0.021011674579842068 0 0.0029367042057569718 0.020128869432644126 0 0.0016784767378799023 0.020262812618192516 0 0.0021780830752712913 0.021011674579842068 0 0.0029367042057569718 0.020128869432644126 0 0.0016784767378799023 0.020262812618192516 0 0.0020473195388106239 0.019561628178425289 0 0.0016784767378799023 0.020262812618192516 0 0.0020473195388106239 0.019561628178425289 0 0.0012962581547202867 0.019451116376863621 0 0.0016784767378799023 0.020262812618192516 0 0.0012962581547202867 0.019451116376863621 0 0.00060870433454908695 0.019918935720149213 0 0.0012962581547202867 0.019451116376863621 0 0.0016890895028206072 0.018772013307495006 0 0.000364344065588416 0.01906701836784851 0 0.0020473195388106239 0.019561628178425289 0 0.0012962581547202867 0.019451116376863621 0 0.0016890895028206072 0.018772013307495006 0 0.0020473195388106239 0.019561628178425289 0 0.0016890895028206072 0.018772013307495006 0 0.0027930062803906597 0.018725996596847535 0 0.0016890895028206072 0.018772013307495006 0 0.0023709210766052389 0.018505482898459789 0 0.0027930062803906597 0.018725996596847535 0 0.0016890895028206072 0.018772013307495006 0 0.0020389842367431392 0.018216981129924942 0 0.00062486324509343581 0.018413107402087209 0 0.0016890895028206072 0.018772013307495006 0 0.0023709210766052389 0.018505482898459789 0 0.0020389842367431392 0.018216981129924942 0 0.0023709210766052389 0.018505482898459789 0 0.0020389842367431392 0.018216981129924942 0 0.0022992756207108689 0.018586807784614419 0 0.0020389842367431392 0.018216981129924942 0 0.0022992756207108689 0.018586807784614419 0 0.0022456057646276653 0.018712006278445967 0 0.0029156526891836567 0.018360899317779678 0 -0.00068480457286213133 0.018179263641239854 0 0.0020389842367431392 0.018216981129924942 0 0.0022456057646276653 0.018712006278445967 0 0.0026692495771300632 0.018625978009991748 0 0.0022992756207108689 0.018586807784614419 0 0.0025929945037655379 0.018786950162151372 0 0.0024790459968962765 0.018772615155972193 0 0.0023709210766052389 0.018505482898459789 0 0.0022992756207108689 0.018586807784614419 0 0.0025184805070367551 0.018633637778697181 0 0.0022992756207108689 0.018586807784614419 0 0.0025184805070367551 0.018633637778697181 0 0.0025929945037655379 0.018786950162151372 0 0.0029757133781884576 0.018734132200379058 0 0.0051844192721527986 0.01415357004718675 0 0.0023709210766052389 0.018505482898459789 0 0.0025184805070367551 0.018633637778697181 0 0.0027930062803906597 0.018725996596847535 0 0.0029757133781884576 0.018734132200379058 0 0.0029876001186644394 0.018450947730987505 0 0.0042216899955273054 0.017416164091034882 0 0.0027930062803906597 0.018725996596847535 0 0.003977634385422789 0.019225042380120828 0 0.0029367042057569718 0.020128869432644126 0 0.0027930062803906597 0.018725996596847535 0 0.003977634385422789 0.019225042380120828 0 0.0042216899955273054 0.017416164091034882 0 0.003977634385422789 0.019225042380120828 0 0.005501520872279844 0.018789481486730968 0 0.0063907681579723919 0.019728272059776539 0 0.005501520872279844 0.018789481486730968 0 0.0071747171460150158 0.018789580843594743 0 0.005501520872279844 0.018789481486730968 0 0.0065719089835238964 0.018158611308613678 0 0.0071747171460150158 0.018789580843594743 0 0.0065719089835238964 0.018158611308613678 0 0.0077188113609180055 0.018142801873587609 0 0.0071691718959406804 0.017369976515763205 0 0.0065719089835238964 0.018158611308613678 0 0.0058290945138307669 0.017526914303799192 0 0.0071691718959406804 0.017369976515763205 0 0.0042216899955273054 0.017416164091034882 0 0.005501520872279844 0.018789481486730968 0 0.0058290945138307669 0.017526914303799192 0 0.005501520872279844 0.018789481486730968 0 0.0065719089835238964 0.018158611308613678 0 0.0058290945138307669 0.017526914303799192 0 0.0081077153219484433 0.019109804925583642 0 0.0077188113609180055 0.018142801873587609 0 0.0087725572219941334 0.018155804934521933 0 0.0081077153219484433 0.019109804925583642 0 0.0091938803479291575 0.018808356790842553 0 0.0087725572219941334 0.018155804934521933 0 0.0081077153219484433 0.019109804925583642 0 0.0071747171460150158 0.018789580843594743 0 0.0077188113609180055 0.018142801873587609 0 0.0077188113609180055 0.018142801873587609 0 0.008593134385706979 0.017451762799604146 0 0.0071691718959406804 0.017369976515763205 0 0.0065719089835238964 0.018158611308613678 0 0.0071747171460150158 0.018789580843594743 0 0.0077188113609180055 0.018142801873587609 0 0.0077188113609180055 0.018142801873587609 0 0.0087725572219941334 0.018155804934521933 0 0.008593134385706979 0.017451762799604146 0 0.0087725572219941334 0.018155804934521933 0 0.008593134385706979 0.017451762799604146 0 0.0093334040705039326 0.017791608939030399 0 0.008593134385706979 0.017451762799604146 0 0.0088085751777492137 0.016827113085525217 0 0.0095804387169507472 0.017332539458590177 0 0.008593134385706979 0.017451762799604146 0 0.0078883281932256022 0.01683423812473071 0 0.0088085751777492137 0.016827113085525217 0 0.008593134385706979 0.017451762799604146 0 0.0078883281932256022 0.01683423812473071 0 0.0071691718959406804 0.017369976515763205 0 0.0078883281932256022 0.01683423812473071 0 0.0071691718959406804 0.017369976515763205 0 0.0067224357664420423 0.016538308582925099 0 0.0078883281932256022 0.01683423812473071 0 0.0067224357664420423 0.016538308582925099 0 0.0078978171068093978 0.016004704060878887 0 0.0078883281932256022 0.01683423812473071 0 0.0088085751777492137 0.016827113085525217 0 0.0078978171068093978 0.016004704060878887 0 0.0081868089011580773 0.041365705573105871 0 0.010145494805526229 0.028774599820188974 0 0.0088085751777492137 0.016827113085525217 0 0.0078978171068093978 0.016004704060878887 0 0.0095982192187884525 0.016478532429988854 0 0.011392097895751579 0.018358029688126842 0 0.010145494805526229 0.028774599820188974 0 0.0058290945138307669 0.017526914303799192 0 0.0067224357664420423 0.016538308582925099 0 0.0053826722559855624 0.01649651561342505 0 0.0042216899955273054 0.017416164091034882 0 0.0058290945138307669 0.017526914303799192 0 0.0053826722559855624 0.01649651561342505 0 0.0058290945138307669 0.017526914303799192 0 0.0071691718959406804 0.017369976515763205 0 0.0067224357664420423 0.016538308582925099 0 0.0067224357664420423 0.016538308582925099 0 0.0063304688542751009 0.015663348776936072 0 0.0078978171068093978 0.016004704060878887 0 0.0067224357664420423 0.016538308582925099 0 0.0053826722559855624 0.01649651561342505 0 0.0063304688542751009 0.015663348776936072 0 0.0051844192721527986 0.01415357004718675 0 0.0056387128817682363 0.039267227371465326 0 0.0056387128817682363 0.039267227371465326 0 0.0016674105115895908 0.041729053163598769 0 0.0050855388456713868 0.064690145531916765 0 0.0041894997327231245 0.063104924399182596 0 0.0015712916355754458 0.06391430806914053 0 0.0025929945037655379 0.018786950162151372 0 0.0028594388394719492 0.018932756586540565 0 0.0024790459968962765 0.018772615155972193 0 0.0050855388456713868 0.064690145531916765 0 0.006615511831289409 0.063118033247886882 0 0.0041894997327231245 0.063104924399182596 0 0.0056387128817682363 0.039267227371465326 0 0.0081868089011580773 0.041365705573105871 0 0.005936002708814718 0.063863488081483566 0 0.006615511831289409 0.063118033247886882 0 0.0079957225983632065 0.064245833019686505 0 0.0056387128817682363 0.039267227371465326 0 0.0021730875276325689 0.067828351241972687 0 0.006615511831289409 0.063118033247886882 0 0.0050243305425268052 0.061951397064263912 0 0.0041894997327231245 0.063104924399182596 0 0.006615511831289409 0.063118033247886882 0 0.0050243305425268052 0.061951397064263912 0 0.0070600074134603121 0.062055070486631413 0 0.0050243305425268052 0.061951397064263912 0 0.0041894997327231245 0.063104924399182596 0 0.0029320265163857999 0.06181111326915812 0 0.0092209839857055036 0.063364624573859621 0 0.0079957225983632065 0.064245833019686505 0 0.0097641674652412993 0.064149818257218286 0 0.006615511831289409 0.063118033247886882 0 0.0079957225983632065 0.064245833019686505 0 0.008095631595149165 0.063185185117271669 0 0.0092209839857055036 0.063364624573859621 0 0.0079957225983632065 0.064245833019686505 0 0.008095631595149165 0.063185185117271669 0 0.0070600074134603121 0.062055070486631413 0 0.008095631595149165 0.063185185117271669 0 0.0089751829228778002 0.062536225149422864 0 0.006615511831289409 0.063118033247886882 0 0.0070600074134603121 0.062055070486631413 0 0.008095631595149165 0.063185185117271669 0 0.0092209839857055036 0.063364624573859621 0 0.008095631595149165 0.063185185117271669 0 0.0089751829228778002 0.062536225149422864 0 0.0089751829228778002 0.062536225149422864 0 0.0098944978309805278 0.062823427709226942 0 0.010544114556590926 0.062911115962235489 0 0.0092209839857055036 0.063364624573859621 0 0.0089751829228778002 0.062536225149422864 0 0.0098944978309805278 0.062823427709226942 0 0.011155669069439721 0.063932561415799283 0 0.011461146049583402 0.064143275233803754 0 0.011396672392088653 0.063939412282791902 0 0.009648643267637879 0.062516050057951439 0 0.010416662972009523 0.062838745173159807 0 0.011155669069439721 0.063932561415799283 0 0.011461146049583402 0.064143275233803754 0 0.010544114556590926 0.062911115962235489 0 0.0089751829228778002 0.062536225149422864 0 0.0080659664280248039 0.060909069025963228 0 0.010544114556590926 0.062911115962235489 0 0.0070600074134603121 0.062055070486631413 0 0.0089751829228778002 0.062536225149422864 0 0.0080659664280248039 0.060909069025963228 0 0.0070600074134603121 0.062055070486631413 0 0.0080659664280248039 0.060909069025963228 0 0.005939937416737315 0.061134037503248022 0 0.011461146049583402 0.064143275233803754 0 0.011170685773217367 0.063473053058176909 0 0.011396672392088653 0.063939412282791902 0 0.011461146049583402 0.064143275233803754 0 0.011170685773217367 0.063473053058176909 0 0.0097509792876224639 0.064010196217804682 0 0.011170685773217367 0.063473053058176909 0 0.011396672392088653 0.063939412282791902 0 0.01168837410325561 0.063957196336804911 0 0.010663528827404276 0.064128501570488078 0 0.011541215138953478 0.064006775899476301 0 0.010294012691298034 0.064819294880536227 0 0.01168837410325561 0.063957196336804911 0 0.010895676462068706 0.063936974491027199 0 0.011155669069439721 0.063932561415799283 0 0.011396672392088653 0.063939412282791902 0 0.01168837410325561 0.063957196336804911 0 0.0050243305425268052 0.061951397064263912 0 0.0043565774473312939 0.060928830182227771 0 0.0029320265163857999 0.06181111326915812 0 0.0043565774473312939 0.060928830182227771 0 0.0032149370571680717 0.060475100708601723 0 0.0051383180724279319 0.059850566799163882 0 0.0043565774473312939 0.060928830182227771 0 0.0032149370571680717 0.060475100708601723 0 0.0029320265163857999 0.06181111326915812 0 0.009648643267637879 0.062516050057951439 0 0.007483283940483274 0.061978815746559016 0 0.0050243305425268052 0.061951397064263912 0 0.0070600074134603121 0.062055070486631413 0 0.005939937416737315 0.061134037503248022 0 0.0050243305425268052 0.061951397064263912 0 0.0043565774473312939 0.060928830182227771 0 0.005939937416737315 0.061134037503248022 0 0.0080659664280248039 0.060909069025963228 0 0.005939937416737315 0.061134037503248022 0 0.0051383180724279319 0.059850566799163882 0 0.0043565774473312939 0.060928830182227771 0 0.005939937416737315 0.061134037503248022 0 0.0051383180724279319 0.059850566799163882 0 0.010663528827404276 0.064128501570488078 0 0.0087498222066707005 0.064179604741270269 0 0.011170685773217367 0.063473053058176909 0 0.0097509792876224639 0.064010196217804682 0 0.0095364020342270824 0.063035030545299006 0 0.0097509792876224639 0.064010196217804682 0 0.0095364020342270824 0.063035030545299006 0 0.0071884571454817929 0.063388504176879759 0 0.0087498222066707005 0.064179604741270269 0 0.0067274036370109846 0.064287432150237633 0 0.0032149370571680717 0.060475100708601723 0 0.0051383180724279319 0.059850566799163882 0 0.0021723509443334716 0.05924105767052578 0 0.0095364020342270824 0.063035030545299006 0 0.0070598794135532418 0.062721616710876879 0 0.0071884571454817929 0.063388504176879759 0 0.007483283940483274 0.061978815746559016 0 0.0045112518379590129 0.061008385421625899 0 0.0070598794135532418 0.062721616710876879 0 0.0071884571454817929 0.063388504176879759 0 0.0041218253208799198 0.062506151415502198 0 0.0021723509443334716 0.05924105767052578 0 0.0016168732485090985 0.060585918751452875 0 0.00054350673712278644 0.059966167882919544 0 0.0032149370571680717 0.060475100708601723 0 0.0021723509443334716 0.05924105767052578 0 0.0016168732485090985 0.060585918751452875 0 0.0032149370571680717 0.060475100708601723 0 0.0016168732485090985 0.060585918751452875 0 0.0029320265163857999 0.06181111326915812 0 0.0016168732485090985 0.060585918751452875 0 0.0029320265163857999 0.06181111326915812 0 0.00080659346310144801 0.061984804824798963 0 0.00027244255237130675 0.060861681127462229 0 -0.00099217180616226891 0.061568951834014153 0 0.00080659346310144801 0.061984804824798963 0 0.0016168732485090985 0.060585918751452875 0 0.00027244255237130675 0.060861681127462229 0 0.00080659346310144801 0.061984804824798963 0 0.0016168732485090985 0.060585918751452875 0 0.00027244255237130675 0.060861681127462229 0 0.00054350673712278644 0.059966167882919544 0 0.0021723509443334716 0.05924105767052578 0 0.00054350673712278644 0.059966167882919544 0 -0.00046063524368839399 0.058870053878039355 0 0.0045112518379590129 0.061008385421625899 0 0.0023268445121410984 0.063193506586098916 0 0.00027244255237130675 0.060861681127462229 0 0.00054350673712278644 0.059966167882919544 0 -0.0009273401947320944 0.060403895665815589 0 0.00054350673712278644 0.059966167882919544 0 -0.0009273401947320944 0.060403895665815589 0 -0.00046063524368839399 0.058870053878039355 0 -0.0026496670992688389 0.060242371219580045 0 -0.0030234208063999219 0.059161856660325723 0 -0.00046063524368839399 0.058870053878039355 0 -0.0009273401947320944 0.060403895665815589 0 -0.0026496670992688389 0.060242371219580045 0 -0.00046063524368839399 0.058870053878039355 0 -0.0009273401947320944 0.060403895665815589 0 -0.0026496670992688389 0.060242371219580045 0 -0.0023819520354060614 0.061131078969690618 0 -0.0026496670992688389 0.060242371219580045 0 -0.0030234208063999219 0.059161856660325723 0 -0.004061184178765994 0.060357634085585851 0 -0.0026496670992688389 0.060242371219580045 0 -0.0023819520354060614 0.061131078969690618 0 -0.0039644844022162385 0.061366495294362979 0 -0.0023819520354060614 0.061131078969690618 0 -0.0026441937210776425 0.061992404551170791 0 -0.0039644844022162385 0.061366495294362979 0 -0.0023819520354060614 0.061131078969690618 0 -0.00099217180616226891 0.061568951834014153 0 -0.0026441937210776425 0.061992404551170791 0 0.00027244255237130675 0.060861681127462229 0 -0.0009273401947320944 0.060403895665815589 0 -0.00099217180616226891 0.061568951834014153 0 -0.0009273401947320944 0.060403895665815589 0 -0.0023819520354060614 0.061131078969690618 0 -0.00099217180616226891 0.061568951834014153 0 -0.00099217180616226891 0.061568951834014153 0 -0.0014378338624582842 0.063193542500056779 0 0.00080659346310144801 0.061984804824798963 0 -0.00099217180616226891 0.061568951834014153 0 -0.0014378338624582842 0.063193542500056779 0 -0.0026441937210776425 0.061992404551170791 0 0.00063920092481909807 0.040766659947311858 0 -0.0015762750067558763 0.042811852533135263 0 -0.0014378338624582842 0.063193542500056779 0 -0.0026441937210776425 0.061992404551170791 0 -0.0040155228928814247 0.062537737636606819 0 0.0021965065014186132 0.018918269754791633 0 0.0022456057646276653 0.018712006278445967 0 0.0025815266558978827 0.019369842009530801 0 0.0022992756207108689 0.018586807784614419 0 0.0021965065014186132 0.018918269754791633 0 0.0022456057646276653 0.018712006278445967 0 0.00063920092481909807 0.040766659947311858 0 0.0016674105115895908 0.041729053163598769 0 0.0022992756207108689 0.018586807784614419 0 0.0021965065014186132 0.018918269754791633 0 0.0024790459968962765 0.018772615155972193 0 0.0029320265163857999 0.06181111326915812 0 0.0015712916355754458 0.06391430806914053 0 0.00080659346310144801 0.061984804824798963 0 0.0041894997327231245 0.063104924399182596 0 0.0029320265163857999 0.06181111326915812 0 0.0015712916355754458 0.06391430806914053 0 -0.0014378338624582842 0.063193542500056779 0 0.0015712916355754458 0.06391430806914053 0 0.00080659346310144801 0.061984804824798963 0 0.032222520455697193 0.019449724303886723 0 0.032682529293761843 0.019606425666949978 0 0.032710642575448264 0.019558868845622947 0 0.032682529293761843 0.019606425666949978 0 0.032725941216918943 0.019617864583671801 0 0.032710642575448264 0.019558868845622947 0 0.032725941216918943 0.019617864583671801 0 0.032610506093208938 0.019673283892919613 0 0.032656272447170911 0.019640562025968158 0 0.032725941216918943 0.019617864583671801 0 0.032710642575448264 0.019558868845622947 0 0.032610506093208938 0.019673283892919613 0 0.033245634684267666 0.019156324801334564 0 0.023410546363206497 0.02384246294943702 0 0.0302161860761926 0.019778696916733656 0 0.029609137915777652 0.01988153532736955 0 0.029681080208141919 0.019232869485590935 0 0.030587455592570673 0.019232791340706643 0 0.0302161860761926 0.019778696916733656 0 0.029681080208141919 0.019232869485590935 0 0.031543928524428326 0.019456294567735153 0 0.033245634684267666 0.019156324801334564 0 0.030587455592570673 0.019232791340706643 0 0.030853601487414652 0.020104040332667009 0 0.0302161860761926 0.019778696916733656 0 0.032222520455697193 0.019449724303886723 0 0.030587455592570673 0.019232791340706643 0 0.030853601487414652 0.020104040332667009 0 0.030853601487414652 0.020104040332667009 0 0.030285421744691933 0.020233323089003025 0 0.0302161860761926 0.019778696916733656 0 0.027245495704795591 0.020081881935105409 0 0.029762979330053497 0.020112885262923794 0 0.026382894740124837 0.01723877774977842 0 0.030853601487414652 0.020104040332667009 0 0.029762979330053497 0.020112885262923794 0 0.030285421744691933 0.020233323089003025 0 0.029547980466768802 0.019916307140572184 0 0.02875432935156965 0.018792605439919296 0 0.024857794480397009 0.02026073996358534 0 0.026382894740124837 0.01723877774977842 0 0.02342073155444092 0.018499539096012742 0 0.030285421744691933 0.020233323089003025 0 0.0302161860761926 0.019778696916733656 0 0.029609137915777652 0.01988153532736955 0 0.02875432935156965 0.018792605439919296 0 0.023365153298509432 0.019528049112671215 0 0.019042977078275465 0.019462095801937977 0 0.018266579976516033 0.019420441749825598 0 0.018314715587074988 0.018911056876364605 0 0.023365153298509432 0.019528049112671215 0 0.018437941362966278 0.020771735087638073 0 0.019042977078275465 0.019462095801937977 0 0.018212226971337567 0.020086421008082871 0 0.018266579976516033 0.019420441749825598 0 0.023365153298509432 0.019528049112671215 0 0.021709317863358099 0.018488774936365398 0 0.019042977078275465 0.019462095801937977 0 0.018833452525114296 0.020757553005022186 0 0.018212226971337567 0.020086421008082871 0 0.026382894740124837 0.01723877774977842 0 0.023978045793584313 0.015456393840655992 0 0.02342073155444092 0.018499539096012742 0 0.021709317863358099 0.018488774936365398 0 0.019574635078879923 0.017721504336581644 0 0.019182375767346466 0.018216235559765339 0 0.020939519466579445 0.015232174736685136 0 0.018928702229701111 0.016110849764150212 0 0.019182375767346466 0.018216235559765339 0 0.022575556993211149 0.016984534172556964 0 0.020939519466579445 0.015232174736685136 0 0.019574635078879923 0.017721504336581644 0 0.016335435084266395 0.017478568702442424 0 0.020939519466579445 0.015232174736685136 0 0.019377597406827589 0.013524810876568916 0 0.018928702229701111 0.016110849764150212 0 0.018212226971337567 0.020086421008082871 0 0.018266579976516033 0.019420441749825598 0 0.017574025331433974 0.019399372724459334 0 0.018266579976516033 0.019420441749825598 0 0.017574025331433974 0.019399372724459334 0 0.017992999010830044 0.01901379800600039 0 0.016335435084266395 0.017478568702442424 0 0.017247751981996001 0.018539782109600833 0 0.017326216970465748 0.01960156165504047 0 0.017302001502194065 0.018147264337538556 0 0.017992999010830044 0.01901379800600039 0 0.017451366520305593 0.0215913543518821 0 0.01917770220627801 0.022859422019013077 0 0.021303346448950995 0.021708425168761345 0 0.017302001502194065 0.018147264337538556 0 0.018314715587074988 0.018911056876364605 0 0.017992999010830044 0.01901379800600039 0 0.014186555703887934 0.025208321066473034 0 0.023410546363206497 0.02384246294943702 0 0.014186555703887934 0.025208321066473034 0 0.018437941362966278 0.020771735087638073 0 0.018266579976516033 0.019420441749825598 0 0.018314715587074988 0.018911056876364605 0 0.017992999010830044 0.01901379800600039 0 0.023365153298509432 0.019528049112671215 0 0.023410546363206497 0.02384246294943702 0 0.020895046653090936 0.024118701284519553 0 0.01917770220627801 0.022859422019013077 0 0.021303346448950995 0.021708425168761345 0 0.013967765530290048 0.031438622762305107 0 0.013791459654526954 0.03141928880432291 0 0.014119910009519671 0.03136738967349572 0 0.023410546363206497 0.02384246294943702 0 0.023318270450504858 0.026074559300668404 0 0.013805229931846729 0.031253228333022492 0 0.013967765530290048 0.031438622762305107 0 0.013791459654526954 0.03141928880432291 0 0.013805229931846729 0.031253228333022492 0 0.013791459654526954 0.03141928880432291 0 0.013812097951038898 0.031386267393033747 0 0.010189755407278575 0.027592703869417687 0 0.012748823585568952 0.029635449681258003 0 0.012720732423348648 0.027711476041857201 0 0.014186555703887934 0.025208321066473034 0 0.013578986823847618 0.030726301281150035 0 0.013805229931846729 0.031253228333022492 0 0.013812097951038898 0.031386267393033747 0 0.014281428138197615 0.031242482446171144 0 0.012748823585568952 0.029635449681258003 0 0.014496445665133568 0.029999826699428685 0 0.015087570790873214 0.031546709195774021 0 0.010627815910125548 0.018027443787639787 0 0.010418582904103994 0.017953086593374218 0 0.01039934580648905 0.017759063022899434 0 0.010428944873889732 0.019335463302212724 0 0.010627815910125548 0.018027443787639787 0 0.010418582904103994 0.017953086593374218 0 0.010428944873889732 0.019335463302212724 0 0.010418582904103994 0.017953086593374218 0 0.010144086081293992 0.017694330932332098 0 0.012748823585568952 0.029635449681258003 0 0.014496445665133568 0.029999826699428685 0 0.012720732423348648 0.027711476041857201 0 0.010976981632821526 0.022858782703351288 0 0.013160862876422612 0.020579030763859096 0 0.010418582904103994 0.017953086593374218 0 0.010292061042904562 0.017752549064039634 0 0.010144086081293992 0.017694330932332098 0 0.010292061042904562 0.017752549064039634 0 0.010313833113435094 0.017729639686579819 0 0.010144086081293992 0.017694330932332098 0 0.010418582904103994 0.017953086593374218 0 0.010292061042904562 0.017752549064039634 0 0.01039934580648905 0.017759063022899434 0 0.010292061042904562 0.017752549064039634 0 0.01039934580648905 0.017759063022899434 0 0.010313833113435094 0.017729639686579819 0 0.010627815910125548 0.018027443787639787 0 0.01039934580648905 0.017759063022899434 0 0.010286116345753009 0.017659430674572433 0 0.01039934580648905 0.017759063022899434 0 0.010315879570807427 0.017753212743026481 0 0.010286116345753009 0.017659430674572433 0 0.01039934580648905 0.017759063022899434 0 0.010315879570807427 0.017753212743026481 0 0.010313833113435094 0.017729639686579819 0 0.010320085396880615 0.017753455895682387 0 0.010313833113435094 0.017729639686579819 0 0.010144086081293992 0.017694330932332098 0 0.010315879570807427 0.017753212743026481 0 0.010320085396880615 0.017753455895682387 0 0.010313833113435094 0.017729639686579819 0 0.016335435084266395 0.017478568702442424 0 0.013160862876422612 0.020579030763859096 0 0.017326216970465748 0.01960156165504047 0 0.017302001502194065 0.018147264337538556 0 0.015970550228187486 0.018114508425211773 0 0.010529199599979163 0.017788089114808472 0 0.010320085396880615 0.017753455895682387 0 0.010144086081293992 0.017694330932332098 0 0.014186555703887934 0.025208321066473034 0 0.013160862876422612 0.020579030763859096 0 0.019377597406827589 0.013524810876568916 0 0.018928702229701111 0.016110849764150212 0 0.016828704692146333 0.015827784462205289 0 0.010529199599979163 0.017788089114808472 0 0.010320085396880615 0.017753455895682387 0 0.010376854952362692 0.01793848845021034 0 0.016335435084266395 0.017478568702442424 0 0.013563291848434184 0.016670097759205575 0 0.019182375767346466 0.018216235559765339 0 0.018928702229701111 0.016110849764150212 0 0.016828704692146333 0.015827784462205289 0 0.011942503364178189 0.018194020001192308 0 0.013563291848434184 0.016670097759205575 0 0.010230392054627981 0.018098659567397073 0 0.010376854952362692 0.01793848845021034 0 0.01028544622965382 0.017876522164024241 0 0.010320085396880615 0.017753455895682387 0 0.010376854952362692 0.01793848845021034 0 0.01028544622965382 0.017876522164024241 0 0.010315879570807427 0.017753212743026481 0 0.010320085396880615 0.017753455895682387 0 0.01028544622965382 0.017876522164024241 0 0.010315879570807427 0.017753212743026481 0 0.01028544622965382 0.017876522164024241 0 0.010012817501581022 0.017780777451020469 0 0.010284561068750199 0.018434636724116341 0 0.0096140423403950747 0.018285690123422318 0 0.010012817501581022 0.017780777451020469 0 0.01028544622965382 0.017876522164024241 0 0.010145863234387391 0.017940860159071023 0 0.010012817501581022 0.017780777451020469 0 0.010168763434395324 0.018166923146052175 0 0.010049653893573304 0.017825801418135036 0 0.011942503364178189 0.018194020001192308 0 0.010168763434395324 0.018166923146052175 0 0.010230392054627981 0.018098659567397073 0 0.01028544622965382 0.017876522164024241 0 0.010145863234387391 0.017940860159071023 0 0.010540910085176998 0.019056987359217605 0 0.010284561068750199 0.018434636724116341 0 0.010027665563666233 0.018904024031848484 0 0.010284561068750199 0.018434636724116341 0 0.010027665563666233 0.018904024031848484 0 0.0096140423403950747 0.018285690123422318 0 0.0091938803479291575 0.018808356790842553 0 0.010027665563666233 0.018904024031848484 0 0.0096140423403950747 0.018285690123422318 0 0.0091938803479291575 0.018808356790842553 0 0.0087725572219941334 0.018155804934521933 0 0.0096140423403950747 0.018285690123422318 0 0.0087725572219941334 0.018155804934521933 0 0.0096140423403950747 0.018285690123422318 0 0.0093334040705039326 0.017791608939030399 0 0.0096140423403950747 0.018285690123422318 0 0.0093334040705039326 0.017791608939030399 0 0.010012817501581022 0.017780777451020469 0 0.008593134385706979 0.017451762799604146 0 0.0093334040705039326 0.017791608939030399 0 0.0095804387169507472 0.017332539458590177 0 0.0093334040705039326 0.017791608939030399 0 0.0095804387169507472 0.017332539458590177 0 0.010012817501581022 0.017780777451020469 0 0.0095804387169507472 0.017332539458590177 0 0.010012817501581022 0.017780777451020469 0 0.010286116345753009 0.017659430674572433 0 0.010315879570807427 0.017753212743026481 0 0.010012817501581022 0.017780777451020469 0 0.010286116345753009 0.017659430674572433 0 0.010627815910125548 0.018027443787639787 0 0.010286116345753009 0.017659430674572433 0 0.010083911056879526 0.017157300718137043 0 0.010704124704915786 0.017929794601307905 0 0.01190866578636496 0.018165933615829175 0 0.010428944873889732 0.019335463302212724 0 0.013736700620056426 0.018758007771553637 0 0.012661953153992656 0.022342653833605498 0 0.010428944873889732 0.019335463302212724 0 0.010627815910125548 0.018027443787639787 0 0.013736700620056426 0.018758007771553637 0 0.0095804387169507472 0.017332539458590177 0 0.010286116345753009 0.017659430674572433 0 0.010083911056879526 0.017157300718137043 0 0.013736700620056426 0.018758007771553637 0 0.016849596661715604 0.019531943974892704 0 0.012661953153992656 0.022342653833605498 0 0.0095804387169507472 0.017332539458590177 0 0.010083911056879526 0.017157300718137043 0 0.0093562821637559381 0.016721336880049856 0 0.01190866578636496 0.018165933615829175 0 0.010145494805526229 0.028774599820188974 0 0.0088085751777492137 0.016827113085525217 0 0.0095804387169507472 0.017332539458590177 0 0.0093562821637559381 0.016721336880049856 0 0.0097641674652412993 0.064149818257218286 0 0.010050268493049302 0.063219243052970192 0 0.011015779132351418 0.063242759785806305 0 0.0092209839857055036 0.063364624573859621 0 0.0097641674652412993 0.064149818257218286 0 0.010050268493049302 0.063219243052970192 0 0.010145494805526229 0.028774599820188974 0 0.013126286018520355 0.047729802889085654 0 0.010976981632821526 0.022858782703351288 0 0.013126286018520355 0.047729802889085654 0 0.013126286018520355 0.047729802889085654 0 0.012277423073668466 0.066581590454589029 0 0.013403405416609074 0.066179448978874691 0 0.012448631534034107 0.065355256222136907 0 0.013521324683393877 0.064972214109704551 0 0.010050268493049302 0.063219243052970192 0 0.011015779132351418 0.063242759785806305 0 0.010022717541724568 0.062473926294837542 0 0.0092209839857055036 0.063364624573859621 0 0.010050268493049302 0.063219243052970192 0 0.0098944978309805278 0.062823427709226942 0 0.010050268493049302 0.063219243052970192 0 0.010022717541724568 0.062473926294837542 0 0.0098944978309805278 0.062823427709226942 0 0.010022717541724568 0.062473926294837542 0 0.0098944978309805278 0.062823427709226942 0 0.010544114556590926 0.062911115962235489 0 0.011155669069439721 0.063932561415799283 0 0.010022717541724568 0.062473926294837542 0 0.010544114556590926 0.062911115962235489 0 0.011155669069439721 0.063932561415799283 0 0.012448631534034107 0.065355256222136907 0 0.012532622679595868 0.064389504736120207 0 0.011155669069439721 0.063932561415799283 0 0.012532622679595868 0.064389504736120207 0 0.012289600362455459 0.063917713860986894 0 0.010586484338361291 0.063011124728929155 0 0.012277423073668466 0.066581590454589029 0 0.011155669069439721 0.063932561415799283 0 0.01168837410325561 0.063957196336804911 0 0.012289600362455459 0.063917713860986894 0 0.012532622679595868 0.064389504736120207 0 0.012289600362455459 0.063917713860986894 0 0.01325896003984086 0.064072329216822474 0 0.012289600362455459 0.063917713860986894 0 0.012889623348461511 0.063479408312060351 0 0.012148628403871499 0.063584581921333233 0 0.01168837410325561 0.063957196336804911 0 0.012289600362455459 0.063917713860986894 0 0.012148628403871499 0.063584581921333233 0 0.01325896003984086 0.064072329216822474 0 0.014092254167276901 0.063367578146680731 0 0.012889623348461511 0.063479408312060351 0 0.012289600362455459 0.063917713860986894 0 0.01325896003984086 0.064072329216822474 0 0.012889623348461511 0.063479408312060351 0 0.012448631534034107 0.065355256222136907 0 0.012532622679595868 0.064389504736120207 0 0.013521324683393877 0.064972214109704551 0 0.012532622679595868 0.064389504736120207 0 0.01325896003984086 0.064072329216822474 0 0.013521324683393877 0.064972214109704551 0 0.01325896003984086 0.064072329216822474 0 0.013521324683393877 0.064972214109704551 0 0.014714516171139506 0.064174836198173546 0 0.013521324683393877 0.064972214109704551 0 0.014714516171139506 0.064174836198173546 0 0.014828534642906809 0.065345563875108412 0 0.014714516171139506 0.064174836198173546 0 0.015046140828401784 0.063333563634519155 0 0.014092254167276901 0.063367578146680731 0 0.01325896003984086 0.064072329216822474 0 0.014714516171139506 0.064174836198173546 0 0.014092254167276901 0.063367578146680731 0 0.014714516171139506 0.064174836198173546 0 0.016233653531406596 0.064473989597305562 0 0.015861488033939327 0.063540012535475365 0 0.014714516171139506 0.064174836198173546 0 0.015861488033939327 0.063540012535475365 0 0.015046140828401784 0.063333563634519155 0 0.014714516171139506 0.064174836198173546 0 0.014828534642906809 0.065345563875108412 0 0.016233653531406596 0.064473989597305562 0 0.014893443440295397 0.049290120187440875 0 0.014266715874610576 0.049622975615937467 0 0.014429111218527102 0.032934332576322466 0 0.014124436508229775 0.031793433854003378 0 0.013274947339802645 0.032881604932654553 0 0.014429111218527102 0.032934332576322466 0 0.013274947339802645 0.032881604932654553 0 0.012906924666528255 0.034603114599642479 0 0.013126286018520355 0.047729802889085654 0 0.014893443440295397 0.049290120187440875 0 0.013403405416609074 0.066179448978874691 0 0.013521324683393877 0.064972214109704551 0 0.014828534642906809 0.065345563875108412 0 0.014281428138197615 0.031242482446171144 0 0.015087570790873214 0.031546709195774021 0 0.014124436508229775 0.031793433854003378 0 0.014429111218527102 0.032934332576322466 0 0.015087570790873214 0.031546709195774021 0 0.014124436508229775 0.031793433854003378 0 0.015710827564005748 0.031952450461542707 0 0.014429111218527102 0.032934332576322466 0 0.015087570790873214 0.031546709195774021 0 0.014496445665133568 0.029999826699428685 0 0.015710827564005748 0.031952450461542707 0 0.015087570790873214 0.031546709195774021 0 0.013578986823847618 0.030726301281150035 0 0.014907798284559163 0.031415578989703555 0 0.013812097951038898 0.031386267393033747 0 0.014281428138197615 0.031242482446171144 0 0.014124436508229775 0.031793433854003378 0 0.013812097951038898 0.031386267393033747 0 0.014124436508229775 0.031793433854003378 0 0.013523054112373083 0.0315864733511413 0 0.014124436508229775 0.031793433854003378 0 0.013523054112373083 0.0315864733511413 0 0.013274947339802645 0.032881604932654553 0 0.013523054112373083 0.0315864733511413 0 0.013897744533121464 0.031305519798130871 0 0.013849948830025754 0.030944778872098861 0 0.013486575910443022 0.031546640350032434 0 0.012802694297230242 0.031931111355813557 0 0.013791459654526954 0.03141928880432291 0 0.013812097951038898 0.031386267393033747 0 0.013523054112373083 0.0315864733511413 0 0.013791459654526954 0.03141928880432291 0 0.013523054112373083 0.0315864733511413 0 0.013897744533121464 0.031305519798130871 0 0.013897744533121464 0.031305519798130871 0 0.014214987781070478 0.030941100901804224 0 0.014119910009519671 0.03136738967349572 0 0.013791459654526954 0.03141928880432291 0 0.013897744533121464 0.031305519798130871 0 0.014119910009519671 0.03136738967349572 0 0.013897744533121464 0.031305519798130871 0 0.013849948830025754 0.030944778872098861 0 0.014214987781070478 0.030941100901804224 0 0.01448507844265118 0.029930788506126488 0 0.015252856425038014 0.033989916167660353 0 0.012802694297230242 0.031931111355813557 0 0.015252856425038014 0.033989916167660353 0 0.013849948830025754 0.030944778872098861 0 0.014214987781070478 0.030941100901804224 0 0.014259125205871142 0.030563531880597263 0 0.012077319827869739 0.032795360534992643 0 0.011884018268367325 0.033980863121834438 0 0.010649555385806728 0.034261741024359978 0 0.012077319827869739 0.032795360534992643 0 0.013274947339802645 0.032881604932654553 0 0.011884018268367325 0.033980863121834438 0 0.013523054112373083 0.0315864733511413 0 0.012077319827869739 0.032795360534992643 0 0.013274947339802645 0.032881604932654553 0 0.013274947339802645 0.032881604932654553 0 0.012906924666528255 0.034603114599642479 0 0.011884018268367325 0.033980863121834438 0 0.016233653531406596 0.064473989597305562 0 0.015861488033939327 0.063540012535475365 0 0.016665698729944799 0.063514617662545972 0 0.015861488033939327 0.063540012535475365 0 0.016665698729944799 0.063514617662545972 0 0.016527812839358284 0.062900394775769794 0 0.016233653531406596 0.064473989597305562 0 0.016665698729944799 0.063514617662545972 0 0.017532997751536522 0.063592612731163539 0 0.016665698729944799 0.063514617662545972 0 0.017532997751536522 0.063592612731163539 0 0.01711036020717472 0.062983948307257467 0 0.014266715874610576 0.049622975615937467 0 0.01509770773431127 0.049756638136804129 0 0.011884018268367325 0.033980863121834438 0 0.010649555385806728 0.034261741024359978 0 0.010482000758999629 0.036498955062354829 0 0.012906924666528255 0.034603114599642479 0 0.011884018268367325 0.033980863121834438 0 0.010482000758999629 0.036498955062354829 0 0.015252856425038014 0.033989916167660353 0 0.01509770773431127 0.049756638136804129 0 0.02091222707318223 0.040495155685693243 0 0.017878233587844853 0.043720384023919458 0 0.020253280792462514 0.047782014143671794 0 0.01434575576154856 0.030240568142984838 0 0.014867378363502619 0.029810186959635363 0 0.014486418991449096 0.030850039516220701 0 0.032832024505557854 0.019423910649697045 0 0.032991708287473165 0.019462705043502764 0 0.032728341081407271 0.019568275098663542 0 0.024268150186496015 0.031484799744435979 0 0.023746131981312261 0.023796056747017114 0 0.015252856425038014 0.033989916167660353 0 0.024268150186496015 0.031484799744435979 0 0.024268150186496015 0.031484799744435979 0 0.022667827252495758 0.047115596579882103 0 0.017878233587844853 0.043720384023919458 0 0.01817163267008513 0.049139109528427767 0 0.016672748196033035 0.051872660599900394 0 0.029973667786897567 0.03463300306752385 0 0.026613717854092694 0.038240400577150523 0 0.029205124438477094 0.039685548987457075 0 0.017878233587844853 0.043720384023919458 0 0.020253280792462514 0.047782014143671794 0 0.01817163267008513 0.049139109528427767 0 0.024268150186496015 0.031484799744435979 0 0.031496527813261191 0.026649754476745523 0 0.01509770773431127 0.049756638136804129 0 0.017848382625510875 0.048455622085125737 0 0.033334190732293885 0.019315586850328335 0 0.033184140567491242 0.019271666224950097 0 0.032991708287473165 0.019462705043502764 0 0.032832024505557854 0.019423910649697045 0 0.033184140567491242 0.019271666224950097 0 0.032991708287473165 0.019462705043502764 0 0.033033885087107438 0.019496082599234132 0 0.032991708287473165 0.019462705043502764 0 0.032806680131866439 0.01959058197269764 0 0.032991708287473165 0.019462705043502764 0 0.032728341081407271 0.019568275098663542 0 0.032806680131866439 0.01959058197269764 0 0.014214987781070478 0.030941100901804224 0 0.01434575576154856 0.030240568142984838 0 0.014486418991449096 0.030850039516220701 0 0.032728341081407271 0.019568275098663542 0 0.032656272447170911 0.019640562025968158 0 0.032806680131866439 0.01959058197269764 0 0.023746131981312261 0.023796056747017114 0 0.023318270450504858 0.026074559300668404 0 0.032725941216918943 0.019617864583671801 0 0.032656272447170911 0.019640562025968158 0 0.032806680131866439 0.01959058197269764 0 0.014214987781070478 0.030941100901804224 0 0.014486418991449096 0.030850039516220701 0 0.014119910009519671 0.03136738967349572 0 0.033033885087107438 0.019496082599234132 0 0.032682529293761843 0.019606425666949978 0 0.032806680131866439 0.01959058197269764 0 0.032682529293761843 0.019606425666949978 0 0.032725941216918943 0.019617864583671801 0 0.032806680131866439 0.01959058197269764 0 0.027673920998415924 0.052541435871024403 0 0.029283815442631676 0.051831517817197983 0 0.028931472141701844 0.053926167324210281 0 0.023047706988176889 0.056557671573855807 0 0.024520286723040314 0.058139585991658936 0 0.017382060252436857 0.060948780984636852 0 0.0170303997213711 0.060999384720456823 0 0.017456692609409036 0.060897437974904503 0 0.017382060252436857 0.060948780984636852 0 0.017278837876247174 0.060711646193223757 0 0.017456692609409036 0.060897437974904503 0 0.017382060252436857 0.060948780984636852 0 0.017278837876247174 0.060711646193223757 0 0.017135480675062684 0.060908257772993961 0 0.019724342056633992 0.061281925024786799 0 0.024520286723040314 0.058139585991658936 0 0.017382060252436857 0.060948780984636852 0 0.017749314352761298 0.060871213384780798 0 0.0170303997213711 0.060999384720456823 0 0.017382060252436857 0.060948780984636852 0 0.017749314352761298 0.060871213384780798 0 0.017135480675062684 0.060908257772993961 0 0.017749314352761298 0.060871213384780798 0 0.0170303997213711 0.060999384720456823 0 0.017193541271428959 0.058832425876143034 0 0.0170303997213711 0.060999384720456823 0 0.016703417113901945 0.05854840589424052 0 0.017193541271428959 0.058832425876143034 0 0.023047706988176889 0.056557671573855807 0 0.023816053723726072 0.052249129184279167 0 0.027447735460264109 0.050791772916594834 0 0.029283815442631676 0.051831517817197983 0 0.029627049450436625 0.049722675791827257 0 0.027447735460264109 0.050791772916594834 0 0.027673920998415924 0.052541435871024403 0 0.029283815442631676 0.051831517817197983 0 0.029518009498518172 0.039185023499054894 0 0.023816053723726072 0.052249129184279167 0 0.027177191324703937 0.048312089515583689 0 0.027447735460264109 0.050791772916594834 0 0.029627049450436625 0.049722675791827257 0 0.023211671682689838 0.041817656081550365 0 0.026613717854092694 0.038240400577150523 0 0.029205124438477094 0.039685548987457075 0 0.023211671682689838 0.041817656081550365 0 0.029205124438477094 0.039685548987457075 0 0.028377413680187157 0.04470788976764245 0 0.029518009498518172 0.039185023499054894 0 0.031496527813261191 0.026649754476745523 0 0.01817163267008513 0.049139109528427767 0 0.016672748196033035 0.051872660599900394 0 0.019111275050359117 0.055785631634986579 0 0.022667827252495758 0.047115596579882103 0 0.023816053723726072 0.052249129184279167 0 0.01509770773431127 0.049756638136804129 0 0.018603393075760991 0.060291803951377981 0 0.016672748196033035 0.051872660599900394 0 0.019111275050359117 0.055785631634986579 0 0.016002719848034187 0.058350024989935662 0 0.020091581478112356 0.047915551564853831 0 0.01817163267008513 0.049139109528427767 0 0.019111275050359117 0.055785631634986579 0 0.017749314352761298 0.060871213384780798 0 0.017692359361100227 0.062418367529588382 0 0.017153435638163395 0.06168737338094725 0 0.017749314352761298 0.060871213384780798 0 0.019111275050359117 0.055785631634986579 0 0.017193541271428959 0.058832425876143034 0 0.017863168585573814 0.06023323610829745 0 0.018603393075760991 0.060291803951377981 0 0.019111275050359117 0.055785631634986579 0 0.016002719848034187 0.058350024989935662 0 0.017193541271428959 0.058832425876143034 0 0.023816053723726072 0.052249129184279167 0 0.021261134963083628 0.053084185850961377 0 0.017153435638163395 0.06168737338094725 0 0.016530949509725727 0.062115773484728173 0 0.016714710797108217 0.061288532097918853 0 0.017153435638163395 0.06168737338094725 0 0.017002578213508569 0.06239613231246785 0 0.016530949509725727 0.062115773484728173 0 0.017692359361100227 0.062418367529588382 0 0.017153435638163395 0.06168737338094725 0 0.017002578213508569 0.06239613231246785 0 0.017692359361100227 0.062418367529588382 0 0.017002578213508569 0.06239613231246785 0 0.01711036020717472 0.062983948307257467 0 0.017532997751536522 0.063592612731163539 0 0.017692359361100227 0.062418367529588382 0 0.01711036020717472 0.062983948307257467 0 0.017002578213508569 0.06239613231246785 0 0.01711036020717472 0.062983948307257467 0 0.016527812839358284 0.062900394775769794 0 0.017002578213508569 0.06239613231246785 0 0.016527812839358284 0.062900394775769794 0 0.016530949509725727 0.062115773484728173 0 0.016665698729944799 0.063514617662545972 0 0.01711036020717472 0.062983948307257467 0 0.016527812839358284 0.062900394775769794 0 0.015861488033939327 0.063540012535475365 0 0.016527812839358284 0.062900394775769794 0 0.015842428166056948 0.062671752897426755 0 0.016527812839358284 0.062900394775769794 0 0.015842428166056948 0.062671752897426755 0 0.016530949509725727 0.062115773484728173 0 0.016530949509725727 0.062115773484728173 0 0.015953426138090622 0.061834003019568887 0 0.016714710797108217 0.061288532097918853 0 0.015842428166056948 0.062671752897426755 0 0.016530949509725727 0.062115773484728173 0 0.015953426138090622 0.061834003019568887 0 0.015953426138090622 0.061834003019568887 0 0.016714710797108217 0.061288532097918853 0 0.016017660528641169 0.061234192565093146 0 0.016714710797108217 0.061288532097918853 0 0.016502091770040458 0.060962669782220598 0 0.016017660528641169 0.061234192565093146 0 0.016502091770040458 0.060962669782220598 0 0.016095309742456477 0.060875635389992216 0 0.016017660528641169 0.061234192565093146 0 0.017153435638163395 0.06168737338094725 0 0.016714710797108217 0.061288532097918853 0 0.017222909020366595 0.061147996637992766 0 0.017749314352761298 0.060871213384780798 0 0.017153435638163395 0.06168737338094725 0 0.017222909020366595 0.061147996637992766 0 0.017749314352761298 0.060871213384780798 0 0.017222909020366595 0.061147996637992766 0 0.017135480675062684 0.060908257772993961 0 0.016714710797108217 0.061288532097918853 0 0.017135480675062684 0.060908257772993961 0 0.016502091770040458 0.060962669782220598 0 0.016714710797108217 0.061288532097918853 0 0.017222909020366595 0.061147996637992766 0 0.017135480675062684 0.060908257772993961 0 0.019724342056633992 0.061281925024786799 0 0.018317480513997599 0.061018303755361561 0 0.017278837876247174 0.060711646193223757 0 0.017135480675062684 0.060908257772993961 0 0.016542284035049249 0.060556079639432513 0 0.016542284035049249 0.060556079639432513 0 0.016502091770040458 0.060962669782220598 0 0.016095309742456477 0.060875635389992216 0 0.017135480675062684 0.060908257772993961 0 0.016542284035049249 0.060556079639432513 0 0.016502091770040458 0.060962669782220598 0 0.018317480513997599 0.061018303755361561 0 0.0160944506339212 0.060808340901364021 0 0.019845775293845201 0.061665955215381117 0 0.015846018098225428 0.060659484504257906 0 0.016595772671400475 0.060057889704069799 0 0.016542284035049249 0.060556079639432513 0 0.016095309742456477 0.060875635389992216 0 0.015846018098225428 0.060659484504257906 0 0.016095309742456477 0.060875635389992216 0 0.015846018098225428 0.060659484504257906 0 0.01548031866772236 0.061153239916919067 0 0.015846018098225428 0.060659484504257906 0 0.014580947143364529 0.061254531655335953 0 0.013824652412224201 0.06056699244025851 0 0.015846018098225428 0.060659484504257906 0 0.013824652412224201 0.06056699244025851 0 0.016595772671400475 0.060057889704069799 0 0.015419214301823643 0.061296549663973902 0 0.018253949095478211 0.06045352867014963 0 0.015846018098225428 0.060659484504257906 0 0.014580947143364529 0.061254531655335953 0 0.01548031866772236 0.061153239916919067 0 0.014580947143364529 0.061254531655335953 0 0.014851361572057556 0.061634031105365188 0 0.01548031866772236 0.061153239916919067 0 0.014580947143364529 0.061254531655335953 0 0.014851361572057556 0.061634031105365188 0 0.014000649478214198 0.061993092018901977 0 0.014851361572057556 0.061634031105365188 0 0.015529882508589407 0.061580073558373347 0 0.01548031866772236 0.061153239916919067 0 0.015529882508589407 0.061580073558373347 0 0.01548031866772236 0.061153239916919067 0 0.016017660528641169 0.061234192565093146 0 0.016095309742456477 0.060875635389992216 0 0.01548031866772236 0.061153239916919067 0 0.016017660528641169 0.061234192565093146 0 0.015953426138090622 0.061834003019568887 0 0.015529882508589407 0.061580073558373347 0 0.016017660528641169 0.061234192565093146 0 0.014851361572057556 0.061634031105365188 0 0.015529882508589407 0.061580073558373347 0 0.015030552838095911 0.062401841026056448 0 0.015953426138090622 0.061834003019568887 0 0.015529882508589407 0.061580073558373347 0 0.015030552838095911 0.062401841026056448 0 0.015842428166056948 0.062671752897426755 0 0.015953426138090622 0.061834003019568887 0 0.015030552838095911 0.062401841026056448 0 0.015861488033939327 0.063540012535475365 0 0.015842428166056948 0.062671752897426755 0 0.015046140828401784 0.063333563634519155 0 0.015842428166056948 0.062671752897426755 0 0.015030552838095911 0.062401841026056448 0 0.015046140828401784 0.063333563634519155 0 0.015030552838095911 0.062401841026056448 0 0.014092254167276901 0.063367578146680731 0 0.013643487872016183 0.06273630917854503 0 0.015030552838095911 0.062401841026056448 0 0.015046140828401784 0.063333563634519155 0 0.014092254167276901 0.063367578146680731 0 0.015030552838095911 0.062401841026056448 0 0.014000649478214198 0.061993092018901977 0 0.013643487872016183 0.06273630917854503 0 0.014851361572057556 0.061634031105365188 0 0.015030552838095911 0.062401841026056448 0 0.014000649478214198 0.061993092018901977 0 0.014000649478214198 0.061993092018901977 0 0.013643487872016183 0.06273630917854503 0 0.012788837960095703 0.062135977588493041 0 0.014092254167276901 0.063367578146680731 0 0.013643487872016183 0.06273630917854503 0 0.012889623348461511 0.063479408312060351 0 0.013643487872016183 0.06273630917854503 0 0.012889623348461511 0.063479408312060351 0 0.012384150026133377 0.062978021424409655 0 0.012889623348461511 0.063479408312060351 0 0.012148628403871499 0.063584581921333233 0 0.012384150026133377 0.062978021424409655 0 0.012148628403871499 0.063584581921333233 0 0.012384150026133377 0.062978021424409655 0 0.011635602253199321 0.063504808490689402 0 0.012384150026133377 0.062978021424409655 0 0.012056074557499264 0.062316898037572385 0 0.011678899228957144 0.062883729216251155 0 0.013643487872016183 0.06273630917854503 0 0.012384150026133377 0.062978021424409655 0 0.012788837960095703 0.062135977588493041 0 0.012384150026133377 0.062978021424409655 0 0.012788837960095703 0.062135977588493041 0 0.012056074557499264 0.062316898037572385 0 0.012788837960095703 0.062135977588493041 0 0.012056074557499264 0.062316898037572385 0 0.012407888615574809 0.061910112491229276 0 0.012407888615574809 0.061910112491229276 0 0.012770864427801799 0.061504315016158155 0 0.01200551134147208 0.061689744306970176 0 0.012056074557499264 0.062316898037572385 0 0.012407888615574809 0.061910112491229276 0 0.01200551134147208 0.061689744306970176 0 0.012087024208742884 0.061240720160286088 0 0.012770864427801799 0.061504315016158155 0 0.013824652412224201 0.06056699244025851 0 0.012087024208742884 0.061240720160286088 0 0.012770864427801799 0.061504315016158155 0 0.01200551134147208 0.061689744306970176 0 0.012788837960095703 0.062135977588493041 0 0.012770864427801799 0.061504315016158155 0 0.013543059615037769 0.061473529161961471 0 0.012788837960095703 0.062135977588493041 0 0.012407888615574809 0.061910112491229276 0 0.012770864427801799 0.061504315016158155 0 0.012770864427801799 0.061504315016158155 0 0.013543059615037769 0.061473529161961471 0 0.013824652412224201 0.06056699244025851 0 0.014000649478214198 0.061993092018901977 0 0.012788837960095703 0.062135977588493041 0 0.013543059615037769 0.061473529161961471 0 0.014580947143364529 0.061254531655335953 0 0.014000649478214198 0.061993092018901977 0 0.013543059615037769 0.061473529161961471 0 0.014580947143364529 0.061254531655335953 0 0.013543059615037769 0.061473529161961471 0 0.013824652412224201 0.06056699244025851 0 0.014159672419637148 0.062971231523708884 0 0.014933798551327107 0.060823448573582968 0 0.01462277449678229 0.060543160171972463 0 0.012506037924485049 0.061278335411312695 0 0.013120329274940272 0.059338835639704254 0 0.012327389475579436 0.05993159876223729 0 0.012987377764708622 0.061882638670179763 0 0.015419214301823643 0.061296549663973902 0 0.014159672419637148 0.062971231523708884 0 0.016974744762920286 0.06193628389469024 0 0.014933798551327107 0.060823448573582968 0 0.012987377764708622 0.061882638670179763 0 0.013889494082794544 0.059918581849634556 0 0.014933798551327107 0.060823448573582968 0 0.01462277449678229 0.060543160171972463 0 0.01505844593107337 0.058072047101879798 0 0.013120329274940272 0.059338835639704254 0 0.012690418106791427 0.059019274975405996 0 0.012798361594114526 0.058282008839226011 0 0.013120329274940272 0.059338835639704254 0 0.012690418106791427 0.059019274975405996 0 0.012577513646569029 0.05935990635334417 0 0.014933798551327107 0.060823448573582968 0 0.016331125591611394 0.060603944511074329 0 0.015769209460803176 0.059655835753770099 0 0.016974744762920286 0.06193628389469024 0 0.014933798551327107 0.060823448573582968 0 0.016331125591611394 0.060603944511074329 0 0.016594362550210257 0.059814366035167446 0 0.017582311387693828 0.058959801126606017 0 0.017663679688072236 0.060491590587711003 0 0.016974744762920286 0.06193628389469024 0 0.016331125591611394 0.060603944511074329 0 0.017663679688072236 0.060491590587711003 0 0.016331125591611394 0.060603944511074329 0 0.016594362550210257 0.059814366035167446 0 0.017663679688072236 0.060491590587711003 0 0.016331125591611394 0.060603944511074329 0 0.016594362550210257 0.059814366035167446 0 0.015769209460803176 0.059655835753770099 0 0.016594362550210257 0.059814366035167446 0 0.015769209460803176 0.059655835753770099 0 0.016278749121688973 0.058681920243785539 0 0.016594362550210257 0.059814366035167446 0 0.016278749121688973 0.058681920243785539 0 0.017582311387693828 0.058959801126606017 0 0.016278749121688973 0.058681920243785539 0 0.016751748117176831 0.057824262989485724 0 0.017582311387693828 0.058959801126606017 0 0.016278749121688973 0.058681920243785539 0 0.015856411665999045 0.057690663996216224 0 0.016751748117176831 0.057824262989485724 0 0.016278749121688973 0.058681920243785539 0 0.015089232455400869 0.058180556819616966 0 0.015856411665999045 0.057690663996216224 0 0.013889494082794544 0.059918581849634556 0 0.014722531457211072 0.058020495104334484 0 0.013120329274940272 0.059338835639704254 0 0.013860416395611029 0.057491254132989 0 0.012798361594114526 0.058282008839226011 0 0.015025075471057433 0.060736249767108952 0 0.014722531457211072 0.058020495104334484 0 0.014933798551327107 0.060823448573582968 0 0.015769209460803176 0.059655835753770099 0 0.015089232455400869 0.058180556819616966 0 0.015769209460803176 0.059655835753770099 0 0.016278749121688973 0.058681920243785539 0 0.015089232455400869 0.058180556819616966 0 0.014805951191554312 0.05835599537512938 0 0.014887589946032294 0.056731827635240407 0 0.015092449398887837 0.056820909636933328 0 0.013860416395611029 0.057491254132989 0 0.013494794287042854 0.056751295603499612 0 0.012292125724282083 0.05728981489684204 0 0.014722531457211072 0.058020495104334484 0 0.014610314819081255 0.056467835325888283 0 0.013860416395611029 0.057491254132989 0 0.014259307876816358 0.05634359019406382 0 0.013494794287042854 0.056751295603499612 0 0.015089232455400869 0.058180556819616966 0 0.015310328120625256 0.0567067242828663 0 0.015856411665999045 0.057690663996216224 0 0.014722531457211072 0.058020495104334484 0 0.01518567393839223 0.056744286602316799 0 0.014610314819081255 0.056467835325888283 0 0.014959025271226809 0.055000359941349379 0 0.014259307876816358 0.05634359019406382 0 0.013836601501365616 0.055726647941949183 0 0.014958092206812124 0.05499988274122089 0 0.014887589946032294 0.056731827635240407 0 0.014959565263089109 0.054999939978081544 0 0.015411653145348699 0.055183355071974492 0 0.014259307876816358 0.05634359019406382 0 0.013494794287042854 0.056751295603499612 0 0.013836601501365616 0.055726647941949183 0 0.015310328120625256 0.0567067242828663 0 0.015411653145348699 0.055183355071974492 0 0.015837832831446432 0.056036156053422159 0 0.014887589946032294 0.056731827635240407 0 0.015092449398887837 0.056820909636933328 0 0.015411653145348699 0.055183355071974492 0 0.01518567393839223 0.056744286602316799 0 0.015405355889632679 0.055381846510369703 0 0.015411653145348699 0.055183355071974492 0 0.016784006871366882 0.056126561133178633 0 0.017883566795663323 0.054999897063863636 0 0.014959565263089109 0.054999939978081544 0 0.015411653145348699 0.055183355071974492 0 0.017883566795663323 0.054999897063863636 0 0.015411653145348699 0.055183355071974492 0 0.015837832831446432 0.056036156053422159 0 0.016784006871366882 0.056126561133178633 0 0.015310328120625256 0.0567067242828663 0 0.015837832831446432 0.056036156053422159 0 0.016226600979902656 0.056878371303131038 0 0.015837832831446432 0.056036156053422159 0 0.016784006871366882 0.056126561133178633 0 0.016226600979902656 0.056878371303131038 0 0.016784006871366882 0.056126561133178633 0 0.017154510681169084 0.057015607376987541 0 0.016226600979902656 0.056878371303131038 0 0.017154510681169084 0.057015607376987541 0 0.016226600979902656 0.056878371303131038 0 0.016751748117176831 0.057824262989485724 0 0.015310328120625256 0.0567067242828663 0 0.016226600979902656 0.056878371303131038 0 0.015856411665999045 0.057690663996216224 0 0.016226600979902656 0.056878371303131038 0 0.015856411665999045 0.057690663996216224 0 0.016751748117176831 0.057824262989485724 0 0.017154510681169084 0.057015607376987541 0 0.016751748117176831 0.057824262989485724 0 0.018087880892699134 0.057705285872370865 0 0.018087880892699134 0.057705285872370865 0 0.017925463203509882 0.056531395597702934 0 0.019794085947546343 0.05677788939933285 0 0.017154510681169084 0.057015607376987541 0 0.018087880892699134 0.057705285872370865 0 0.017925463203509882 0.056531395597702934 0 0.016784006871366882 0.056126561133178633 0 0.017154510681169084 0.057015607376987541 0 0.017925463203509882 0.056531395597702934 0 0.016784006871366882 0.056126561133178633 0 0.017925463203509882 0.056531395597702934 0 0.017883566795663323 0.054999897063863636 0 0.017925463203509882 0.056531395597702934 0 0.017883566795663323 0.054999897063863636 0 0.019794085947546343 0.05677788939933285 0 0.017883566795663323 0.054999897063863636 0 0.019794085947546343 0.05677788939933285 0 0.020807591059410453 0.054999861597478029 0 0.019794085947546343 0.05677788939933285 0 0.019163593201886382 0.058598096732123565 0 0.020578024028944496 0.058409071149150615 0 0.018087880892699134 0.057705285872370865 0 0.019794085947546343 0.05677788939933285 0 0.019163593201886382 0.058598096732123565 0 0.019163593201886382 0.058598096732123565 0 0.01984870470886731 0.059538861091905794 0 0.020578024028944496 0.058409071149150615 0 0.01984870470886731 0.059538861091905794 0 0.020939669890230127 0.059342442469324866 0 0.020578024028944496 0.058409071149150615 0 0.019163593201886382 0.058598096732123565 0 0.018541254662516122 0.059622391176750736 0 0.01984870470886731 0.059538861091905794 0 0.018087880892699134 0.057705285872370865 0 0.019163593201886382 0.058598096732123565 0 0.017582311387693828 0.058959801126606017 0 0.016751748117176831 0.057824262989485724 0 0.018087880892699134 0.057705285872370865 0 0.017582311387693828 0.058959801126606017 0 0.019163593201886382 0.058598096732123565 0 0.017582311387693828 0.058959801126606017 0 0.018541254662516122 0.059622391176750736 0 0.016974744762920286 0.06193628389469024 0 0.017663679688072236 0.060491590587711003 0 0.019863216429174744 0.060807441313386279 0 0.018541254662516122 0.059622391176750736 0 0.017663679688072236 0.060491590587711003 0 0.018980326656774221 0.06011410801605143 0 0.017663679688072236 0.060491590587711003 0 0.019863216429174744 0.060807441313386279 0 0.018980326656774221 0.06011410801605143 0 0.017582311387693828 0.058959801126606017 0 0.018541254662516122 0.059622391176750736 0 0.017663679688072236 0.060491590587711003 0 0.019863216429174744 0.060807441313386279 0 0.01984870470886731 0.059538861091905794 0 0.020939669890230127 0.059342442469324866 0 0.019863216429174744 0.060807441313386279 0 0.01984870470886731 0.059538861091905794 0 0.018980326656774221 0.06011410801605143 0 0.018541254662516122 0.059622391176750736 0 0.01984870470886731 0.059538861091905794 0 0.018980326656774221 0.06011410801605143 0 0.019845775293845201 0.061665955215381117 0 0.016595772671400475 0.060057889704069799 0 0.022336698663666117 0.059473501693129455 0 0.018253949095478211 0.06045352867014963 0 0.022038404559103015 0.059493295136013681 0 0.019863216429174744 0.060807441313386279 0 0.022336698663666117 0.059473501693129455 0 0.020939669890230127 0.059342442469324866 0 0.023499350788822166 0.06143490737713822 0 0.022336698663666117 0.059473501693129455 0 0.023667391740336725 0.059449079665620658 0 0.023499350788822166 0.06143490737713822 0 0.019845775293845201 0.061665955215381117 0 0.022336698663666117 0.059473501693129455 0 0.022336698663666117 0.059473501693129455 0 0.023327606936415658 0.058394487472623172 0 0.021908556035162351 0.058410505653506993 0 0.022336698663666117 0.059473501693129455 0 0.023327606936415658 0.058394487472623172 0 0.023667391740336725 0.059449079665620658 0 0.023327606936415658 0.058394487472623172 0 0.021908556035162351 0.058410505653506993 0 0.022842052184343292 0.057310566218510176 0 0.021908556035162351 0.058410505653506993 0 0.020578024028944496 0.058409071149150615 0 0.021449921451691702 0.057383817003243236 0 0.022336698663666117 0.059473501693129455 0 0.021908556035162351 0.058410505653506993 0 0.020939669890230127 0.059342442469324866 0 0.021908556035162351 0.058410505653506993 0 0.020939669890230127 0.059342442469324866 0 0.020578024028944496 0.058409071149150615 0 0.019794085947546343 0.05677788939933285 0 0.021449921451691702 0.057383817003243236 0 0.022182884406895049 0.056083766951641079 0 0.019794085947546343 0.05677788939933285 0 0.020578024028944496 0.058409071149150615 0 0.021449921451691702 0.057383817003243236 0 0.021908556035162351 0.058410505653506993 0 0.021449921451691702 0.057383817003243236 0 0.022842052184343292 0.057310566218510176 0 0.021449921451691702 0.057383817003243236 0 0.022182884406895049 0.056083766951641079 0 0.022842052184343292 0.057310566218510176 0 0.019794085947546343 0.05677788939933285 0 0.020807591059410453 0.054999861597478029 0 0.022182884406895049 0.056083766951641079 0 0.020807591059410453 0.054999861597478029 0 0.022182884406895049 0.056083766951641079 0 0.023731943801657072 0.054999866572066743 0 0.022182884406895049 0.056083766951641079 0 0.023731943801657072 0.054999866572066743 0 0.024285545935889989 0.056380708934675804 0 0.022182884406895049 0.056083766951641079 0 0.022842052184343292 0.057310566218510176 0 0.024285545935889989 0.056380708934675804 0 0.023327606936415658 0.058394487472623172 0 0.022842052184343292 0.057310566218510176 0 0.024512214039283491 0.057630304245737035 0 0.022842052184343292 0.057310566218510176 0 0.024512214039283491 0.057630304245737035 0 0.024285545935889989 0.056380708934675804 0 0.024512214039283491 0.057630304245737035 0 0.024285545935889989 0.056380708934675804 0 0.025902446438747621 0.05693149677986982 0 0.024285545935889989 0.056380708934675804 0 0.025376562311404009 0.05499997676854082 0 0.025902446438747621 0.05693149677986982 0 0.023731943801657072 0.054999866572066743 0 0.024285545935889989 0.056380708934675804 0 0.025376562311404009 0.05499997676854082 0 0.028084603546180538 0.056251297966128801 0 0.026656411827442848 0.054999964136328662 0 0.026585084916439322 0.057176491973736331 0 0.025434324925351033 0.055185361637098571 0 0.026191500396238149 0.056850352414535378 0 0.025377421339861643 0.055000009833602766 0 0.026656411827442848 0.054999964136328662 0 0.026585084916439322 0.057176491973736331 0 0.027390958487592893 0.059640251669982977 0 0.026191500396238149 0.056850352414535378 0 0.024512214039283491 0.057630304245737035 0 0.025902446438747621 0.05693149677986982 0 0.025655231426402848 0.058455450944276795 0 0.027718024967299863 0.058986037218377745 0 0.028174513869091301 0.058585356232226056 0 0.026585084916439322 0.057176491973736331 0 0.026826750476641122 0.058840768389814543 0 0.025902446438747621 0.05693149677986982 0 0.025655231426402848 0.058455450944276795 0 0.026826750476641122 0.058840768389814543 0 0.026193661433413919 0.059305841788477767 0 0.025655231426402848 0.058455450944276795 0 0.026826750476641122 0.058840768389814543 0 0.026193661433413919 0.059305841788477767 0 0.026602066523227486 0.059911901317446468 0 0.025494225826039971 0.059405131438605527 0 0.025655231426402848 0.058455450944276795 0 0.02465405942581549 0.05878227669278116 0 0.026193661433413919 0.059305841788477767 0 0.025494225826039971 0.059405131438605527 0 0.025655231426402848 0.058455450944276795 0 0.024512214039283491 0.057630304245737035 0 0.025655231426402848 0.058455450944276795 0 0.02465405942581549 0.05878227669278116 0 0.023327606936415658 0.058394487472623172 0 0.024512214039283491 0.057630304245737035 0 0.02465405942581549 0.05878227669278116 0 0.023327606936415658 0.058394487472623172 0 0.02465405942581549 0.05878227669278116 0 0.023667391740336725 0.059449079665620658 0 0.025494225826039971 0.059405131438605527 0 0.02465405942581549 0.05878227669278116 0 0.024623502595333434 0.060125094557004148 0 0.023499350788822166 0.06143490737713822 0 0.024623502595333434 0.060125094557004148 0 0.025834652128840979 0.061050684123340297 0 0.023499350788822166 0.06143490737713822 0 0.024623502595333434 0.060125094557004148 0 0.023667391740336725 0.059449079665620658 0 0.025494225826039971 0.059405131438605527 0 0.024623502595333434 0.060125094557004148 0 0.025559692661678495 0.060209074617856746 0 0.02465405942581549 0.05878227669278116 0 0.024623502595333434 0.060125094557004148 0 0.023667391740336725 0.059449079665620658 0 0.025887153646895141 0.060622429683772162 0 0.025834652128840979 0.061050684123340297 0 0.025559692661678495 0.060209074617856746 0 0.027810958088745244 0.060799059131852642 0 0.025887153646895141 0.060622429683772162 0 0.026602066523227486 0.059911901317446468 0 0.027810958088745244 0.060799059131852642 0 0.025887153646895141 0.060622429683772162 0 0.025822145425227289 0.060999298570776773 0 0.024623502595333434 0.060125094557004148 0 0.025834652128840979 0.061050684123340297 0 0.025559692661678495 0.060209074617856746 0 0.029056460202264583 0.056337660366717487 0 0.024520286723040314 0.058139585991658936 0 0.024594346198918433 0.059214685710394815 0 0.024520286723040314 0.058139585991658936 0 0.025887153646895141 0.060622429683772162 0 0.026602066523227486 0.059911901317446468 0 0.02595446186121534 0.059877367099562241 0 0.026193661433413919 0.059305841788477767 0 0.026602066523227486 0.059911901317446468 0 0.02595446186121534 0.059877367099562241 0 0.026193661433413919 0.059305841788477767 0 0.025494225826039971 0.059405131438605527 0 0.02595446186121534 0.059877367099562241 0 0.025494225826039971 0.059405131438605527 0 0.025559692661678495 0.060209074617856746 0 0.02595446186121534 0.059877367099562241 0 0.025887153646895141 0.060622429683772162 0 0.025559692661678495 0.060209074617856746 0 0.02595446186121534 0.059877367099562241 0 0.00460404924713182 0.061054636260202688 0 0.0069601586431264463 0.06144108669002659 0 0.0059537170983820142 0.058970743586555935 0 0.0037283222082865257 0.062349214398284149 0 0.00460404924713182 0.061054636260202688 0 0.002487095998265259 0.061274537302464564 0 0.0037283222082865257 0.062349214398284149 0 0.0052644996671952875 0.062702311506984701 0 0.00460404924713182 0.061054636260202688 0 0.0052644996671952875 0.062702311506984701 0 0.0067196464697436044 0.062985990779101955 0 0.0069601586431264463 0.06144108669002659 0 0.0052644996671952875 0.062702311506984701 0 0.00460404924713182 0.061054636260202688 0 0.0069601586431264463 0.06144108669002659 0 0.00460404924713182 0.061054636260202688 0 0.002487095998265259 0.061274537302464564 0 0.0032913018937776794 0.059779563232895225 0 0.0023478867083109511 0.061213792076511897 0 0.00075840470851228211 0.059741479484237185 0 0.002487095998265259 0.061274537302464564 0 0.001371648330113166 0.060193401486533557 0 0.0032913018937776794 0.059779563232895225 0 0.002487095998265259 0.061274537302464564 0 -0.00046950523015220177 0.060919278004364599 0 0.00010056616883705465 0.059199426559166088 0 0.002487095998265259 0.061274537302464564 0 -0.00046950523015220177 0.060919278004364599 0 0.00023941834890075917 0.062728481509374046 0 0.002487095998265259 0.061274537302464564 0 0.0024943915187112557 0.063387174500728213 0 0.00023941834890075917 0.062728481509374046 0 0.0037283222082865257 0.062349214398284149 0 0.002487095998265259 0.061274537302464564 0 0.0024943915187112557 0.063387174500728213 0 0.0024943915187112557 0.063387174500728213 0 0.00023941834890075917 0.062728481509374046 0 0.0010565409672038549 0.063830355670236191 0 0.00023941834890075917 0.062728481509374046 0 -7.4800732891654919e-05 0.063747779670458984 0 -0.0015516056327710909 0.063614279234288834 0 0.00023941834890075917 0.062728481509374046 0 0.0010565409672038549 0.063830355670236191 0 -7.4800732891654919e-05 0.063747779670458984 0 0.0010565409672038549 0.063830355670236191 0 -7.4800732891654919e-05 0.063747779670458984 0 0.0001543371298473398 0.064853966637533914 0 -7.4800732891654919e-05 0.063747779670458984 0 0.0001543371298473398 0.064853966637533914 0 -0.0015516056327710909 0.063614279234288834 0 0.0001543371298473398 0.064853966637533914 0 0.00016206525538300798 0.065477055503251766 0 0.0026863298324711488 0.065611381285848314 0 0.00070233255010531954 0.065572991345010337 0 0.0023268445121410984 0.063193506586098916 0 0.0024943915187112557 0.063387174500728213 0 0.0010565409672038549 0.063830355670236191 0 0.0033138940521414339 0.065758209323375685 0 -0.0016709079857217192 0.062198054238228676 0 0.0023268445121410984 0.063193506586098916 0 0.0010565409672038549 0.063830355670236191 0 0.0001543371298473398 0.064853966637533914 0 0.0033138940521414339 0.065758209323375685 0 0.0024943915187112557 0.063387174500728213 0 0.0033138940521414339 0.065758209323375685 0 0.0043156644813838073 0.06383194940337715 0 0.0058604225750715491 0.065675733023282043 0 0.0033138940521414339 0.065758209323375685 0 0.0051220415489333189 0.064960548067334797 0 0.0067274036370109846 0.064287432150237633 0 0.0023268445121410984 0.063193506586098916 0 0.0033138940521414339 0.065758209323375685 0 0.0043156644813838073 0.06383194940337715 0 0.0051220415489333189 0.064960548067334797 0 0.0037283222082865257 0.062349214398284149 0 0.0024943915187112557 0.063387174500728213 0 0.0043156644813838073 0.06383194940337715 0 0.0037283222082865257 0.062349214398284149 0 0.0052644996671952875 0.062702311506984701 0 0.0043156644813838073 0.06383194940337715 0 0.0052644996671952875 0.062702311506984701 0 0.0058319681628732391 0.064048218758076966 0 0.0067196464697436044 0.062985990779101955 0 0.0052644996671952875 0.062702311506984701 0 0.0043156644813838073 0.06383194940337715 0 0.0058319681628732391 0.064048218758076966 0 0.0058319681628732391 0.064048218758076966 0 0.0071235917083799453 0.064104105769185862 0 0.0067196464697436044 0.062985990779101955 0 0.0058319681628732391 0.064048218758076966 0 0.0063316371244566284 0.064738021596241785 0 0.0071235917083799453 0.064104105769185862 0 0.0043156644813838073 0.06383194940337715 0 0.0058319681628732391 0.064048218758076966 0 0.0051220415489333189 0.064960548067334797 0 0.0058319681628732391 0.064048218758076966 0 0.0063316371244566284 0.064738021596241785 0 0.0051220415489333189 0.064960548067334797 0 0.0058604225750715491 0.065675733023282043 0 0.0063316371244566284 0.064738021596241785 0 0.0051220415489333189 0.064960548067334797 0 0.0058604225750715491 0.065675733023282043 0 0.0063316371244566284 0.064738021596241785 0 0.0071607905833425845 0.064832877475349229 0 0.008203882075010235 0.065353802863898552 0 0.0058604225750715491 0.065675733023282043 0 0.0071607905833425845 0.064832877475349229 0 0.0063316371244566284 0.064738021596241785 0 0.0071607905833425845 0.064832877475349229 0 0.0071235917083799453 0.064104105769185862 0 0.0071607905833425845 0.064832877475349229 0 0.0071235917083799453 0.064104105769185862 0 0.0081759909645625177 0.064293763800038151 0 0.008203882075010235 0.065353802863898552 0 0.0071607905833425845 0.064832877475349229 0 0.0081759909645625177 0.064293763800038151 0 0.008203882075010235 0.065353802863898552 0 0.0081759909645625177 0.064293763800038151 0 0.0093933932964223206 0.0638965415475269 0 0.010294012691298034 0.064819294880536227 0 0.008203882075010235 0.065353802863898552 0 0.0093933932964223206 0.0638965415475269 0 0.0093933932964223206 0.0638965415475269 0 0.0083217861061726552 0.062808815034352136 0 0.010064206013606388 0.062831985765293752 0 0.0083217861061726552 0.062808815034352136 0 0.010064206013606388 0.062831985765293752 0 0.010226052128887513 0.061818238522500936 0 0.0081759909645625177 0.064293763800038151 0 0.0093933932964223206 0.0638965415475269 0 0.0083217861061726552 0.062808815034352136 0 0.0071235917083799453 0.064104105769185862 0 0.0081759909645625177 0.064293763800038151 0 0.0083217861061726552 0.062808815034352136 0 0.0071235917083799453 0.064104105769185862 0 0.0083217861061726552 0.062808815034352136 0 0.0067196464697436044 0.062985990779101955 0 0.012384150026133377 0.062978021424409655 0 0.011635602253199321 0.063504808490689402 0 0.011678899228957144 0.062883729216251155 0 0.01168837410325561 0.063957196336804911 0 0.012148628403871499 0.063584581921333233 0 0.011635602253199321 0.063504808490689402 0 0.01168837410325561 0.063957196336804911 0 0.011635602253199321 0.063504808490689402 0 0.010895676462068706 0.063936974491027199 0 0.011635602253199321 0.063504808490689402 0 0.010895676462068706 0.063936974491027199 0 0.010973763107514257 0.063105834815015263 0 0.011635602253199321 0.063504808490689402 0 0.010973763107514257 0.063105834815015263 0 0.011678899228957144 0.062883729216251155 0 0.010294012691298034 0.064819294880536227 0 0.0093933932964223206 0.0638965415475269 0 0.010895676462068706 0.063936974491027199 0 0.0093933932964223206 0.0638965415475269 0 0.010895676462068706 0.063936974491027199 0 0.010973763107514257 0.063105834815015263 0 0.0093933932964223206 0.0638965415475269 0 0.010064206013606388 0.062831985765293752 0 0.010973763107514257 0.063105834815015263 0 0.010064206013606388 0.062831985765293752 0 0.011293804655292936 0.062490179836540941 0 0.011002184504693435 0.061922902962483935 0 0.010064206013606388 0.062831985765293752 0 0.010973763107514257 0.063105834815015263 0 0.011293804655292936 0.062490179836540941 0 0.010973763107514257 0.063105834815015263 0 0.011293804655292936 0.062490179836540941 0 0.011678899228957144 0.062883729216251155 0 0.012056074557499264 0.062316898037572385 0 0.011293804655292936 0.062490179836540941 0 0.011678899228957144 0.062883729216251155 0 0.012056074557499264 0.062316898037572385 0 0.011293804655292936 0.062490179836540941 0 0.011646321098595798 0.061966107840140901 0 0.012066304942448565 0.061386957634512351 0 0.01200551134147208 0.061689744306970176 0 0.011692897126354823 0.061515670773509203 0 0.012987377764708622 0.061882638670179763 0 0.012015356258799155 0.061811766044641739 0 0.012506037924485049 0.061278335411312695 0 0.011692897126354823 0.061515670773509203 0 0.011843387894986113 0.060650566688634132 0 0.012987377764708622 0.061882638670179763 0 0.012660847382739294 0.061705171452099847 0 0.012056074557499264 0.062316898037572385 0 0.01200551134147208 0.061689744306970176 0 0.011646321098595798 0.061966107840140901 0 0.01200551134147208 0.061689744306970176 0 0.011646321098595798 0.061966107840140901 0 0.011692897126354823 0.061515670773509203 0 0.011293804655292936 0.062490179836540941 0 0.011646321098595798 0.061966107840140901 0 0.011002184504693435 0.061922902962483935 0 0.011646321098595798 0.061966107840140901 0 0.011692897126354823 0.061515670773509203 0 0.011002184504693435 0.061922902962483935 0 0.011692897126354823 0.061515670773509203 0 0.011002184504693435 0.061922902962483935 0 0.010935231504032522 0.060871880049940173 0 0.011002184504693435 0.061922902962483935 0 0.010226052128887513 0.061818238522500936 0 0.010935231504032522 0.060871880049940173 0 0.010064206013606388 0.062831985765293752 0 0.011002184504693435 0.061922902962483935 0 0.010226052128887513 0.061818238522500936 0 0.010226052128887513 0.061818238522500936 0 0.010935231504032522 0.060871880049940173 0 0.0096562630213572788 0.060712671249792773 0 0.010935231504032522 0.060871880049940173 0 0.0096562630213572788 0.060712671249792773 0 0.010931867636273638 0.058979943482654104 0 0.010935231504032522 0.060871880049940173 0 0.011672369959199345 0.059896554990794396 0 0.010931867636273638 0.058979943482654104 0 0.0094652063359380693 0.061077842338561776 0 0.010801882177355462 0.059350097372351286 0 0.012506037924485049 0.061278335411312695 0 0.011843387894986113 0.060650566688634132 0 0.012327389475579436 0.05993159876223729 0 0.010935231504032522 0.060871880049940173 0 0.011843387894986113 0.060650566688634132 0 0.011672369959199345 0.059896554990794396 0 0.011692897126354823 0.061515670773509203 0 0.010935231504032522 0.060871880049940173 0 0.011843387894986113 0.060650566688634132 0 0.011843387894986113 0.060650566688634132 0 0.011672369959199345 0.059896554990794396 0 0.012327389475579436 0.05993159876223729 0 0.0083217861061726552 0.062808815034352136 0 0.0067196464697436044 0.062985990779101955 0 0.0069601586431264463 0.06144108669002659 0 0.0083217861061726552 0.062808815034352136 0 0.010226052128887513 0.061818238522500936 0 0.0096562630213572788 0.060712671249792773 0 0.0084082718773565365 0.06271499694320351 0 0.0094652063359380693 0.061077842338561776 0 0.0083217861061726552 0.062808815034352136 0 0.0092690031605380859 0.061387753122133432 0 0.0069601586431264463 0.06144108669002659 0 0.0092690031605380859 0.061387753122133432 0 0.0069601586431264463 0.06144108669002659 0 0.0083509779773610713 0.059850712832418142 0 0.0069601586431264463 0.06144108669002659 0 0.0083509779773610713 0.059850712832418142 0 0.0059537170983820142 0.058970743586555935 0 0.0092690031605380859 0.061387753122133432 0 0.0083509779773610713 0.059850712832418142 0 0.010657019590570282 0.059736276349193054 0 0.0083509779773610713 0.059850712832418142 0 0.010657019590570282 0.059736276349193054 0 0.008983367135181209 0.057824430406970211 0 0.008983367135181209 0.057824430406970211 0 0.0067454026158162853 0.056992185152263543 0 0.0059537170983820142 0.058970743586555935 0 0.0083509779773610713 0.059850712832418142 0 0.008983367135181209 0.057824430406970211 0 0.0059537170983820142 0.058970743586555935 0 0.012163460624112471 0.059149572212488469 0 0.010931867636273638 0.058979943482654104 0 0.012798361594114526 0.058282008839226011 0 0.012163460624112471 0.059149572212488469 0 0.012690418106791427 0.059019274975405996 0 0.012798361594114526 0.058282008839226011 0 0.013120329274940272 0.059338835639704254 0 0.012327389475579436 0.05993159876223729 0 0.012577513646569029 0.05935990635334417 0 0.012163460624112471 0.059149572212488469 0 0.012690418106791427 0.059019274975405996 0 0.012577513646569029 0.05935990635334417 0 0.012327389475579436 0.05993159876223729 0 0.012163460624112471 0.059149572212488469 0 0.012577513646569029 0.05935990635334417 0 0.011672369959199345 0.059896554990794396 0 0.012327389475579436 0.05993159876223729 0 0.012163460624112471 0.059149572212488469 0 0.011672369959199345 0.059896554990794396 0 0.012163460624112471 0.059149572212488469 0 0.010931867636273638 0.058979943482654104 0 0.010657019590570282 0.059736276349193054 0 0.012218844390391104 0.057846211419007497 0 0.008983367135181209 0.057824430406970211 0 0.013860416395611029 0.057491254132989 0 0.012798361594114526 0.058282008839226011 0 0.012292125724282083 0.05728981489684204 0 0.010931867636273638 0.058979943482654104 0 0.012798361594114526 0.058282008839226011 0 0.012292125724282083 0.05728981489684204 0 0.010801882177355462 0.059350097372351286 0 0.012286039576214679 0.057550776241780954 0 0.013668983074577767 0.055815704647332584 0 0.012286039576214679 0.057550776241780954 0 0.013836601501365616 0.055726647941949183 0 0.012218844390391104 0.057846211419007497 0 0.01209120100294934 0.056249029079046345 0 0.013494794287042854 0.056751295603499612 0 0.013836601501365616 0.055726647941949183 0 0.012292125724282083 0.05728981489684204 0 0.012218844390391104 0.057846211419007497 0 0.01028468512614992 0.056224163739157285 0 0.008983367135181209 0.057824430406970211 0 0.012218844390391104 0.057846211419007497 0 0.01028468512614992 0.056224163739157285 0 0.01209120100294934 0.056249029079046345 0 0.011847949487995625 0.054999747607483003 0 0.01028468512614992 0.056224163739157285 0 0.01209120100294934 0.056249029079046345 0 0.011847949487995625 0.054999747607483003 0 0.01028468512614992 0.056224163739157285 0 0.0087369738456771311 0.054999815967799418 0 0.013836601501365616 0.055726647941949183 0 0.011847949487995625 0.054999747607483003 0 0.01209120100294934 0.056249029079046345 0 0.013836601501365616 0.055726647941949183 0 0.014958092206812124 0.05499988274122089 0 0.011847949487995625 0.054999747607483003 0 0.008983367135181209 0.057824430406970211 0 0.0087369738456771311 0.054999815967799418 0 0.0067454026158162853 0.056992185152263543 0 0.01028468512614992 0.056224163739157285 0 0.008983367135181209 0.057824430406970211 0 0.0087369738456771311 0.054999815967799418 0 0.0087369738456771311 0.054999815967799418 0 0.0056262495798423554 0.054999734318930918 0 0.0067454026158162853 0.056992185152263543 0 0.0056262495798423554 0.054999734318930918 0 0.0047957352564437098 0.056826279793375532 0 0.0067454026158162853 0.056992185152263543 0 0.0056262495798423554 0.054999734318930918 0 0.0047957352564437098 0.056826279793375532 0 0.0025153990973289888 0.054999842291243863 0 0.0047957352564437098 0.056826279793375532 0 0.0067454026158162853 0.056992185152263543 0 0.0059537170983820142 0.058970743586555935 0 0.0059537170983820142 0.058970743586555935 0 0.0032913018937776794 0.059779563232895225 0 0.0030177618987925234 0.057954487229259805 0 0.0047957352564437098 0.056826279793375532 0 0.0059537170983820142 0.058970743586555935 0 0.0030177618987925234 0.057954487229259805 0 0.00460404924713182 0.061054636260202688 0 0.0059537170983820142 0.058970743586555935 0 0.0032913018937776794 0.059779563232895225 0 0.001371648330113166 0.060193401486533557 0 0.001496635011423332 0.058780457332566892 0 -0.00033807354131741861 0.05882714735491653 0 0.00075840470851228211 0.059741479484237185 0 -0.0010358272114609772 0.05833385024289333 0 0.001371648330113166 0.060193401486533557 0 0.0032913018937776794 0.059779563232895225 0 0.001496635011423332 0.058780457332566892 0 0.0032913018937776794 0.059779563232895225 0 0.0030177618987925234 0.057954487229259805 0 0.001496635011423332 0.058780457332566892 0 0.0030177618987925234 0.057954487229259805 0 0.001496635011423332 0.058780457332566892 0 0.00067041413574841341 0.057158379249009461 0 0.001496635011423332 0.058780457332566892 0 0.00067041413574841341 0.057158379249009461 0 -0.00033807354131741861 0.05882714735491653 0 0.0047957352564437098 0.056826279793375532 0 0.0030177618987925234 0.057954487229259805 0 0.0025153990973289888 0.054999842291243863 0 0.0030177618987925234 0.057954487229259805 0 0.00067041413574841341 0.057158379249009461 0 0.0025153990973289888 0.054999842291243863 0 0.00067041413574841341 0.057158379249009461 0 0.0025153990973289888 0.054999842291243863 0 -0.00059514973616857673 0.054999820433933443 0 0.00067041413574841341 0.057158379249009461 0 -0.00059514973616857673 0.054999820433933443 0 -0.0022060442131687794 0.05719164702058805 0 -0.0027113010063660259 0.056881341887314786 0 -0.0040717000766440116 0.055419557352254782 0 -0.0022060442131687794 0.05719164702058805 0 -0.0037069355039051352 0.054999813388543768 0 -0.0041594340486378013 0.055342445698386346 0 -0.00059514973616857673 0.054999820433933443 0 -0.0022060442131687794 0.05719164702058805 0 -0.0037069355039051352 0.054999813388543768 0 0.00067041413574841341 0.057158379249009461 0 -0.0022060442131687794 0.05719164702058805 0 -0.00033807354131741861 0.05882714735491653 0 -0.0068174927434248031 0.054999721140252748 0 -0.0041594340486378013 0.055342445698386346 0 -0.0058590241169027887 0.056391435663973172 0 -0.0068174927434248031 0.054999721140252748 0 -0.0058590241169027887 0.056391435663973172 0 -0.0075213970899346873 0.056479064508149747 0 -0.0032009833743988042 0.056666280721104724 0 -0.0041594340486378013 0.055342445698386346 0 -0.0045203343777032593 0.056610242126733809 0 -0.0068174927434248031 0.054999721140252748 0 -0.0037069355039051352 0.054999813388543768 0 -0.0041594340486378013 0.055342445698386346 0 -0.0041594340486378013 0.055342445698386346 0 -0.0045203343777032593 0.056610242126733809 0 -0.0058590241169027887 0.056391435663973172 0 -0.0032009833743988042 0.056666280721104724 0 -0.0045203343777032593 0.056610242126733809 0 -0.0043972886612996618 0.057510481458581682 0 -0.0045203343777032593 0.056610242126733809 0 -0.0055751556821812976 0.057434028578125948 0 -0.0043972886612996618 0.057510481458581682 0 -0.0058590241169027887 0.056391435663973172 0 -0.0075213970899346873 0.056479064508149747 0 -0.0068180555634401703 0.057455541276471171 0 -0.0045203343777032593 0.056610242126733809 0 -0.0058590241169027887 0.056391435663973172 0 -0.0055751556821812976 0.057434028578125948 0 -0.0058590241169027887 0.056391435663973172 0 -0.0055751556821812976 0.057434028578125948 0 -0.0068180555634401703 0.057455541276471171 0 -0.0055751556821812976 0.057434028578125948 0 -0.0056262388143556189 0.058849468812274944 0 -0.0068554048972044937 0.058528554698870326 0 -0.0055751556821812976 0.057434028578125948 0 -0.0068554048972044937 0.058528554698870326 0 -0.0068180555634401703 0.057455541276471171 0 -0.0055751556821812976 0.057434028578125948 0 -0.0043972886612996618 0.057510481458581682 0 -0.0056262388143556189 0.058849468812274944 0 -0.0043972886612996618 0.057510481458581682 0 -0.0056262388143556189 0.058849468812274944 0 -0.0037259465553554534 0.058371859300390343 0 -0.0056262388143556189 0.058849468812274944 0 -0.0037259465553554534 0.058371859300390343 0 -0.0048259081314112719 0.059867575647332347 0 -0.0056262388143556189 0.058849468812274944 0 -0.0048259081314112719 0.059867575647332347 0 -0.0063216677509386511 0.060242536234376712 0 -0.0056262388143556189 0.058849468812274944 0 -0.0063216677509386511 0.060242536234376712 0 -0.0070727150984544757 0.059669155632095273 0 -0.0056262388143556189 0.058849468812274944 0 -0.0070727150984544757 0.059669155632095273 0 -0.0068554048972044937 0.058528554698870326 0 -0.0027113010063660259 0.056881341887314786 0 -0.0010358272114609772 0.05833385024289333 0 -0.0032009833743988042 0.056666280721104724 0 -0.0017560357066551708 0.057851806514497429 0 -0.0037259465553554534 0.058371859300390343 0 -0.0032009833743988042 0.056666280721104724 0 -0.0043972886612996618 0.057510481458581682 0 -0.0037259465553554534 0.058371859300390343 0 -0.0017560357066551708 0.057851806514497429 0 -0.0037259465553554534 0.058371859300390343 0 -0.0025951592209834434 0.059748466661242866 0 -0.0037259465553554534 0.058371859300390343 0 -0.0025951592209834434 0.059748466661242866 0 -0.0048259081314112719 0.059867575647332347 0 0.00010056616883705465 0.059199426559166088 0 -0.0017560357066551708 0.057851806514497429 0 -0.0025951592209834434 0.059748466661242866 0 -0.00046950523015220177 0.060919278004364599 0 -0.0020488110269949907 0.061781143318789693 0 -0.0025951592209834434 0.059748466661242866 0 -0.00046950523015220177 0.060919278004364599 0 0.00010056616883705465 0.059199426559166088 0 -0.0025951592209834434 0.059748466661242866 0 -0.00046950523015220177 0.060919278004364599 0 0.00023941834890075917 0.062728481509374046 0 -0.0020488110269949907 0.061781143318789693 0 -0.0020488110269949907 0.061781143318789693 0 -0.0039910831524727994 0.060882404084837881 0 -0.0035454277748863503 0.063030076253963119 0 -0.0039910831524727994 0.060882404084837881 0 -0.0025951592209834434 0.059748466661242866 0 -0.0048259081314112719 0.059867575647332347 0 -0.0020488110269949907 0.061781143318789693 0 -0.0039910831524727994 0.060882404084837881 0 -0.0025951592209834434 0.059748466661242866 0 -0.0039910831524727994 0.060882404084837881 0 -0.0048259081314112719 0.059867575647332347 0 -0.0056462796216219698 0.061018286705874995 0 -0.0048259081314112719 0.059867575647332347 0 -0.0063216677509386511 0.060242536234376712 0 -0.0056462796216219698 0.061018286705874995 0 -0.0063216677509386511 0.060242536234376712 0 -0.0056462796216219698 0.061018286705874995 0 -0.0070260545978284294 0.061142414899047731 0 -0.0056462796216219698 0.061018286705874995 0 -0.0049420141396385583 0.06193927966287853 0 -0.0064763391222505701 0.062053942239000473 0 -0.0056462796216219698 0.061018286705874995 0 -0.0064763391222505701 0.062053942239000473 0 -0.0070260545978284294 0.061142414899047731 0 -0.0039910831524727994 0.060882404084837881 0 -0.0056462796216219698 0.061018286705874995 0 -0.0049420141396385583 0.06193927966287853 0 -0.0039910831524727994 0.060882404084837881 0 -0.0049420141396385583 0.06193927966287853 0 -0.0035454277748863503 0.063030076253963119 0 -0.0049420141396385583 0.06193927966287853 0 -0.0064763391222505701 0.062053942239000473 0 -0.0055211048594775054 0.063767523273980525 0 -0.0049420141396385583 0.06193927966287853 0 -0.0055211048594775054 0.063767523273980525 0 -0.0035454277748863503 0.063030076253963119 0 -0.0064763391222505701 0.062053942239000473 0 -0.0055211048594775054 0.063767523273980525 0 -0.007436227259719437 0.06197198515642556 0 -0.0060861379791474794 0.062223530404391887 0 -0.0072192666095390046 0.062027242554614143 0 -0.0068826023498063859 0.060715724501005215 0 -0.007436227259719437 0.06197198515642556 0 -0.0073547139561158876 0.061541285119120305 0 -0.0060861379791474794 0.062223530404391887 0 -0.0039112551654892583 0.062343168692787165 0 -0.0055211048594775054 0.063767523273980525 0 -0.0028229705373197895 0.064870562796610728 0 -0.0035454277748863503 0.063030076253963119 0 -0.0068826023498063859 0.060715724501005215 0 -0.0052938087686037272 0.059786243379379898 0 -0.0057011746527333863 0.060832693485619468 0 0.0001543371298473398 0.064853966637533914 0 -0.0028229705373197895 0.064870562796610728 0 -0.0015516056327710909 0.063614279234288834 0 0.0001543371298473398 0.064853966637533914 0 0.00016206525538300798 0.065477055503251766 0 -0.0028229705373197895 0.064870562796610728 0 -0.0016709079857217192 0.062198054238228676 0 -0.0039112551654892583 0.062343168692787165 0 -0.0030234208063999219 0.059161856660325723 0 -0.0052938087686037272 0.059786243379379898 0 -0.004061184178765994 0.060357634085585851 0 0.00023941834890075917 0.062728481509374046 0 -0.0020488110269949907 0.061781143318789693 0 -0.0015516056327710909 0.063614279234288834 0 -0.0020488110269949907 0.061781143318789693 0 -0.0015516056327710909 0.063614279234288834 0 -0.0035454277748863503 0.063030076253963119 0 -0.0028229705373197895 0.064870562796610728 0 -0.0015516056327710909 0.063614279234288834 0 -0.0035454277748863503 0.063030076253963119 0 -0.0083186411361338402 0.061564555669439899 0 -0.008443008088143732 0.06132812853881045 0 -0.0080811879161222632 0.061511580375497414 0 -0.0083186411361338402 0.061564555669439899 0 -0.0079640337909751679 0.061742117072745024 0 -0.0080811879161222632 0.061511580375497414 0 -0.008443008088143732 0.06132812853881045 0 -0.0086418351934699055 0.061183739746355888 0 -0.0086851180527818209 0.061554331465390355 0 -0.0083186411361338402 0.061564555669439899 0 -0.008443008088143732 0.06132812853881045 0 -0.0086851180527818209 0.061554331465390355 0 -0.0083186411361338402 0.061564555669439899 0 -0.0083536512290710192 0.06170576699585497 0 -0.0086851180527818209 0.061554331465390355 0 -0.0083536512290710192 0.06170576699585497 0 -0.0086851180527818209 0.061554331465390355 0 -0.0085262653095531833 0.061819192705829612 0 -0.0083186411361338402 0.061564555669439899 0 -0.0083536512290710192 0.06170576699585497 0 -0.0079640337909751679 0.061742117072745024 0 -0.0079640337909751679 0.061742117072745024 0 -0.007436227259719437 0.06197198515642556 0 -0.0080811879161222632 0.061511580375497414 0 -0.0079640337909751679 0.061742117072745024 0 -0.007436227259719437 0.06197198515642556 0 -0.0076566813198980762 0.061769200074051157 0 -0.0064763391222505701 0.062053942239000473 0 -0.007436227259719437 0.06197198515642556 0 -0.007604006978401621 0.061547783173065453 0 -0.007436227259719437 0.06197198515642556 0 -0.0080811879161222632 0.061511580375497414 0 -0.007604006978401621 0.061547783173065453 0 -0.0082061559237869459 0.061171917701924025 0 -0.007604006978401621 0.061547783173065453 0 -0.008020260301952787 0.060982963961214956 0 -0.0080811879161222632 0.061511580375497414 0 -0.0082061559237869459 0.061171917701924025 0 -0.007604006978401621 0.061547783173065453 0 -0.007604006978401621 0.061547783173065453 0 -0.0070260545978284294 0.061142414899047731 0 -0.008020260301952787 0.060982963961214956 0 -0.0064763391222505701 0.062053942239000473 0 -0.007604006978401621 0.061547783173065453 0 -0.0070260545978284294 0.061142414899047731 0 -0.0070260545978284294 0.061142414899047731 0 -0.0074857740162151947 0.060630992663334056 0 -0.008020260301952787 0.060982963961214956 0 -0.0063216677509386511 0.060242536234376712 0 -0.0070260545978284294 0.061142414899047731 0 -0.0074857740162151947 0.060630992663334056 0 -0.0074857740162151947 0.060630992663334056 0 -0.008020260301952787 0.060982963961214956 0 -0.0080246804762302733 0.060621799793601792 0 -0.0074857740162151947 0.060630992663334056 0 -0.0080246804762302733 0.060621799793601792 0 -0.0080235094236172765 0.060069347248621723 0 -0.0063216677509386511 0.060242536234376712 0 -0.0074857740162151947 0.060630992663334056 0 -0.0070727150984544757 0.059669155632095273 0 -0.0082061559237869459 0.061171917701924025 0 -0.008351807423536908 0.060933849168719502 0 -0.008020260301952787 0.060982963961214956 0 -0.008351807423536908 0.060933849168719502 0 -0.008020260301952787 0.060982963961214956 0 -0.0085730585023107396 0.060814966995074569 0 -0.008020260301952787 0.060982963961214956 0 -0.0080246804762302733 0.060621799793601792 0 -0.0085730585023107396 0.060814966995074569 0 -0.0080246804762302733 0.060621799793601792 0 -0.0085730585023107396 0.060814966995074569 0 -0.0080235094236172765 0.060069347248621723 0 -0.0085730585023107396 0.060814966995074569 0 -0.0095577998313766087 0.06096911943560375 0 -0.010080853641104849 0.060389467666616133 0 -0.008351807423536908 0.060933849168719502 0 -0.0085730585023107396 0.060814966995074569 0 -0.0084015540169968921 0.060872567261644868 0 -0.008797261629676147 0.060243704758886053 0 -0.009329873741935996 0.059851955548073404 0 -0.009329873741935996 0.059851955548073404 0 -0.011693255966239342 0.059470719162226751 0 -0.0095577998313766087 0.06096911943560375 0 -0.01186110578343128 0.06084997341876322 0 -0.010080853641104849 0.060389467666616133 0 -0.0084015540169968921 0.060872567261644868 0 -0.0083986461879607677 0.061024277030708722 0 -0.0085541282785104207 0.060979589119337194 0 -0.009329873741935996 0.059851955548073404 0 -0.0095611823488267796 0.060243219643801735 0 -0.0090399653591952366 0.058375608834510123 0 -0.012538873238167778 0.059865956798893706 0 -0.012249879789790755 0.057978174664361976 0 -0.008351807423536908 0.060933849168719502 0 -0.0084015540169968921 0.060872567261644868 0 -0.0083986461879607677 0.061024277030708722 0 -0.0082061559237869459 0.061171917701924025 0 -0.008351807423536908 0.060933849168719502 0 -0.0083986461879607677 0.061024277030708722 0 -0.0082061559237869459 0.061171917701924025 0 -0.0083986461879607677 0.061024277030708722 0 -0.0083434297084440858 0.061208722376139287 0 -0.008443008088143732 0.06132812853881045 0 -0.0080811879161222632 0.061511580375497414 0 -0.0083434297084440858 0.061208722376139287 0 -0.0083986461879607677 0.061024277030708722 0 -0.0084809944691743126 0.061117210280562197 0 -0.0083434297084440858 0.061208722376139287 0 -0.0083986461879607677 0.061024277030708722 0 -0.0084809944691743126 0.061117210280562197 0 -0.0085541282785104207 0.060979589119337194 0 -0.008443008088143732 0.06132812853881045 0 -0.0084809944691743126 0.061117210280562197 0 -0.0083434297084440858 0.061208722376139287 0 -0.0080811879161222632 0.061511580375497414 0 -0.0082061559237869459 0.061171917701924025 0 -0.0083434297084440858 0.061208722376139287 0 -0.0086418351934699055 0.061183739746355888 0 -0.0085541282785104207 0.060979589119337194 0 -0.0089086741762052484 0.061085670584137677 0 -0.0086418351934699055 0.061183739746355888 0 -0.0089086741762052484 0.061085670584137677 0 -0.0086851180527818209 0.061554331465390355 0 -0.008443008088143732 0.06132812853881045 0 -0.0084809944691743126 0.061117210280562197 0 -0.0086418351934699055 0.061183739746355888 0 -0.0084809944691743126 0.061117210280562197 0 -0.0086418351934699055 0.061183739746355888 0 -0.0085541282785104207 0.060979589119337194 0 -0.012538873238167778 0.059865956798893706 0 -0.014635592970527217 0.059088174901784363 0 -0.016033580444306413 0.061224471092305888 0 -0.011693255966239342 0.059470719162226751 0 -0.017525009651742116 0.05851897003420329 0 -0.012249879789790755 0.057978174664361976 0 -0.014635592970527217 0.059088174901784363 0 -0.016762061712278547 0.057440285624450985 0 -0.0095611823488267796 0.060243219643801735 0 -0.018743821110318862 0.05833668012980163 0 -0.012538873238167778 0.059865956798893706 0 -0.012249879789790755 0.057978174664361976 0 -0.014635592970527217 0.059088174901784363 0 -0.01186110578343128 0.06084997341876322 0 -0.010080853641104849 0.060389467666616133 0 -0.013083413694786373 0.057947696971022228 0 -0.01186110578343128 0.06084997341876322 0 -0.013925550599380073 0.059307581096763616 0 -0.01513952275456585 0.060452998971650636 0 -0.01186110578343128 0.06084997341876322 0 -0.013083413694786373 0.057947696971022228 0 -0.013925550599380073 0.059307581096763616 0 -0.010317451411855787 0.060301337766160812 0 -0.01277515177512341 0.058502212669688192 0 -0.010080853641104849 0.060389467666616133 0 -0.010398933812874069 0.059062482528907362 0 -0.012746211941213541 0.059095901544415408 0 -0.010080853641104849 0.060389467666616133 0 -0.010398933812874069 0.059062482528907362 0 -0.0091286110388477983 0.059883787957069209 0 -0.010398933812874069 0.059062482528907362 0 -0.012746211941213541 0.059095901544415408 0 -0.01097334263745282 0.05770793966005508 0 -0.010398933812874069 0.059062482528907362 0 -0.0094938169646017426 0.058165654459278515 0 -0.01097334263745282 0.05770793966005508 0 -0.012746211941213541 0.059095901544415408 0 -0.013000830429723964 0.056998440859449752 0 -0.01097334263745282 0.05770793966005508 0 -0.0070727150984544757 0.059669155632095273 0 -0.0077347404508167125 0.059101095551362448 0 -0.0068554048972044937 0.058528554698870326 0 -0.0070727150984544757 0.059669155632095273 0 -0.0077347404508167125 0.059101095551362448 0 -0.0080235094236172765 0.060069347248621723 0 -0.0074857740162151947 0.060630992663334056 0 -0.0070727150984544757 0.059669155632095273 0 -0.0080235094236172765 0.060069347248621723 0 -0.0087329261335596878 0.059131667536827505 0 -0.0080235094236172765 0.060069347248621723 0 -0.0091286110388477983 0.059883787957069209 0 -0.0077347404508167125 0.059101095551362448 0 -0.0087329261335596878 0.059131667536827505 0 -0.0080235094236172765 0.060069347248621723 0 -0.0085730585023107396 0.060814966995074569 0 -0.0080235094236172765 0.060069347248621723 0 -0.0091286110388477983 0.059883787957069209 0 -0.0085730585023107396 0.060814966995074569 0 -0.010080853641104849 0.060389467666616133 0 -0.0091286110388477983 0.059883787957069209 0 -0.010398933812874069 0.059062482528907362 0 -0.0087329261335596878 0.059131667536827505 0 -0.0091286110388477983 0.059883787957069209 0 -0.010398933812874069 0.059062482528907362 0 -0.0087329261335596878 0.059131667536827505 0 -0.0094938169646017426 0.058165654459278515 0 -0.0087329261335596878 0.059131667536827505 0 -0.0094938169646017426 0.058165654459278515 0 -0.0080121555680810752 0.05802874889797667 0 -0.0077347404508167125 0.059101095551362448 0 -0.0087329261335596878 0.059131667536827505 0 -0.0080121555680810752 0.05802874889797667 0 -0.0077347404508167125 0.059101095551362448 0 -0.0080121555680810752 0.05802874889797667 0 -0.0068554048972044937 0.058528554698870326 0 -0.0080121555680810752 0.05802874889797667 0 -0.0068554048972044937 0.058528554698870326 0 -0.0068180555634401703 0.057455541276471171 0 -0.0080121555680810752 0.05802874889797667 0 -0.0075213970899346873 0.056479064508149747 0 -0.0068180555634401703 0.057455541276471171 0 -0.0080121555680810752 0.05802874889797667 0 -0.0075213970899346873 0.056479064508149747 0 -0.0094172723764461442 0.056893400535259264 0 -0.0094938169646017426 0.058165654459278515 0 -0.0080121555680810752 0.05802874889797667 0 -0.0094172723764461442 0.056893400535259264 0 -0.0094938169646017426 0.058165654459278515 0 -0.0094172723764461442 0.056893400535259264 0 -0.01097334263745282 0.05770793966005508 0 -0.0075213970899346873 0.056479064508149747 0 -0.0094172723764461442 0.056893400535259264 0 -0.0099281495417686948 0.054999754173693655 0 -0.0068174927434248031 0.054999721140252748 0 -0.0075213970899346873 0.056479064508149747 0 -0.0099281495417686948 0.054999754173693655 0 -0.0094172723764461442 0.056893400535259264 0 -0.01097334263745282 0.05770793966005508 0 -0.011259891767461554 0.056324424567805086 0 -0.013000830429723964 0.056998440859449752 0 -0.01097334263745282 0.05770793966005508 0 -0.011259891767461554 0.056324424567805086 0 -0.0094172723764461442 0.056893400535259264 0 -0.0099281495417686948 0.054999754173693655 0 -0.011259891767461554 0.056324424567805086 0 -0.0099281495417686948 0.054999754173693655 0 -0.011259891767461554 0.056324424567805086 0 -0.013039179132738728 0.0549997583881673 0 -0.013000830429723964 0.056998440859449752 0 -0.011259891767461554 0.056324424567805086 0 -0.013039179132738728 0.0549997583881673 0 -0.013000830429723964 0.056998440859449752 0 -0.013039179132738728 0.0549997583881673 0 -0.014425086322868961 0.056100017684581595 0 -0.014425086322868961 0.056100017684581595 0 -0.015310984502523231 0.05751502849488873 0 -0.016149947807909126 0.054999838851584645 0 -0.013039179132738728 0.0549997583881673 0 -0.014425086322868961 0.056100017684581595 0 -0.016149947807909126 0.054999838851584645 0 -0.013000830429723964 0.056998440859449752 0 -0.014425086322868961 0.056100017684581595 0 -0.015310984502523231 0.05751502849488873 0 -0.012746211941213541 0.059095901544415408 0 -0.013000830429723964 0.056998440859449752 0 -0.015310984502523231 0.05751502849488873 0 -0.016380169958404269 0.056796463691107031 0 -0.018555764542663923 0.056041194452445472 0 -0.019178459830592586 0.056406798159986393 0 -0.019523191547238784 0.05591009872807981 0 -0.019976961877485176 0.056809825417819246 0 -0.015653893892541692 0.057753257281557641 0 -0.016150562197946302 0.054999980880198245 0 -0.017346557243456819 0.056387072747633424 0 -0.016380169958404269 0.056796463691107031 0 -0.016149685881011407 0.055001844529993384 0 -0.018555764542663923 0.056041194452445472 0 -0.01909292611053039 0.055000326957400793 0 -0.016150562197946302 0.054999980880198245 0 -0.017346557243456819 0.056387072747633424 0 -0.019092883179952416 0.054999988525484621 0 -0.019523191547238784 0.05591009872807981 0 -0.019096898807212104 0.05500044919443757 0 -0.020104654020106562 0.056404009033567848 0 -0.019096898807212104 0.05500044919443757 0 -0.020682595469797824 0.056102611725381474 0 -0.022278785876293609 0.054999528186994003 0 -0.019096898807212104 0.05500044919443757 0 -0.020682595469797824 0.056102611725381474 0 -0.020104654020106562 0.056404009033567848 0 -0.020682595469797824 0.056102611725381474 0 -0.020104654020106562 0.056404009033567848 0 -0.020965491629915609 0.056890479678104566 0 -0.019523191547238784 0.05591009872807981 0 -0.020104654020106562 0.056404009033567848 0 -0.019976961877485176 0.056809825417819246 0 -0.019976961877485176 0.056809825417819246 0 -0.020826889561993463 0.057251954416872974 0 -0.020872079142854234 0.057696323120250914 0 -0.020104654020106562 0.056404009033567848 0 -0.019976961877485176 0.056809825417819246 0 -0.020826889561993463 0.057251954416872974 0 -0.019976961877485176 0.056809825417819246 0 -0.020872079142854234 0.057696323120250914 0 -0.019731241633939748 0.05724454680477023 0 -0.020104654020106562 0.056404009033567848 0 -0.020826889561993463 0.057251954416872974 0 -0.020965491629915609 0.056890479678104566 0 -0.020826889561993463 0.057251954416872974 0 -0.020965491629915609 0.056890479678104566 0 -0.02147545583355235 0.057531529774445783 0 -0.020826889561993463 0.057251954416872974 0 -0.020872079142854234 0.057696323120250914 0 -0.021377278410332507 0.057720626346130323 0 -0.020826889561993463 0.057251954416872974 0 -0.02147545583355235 0.057531529774445783 0 -0.021377278410332507 0.057720626346130323 0 -0.02147545583355235 0.057531529774445783 0 -0.021763234423870351 0.05774581875327265 0 -0.021377278410332507 0.057720626346130323 0 -0.020675390734528606 0.057739354276414072 0 -0.020762118331658887 0.057762923112920736 0 -0.020762118331658887 0.057762923112920736 0 -0.017525009651742116 0.05851897003420329 0 -0.019734116113161275 0.057957200389371605 0 -0.018904430293885437 0.058061590868960893 0 -0.019087338278285855 0.057133682552142885 0 -0.020872079142854234 0.057696323120250914 0 -0.019734116113161275 0.057957200389371605 0 -0.019731241633939748 0.05724454680477023 0 -0.019734116113161275 0.057957200389371605 0 -0.019087338278285855 0.057133682552142885 0 -0.019731241633939748 0.05724454680477023 0 -0.013925550599380073 0.059307581096763616 0 -0.01513952275456585 0.060452998971650636 0 -0.015602175511145825 0.057992257072729939 0 -0.017525009651742116 0.05851897003420329 0 -0.01736110130490813 0.057530973246084624 0 -0.013083413694786373 0.057947696971022228 0 -0.013925550599380073 0.059307581096763616 0 -0.015602175511145825 0.057992257072729939 0 -0.016380169958404269 0.056796463691107031 0 -0.01736110130490813 0.057530973246084624 0 -0.01277515177512341 0.058502212669688192 0 -0.016380169958404269 0.056796463691107031 0 -0.013083413694786373 0.057947696971022228 0 -0.016080450087973652 0.055548133103966835 0 -0.015602175511145825 0.057992257072729939 0 -0.019178459830592586 0.056406798159986393 0 -0.019087338278285855 0.057133682552142885 0 -0.019731241633939748 0.05724454680477023 0 -0.019178459830592586 0.056406798159986393 0 -0.019976961877485176 0.056809825417819246 0 -0.019731241633939748 0.05724454680477023 0 -0.025316188071113806 0.056583194992598729 0 -0.024628191602680361 0.057982258231404404 0 -0.027195547927609615 0.056997834694808153 0 -0.025466225196017316 0.054999712790307756 0 -0.025316188071113806 0.056583194992598729 0 -0.027195547927609615 0.056997834694808153 0 -0.025466225196017316 0.054999712790307756 0 -0.028652440721736849 0.054999809389727705 0 -0.027195547927609615 0.056997834694808153 0 -0.025466225196017316 0.054999712790307756 0 -0.025316188071113806 0.056583194992598729 0 -0.023712178459514673 0.056189926007684708 0 -0.025316188071113806 0.056583194992598729 0 -0.023712178459514673 0.056189926007684708 0 -0.024628191602680361 0.057982258231404404 0 -0.023712178459514673 0.056189926007684708 0 -0.023788486030285629 0.057829761893055352 0 -0.024628191602680361 0.057982258231404404 0 -0.023648708302409754 0.056213003519932865 0 -0.023201763723311133 0.057431869556965109 0 -0.023712178459514673 0.056189926007684708 0 -0.021918695751781743 0.056617617240100997 0 -0.022534916569686318 0.05724488964782061 0 -0.023712178459514673 0.056189926007684708 0 -0.022278785876293609 0.054999528186994003 0 -0.021918695751781743 0.056617617240100997 0 -0.025466225196017316 0.054999712790307756 0 -0.023712178459514673 0.056189926007684708 0 -0.022278785876293609 0.054999528186994003 0 -0.020682595469797824 0.056102611725381474 0 -0.022278785876293609 0.054999528186994003 0 -0.021918695751781743 0.056617617240100997 0 -0.020682595469797824 0.056102611725381474 0 -0.020965491629915609 0.056890479678104566 0 -0.021918695751781743 0.056617617240100997 0 -0.020965491629915609 0.056890479678104566 0 -0.021918695751781743 0.056617617240100997 0 -0.021759294130412367 0.057236924216327763 0 -0.020965491629915609 0.056890479678104566 0 -0.02147545583355235 0.057531529774445783 0 -0.021759294130412367 0.057236924216327763 0 -0.021918695751781743 0.056617617240100997 0 -0.021759294130412367 0.057236924216327763 0 -0.022534916569686318 0.05724488964782061 0 -0.02147545583355235 0.057531529774445783 0 -0.021759294130412367 0.057236924216327763 0 -0.022044096747394829 0.057715833550920054 0 -0.02147545583355235 0.057531529774445783 0 -0.022044096747394829 0.057715833550920054 0 -0.021763234423870351 0.05774581875327265 0 -0.0238621414896651 0.057887858796536289 0 -0.023788486030285629 0.057829761893055352 0 -0.024083172429550208 0.057944171585980232 0 -0.022948249272110317 0.057797736200660768 0 -0.023201763723311133 0.057431869556965109 0 -0.021759294130412367 0.057236924216327763 0 -0.022044096747394829 0.057715833550920054 0 -0.022534916569686318 0.05724488964782061 0 -0.023788486030285629 0.057829761893055352 0 -0.024628191602680361 0.057982258231404404 0 -0.024083172429550208 0.057944171585980232 0 -0.024628191602680361 0.057982258231404404 0 -0.024083172429550208 0.057944171585980232 0 -0.024279350760603627 0.05796175279578631 0 -0.0238621414896651 0.057887858796536289 0 -0.024083172429550208 0.057944171585980232 0 -0.023823115711442414 0.057802213771505115 0 -0.024083172429550208 0.057944171585980232 0 -0.024279350760603627 0.05796175279578631 0 -0.023823115711442414 0.057802213771505115 0 -0.027045044268193229 0.057640429970133002 0 -0.026541566210268749 0.055621752132554714 0 -0.029413726108774289 0.053771176089584573 0 -0.029438294229433375 0.05386525710032837 0 -0.029569018052950761 0.053833293938144386 0 -0.029413726108774289 0.053771176089584573 0 -0.029438294229433375 0.05386525710032837 0 -0.029317158553497365 0.053908789031457391 0 -0.027045044268193229 0.057640429970133002 0 -0.027451060517084597 0.057484203245312671 0 -0.024628191602680361 0.057982258231404404 0 -0.026014037443660175 0.059091840852015388 0 -0.027195547927609615 0.056997834694808153 0 -0.024520565173268113 0.057785063269303882 0 -0.027045044268193229 0.057640429970133002 0 -0.032100416907623365 0.044574456430202122 0 -0.031273360787931359 0.047334565563417377 0 -0.033374787275342391 0.046565087535524484 0 -0.029418366140613508 0.05396508662585181 0 -0.029438294229433375 0.05386525710032837 0 -0.029569018052950761 0.053833293938144386 0 -0.029418366140613508 0.05396508662585181 0 -0.029438294229433375 0.05386525710032837 0 -0.029317158553497365 0.053908789031457391 0 -0.023823115711442414 0.057802213771505115 0 -0.023504917284348524 0.057581272799601443 0 -0.023369047105707762 0.057496680443519715 0 -0.026541566210268749 0.055621752132554714 0 -0.026480080246860549 0.055129129273573517 0 -0.029418366140613508 0.05396508662585181 0 -0.029317158553497365 0.053908789031457391 0 -0.029120265938820486 0.054197801120237983 0 -0.031716540760869688 0.047322218958607151 0 -0.026480080246860549 0.055129129273573517 0 -0.023504917284348524 0.057581272799601443 0 -0.023592977834583195 0.057618143034133859 0 -0.023327800303588383 0.057498023705354034 0 -0.023823115711442414 0.057802213771505115 0 -0.023504917284348524 0.057581272799601443 0 -0.023592977834583195 0.057618143034133859 0 -0.022948249272110317 0.057797736200660768 0 -0.022833729099858261 0.05775081871626387 0 -0.0238621414896651 0.057887858796536289 0 -0.023823115711442414 0.057802213771505115 0 -0.023592977834583195 0.057618143034133859 0 -0.021763234423870351 0.05774581875327265 0 -0.022028798098065277 0.057790165387487047 0 -0.021734170093220345 0.057733969590315397 0 -0.022044096747394829 0.057715833550920054 0 -0.021763234423870351 0.05774581875327265 0 -0.022028798098065277 0.057790165387487047 0 -0.022207792856631811 0.05771051117067303 0 -0.022028798098065277 0.057790165387487047 0 -0.022969629541448666 0.057491777065615292 0 -0.022207792856631811 0.05771051117067303 0 -0.022028798098065277 0.057790165387487047 0 -0.021734170093220345 0.057733969590315397 0 -0.022833729099858261 0.05775081871626387 0 -0.022917032277674495 0.057594502915540809 0 -0.022207792856631811 0.05771051117067303 0 -0.022969629541448666 0.057491777065615292 0 -0.021790536589770031 0.058013014455810717 0 -0.023204095129616031 0.057452213835260377 0 -0.02291578853040251 0.057639198536998379 0 -0.022969629541448666 0.057491777065615292 0 -0.023230332790099451 0.057377695606899939 0 -0.021790536589770031 0.058013014455810717 0 -0.023592977834583195 0.057618143034133859 0 -0.022969629541448666 0.057491777065615292 0 -0.023327800303588383 0.057498023705354034 0 -0.022969629541448666 0.057491777065615292 0 -0.023190897862715488 0.057424455415417526 0 -0.023327800303588383 0.057498023705354034 0 -0.022969629541448666 0.057491777065615292 0 -0.023190897862715488 0.057424455415417526 0 -0.023230332790099451 0.057377695606899939 0 -0.025354783233933149 0.039861428727955728 0 -0.025534796528098449 0.039849744350991589 0 -0.023230332790099451 0.057377695606899939 0 -0.023002626986628073 0.056846587603173224 0 -0.023903434797368187 0.056274671945414037 0 -0.023230332790099451 0.057377695606899939 0 -0.024153329987351917 0.056978359256882001 0 -0.023903434797368187 0.056274671945414037 0 -0.023230332790099451 0.057377695606899939 0 -0.023128461235790609 0.057145928742574771 0 -0.023002626986628073 0.056846587603173224 0 -0.028089779109733974 0.049836711660385585 0 -0.029291887558857029 0.047057086255623923 0 -0.029376500123852761 0.04812464001380716 0 -0.025354783233933149 0.039861428727955728 0 -0.026480080246860549 0.055129129273573517 0 -0.023128461235790609 0.057145928742574771 0 -0.023002626986628073 0.056846587603173224 0 -0.023166891686019025 0.057114462714471882 0 -0.022382050050212269 0.058028680441154723 0 -0.026480080246860549 0.055129129273573517 0 -0.023128461235790609 0.057145928742574771 0 -0.023327800303588383 0.057498023705354034 0 -0.023369047105707762 0.057496680443519715 0 -0.023190897862715488 0.057424455415417526 0 -0.023230332790099451 0.057377695606899939 0 -0.023128461235790609 0.057145928742574771 0 -0.023190897862715488 0.057424455415417526 0 -0.023128461235790609 0.057145928742574771 0 -0.023327800303588383 0.057498023705354034 0 -0.023504917284348524 0.057581272799601443 0 -0.023327800303588383 0.057498023705354034 0 -0.023369047105707762 0.057496680443519715 0 -0.032100416907623365 0.044574456430202122 0 -0.029291887558857029 0.047057086255623923 0 -0.031273360787931359 0.047334565563417377 0 -0.029376500123852761 0.04812464001380716 0 -0.030743516489961181 0.049151948989656843 0 -0.031273360787931359 0.047334565563417377 0 -0.029291887558857029 0.047057086255623923 0 -0.029376500123852761 0.04812464001380716 0 -0.031273360787931359 0.047334565563417377 0 -0.025354783233933149 0.039861428727955728 0 -0.029232398014204859 0.038750238904330332 0 -0.028089779109733974 0.049836711660385585 0 -0.029376500123852761 0.04812464001380716 0 -0.030721122664970759 0.049215740513884026 0 -0.031925134540063328 0.048384681422832178 0 -0.029232398014204859 0.038750238904330332 0 -0.026362414716693872 0.023321449909603467 0 -0.025734267954870636 0.02346286270356391 0 -0.025974032691356324 0.022833816361709058 0 -0.030743516489961181 0.049151948989656843 0 -0.032732708910474667 0.048650245299824854 0 -0.031273360787931359 0.047334565563417377 0 -0.032823622384716367 0.035110606579846632 0 -0.033581382868157914 0.034954786688390006 0 -0.033567778606065447 0.035672822188235587 0 -0.029232398014204859 0.038750238904330332 0 -0.032750625271740788 0.041647521741157746 0 -0.029232398014204859 0.038750238904330332 0 -0.033952980664851848 0.025003680101872348 0 -0.032732708910474667 0.048650245299824854 0 -0.031273360787931359 0.047334565563417377 0 -0.033374787275342391 0.046565087535524484 0 -0.021113416999725632 0.057972818200444608 0 -0.020799649487921044 0.057866791203916981 0 -0.020995182497559144 0.057766036529714189 0 -0.021113416999725632 0.057972818200444608 0 -0.020995182497559144 0.057766036529714189 0 -0.021193887562627411 0.057736556107861325 0 -0.024280167198954521 0.058043897786280614 0 -0.018743821110318862 0.05833668012980163 0 -0.017525009651742116 0.05851897003420329 0 -0.018743821110318862 0.05833668012980163 0 -0.014635592970527217 0.059088174901784363 0 -0.016762061712278547 0.057440285624450985 0 -0.016033580444306413 0.061224471092305888 0 -0.020851304400465086 0.057656104119310846 0 -0.020799649487921044 0.057866791203916981 0 -0.020995182497559144 0.057766036529714189 0 -0.021013187901359989 0.057659013406390715 0 -0.020995182497559144 0.057766036529714189 0 -0.021193887562627411 0.057736556107861325 0 -0.021013187901359989 0.057659013406390715 0 -0.020851304400465086 0.057656104119310846 0 -0.020995182497559144 0.057766036529714189 0 -0.020872079142854234 0.057696323120250914 0 -0.021013187901359989 0.057659013406390715 0 -0.021193887562627411 0.057736556107861325 0 -0.020872079142854234 0.057696323120250914 0 -0.021193887562627411 0.057736556107861325 0 -0.021377278410332507 0.057720626346130323 0 -0.021193887562627411 0.057736556107861325 0 -0.021377278410332507 0.057720626346130323 0 -0.021734170093220345 0.057733969590315397 0 -0.021763234423870351 0.05774581875327265 0 -0.021377278410332507 0.057720626346130323 0 -0.021734170093220345 0.057733969590315397 0 -0.021193887562627411 0.057736556107861325 0 -0.021734170093220345 0.057733969590315397 0 -0.021790536589770031 0.058013014455810717 0 -0.022207792856631811 0.05771051117067303 0 -0.021734170093220345 0.057733969590315397 0 -0.021790536589770031 0.058013014455810717 0 -0.021113416999725632 0.057972818200444608 0 -0.021193887562627411 0.057736556107861325 0 -0.021790536589770031 0.058013014455810717 0 -0.024280167198954521 0.058043897786280614 0 -0.02291578853040251 0.057639198536998379 0 -0.025501940845402672 0.057797439512667616 0 -0.024875076281518273 0.056764639516188861 0 -0.025682904772833269 0.056722558340895957 0 -0.025501940845402672 0.057797439512667616 0 -0.024509503153834097 0.057489738431036018 0 -0.024875076281518273 0.056764639516188861 0 -0.023230332790099451 0.057377695606899939 0 -0.024509503153834097 0.057489738431036018 0 -0.024153329987351917 0.056978359256882001 0 -0.024509503153834097 0.057489738431036018 0 -0.024153329987351917 0.056978359256882001 0 -0.024875076281518273 0.056764639516188861 0 -0.024153329987351917 0.056978359256882001 0 -0.024875076281518273 0.056764639516188861 0 -0.023903434797368187 0.056274671945414037 0 -0.024875076281518273 0.056764639516188861 0 -0.02505496409316875 0.055879500638588687 0 -0.023903434797368187 0.056274671945414037 0 -0.024875076281518273 0.056764639516188861 0 -0.025682904772833269 0.056722558340895957 0 -0.02505496409316875 0.055879500638588687 0 -0.025501940845402672 0.057797439512667616 0 -0.025682904772833269 0.056722558340895957 0 -0.026804210007746111 0.056839847992682845 0 -0.018743821110318862 0.05833668012980163 0 -0.017266610698671907 0.062905996759658772 0 -0.025501940845402672 0.057797439512667616 0 -0.026481444374206214 0.058210857064049382 0 -0.026804210007746111 0.056839847992682845 0 -0.025682904772833269 0.056722558340895957 0 -0.026804210007746111 0.056839847992682845 0 -0.026030801241092649 0.055564279182924801 0 -0.029980314736576766 0.038648501598468978 0 -0.018368176549661469 0.042769614647871407 0 -0.026804210007746111 0.056839847992682845 0 -0.026030801241092649 0.055564279182924801 0 -0.027099612321208635 0.05523095948846643 0 -0.029424915830975937 0.022965523474092971 0 -0.029656634534594193 0.021734023108337122 0 -0.030469516145499913 0.022821091583243445 0 -0.029424915830975937 0.022965523474092971 0 -0.028457035650150904 0.021916570890233942 0 -0.029656634534594193 0.021734023108337122 0 -0.029980314736576766 0.038648501598468978 0 -0.026248030593054167 0.039618133166297885 0 -0.025682904772833269 0.056722558340895957 0 -0.026030801241092649 0.055564279182924801 0 -0.02505496409316875 0.055879500638588687 0 -0.029424915830975937 0.022965523474092971 0 -0.028319139855201791 0.02314669462786631 0 -0.028457035650150904 0.021916570890233942 0 -0.028319139855201791 0.02314669462786631 0 -0.027805096021872151 0.022499961117617765 0 -0.027262763847078753 0.023330785900008224 0 -0.026248030593054167 0.039618133166297885 0 -0.025534796528098449 0.039849744350991589 0 -0.027805096021872151 0.022499961117617765 0 -0.028457035650150904 0.021916570890233942 0 -0.027372937822736282 0.021758348959680741 0 -0.028319139855201791 0.02314669462786631 0 -0.027805096021872151 0.022499961117617765 0 -0.028457035650150904 0.021916570890233942 0 -0.028457035650150904 0.021916570890233942 0 -0.027885572605540289 0.020733416883310974 0 -0.029008080611793406 0.020780403510481486 0 -0.028457035650150904 0.021916570890233942 0 -0.027885572605540289 0.020733416883310974 0 -0.027372937822736282 0.021758348959680741 0 -0.027885572605540289 0.020733416883310974 0 -0.027092797661376851 0.019967383969895069 0 -0.028361224502439591 0.019846693480481702 0 -0.027885572605540289 0.020733416883310974 0 -0.029008080611793406 0.020780403510481486 0 -0.028361224502439591 0.019846693480481702 0 -0.029008080611793406 0.020780403510481486 0 -0.030043034258664683 0.020593157157765423 0 -0.029522305247569474 0.019620574379081587 0 -0.030043034258664683 0.020593157157765423 0 -0.029656634534594193 0.021734023108337122 0 -0.03075092557281562 0.02152541300658619 0 -0.028457035650150904 0.021916570890233942 0 -0.029008080611793406 0.020780403510481486 0 -0.029656634534594193 0.021734023108337122 0 -0.029008080611793406 0.020780403510481486 0 -0.030043034258664683 0.020593157157765423 0 -0.029656634534594193 0.021734023108337122 0 -0.030637245486216567 0.014473470103043824 0 -0.031241472481725683 0.013549805015448021 0 -0.030513698182124693 0.013088231867468946 0 -0.033952980664851848 0.025003680101872348 0 -0.0278911691836706 0.01696047329114389 0 -0.025220405472978068 0.022905327321117403 0 -0.025974032691356324 0.022833816361709058 0 -0.025736047821994727 0.022002504968766576 0 -0.025974032691356324 0.022833816361709058 0 -0.025736047821994727 0.022002504968766576 0 -0.026200429886607063 0.022421229740599895 0 -0.025734267954870636 0.02346286270356391 0 -0.025220405472978068 0.022905327321117403 0 -0.025974032691356324 0.022833816361709058 0 -0.026610502159193056 0.02191957545146692 0 -0.026490980323428115 0.022887203412168322 0 -0.027110907491914676 0.022492876198834284 0 -0.025736047821994727 0.022002504968766576 0 -0.026200429886607063 0.022421229740599895 0 -0.026610502159193056 0.02191957545146692 0 -0.026200429886607063 0.022421229740599895 0 -0.026610502159193056 0.02191957545146692 0 -0.026490980323428115 0.022887203412168322 0 -0.025974032691356324 0.022833816361709058 0 -0.026200429886607063 0.022421229740599895 0 -0.026490980323428115 0.022887203412168322 0 -0.026166230179197583 0.023635650707742768 0 -0.026490980323428115 0.022887203412168322 0 -0.027262763847078753 0.023330785900008224 0 -0.026362414716693872 0.023321449909603467 0 -0.025974032691356324 0.022833816361709058 0 -0.026490980323428115 0.022887203412168322 0 -0.025354783233933149 0.039861428727955728 0 -0.028752311761087935 0.020138569495400244 0 -0.027805096021872151 0.022499961117617765 0 -0.027262763847078753 0.023330785900008224 0 -0.027110907491914676 0.022492876198834284 0 -0.026490980323428115 0.022887203412168322 0 -0.027262763847078753 0.023330785900008224 0 -0.027110907491914676 0.022492876198834284 0 -0.026610502159193056 0.02191957545146692 0 -0.027372937822736282 0.021758348959680741 0 -0.027110907491914676 0.022492876198834284 0 -0.027805096021872151 0.022499961117617765 0 -0.027372937822736282 0.021758348959680741 0 -0.027110907491914676 0.022492876198834284 0 -0.027885572605540289 0.020733416883310974 0 -0.026379603626218183 0.020955025208428273 0 -0.027092797661376851 0.019967383969895069 0 -0.027885572605540289 0.020733416883310974 0 -0.027372937822736282 0.021758348959680741 0 -0.026379603626218183 0.020955025208428273 0 -0.029142589214586533 0.016887533961476093 0 -0.029789656894402574 0.015568260549307406 0 -0.031833488055217678 0.012553016944416894 0 -0.03157480811921301 0.011554639803374109 0 -0.032422408587010482 0.011372951257058702 0 -0.026610502159193056 0.02191957545146692 0 -0.027372937822736282 0.021758348959680741 0 -0.026379603626218183 0.020955025208428273 0 -0.025736047821994727 0.022002504968766576 0 -0.026610502159193056 0.02191957545146692 0 -0.026379603626218183 0.020955025208428273 0 -0.031241472481725683 0.013549805015448021 0 -0.031833488055217678 0.012553016944416894 0 -0.031017892501229976 0.012286378062161755 0 -0.0278911691836706 0.01696047329114389 0 -0.029142589214586533 0.016887533961476093 0 -0.031833488055217678 0.012553016944416894 0 -0.03157480811921301 0.011554639803374109 0 -0.031017892501229976 0.012286378062161755 0 -0.03157480811921301 0.011554639803374109 0 -0.031017892501229976 0.012286378062161755 0 -0.031041316544514072 0.011322292696140579 0 -0.031017892501229976 0.012286378062161755 0 -0.031041316544514072 0.011322292696140579 0 -0.030535249916739306 0.011640218028714556 0 -0.031017892501229976 0.012286378062161755 0 -0.030432105367628873 0.012390510506247539 0 -0.030535249916739306 0.011640218028714556 0 -0.031017892501229976 0.012286378062161755 0 -0.030513698182124693 0.013088231867468946 0 -0.030432105367628873 0.012390510506247539 0 -0.031241472481725683 0.013549805015448021 0 -0.031017892501229976 0.012286378062161755 0 -0.030513698182124693 0.013088231867468946 0 -0.030717385920340429 0.010607467641016924 0 -0.031130161688791801 0.0098139447088309191 0 -0.030608315576129995 0.0095064868749859307 0 -0.030717385920340429 0.010607467641016924 0 -0.031130161688791801 0.0098139447088309191 0 -0.031390878345226171 0.010525044747158607 0 -0.030717385920340429 0.010607467641016924 0 -0.031041316544514072 0.011322292696140579 0 -0.030535249916739306 0.011640218028714556 0 -0.030717385920340429 0.010607467641016924 0 -0.031041316544514072 0.011322292696140579 0 -0.031390878345226171 0.010525044747158607 0 -0.03157480811921301 0.011554639803374109 0 -0.031041316544514072 0.011322292696140579 0 -0.031390878345226171 0.010525044747158607 0 -0.031130161688791801 0.0098139447088309191 0 -0.031390878345226171 0.010525044747158607 0 -0.031549238979320486 0.0091518915901600585 0 -0.031390878345226171 0.010525044747158607 0 -0.032021388740299375 0.010197295385991666 0 -0.031549238979320486 0.0091518915901600585 0 -0.03157480811921301 0.011554639803374109 0 -0.031390878345226171 0.010525044747158607 0 -0.032021388740299375 0.010197295385991666 0 -0.03157480811921301 0.011554639803374109 0 -0.032021388740299375 0.010197295385991666 0 -0.032422408587010482 0.011372951257058702 0 -0.029789656894402574 0.015568260549307406 0 -0.03027206484422814 0.015115857007834183 0 -0.032021388740299375 0.010197295385991666 0 -0.032422408587010482 0.011372951257058702 0 -0.032928351144932491 0.010247665153120944 0 -0.032021388740299375 0.010197295385991666 0 -0.032246291575266081 0.008390215348782433 0 -0.032928351144932491 0.010247665153120944 0 -0.032246291575266081 0.008390215348782433 0 -0.031594545554412407 0.0079928839439675613 0 -0.031860955561431946 0.0076386940336024183 0 -0.032246291575266081 0.008390215348782433 0 -0.031549238979320486 0.0091518915901600585 0 -0.031594545554412407 0.0079928839439675613 0 -0.032021388740299375 0.010197295385991666 0 -0.032246291575266081 0.008390215348782433 0 -0.031549238979320486 0.0091518915901600585 0 -0.031130161688791801 0.0098139447088309191 0 -0.031549238979320486 0.0091518915901600585 0 -0.031032619533310726 0.009016403127231197 0 -0.031549238979320486 0.0091518915901600585 0 -0.031208671732424344 0.0080174575952342234 0 -0.031594545554412407 0.0079928839439675613 0 -0.031549238979320486 0.0091518915901600585 0 -0.031032619533310726 0.009016403127231197 0 -0.031208671732424344 0.0080174575952342234 0 -0.031032619533310726 0.009016403127231197 0 -0.030802125408017866 0.0083552683599176485 0 -0.031208671732424344 0.0080174575952342234 0 -0.031130161688791801 0.0098139447088309191 0 -0.031032619533310726 0.009016403127231197 0 -0.030608315576129995 0.0095064868749859307 0 -0.029522305247569474 0.019620574379081587 0 -0.02880046182338912 0.019016495797419992 0 -0.02948106225774293 0.01838413997889984 0 -0.030314184971393428 0.018764794590862947 0 -0.029522305247569474 0.019620574379081587 0 -0.02948106225774293 0.01838413997889984 0 -0.030314184971393428 0.018764794590862947 0 -0.029522305247569474 0.019620574379081587 0 -0.030377942841896838 0.019660414362940064 0 -0.030043034258664683 0.020593157157765423 0 -0.029522305247569474 0.019620574379081587 0 -0.030377942841896838 0.019660414362940064 0 -0.029008080611793406 0.020780403510481486 0 -0.029522305247569474 0.019620574379081587 0 -0.028361224502439591 0.019846693480481702 0 -0.029522305247569474 0.019620574379081587 0 -0.028361224502439591 0.019846693480481702 0 -0.02880046182338912 0.019016495797419992 0 -0.027092797661376851 0.019967383969895069 0 -0.028361224502439591 0.019846693480481702 0 -0.027849362332145917 0.018951896894550343 0 -0.028361224502439591 0.019846693480481702 0 -0.027849362332145917 0.018951896894550343 0 -0.02880046182338912 0.019016495797419992 0 -0.027849362332145917 0.018951896894550343 0 -0.02880046182338912 0.019016495797419992 0 -0.028654328726311403 0.017932169275552853 0 -0.02880046182338912 0.019016495797419992 0 -0.028654328726311403 0.017932169275552853 0 -0.02948106225774293 0.01838413997889984 0 -0.032832243071839295 0.0079104786484146417 0 -0.030960593971084027 0.01062942311640157 0 -0.03027206484422814 0.015115857007834183 0 -0.030960593971084027 0.01062942311640157 0 -0.032246291575266081 0.008390215348782433 0 -0.032928351144932491 0.010247665153120944 0 -0.033678871965394951 0.0090917939632847462 0 -0.032246291575266081 0.008390215348782433 0 -0.031902038272612766 0.0077949203185095177 0 -0.031918763987279553 0.0077338403946384587 0 -0.032246291575266081 0.008390215348782433 0 -0.031918763987279553 0.0077338403946384587 0 -0.031860955561431946 0.0076386940336024183 0 -0.032246291575266081 0.008390215348782433 0 -0.031863654419799284 0.0076528675476279081 0 -0.031902038272612766 0.0077949203185095177 0 -0.03174653772528413 0.0076495585980207378 0 -0.031902038272612766 0.0077949203185095177 0 -0.031918763987279553 0.0077338403946384587 0 -0.031863654419799284 0.0076528675476279081 0 -0.03174653772528413 0.0076495585980207378 0 -0.031902038272612766 0.0077949203185095177 0 -0.030960593971084027 0.01062942311640157 0 -0.032372393592183975 0.0071253092448033952 0 -0.03174653772528413 0.0076495585980207378 0 -0.031605305139003254 0.007555764159363685 0 -0.031643276479382615 0.0074805233573235182 0 -0.030960593971084027 0.01062942311640157 0 -0.030150198171147773 0.012990784987643453 0 -0.03174653772528413 0.0076495585980207378 0 -0.031650784610661287 0.0075505765214866688 0 -0.031605305139003254 0.007555764159363685 0 -0.031786686490196822 0.0076031534335304985 0 -0.03174653772528413 0.0076495585980207378 0 -0.031650784610661287 0.0075505765214866688 0 -0.031560333303222853 0.0075836775027690395 0 -0.031605305139003254 0.007555764159363685 0 -0.031558746882306671 0.0075663244868548691 0 -0.031560333303222853 0.0075836775027690395 0 -0.031650784610661287 0.0075505765214866688 0 -0.031605305139003254 0.007555764159363685 0 -0.032859462419448385 0.013428792879296332 0 -0.030150198171147773 0.012990784987643453 0 -0.031605305139003254 0.007555764159363685 0 -0.03158816205330868 0.0074946725976802811 0 -0.031558746882306671 0.0075663244868548691 0 -0.031605305139003254 0.007555764159363685 0 -0.03158816205330868 0.0074946725976802811 0 -0.031643276479382615 0.0074805233573235182 0 -0.03158816205330868 0.0074946725976802811 0 -0.031569676529641613 0.0075398370422572339 0 -0.031582732819978504 0.0073533348399996744 0 -0.03158816205330868 0.0074946725976802811 0 -0.031569676529641613 0.0075398370422572339 0 -0.031558746882306671 0.0075663244868548691 0 -0.010138379115319163 0.012251232861617717 0 -0.010061390610140416 0.012185916080207434 0 -0.01018905315790671 0.012152775017469863 0 -0.021013129935876753 0.0085954018745207673 0 -0.02045127511844233 0.015766952813224218 0 -0.031569676529641613 0.0075398370422572339 0 -0.031558746882306671 0.0075663244868548691 0 -0.031491848960190479 0.0076560234229692097 0 -0.031560333303222853 0.0075836775027690395 0 -0.031558746882306671 0.0075663244868548691 0 -0.031491848960190479 0.0076560234229692097 0 -0.030314184971393428 0.018764794590862947 0 -0.031138585403658152 0.019096695851847013 0 -0.030377942841896838 0.019660414362940064 0 -0.032859462419448385 0.013428792879296332 0 -0.02045127511844233 0.015766952813224218 0 -0.010061390610140416 0.012185916080207434 0 -0.01018905315790671 0.012152775017469863 0 -0.0099981282465226827 0.012129993300161932 0 -0.02045127511844233 0.015766952813224218 0 -0.0076283789516550819 0.01817133586880906 0 -0.02045127511844233 0.015766952813224218 0 -0.01907754424138763 0.025214807119083242 0 -0.0081187578091744192 0.024850988430316436 0 -0.0086447102161154223 0.026017677873612262 0 -0.0088186696012607091 0.025179906355993525 0 -0.0081187578091744192 0.024850988430316436 0 -0.0078509549313773817 0.02602480959990687 0 -0.0086447102161154223 0.026017677873612262 0 -0.030043034258664683 0.020593157157765423 0 -0.030969023453111498 0.020291177866183167 0 -0.030377942841896838 0.019660414362940064 0 -0.031138585403658152 0.019096695851847013 0 -0.030969023453111498 0.020291177866183167 0 -0.030377942841896838 0.019660414362940064 0 -0.009470882941233362 0.025555416867488884 0 -0.0096071635493377439 0.025844297860474319 0 -0.0094173718426607839 0.025852817746627926 0 -0.009604560956910195 0.021281544502603545 0 -0.009000352571314589 0.025563912482306939 0 -0.0095242872971475906 0.025464551624588532 0 -0.0094173718426607839 0.025852817746627926 0 -0.0090573986116877416 0.02571957897291478 0 -0.009470882941233362 0.025555416867488884 0 -0.0096071635493377439 0.025844297860474319 0 -0.0099047884875210646 0.025836343230139017 0 -0.0096071635493377439 0.025844297860474319 0 -0.0099047884875210646 0.025836343230139017 0 -0.0096427523178292049 0.026195407378113687 0 -0.0096071635493377439 0.025844297860474319 0 -0.0094173718426607839 0.025852817746627926 0 -0.0096427523178292049 0.026195407378113687 0 -0.0094173718426607839 0.025852817746627926 0 -0.0090573986116877416 0.02571957897291478 0 -0.0092256450107881562 0.02624093599554821 0 -0.0094173718426607839 0.025852817746627926 0 -0.0092256450107881562 0.02624093599554821 0 -0.0096427523178292049 0.026195407378113687 0 -0.0090573986116877416 0.02571957897291478 0 -0.0086447102161154223 0.026017677873612262 0 -0.0088186696012607091 0.025179906355993525 0 -0.0090573986116877416 0.02571957897291478 0 -0.0086447102161154223 0.026017677873612262 0 -0.0092256450107881562 0.02624093599554821 0 -0.0095242872971475906 0.025464551624588532 0 -0.0090573986116877416 0.02571957897291478 0 -0.0088186696012607091 0.025179906355993525 0 -0.010061390610140416 0.012185916080207434 0 -0.0099981282465226827 0.012129993300161932 0 -0.009916989758499339 0.01220341631219265 0 -0.009604560956910195 0.021281544502603545 0 -0.0076283789516550819 0.01817133586880906 0 -0.0098717653575789224 0.012150315562145559 0 -0.0099981282465226827 0.012129993300161932 0 -0.009916989758499339 0.01220341631219265 0 -0.009604560956910195 0.021281544502603545 0 -0.0076353545942794612 0.014264126287942405 0 -0.0098717653575789224 0.012150315562145559 0 -0.0097703759735545213 0.012250683909991544 0 -0.009916989758499339 0.01220341631219265 0 -0.0055891861261672619 0.024051030801858605 0 -0.0070752355598752105 0.017914702359800819 0 -0.0093762098000058532 0.021236074201990762 0 -0.0097703759735545213 0.012250683909991544 0 -0.009916989758499339 0.01220341631219265 0 -0.009888264567796623 0.012265739179123701 0 -0.0076353545942794612 0.014264126287942405 0 -0.0063539599803926162 0.016523777080617814 0 -0.010138379115319163 0.012251232861617717 0 -0.010061390610140416 0.012185916080207434 0 -0.009916989758499339 0.01220341631219265 0 -0.010138379115319163 0.012251232861617717 0 -0.009916989758499339 0.01220341631219265 0 -0.009888264567796623 0.012265739179123701 0 -0.010138379115319163 0.012251232861617717 0 -0.009888264567796623 0.012265739179123701 0 -0.010103935044865946 0.012526666271887399 0 -0.009888264567796623 0.012265739179123701 0 -0.0097335925700002858 0.012283448347880539 0 -0.0096253013258694436 0.012563922408487005 0 -0.0097703759735545213 0.012250683909991544 0 -0.009888264567796623 0.012265739179123701 0 -0.0097335925700002858 0.012283448347880539 0 -0.010829288212033565 0.011391051457786107 0 -0.0072261722500688297 0.014595914657285885 0 -0.0019911190409414217 0.018909711696435415 0 -0.0013607588481762756 0.019209315937055976 0 -0.0013130596481669007 0.01867884996228087 0 -0.0063539599803926162 0.016523777080617814 0 -0.0072261722500688297 0.014595914657285885 0 -0.0019911190409414217 0.018909711696435415 0 -0.0013607588481762756 0.019209315937055976 0 -0.001914502907288861 0.019709032095370855 0 -0.0013607588481762756 0.019209315937055976 0 -0.00072522168621315679 0.018968673869476167 0 -0.00063260511511741219 0.019680640747063143 0 -0.0013607588481762756 0.019209315937055976 0 -0.00072522168621315679 0.018968673869476167 0 -0.0013130596481669007 0.01867884996228087 0 -0.00072522168621315679 0.018968673869476167 0 -0.0013130596481669007 0.01867884996228087 0 -0.00038891987070433035 0.018383121679384339 0 -0.0070752355598752105 0.017914702359800819 0 -0.0073670688382175544 0.01673235079053384 0 -0.0093762098000058532 0.021236074201990762 0 -0.0063539599803926162 0.016523777080617814 0 -0.0053549230968977677 0.019996269343244413 0 -0.0019911190409414217 0.018909711696435415 0 -0.0013130596481669007 0.01867884996228087 0 -0.0015637880201575692 0.018150546712458956 0 0.0012962581547202867 0.019451116376863621 0 0.000364344065588416 0.01906701836784851 0 0.00060870433454908695 0.019918935720149213 0 -0.00072522168621315679 0.018968673869476167 0 0.000364344065588416 0.01906701836784851 0 -0.00063260511511741219 0.019680640747063143 0 0.000364344065588416 0.01906701836784851 0 -0.00038891987070433035 0.018383121679384339 0 0.00062486324509343581 0.018413107402087209 0 -0.00072522168621315679 0.018968673869476167 0 0.000364344065588416 0.01906701836784851 0 -0.00038891987070433035 0.018383121679384339 0 0.0016890895028206072 0.018772013307495006 0 0.000364344065588416 0.01906701836784851 0 0.00062486324509343581 0.018413107402087209 0 0.0020389842367431392 0.018216981129924942 0 0.00062486324509343581 0.018413107402087209 0 0.00086708560826871076 0.017407260599410449 0 0.00062486324509343581 0.018413107402087209 0 -0.00027940448515507174 0.017696461113272693 0 0.00049532423667503981 0.017136955007249949 0 0.00099709833932934292 0.017982322355619914 0 -0.00068480457286213133 0.018179263641239854 0 -0.00038891987070433035 0.018383121679384339 0 -0.00027940448515507174 0.017696461113272693 0 -0.00094398987478648338 0.017904240864610132 0 -0.00038891987070433035 0.018383121679384339 0 0.00062486324509343581 0.018413107402087209 0 -0.00027940448515507174 0.017696461113272693 0 -0.00027940448515507174 0.017696461113272693 0 -0.00011353110621869685 0.017215104980932608 0 0.00049532423667503981 0.017136955007249949 0 -0.00027940448515507174 0.017696461113272693 0 -0.00049887665602674561 0.017192021772523665 0 -0.00078100402721995477 0.017510906310624061 0 -0.00027940448515507174 0.017696461113272693 0 -0.00049887665602674561 0.017192021772523665 0 -0.00011353110621869685 0.017215104980932608 0 -0.0053549230968977677 0.019996269343244413 0 -0.0060569724744887494 0.020796162348792696 0 -0.0013130596481669007 0.01867884996228087 0 -0.00038891987070433035 0.018383121679384339 0 -0.00094398987478648338 0.017904240864610132 0 -0.0013130596481669007 0.01867884996228087 0 -0.0015637880201575692 0.018150546712458956 0 -0.00094398987478648338 0.017904240864610132 0 -0.0015637880201575692 0.018150546712458956 0 -0.00094398987478648338 0.017904240864610132 0 -0.0011459499776497629 0.017344570603885136 0 -0.00094398987478648338 0.017904240864610132 0 -0.00078100402721995477 0.017510906310624061 0 -0.0011459499776497629 0.017344570603885136 0 -0.00027940448515507174 0.017696461113272693 0 -0.00094398987478648338 0.017904240864610132 0 -0.00078100402721995477 0.017510906310624061 0 -0.00049887665602674561 0.017192021772523665 0 -0.00078100402721995477 0.017510906310624061 0 -0.00080106479933665729 0.017150800469407528 0 -0.00078100402721995477 0.017510906310624061 0 -0.00080106479933665729 0.017150800469407528 0 -0.0011459499776497629 0.017344570603885136 0 -0.010989382939138587 0.025635252342822001 0 -0.010590831460156765 0.025828895988288768 0 -0.010700170417873524 0.026171426410144218 0 -0.009470882941233362 0.025555416867488884 0 -0.010382146868037226 0.025536387794220572 0 -0.0099047884875210646 0.025836343230139017 0 -0.010590831460156765 0.025828895988288768 0 -0.010333458717958863 0.025883699412499475 0 -0.010700170417873524 0.026171426410144218 0 -0.0093762098000058532 0.021236074201990762 0 -0.010989382939138587 0.025635252342822001 0 -0.010382146868037226 0.025536387794220572 0 -0.010333458717958863 0.025883699412499475 0 -0.010382146868037226 0.025536387794220572 0 -0.0099047884875210646 0.025836343230139017 0 -0.0055891861261672619 0.024051030801858605 0 -0.0093762098000058532 0.021236074201990762 0 -0.010382146868037226 0.025536387794220572 0 -0.009604560956910195 0.021281544502603545 0 -0.0096282220642287097 0.026117588232675341 0 -0.010590831460156765 0.025828895988288768 0 -0.010333458717958863 0.025883699412499475 0 -0.010382146868037226 0.025536387794220572 0 -0.010989382939138587 0.025635252342822001 0 -0.010590831460156765 0.025828895988288768 0 -0.010382146868037226 0.025536387794220572 0 -0.010333458717958863 0.025883699412499475 0 -0.0099047884875210646 0.025836343230139017 0 -0.010233924183117964 0.026122951331404069 0 -0.0099047884875210646 0.025836343230139017 0 -0.0099495083496009516 0.026194217911954212 0 -0.010233924183117964 0.026122951331404069 0 -0.0099047884875210646 0.025836343230139017 0 -0.0099495083496009516 0.026194217911954212 0 -0.0096427523178292049 0.026195407378113687 0 -0.0099495083496009516 0.026194217911954212 0 -0.010160690970949078 0.02644909075752138 0 -0.010233924183117964 0.026122951331404069 0 -0.0099495083496009516 0.026194217911954212 0 -0.010160690970949078 0.02644909075752138 0 -0.0098974000685365087 0.026573239104243175 0 -0.010160690970949078 0.02644909075752138 0 -0.0098974000685365087 0.026573239104243175 0 -0.010225059760090131 0.026836893373076386 0 -0.0098974000685365087 0.026573239104243175 0 -0.010225059760090131 0.026836893373076386 0 -0.0098810465255724164 0.027005664997124999 0 -0.010160690970949078 0.02644909075752138 0 -0.010225059760090131 0.026836893373076386 0 -0.010569069438368368 0.026522509679185027 0 -0.010540981593853721 0.026984420228477322 0 -0.010225059760090131 0.026836893373076386 0 -0.010569069438368368 0.026522509679185027 0 -0.010160690970949078 0.02644909075752138 0 -0.010569069438368368 0.026522509679185027 0 -0.010233924183117964 0.026122951331404069 0 -0.010569069438368368 0.026522509679185027 0 -0.010233924183117964 0.026122951331404069 0 -0.010700170417873524 0.026171426410144218 0 -0.010333458717958863 0.025883699412499475 0 -0.010233924183117964 0.026122951331404069 0 -0.010700170417873524 0.026171426410144218 0 -0.00049887665602674561 0.017192021772523665 0 -0.00080106479933665729 0.017150800469407528 0 -0.00077780375866040574 0.016568120036354224 0 -0.00080106479933665729 0.017150800469407528 0 -0.0011459499776497629 0.017344570603885136 0 -0.00077780375866040574 0.016568120036354224 0 -0.0060569724744887494 0.020796162348792696 0 -0.0041888478113527314 0.02542947784940907 0 -0.010989382939138587 0.025635252342822001 0 -0.010700170417873524 0.026171426410144218 0 -0.011270060434670992 0.026986287064403154 0 -0.010569069438368368 0.026522509679185027 0 -0.010700170417873524 0.026171426410144218 0 -0.011270060434670992 0.026986287064403154 0 -0.010540981593853721 0.026984420228477322 0 -0.010569069438368368 0.026522509679185027 0 -0.011270060434670992 0.026986287064403154 0 -0.0057149215306284253 0.045194583570151381 0 -0.0088666321176028191 0.044756453951207163 0 -0.0096856120206552671 0.027798167651232809 0 -0.009126530431571387 0.027709359104366869 0 -0.01009136784483569 0.027683083365870914 0 -0.0041888478113527314 0.02542947784940907 0 -0.011686172941664493 0.027248547253877688 0 -0.010540981593853721 0.026984420228477322 0 -0.011270060434670992 0.026986287064403154 0 -0.010111103729042626 0.027605901749664166 0 -0.0093858783657070708 0.02832115698266394 0 -0.0096856120206552671 0.027798167651232809 0 -0.010111103729042626 0.027605901749664166 0 -0.0041888478113527314 0.02542947784940907 0 -0.0057149215306284253 0.045194583570151381 0 -0.0093858783657070708 0.02832115698266394 0 -0.0096856120206552671 0.027798167651232809 0 -0.009126530431571387 0.027709359104366869 0 -0.0096856120206552671 0.027798167651232809 0 -0.010111103729042626 0.027605901749664166 0 -0.01009136784483569 0.027683083365870914 0 -0.010111103729042626 0.027605901749664166 0 -0.01009136784483569 0.027683083365870914 0 -0.0097224776846993061 0.027376128273610283 0 -0.010225059760090131 0.026836893373076386 0 -0.010111103729042626 0.027605901749664166 0 -0.0098810465255724164 0.027005664997124999 0 -0.010111103729042626 0.027605901749664166 0 -0.0098810465255724164 0.027005664997124999 0 -0.0097224776846993061 0.027376128273610283 0 -0.010540981593853721 0.026984420228477322 0 -0.010225059760090131 0.026836893373076386 0 -0.010111103729042626 0.027605901749664166 0 0.0022456057646276653 0.018712006278445967 0 0.0026692495771300632 0.018625978009991748 0 0.0025815266558978827 0.019369842009530801 0 -0.00068480457286213133 0.018179263641239854 0 -0.0015762750067558763 0.042811852533135263 0 -0.0056875112069158179 0.027486684290852416 0 -0.0021513681129876386 0.029644569094710693 0 -0.0060252574291420708 0.034100434071928185 0 -0.00068480457286213133 0.018179263641239854 0 -0.0006430019284581613 0.023525569679309313 0 -0.00049887665602674561 0.017192021772523665 0 -0.00077780375866040574 0.016568120036354224 0 -0.00016678745393486339 0.016843414030623765 0 -0.00011353110621869685 0.017215104980932608 0 0.00049532423667503981 0.017136955007249949 0 -0.00016678745393486339 0.016843414030623765 0 -0.00049887665602674561 0.017192021772523665 0 -0.00011353110621869685 0.017215104980932608 0 -0.00016678745393486339 0.016843414030623765 0 0.0013475392294876115 0.031767775951752793 0 -0.0021513681129876386 0.029644569094710693 0 -0.0015265642612024191 0.032640465717465456 0 -0.0041888478113527314 0.02542947784940907 0 -0.0006430019284581613 0.023525569679309313 0 -0.0021513681129876386 0.029644569094710693 0 -0.0015265642612024191 0.032640465717465456 0 -0.0060252574291420708 0.034100434071928185 0 -0.0060500759659242896 0.062201686299080489 0 -0.0044410528150960887 0.062494048010312414 0 -0.0058836457122956069 0.061843614636899677 0 -0.0015265642612024191 0.032640465717465456 0 -0.00012910158102770721 0.035343594828790736 0 -0.0060252574291420708 0.034100434071928185 0 -0.0057149215306284253 0.045194583570151381 0 -0.0015762750067558763 0.042811852533135263 0 0.0013475392294876115 0.031767775951752793 0 -0.0015265642612024191 0.032640465717465456 0 -0.00012910158102770721 0.035343594828790736 0 -0.0044410528150960887 0.062494048010312414 0 -0.0043290350533332989 0.06159737970903368 0 -0.0051270568841699938 0.061509222486445546 0 -0.0026441937210776425 0.061992404551170791 0 -0.0040155228928814247 0.062537737636606819 0 -0.0039644844022162385 0.061366495294362979 0 -0.0043290350533332989 0.06159737970903368 0 -0.0051270568841699938 0.061509222486445546 0 -0.004061184178765994 0.060357634085585851 0 -0.0015762750067558763 0.042811852533135263 0 -0.0042526197874540638 0.0645994725569424 0 -0.0044410528150960887 0.062494048010312414 0 -0.0051270568841699938 0.061509222486445546 0 -0.0058836457122956069 0.061843614636899677 0 -0.0051270568841699938 0.061509222486445546 0 -0.0058188995235866894 0.061408486227630094 0 -0.0057011746527333863 0.060832693485619468 0 -0.0057149215306284253 0.045194583570151381 0 -0.008696416267786531 0.05833013109357639 0 -0.0058836457122956069 0.061843614636899677 0 -0.0058188995235866894 0.061408486227630094 0 -0.0064865076328263181 0.061437395669441432 0 -0.0051270568841699938 0.061509222486445546 0 -0.0058836457122956069 0.061843614636899677 0 -0.0058188995235866894 0.061408486227630094 0 -0.0052938087686037272 0.059786243379379898 0 -0.0057011746527333863 0.060832693485619468 0 -0.004061184178765994 0.060357634085585851 0 -0.0058188995235866894 0.061408486227630094 0 -0.0057011746527333863 0.060832693485619468 0 -0.0064865076328263181 0.061437395669441432 0 -0.0042526197874540638 0.0645994725569424 0 -0.0040267093943936426 0.059518258157370711 0 -0.0051270568841699938 0.061509222486445546 0 -0.0057011746527333863 0.060832693485619468 0 -0.004061184178765994 0.060357634085585851 0 -0.0026496670992688389 0.060242371219580045 0 -0.0039644844022162385 0.061366495294362979 0 -0.004061184178765994 0.060357634085585851 0 -0.0071336705682077551 0.06191413326120427 0 -0.0064865076328263181 0.061437395669441432 0 -0.0073547139561158876 0.061541285119120305 0 -0.0060831791052721549 0.062114400113815901 0 -0.0058836457122956069 0.061843614636899677 0 -0.0064865076328263181 0.061437395669441432 0 -0.0060831791052721549 0.062114400113815901 0 -0.0071336705682077551 0.06191413326120427 0 -0.0064865076328263181 0.061437395669441432 0 -0.0068826023498063859 0.060715724501005215 0 -0.0057011746527333863 0.060832693485619468 0 -0.0064865076328263181 0.061437395669441432 0 -0.0068826023498063859 0.060715724501005215 0 -0.0064865076328263181 0.061437395669441432 0 -0.0073547139561158876 0.061541285119120305 0 -0.007436227259719437 0.06197198515642556 0 -0.0073547139561158876 0.061541285119120305 0 -0.0076566813198980762 0.061769200074051157 0 -0.0073547139561158876 0.061541285119120305 0 -0.0076390408310089714 0.061869781707164277 0 -0.0076566813198980762 0.061769200074051157 0 -0.0088666321176028191 0.044756453951207163 0 -0.0088818482206503447 0.04485115397720181 0 -0.0071336705682077551 0.06191413326120427 0 -0.0073547139561158876 0.061541285119120305 0 -0.0076390408310089714 0.061869781707164277 0 -0.01009136784483569 0.027683083365870914 0 -0.0093770343564471472 0.027995656524504021 0 -0.0097224776846993061 0.027376128273610283 0 -0.0088818482206503447 0.04485115397720181 0 -0.0060905864996890222 0.045560925841473358 0 -0.0093770343564471472 0.027995656524504021 0 -0.0084454430488901718 0.028274910216812742 0 -0.008604237280560088 0.027461443593994609 0 -0.0076390408310089714 0.061869781707164277 0 -0.0076566813198980762 0.061769200074051157 0 -0.0080506068039169956 0.061910106106129272 0 -0.0079640337909751679 0.061742117072745024 0 -0.0076566813198980762 0.061769200074051157 0 -0.0080506068039169956 0.061910106106129272 0 -0.0083536512290710192 0.06170576699585497 0 -0.0079640337909751679 0.061742117072745024 0 -0.0080506068039169956 0.061910106106129272 0 -0.0083536512290710192 0.06170576699585497 0 -0.0085262653095531833 0.061819192705829612 0 -0.0080506068039169956 0.061910106106129272 0 -0.017266610698671907 0.062905996759658772 0 -0.018368176549661469 0.042769614647871407 0 -0.018368176549661469 0.042769614647871407 0 -0.019669580261940631 0.020526571455970123 0 -0.029656634534594193 0.021734023108337122 0 -0.030469516145499913 0.022821091583243445 0 -0.03075092557281562 0.02152541300658619 0 -0.0074584796797096883 0.028575321700546327 0 -0.0084454430488901718 0.028274910216812742 0 -0.0076351913941848128 0.027261251540140152 0 -0.018368176549661469 0.042769614647871407 0 -0.0060905864996890222 0.045560925841473358 0 -0.0084454430488901718 0.028274910216812742 0 -0.0076351913941848128 0.027261251540140152 0 -0.008604237280560088 0.027461443593994609 0 -0.0076351913941848128 0.027261251540140152 0 -0.008399948941555534 0.026771752502208233 0 -0.008604237280560088 0.027461443593994609 0 -0.01907754424138763 0.025214807119083242 0 -0.019669580261940631 0.020526571455970123 0 -0.030043034258664683 0.020593157157765423 0 -0.030969023453111498 0.020291177866183167 0 -0.03075092557281562 0.02152541300658619 0 -0.0078509549313773817 0.02602480959990687 0 -0.0076351913941848128 0.027261251540140152 0 -0.008399948941555534 0.026771752502208233 0 -0.0078509549313773817 0.02602480959990687 0 -0.0086447102161154223 0.026017677873612262 0 -0.008399948941555534 0.026771752502208233 0 -0.0086447102161154223 0.026017677873612262 0 -0.008399948941555534 0.026771752502208233 0 -0.0090819876060336622 0.026991842721729432 0 -0.0086447102161154223 0.026017677873612262 0 -0.0092256450107881562 0.02624093599554821 0 -0.0090819876060336622 0.026991842721729432 0 -0.0092256450107881562 0.02624093599554821 0 -0.0096427523178292049 0.026195407378113687 0 -0.0095674043608850907 0.026727240433013996 0 -0.0098974000685365087 0.026573239104243175 0 -0.0096427523178292049 0.026195407378113687 0 -0.0095674043608850907 0.026727240433013996 0 -0.0099495083496009516 0.026194217911954212 0 -0.0098974000685365087 0.026573239104243175 0 -0.0096427523178292049 0.026195407378113687 0 -0.0098974000685365087 0.026573239104243175 0 -0.0098810465255724164 0.027005664997124999 0 -0.0095674043608850907 0.026727240433013996 0 -0.0092256450107881562 0.02624093599554821 0 -0.0095674043608850907 0.026727240433013996 0 -0.0090819876060336622 0.026991842721729432 0 -0.0095674043608850907 0.026727240433013996 0 -0.0097224776846993061 0.027376128273610283 0 -0.0090819876060336622 0.026991842721729432 0 -0.0093770343564471472 0.027995656524504021 0 -0.0097224776846993061 0.027376128273610283 0 -0.0090819876060336622 0.026991842721729432 0 -0.0098810465255724164 0.027005664997124999 0 -0.0095674043608850907 0.026727240433013996 0 -0.0097224776846993061 0.027376128273610283 0 -0.0093770343564471472 0.027995656524504021 0 -0.008604237280560088 0.027461443593994609 0 -0.0090819876060336622 0.026991842721729432 0 -0.008399948941555534 0.026771752502208233 0 -0.008604237280560088 0.027461443593994609 0 -0.0090819876060336622 0.026991842721729432 0 -0.057898976036798971 0.042974558568726909 0 -0.059346680488904818 0.044288005224137429 0 -0.057025330153111994 0.044921220755752035 0 -0.05642604716358636 0.042859968872661539 0 -0.057898976036798971 0.042974558568726909 0 -0.057025330153111994 0.044921220755752035 0 -0.054999952898142579 0.044040816879910738 0 -0.05642604716358636 0.042859968872661539 0 -0.057025330153111994 0.044921220755752035 0 -0.054999952898142579 0.044040816879910738 0 -0.05642604716358636 0.042859968872661539 0 -0.054999927664540045 0.040874232221022287 0 -0.05642604716358636 0.042859968872661539 0 -0.054999927664540045 0.040874232221022287 0 -0.056296400958475094 0.040884610708439593 0 -0.056487042514097578 0.042953898035115325 0 -0.056758633487730775 0.039898759098284345 0 -0.057898976036798971 0.042974558568726909 0 -0.058894970381777011 0.041525923707692654 0 -0.057454995550211455 0.041374603944066377 0 -0.05642604716358636 0.042859968872661539 0 -0.057898976036798971 0.042974558568726909 0 -0.057454995550211455 0.041374603944066377 0 -0.05642604716358636 0.042859968872661539 0 -0.057680172685535262 0.04101693490547767 0 -0.056296400958475094 0.040884610708439593 0 -0.057898976036798971 0.042974558568726909 0 -0.059346680488904818 0.044288005224137429 0 -0.058894970381777011 0.041525923707692654 0 -0.060324135693584413 0.041682642952054656 0 -0.059346680488904818 0.044288005224137429 0 -0.058894970381777011 0.041525923707692654 0 -0.052680868101461893 0.040777501103474431 0 -0.057686596686622925 0.039563891382616484 0 -0.04723802735782149 0.044490368968069911 0 -0.04828620883805667 0.047402059352442467 0 -0.045432933135502951 0.048944624059676943 0 -0.052680868101461893 0.040777501103474431 0 -0.052529936720547801 0.047074110425937551 0 -0.04828620883805667 0.047402059352442467 0 -0.045432933135502951 0.048944624059676943 0 -0.045770794193052064 0.049819262077560419 0 -0.04623618760857879 0.049359994958529586 0 -0.045770794193052064 0.049819262077560419 0 -0.046172942747967641 0.049823839125115198 0 -0.047255955163787701 0.049038286211004145 0 -0.0459770817114383 0.049541082219901673 0 -0.059346680488904818 0.044288005224137429 0 -0.05830720136133017 0.047116421725154581 0 -0.057025330153111994 0.044921220755752035 0 -0.052529936720547801 0.047074110425937551 0 -0.051142172195586359 0.049568104887806309 0 -0.045432933135502951 0.048944624059676943 0 -0.045770794193052064 0.049819262077560419 0 -0.044449841010572727 0.052406919234422422 0 -0.045770794193052064 0.049819262077560419 0 -0.045820678057461893 0.05049957363157509 0 -0.044449841010572727 0.052406919234422422 0 -0.045820678057461893 0.05049957363157509 0 -0.046172942747967641 0.049823839125115198 0 -0.046294659655434174 0.050049885463536205 0 -0.045770794193052064 0.049819262077560419 0 -0.045820678057461893 0.05049957363157509 0 -0.046172942747967641 0.049823839125115198 0 -0.045834720931423281 0.050431525190740206 0 -0.047330364551924235 0.050572085331006836 0 -0.045820678057461893 0.05049957363157509 0 -0.047762031391540553 0.050785714180335118 0 -0.046256633357829841 0.052212439412082007 0 -0.047762031391540553 0.050785714180335118 0 -0.046256633357829841 0.052212439412082007 0 -0.048056102413242659 0.052469711079776521 0 -0.046256633357829841 0.052212439412082007 0 -0.045507406984213336 0.053113676452362861 0 -0.046157108804471998 0.054082427043704362 0 -0.046256633357829841 0.052212439412082007 0 -0.046157108804471998 0.054082427043704362 0 -0.048056102413242659 0.052469711079776521 0 -0.046216751296456561 0.054146905787167736 0 -0.047126839120505221 0.053528225077984062 0 -0.046157108804471998 0.054082427043704362 0 -0.046011525233400442 0.05439870045429044 0 -0.045990544593239369 0.054872470769032546 0 -0.045820678057461893 0.05049957363157509 0 -0.046256633357829841 0.052212439412082007 0 -0.044449841010572727 0.052406919234422422 0 -0.046256633357829841 0.052212439412082007 0 -0.044449841010572727 0.052406919234422422 0 -0.045507406984213336 0.053113676452362861 0 -0.044449841010572727 0.052406919234422422 0 -0.045507406984213336 0.053113676452362861 0 -0.045214352584593019 0.053681298484354947 0 -0.05830720136133017 0.047116421725154581 0 -0.057025330153111994 0.044921220755752035 0 -0.054999898434807147 0.047207050826919783 0 -0.05830720136133017 0.047116421725154581 0 -0.054999898434807147 0.047207050826919783 0 -0.057175703074622476 0.049962148131752142 0 -0.054999952898142579 0.044040816879910738 0 -0.057025330153111994 0.044921220755752035 0 -0.054999898434807147 0.047207050826919783 0 -0.054999898434807147 0.047207050826919783 0 -0.057175703074622476 0.049962148131752142 0 -0.054999900157092142 0.050373307666935943 0 -0.051142172195586359 0.049568104887806309 0 -0.052256202407900972 0.053034376812145824 0 -0.044449841010572727 0.052406919234422422 0 -0.043818869127195237 0.054854940365517496 0 -0.045214352584593019 0.053681298484354947 0 -0.05311115732200028 0.057557164911566761 0 -0.050986081363230573 0.057355084133874294 0 -0.051038101654815836 0.058398617297959199 0 -0.052256202407900972 0.053034376812145824 0 -0.054737339805035173 0.054789963205723782 0 -0.052296015236329096 0.05913852802284552 0 -0.05311115732200028 0.057557164911566761 0 -0.051038101654815836 0.058398617297959199 0 -0.056997983878827187 0.050108923790514646 0 -0.054999891611606393 0.050373942116272649 0 -0.055000018404980068 0.050731836513806305 0 -0.056997983878827187 0.050108923790514646 0 -0.055000018404980068 0.050731836513806305 0 -0.056325896898322625 0.051751340169196421 0 -0.052256202407900972 0.053034376812145824 0 -0.055006559925727845 0.050371747307364975 0 -0.055000337964894785 0.050731451434713457 0 -0.054879110268519847 0.054541844058396502 0 -0.05311115732200028 0.057557164911566761 0 -0.052160833340375599 0.056259473504321499 0 -0.054024775113179498 0.056034229351360029 0 -0.055000018404980068 0.050731836513806305 0 -0.056325896898322625 0.051751340169196421 0 -0.055597111668247434 0.053461474555705144 0 -0.054737339805035173 0.054789963205723782 0 -0.054879110268519847 0.054541844058396502 0 -0.055001358233685536 0.050731954587735724 0 -0.054997081876973622 0.055000896898167118 0 -0.055655754372530834 0.053756086157704094 0 -0.05311115732200028 0.057557164911566761 0 -0.052160833340375599 0.056259473504321499 0 -0.050986081363230573 0.057355084133874294 0 -0.052160833340375599 0.056259473504321499 0 -0.053961077555087375 0.054999796849599249 0 -0.051105055284622072 0.054999705956964795 0 -0.053962586918802888 0.055000829833730669 0 -0.054879110268519847 0.054541844058396502 0 -0.052160833340375599 0.056259473504321499 0 -0.053961077555087375 0.054999796849599249 0 -0.054024775113179498 0.056034229351360029 0 -0.054813782582505077 0.05500007144650098 0 -0.054879110268519847 0.054541844058396502 0 -0.053962017584359548 0.054999988253154393 0 -0.054813751529648715 0.054999996151651881 0 -0.054276629971446798 0.056244987642902977 0 -0.054997081876973622 0.055000896898167118 0 -0.054818258795059693 0.054998525698885789 0 -0.055655754372530834 0.053756086157704094 0 -0.048247611152264752 0.054999735569247067 0 -0.051105055284622072 0.054999705956964795 0 -0.049782474887014559 0.056388036616264792 0 -0.048247611152264752 0.054999735569247067 0 -0.049782474887014559 0.056388036616264792 0 -0.047972741712547916 0.057112927176538909 0 -0.052160833340375599 0.056259473504321499 0 -0.051105055284622072 0.054999705956964795 0 -0.049782474887014559 0.056388036616264792 0 -0.049782474887014559 0.056388036616264792 0 -0.050986081363230573 0.057355084133874294 0 -0.049479613571823781 0.057867674031784166 0 -0.052160833340375599 0.056259473504321499 0 -0.049782474887014559 0.056388036616264792 0 -0.050986081363230573 0.057355084133874294 0 -0.049782474887014559 0.056388036616264792 0 -0.049479613571823781 0.057867674031784166 0 -0.047972741712547916 0.057112927176538909 0 -0.049479613571823781 0.057867674031784166 0 -0.048102959933207519 0.05832032048057114 0 -0.049632681192671391 0.059386417538775126 0 -0.049479613571823781 0.057867674031784166 0 -0.048102959933207519 0.05832032048057114 0 -0.047972741712547916 0.057112927176538909 0 -0.052296015236329096 0.05913852802284552 0 -0.051038101654815836 0.058398617297959199 0 -0.049632681192671391 0.059386417538775126 0 -0.049479613571823781 0.057867674031784166 0 -0.051038101654815836 0.058398617297959199 0 -0.049632681192671391 0.059386417538775126 0 -0.050986081363230573 0.057355084133874294 0 -0.049479613571823781 0.057867674031784166 0 -0.051038101654815836 0.058398617297959199 0 -0.043818869127195237 0.054854940365517496 0 -0.045990603437010662 0.054354008440193606 0 -0.045214352584593019 0.053681298484354947 0 -0.052256202407900972 0.053034376812145824 0 -0.046818613142046848 0.05737721866603341 0 -0.045507406984213336 0.053113676452362861 0 -0.045214352584593019 0.053681298484354947 0 -0.046157108804471998 0.054082427043704362 0 -0.045990603437010662 0.054354008440193606 0 -0.045214352584593019 0.053681298484354947 0 -0.046157108804471998 0.054082427043704362 0 -0.048102959933207519 0.05832032048057114 0 -0.049632681192671391 0.059386417538775126 0 -0.047020829092476686 0.059047504960109694 0 -0.046818613142046848 0.05737721866603341 0 -0.046719166347931086 0.056653499474129884 0 -0.045990603437010662 0.054354008440193606 0 -0.046157108804471998 0.054082427043704362 0 -0.046011525233400442 0.05439870045429044 0 -0.045990603437010662 0.054354008440193606 0 -0.046011525233400442 0.05439870045429044 0 -0.045847551402705175 0.054422809088566282 0 -0.046011525233400442 0.05439870045429044 0 -0.045847551402705175 0.054422809088566282 0 -0.04555574129955204 0.054938738111189545 0 -0.045847551402705175 0.054422809088566282 0 -0.04510975481879826 0.055147944155765884 0 -0.04555574129955204 0.054938738111189545 0 -0.046719166347931086 0.056653499474129884 0 -0.04540268958804855 0.056599699307560924 0 -0.047020829092476686 0.059047504960109694 0 -0.0455087447957866 0.057853380240819811 0 -0.045450118731303051 0.058081636406865908 0 -0.0455087447957866 0.057853380240819811 0 -0.046894407816703815 0.057846612022310936 0 -0.04611063817236797 0.056694672805266147 0 -0.047020829092476686 0.059047504960109694 0 -0.0455087447957866 0.057853380240819811 0 -0.046894407816703815 0.057846612022310936 0 -0.048102959933207519 0.05832032048057114 0 -0.047020829092476686 0.059047504960109694 0 -0.046894407816703815 0.057846612022310936 0 -0.048102959933207519 0.05832032048057114 0 -0.046894407816703815 0.057846612022310936 0 -0.047972741712547916 0.057112927176538909 0 -0.046894407816703815 0.057846612022310936 0 -0.047972741712547916 0.057112927176538909 0 -0.04611063817236797 0.056694672805266147 0 -0.04611063817236797 0.056694672805266147 0 -0.045392960884731118 0.054999879566934154 0 -0.044570221562348529 0.056621844782354977 0 -0.048247611152264752 0.054999735569247067 0 -0.047972741712547916 0.057112927176538909 0 -0.04611063817236797 0.056694672805266147 0 -0.048247611152264752 0.054999735569247067 0 -0.04611063817236797 0.056694672805266147 0 -0.045392960884731118 0.054999879566934154 0 -0.043102293927618857 0.054999872988571605 0 -0.041118090419354901 0.05674037744008123 0 -0.040813515920918378 0.054999878385452609 0 -0.043102293927618857 0.054999872988571605 0 -0.043282022255072487 0.057063235799982348 0 -0.041118090419354901 0.05674037744008123 0 -0.045391143607436221 0.05500003435306778 0 -0.043102293927618857 0.054999872988571605 0 -0.043282022255072487 0.057063235799982348 0 -0.045390937031840307 0.055000552240471567 0 -0.043951464343868221 0.056565470636250226 0 -0.0455087447957866 0.057853380240819811 0 -0.04611063817236797 0.056694672805266147 0 -0.044570221562348529 0.056621844782354977 0 -0.043282022255072487 0.057063235799982348 0 -0.041282957534625998 0.058830428783849795 0 -0.041118090419354901 0.05674037744008123 0 -0.043951464343868221 0.056565470636250226 0 -0.042615299012298012 0.059795110314956788 0 -0.044570221562348529 0.056621844782354977 0 -0.043404958670355612 0.057970147060691597 0 -0.044373040056030863 0.057783014096138834 0 -0.043404958670355612 0.057970147060691597 0 -0.044373040056030863 0.057783014096138834 0 -0.043793396742325776 0.058585187205200007 0 -0.044927280350957312 0.057792025422053195 0 -0.046111846161203174 0.058589703439766466 0 -0.0455087447957866 0.057853380240819811 0 -0.044570221562348529 0.056621844782354977 0 -0.044373040056030863 0.057783014096138834 0 -0.0455087447957866 0.057853380240819811 0 -0.044373040056030863 0.057783014096138834 0 -0.043793396742325776 0.058585187205200007 0 -0.0455087447957866 0.057853380240819811 0 -0.045450118731303051 0.058081636406865908 0 -0.04555131371856054 0.057408688055215727 0 -0.04540268958804855 0.056599699307560924 0 -0.045881860644518539 0.056312633305644608 0 -0.045450118731303051 0.058081636406865908 0 -0.04555131371856054 0.057408688055215727 0 -0.045750410954019195 0.056291692430013432 0 -0.045774342538494953 0.054933702194158468 0 -0.045126240180226158 0.055255579202296935 0 -0.045292329821366696 0.055422271078738178 0 -0.045750410954019195 0.056291692430013432 0 -0.045774342538494953 0.054933702194158468 0 -0.045292329821366696 0.055422271078738178 0 -0.045870773899780712 0.05494595838374778 0 -0.043675821026758238 0.055052757457975207 0 -0.037643138580256301 0.040636794589166719 0 -0.038774280856169283 0.041471025980647024 0 -0.045774342538494953 0.054933702194158468 0 -0.045560686324382212 0.054435728781005291 0 -0.043111473228131629 0.054572093691774674 0 -0.045560686324382212 0.054435728781005291 0 -0.043387901446153392 0.053421435929379493 0 -0.043111473228131629 0.054572093691774674 0 -0.045560686324382212 0.054435728781005291 0 -0.043387901446153392 0.053421435929379493 0 -0.04313785988041844 0.051666294368762043 0 -0.043387901446153392 0.053421435929379493 0 -0.043111473228131629 0.054572093691774674 0 -0.041762976773958335 0.053020320202293712 0 -0.04510975481879826 0.055147944155765884 0 -0.045292329821366696 0.055422271078738178 0 -0.045228491058799739 0.055163071547877127 0 -0.045126240180226158 0.055255579202296935 0 -0.045292329821366696 0.055422271078738178 0 -0.045228491058799739 0.055163071547877127 0 -0.04510975481879826 0.055147944155765884 0 -0.045750410954019195 0.056291692430013432 0 -0.045292329821366696 0.055422271078738178 0 -0.04510975481879826 0.055147944155765884 0 -0.04555574129955204 0.054938738111189545 0 -0.045228491058799739 0.055163071547877127 0 -0.045126240180226158 0.055255579202296935 0 -0.045228491058799739 0.055163071547877127 0 -0.045558748927959657 0.055326230196564609 0 -0.04555574129955204 0.054938738111189545 0 -0.045228491058799739 0.055163071547877127 0 -0.045558748927959657 0.055326230196564609 0 -0.046011525233400442 0.05439870045429044 0 -0.04555574129955204 0.054938738111189545 0 -0.045990544593239369 0.054872470769032546 0 -0.04555574129955204 0.054938738111189545 0 -0.045990544593239369 0.054872470769032546 0 -0.045558748927959657 0.055326230196564609 0 -0.047126839120505221 0.053528225077984062 0 -0.045458634936226212 0.052594001462808897 0 -0.047762031391540553 0.050785714180335118 0 -0.048056102413242659 0.052469711079776521 0 -0.049651904676069093 0.051010070060521433 0 -0.047330364551924235 0.050572085331006836 0 -0.045458634936226212 0.052594001462808897 0 -0.046294659655434174 0.050049885463536205 0 -0.046592521897446074 0.049980611522196086 0 -0.046455232509768102 0.04971236635034261 0 -0.046172942747967641 0.049823839125115198 0 -0.046294659655434174 0.050049885463536205 0 -0.046455232509768102 0.04971236635034261 0 -0.043675821026758238 0.055052757457975207 0 -0.045458634936226212 0.052594001462808897 0 -0.043111473228131629 0.054572093691774674 0 -0.040429194567287392 0.054228199652517191 0 -0.041762976773958335 0.053020320202293712 0 -0.046592521897446074 0.049980611522196086 0 -0.046810014506848026 0.049677477949409722 0 -0.046455232509768102 0.04971236635034261 0 -0.045458634936226212 0.052594001462808897 0 -0.043779882535604692 0.051311549769940096 0 -0.046810014506848026 0.049677477949409722 0 -0.046455232509768102 0.04971236635034261 0 -0.046581190118616292 0.049329094753847703 0 -0.046810014506848026 0.049677477949409722 0 -0.046765046617009615 0.049326238507093917 0 -0.047024870307758954 0.049368565486476904 0 -0.046810014506848026 0.049677477949409722 0 -0.046765046617009615 0.049326238507093917 0 -0.046581190118616292 0.049329094753847703 0 -0.04623618760857879 0.049359994958529586 0 -0.046455232509768102 0.04971236635034261 0 -0.046581190118616292 0.049329094753847703 0 -0.04623618760857879 0.049359994958529586 0 -0.046172942747967641 0.049823839125115198 0 -0.046455232509768102 0.04971236635034261 0 -0.04723802735782149 0.044490368968069911 0 -0.04828620883805667 0.047402059352442467 0 -0.050784030106114965 0.044820875635529382 0 -0.04623618760857879 0.049359994958529586 0 -0.046581190118616292 0.049329094753847703 0 -0.04651462077570085 0.048923215109761699 0 -0.052680868101461893 0.040777501103474431 0 -0.044945268124298624 0.040178663702761616 0 -0.047255955163787701 0.049038286211004145 0 -0.044945268124298624 0.040178663702761616 0 -0.044945268124298624 0.040178663702761616 0 -0.041158653315346128 0.034981967713696722 0 -0.039582798701304871 0.03736072461834139 0 -0.030345914377541243 0.031482771003933298 0 -0.034533697964502223 0.032810347119443993 0 -0.032382495620941781 0.031744133172040362 0 -0.032289762482718982 0.030568745198629271 0 -0.046765046617009615 0.049326238507093917 0 -0.046644251657570482 0.048931074799232484 0 -0.047024870307758954 0.049368565486476904 0 -0.039582798701304871 0.03736072461834139 0 -0.038774280856169283 0.041471025980647024 0 -0.033286200764648798 0.031724172694015909 0 -0.03151449283223029 0.031591404199029872 0 -0.032504571182358562 0.032215818032396093 0 -0.046765046617009615 0.049326238507093917 0 -0.046581190118616292 0.049329094753847703 0 -0.046644251657570482 0.048931074799232484 0 -0.046581190118616292 0.049329094753847703 0 -0.04651462077570085 0.048923215109761699 0 -0.046644251657570482 0.048931074799232484 0 -0.033286200764648798 0.031724172694015909 0 -0.033549664770208348 0.031994043927388811 0 -0.032504571182358562 0.032215818032396093 0 -0.044945268124298624 0.040178663702761616 0 -0.039582798701304871 0.03736072461834139 0 -0.042935293699828313 0.038730709936308616 0 -0.040505942618403262 0.038491512492164086 0 -0.041826802141806584 0.039825323857150319 0 -0.039582798701304871 0.03736072461834139 0 -0.041158653315346128 0.034981967713696722 0 -0.034533697964502223 0.032810347119443993 0 -0.032382495620941781 0.031744133172040362 0 -0.031690145047905516 0.032372817847962365 0 -0.032382495620941781 0.031744133172040362 0 -0.031283196029309908 0.031511330848346092 0 -0.031690145047905516 0.032372817847962365 0 -0.030345914377541243 0.031482771003933298 0 -0.030603693123086674 0.031846025625530142 0 -0.03151449283223029 0.031591404199029872 0 -0.029924401362202702 0.031690675790322344 0 -0.03088620718838974 0.032140050402754014 0 -0.031283196029309908 0.031511330848346092 0 -0.031690145047905516 0.032372817847962365 0 -0.029924401362202702 0.031690675790322344 0 -0.029924401362202702 0.031690675790322344 0 -0.030327674563403056 0.03238181794370075 0 -0.03088620718838974 0.032140050402754014 0 -0.031283196029309908 0.031511330848346092 0 -0.030233748184623169 0.030788667300966362 0 -0.029924401362202702 0.031690675790322344 0 -0.031283196029309908 0.031511330848346092 0 -0.030233748184623169 0.030788667300966362 0 -0.031836940899621427 0.031052912337476691 0 -0.030322759172808699 0.029864789115225155 0 -0.030233748184623169 0.030788667300966362 0 -0.031836940899621427 0.031052912337476691 0 -0.043387901446153392 0.053421435929379493 0 -0.041762976773958335 0.053020320202293712 0 -0.04313785988041844 0.051666294368762043 0 -0.043779882535604692 0.051311549769940096 0 -0.038774280856169283 0.041471025980647024 0 -0.032382495620941781 0.031744133172040362 0 -0.031283196029309908 0.031511330848346092 0 -0.032289762482718982 0.030568745198629271 0 -0.034216686807395126 0.033962971870577292 0 -0.038774280856169283 0.041471025980647024 0 -0.028929338315344146 0.031478812183470609 0 -0.027834460267750449 0.030486245916159619 0 -0.029065624777975887 0.030312295627756516 0 -0.030233748184623169 0.030788667300966362 0 -0.028929338315344146 0.031478812183470609 0 -0.029065624777975887 0.030312295627756516 0 -0.030233748184623169 0.030788667300966362 0 -0.029924401362202702 0.031690675790322344 0 -0.028929338315344146 0.031478812183470609 0 -0.029924401362202702 0.031690675790322344 0 -0.029342821057457485 0.03198162626106614 0 -0.028929338315344146 0.031478812183470609 0 -0.029924401362202702 0.031690675790322344 0 -0.029342821057457485 0.03198162626106614 0 -0.029690676789560215 0.03247877380779722 0 -0.029342821057457485 0.03198162626106614 0 -0.028929338315344146 0.031478812183470609 0 -0.028922998841920337 0.032392137188553077 0 -0.028929338315344146 0.031478812183470609 0 -0.027725433327367866 0.032000925681331005 0 -0.027834460267750449 0.030486245916159619 0 -0.028929338315344146 0.031478812183470609 0 -0.027725433327367866 0.032000925681331005 0 -0.028301992098867138 0.032431526260392932 0 -0.027327049117954555 0.03083203841019622 0 -0.027739649940257665 0.02996564616797279 0 -0.026905257031528684 0.027808429681113418 0 -0.028147551586251703 0.029332840604316089 0 -0.027834460267750449 0.030486245916159619 0 -0.026905257031528684 0.027808429681113418 0 -0.028147551586251703 0.029332840604316089 0 -0.028279372281680523 0.028193173803983989 0 -0.028279372281680523 0.028193173803983989 0 -0.02973667407981773 0.029163159510444969 0 -0.028356550558443324 0.026486747176049305 0 -0.02954374078004177 0.029237099729674212 0 -0.028356550558443324 0.026486747176049305 0 -0.029563474296135678 0.027467317933902925 0 -0.032901974473776179 0.034400018900211327 0 -0.027325687276521266 0.024636350542222303 0 -0.02954374078004177 0.029237099729674212 0 -0.029709056838704933 0.028970789364951698 0 -0.029563474296135678 0.027467317933902925 0 -0.028147551586251703 0.029332840604316089 0 -0.028279372281680523 0.028193173803983989 0 -0.02973667407981773 0.029163159510444969 0 -0.032901974473776179 0.034400018900211327 0 -0.030912954882777594 0.032883753456415865 0 -0.032901974473776179 0.034400018900211327 0 -0.03668728375990437 0.044537617518504803 0 -0.039831641526390772 0.04286430723879589 0 -0.037271928656735197 0.047548057974507216 0 -0.041653558764257623 0.046515566597028851 0 -0.032901974473776179 0.034400018900211327 0 -0.031487945153176676 0.035318649969901222 0 -0.028147551586251703 0.029332840604316089 0 -0.02973667407981773 0.029163159510444969 0 -0.028060448085773002 0.030501134764693301 0 -0.036787428844927916 0.037572010228536838 0 -0.03479972606133467 0.040100200796781491 0 -0.035198879851731479 0.040656922587999994 0 -0.028147551586251703 0.029332840604316089 0 -0.027834460267750449 0.030486245916159619 0 -0.028060448085773002 0.030501134764693301 0 -0.035198879851731479 0.040656922587999994 0 -0.033584563762390877 0.043646663624155604 0 -0.032837494480963694 0.042608584959227154 0 -0.03668728375990437 0.044537617518504803 0 -0.034431058982263105 0.04961884829913564 0 -0.03479972606133467 0.040100200796781491 0 -0.035198879851731479 0.040656922587999994 0 -0.032837494480963694 0.042608584959227154 0 -0.037271928656735197 0.047548057974507216 0 -0.035022118736462916 0.051999152697588438 0 -0.035748441434796205 0.051602442661974911 0 -0.027834460267750449 0.030486245916159619 0 -0.028060448085773002 0.030501134764693301 0 -0.028290016512070512 0.029856801526599541 0 -0.031487945153176676 0.035318649969901222 0 -0.030434624885768209 0.034415431624303779 0 -0.037271928656735197 0.047548057974507216 0 -0.038569871156594562 0.050477334340006362 0 -0.035748441434796205 0.051602442661974911 0 -0.037271928656735197 0.047548057974507216 0 -0.038569871156594562 0.050477334340006362 0 -0.041653558764257623 0.046515566597028851 0 -0.038369323813038404 0.051593304649987695 0 -0.03457118008824115 0.044314890689886463 0 -0.037234025633126208 0.052091828718433243 0 -0.037353990157604045 0.053932851980090811 0 -0.035784922513391694 0.053943346947120496 0 -0.037234025633126208 0.052091828718433243 0 -0.037353990157604045 0.053932851980090811 0 -0.038478653532238477 0.052919487158678516 0 -0.038369323813038404 0.051593304649987695 0 -0.035844972295678929 0.053719439290269511 0 -0.038569871156594562 0.050477334340006362 0 -0.035748441434796205 0.051602442661974911 0 -0.035784922513391694 0.053943346947120496 0 -0.034431058982263105 0.04961884829913564 0 -0.034612545024909618 0.049922342092605133 0 -0.035133690310170135 0.052033615679915608 0 -0.035748441434796205 0.051602442661974911 0 -0.035784922513391694 0.053943346947120496 0 -0.034431058982263105 0.04961884829913564 0 -0.033994527112203798 0.054571171640873356 0 -0.035133690310170135 0.052033615679915608 0 -0.034252153804247717 0.054399938496560128 0 -0.035784922513391694 0.053943346947120496 0 -0.033584563762390877 0.043646663624155604 0 -0.032837494480963694 0.042608584959227154 0 -0.030797936436745332 0.045242336312849823 0 -0.034431058982263105 0.04961884829913564 0 -0.036753031387628365 0.051084234616679054 0 -0.035353601296783888 0.052490506933549827 0 -0.032715539989321869 0.05394309463735248 0 -0.034252153804247717 0.054399938496560128 0 -0.030434624885768209 0.034415431624303779 0 -0.036753031387628365 0.051084234616679054 0 -0.028290016512070512 0.029856801526599541 0 -0.029188899700030652 0.029647622790434296 0 -0.02916728610290693 0.029064628571729468 0 -0.027834460267750449 0.030486245916159619 0 -0.028290016512070512 0.029856801526599541 0 -0.029065624777975887 0.030312295627756516 0 -0.028290016512070512 0.029856801526599541 0 -0.029065624777975887 0.030312295627756516 0 -0.029188899700030652 0.029647622790434296 0 -0.030322759172808699 0.029864789115225155 0 -0.030233748184623169 0.030788667300966362 0 -0.029065624777975887 0.030312295627756516 0 -0.030322759172808699 0.029864789115225155 0 -0.029065624777975887 0.030312295627756516 0 -0.029188899700030652 0.029647622790434296 0 -0.037643138580256301 0.040636794589166719 0 -0.036753031387628365 0.051084234616679054 0 -0.045750410954019195 0.056291692430013432 0 -0.045774342538494953 0.054933702194158468 0 -0.047345982108266321 0.056406335602092211 0 -0.030322759172808699 0.029864789115225155 0 -0.029188899700030652 0.029647622790434296 0 -0.02916728610290693 0.029064628571729468 0 -0.045774342538494953 0.054933702194158468 0 -0.045560686324382212 0.054435728781005291 0 -0.047345982108266321 0.056406335602092211 0 -0.046111846161203174 0.058589703439766466 0 -0.036753031387628365 0.051084234616679054 0 -0.04555131371856054 0.057408688055215727 0 -0.045750410954019195 0.056291692430013432 0 -0.047345982108266321 0.056406335602092211 0 -0.042615299012298012 0.059795110314956788 0 -0.036753031387628365 0.051084234616679054 0 -0.043404958670355612 0.057970147060691597 0 -0.043793396742325776 0.058585187205200007 0 -0.04216445541980611 0.059165290259801898 0 -0.041282957534625998 0.058830428783849795 0 -0.039558314365734898 0.060519142902638962 0 -0.039597882728784756 0.058980503824036884 0 -0.039558314365734898 0.060519142902638962 0 -0.039597882728784756 0.058980503824036884 0 -0.038101703434465499 0.05900653451220636 0 -0.036753031387628365 0.051084234616679054 0 -0.036864779583337545 0.058268597441705226 0 -0.032715539989321869 0.05394309463735248 0 -0.034252153804247717 0.054399938496560128 0 -0.034898630830676479 0.055893129096201324 0 -0.038827108816098313 0.058312672812224735 0 -0.038075189703420192 0.05759314717183997 0 -0.038101703434465499 0.05900653451220636 0 -0.038827108816098313 0.058312672812224735 0 -0.039597882728784756 0.058980503824036884 0 -0.038101703434465499 0.05900653451220636 0 -0.038827108816098313 0.058312672812224735 0 -0.039597882728784756 0.058980503824036884 0 -0.039514410081356061 0.057671346848915027 0 -0.038827108816098313 0.058312672812224735 0 -0.039514410081356061 0.057671346848915027 0 -0.038075189703420192 0.05759314717183997 0 -0.041282957534625998 0.058830428783849795 0 -0.039597882728784756 0.058980503824036884 0 -0.039514410081356061 0.057671346848915027 0 -0.041282957534625998 0.058830428783849795 0 -0.041118090419354901 0.05674037744008123 0 -0.039514410081356061 0.057671346848915027 0 -0.041118090419354901 0.05674037744008123 0 -0.039514410081356061 0.057671346848915027 0 -0.039012877797084601 0.056523576154147624 0 -0.039514410081356061 0.057671346848915027 0 -0.039012877797084601 0.056523576154147624 0 -0.038075189703420192 0.05759314717183997 0 -0.039012877797084601 0.056523576154147624 0 -0.037369987009558722 0.056890706046232059 0 -0.038075189703420192 0.05759314717183997 0 -0.038525420090837321 0.055000009818619286 0 -0.039012877797084601 0.056523576154147624 0 -0.040813515920918378 0.054999878385452609 0 -0.038525420090837321 0.055000009818619286 0 -0.039012877797084601 0.056523576154147624 0 -0.037369987009558722 0.056890706046232059 0 -0.041118090419354901 0.05674037744008123 0 -0.039012877797084601 0.056523576154147624 0 -0.040813515920918378 0.054999878385452609 0 -0.035531458465900737 0.055000517446243825 0 -0.03405728072785668 0.056602128632848775 0 -0.035533004124842886 0.055000168847638323 0 -0.036741019502266048 0.056439608286263598 0 -0.035576385796777257 0.056315594066058558 0 -0.035533004124842886 0.055000168847638323 0 -0.035576385796777257 0.056315594066058558 0 -0.034705871838763905 0.05646975518998567 0 -0.038524612344632898 0.055000290724372722 0 -0.037082712899985076 0.05658110916274936 0 -0.038523684229132896 0.054999638009238169 0 -0.035533004124842886 0.055000168847638323 0 -0.036741019502266048 0.056439608286263598 0 -0.037369987009558722 0.056890706046232059 0 -0.038075189703420192 0.05759314717183997 0 -0.037105678731392637 0.057062688229212809 0 -0.037082712899985076 0.05658110916274936 0 -0.036304331894710509 0.057032953218513968 0 -0.037369987009558722 0.056890706046232059 0 -0.037105678731392637 0.057062688229212809 0 -0.037009938296332583 0.057028901149403587 0 -0.036741019502266048 0.056439608286263598 0 -0.035576385796777257 0.056315594066058558 0 -0.035521421107631138 0.057088332661344332 0 -0.035576385796777257 0.056315594066058558 0 -0.035521421107631138 0.057088332661344332 0 -0.034705871838763905 0.05646975518998567 0 -0.037105678731392637 0.057062688229212809 0 -0.037009938296332583 0.057028901149403587 0 -0.036459007869701854 0.055617987624186162 0 -0.036304331894710509 0.057032953218513968 0 -0.037074204469276333 0.05624454691008781 0 -0.037009938296332583 0.057028901149403587 0 -0.036459007869701854 0.055617987624186162 0 -0.038694032661877938 0.055063063800292592 0 -0.037105678731392637 0.057062688229212809 0 -0.034898630830676479 0.055893129096201324 0 -0.036459007869701854 0.055617987624186162 0 -0.038075189703420192 0.05759314717183997 0 -0.037105678731392637 0.057062688229212809 0 -0.038101703434465499 0.05900653451220636 0 -0.036783230192428622 0.056885875355652232 0 -0.036864779583337545 0.058268597441705226 0 -0.034898630830676479 0.055893129096201324 0 -0.03554645786140171 0.055090357440794185 0 -0.036459007869701854 0.055617987624186162 0 -0.034252153804247717 0.054399938496560128 0 -0.034898630830676479 0.055893129096201324 0 -0.03554645786140171 0.055090357440794185 0 -0.03554645786140171 0.055090357440794185 0 -0.036459007869701854 0.055617987624186162 0 -0.035784922513391694 0.053943346947120496 0 -0.034252153804247717 0.054399938496560128 0 -0.03554645786140171 0.055090357440794185 0 -0.035784922513391694 0.053943346947120496 0 -0.037353990157604045 0.053932851980090811 0 -0.036459007869701854 0.055617987624186162 0 -0.038694032661877938 0.055063063800292592 0 -0.037353990157604045 0.053932851980090811 0 -0.036459007869701854 0.055617987624186162 0 -0.035784922513391694 0.053943346947120496 0 -0.037074204469276333 0.05624454691008781 0 -0.034854192400859116 0.054190002217522883 0 -0.03492754213295992 0.057363982727326755 0 -0.034357716043345747 0.057205400394735033 0 -0.034705304270324394 0.057091054835385423 0 -0.034594740573761031 0.05815074480778689 0 -0.034854192400859116 0.054190002217522883 0 -0.03492754213295992 0.057363982727326755 0 -0.034357716043345747 0.057205400394735033 0 -0.034588708951263002 0.057663283243930857 0 -0.034357716043345747 0.057205400394735033 0 -0.034323682851005066 0.057137496683002172 0 -0.034705304270324394 0.057091054835385423 0 -0.034323682851005066 0.057137496683002172 0 -0.034705304270324394 0.057091054835385423 0 -0.034705871838763905 0.05646975518998567 0 -0.035521421107631138 0.057088332661344332 0 -0.034705304270324394 0.057091054835385423 0 -0.034705871838763905 0.05646975518998567 0 -0.035521421107631138 0.057088332661344332 0 -0.03492754213295992 0.057363982727326755 0 -0.034705304270324394 0.057091054835385423 0 -0.032438293831778611 0.058989097685695699 0 -0.03405728072785668 0.056602128632848775 0 -0.030981838237579537 0.059112312725151647 0 -0.033220717549104724 0.057128572849451088 0 -0.031557064478929996 0.056599466616052259 0 -0.030946060812111719 0.054999954341703482 0 -0.031557064478929996 0.056599466616052259 0 -0.033238938878428492 0.054999947593101423 0 -0.033220717549104724 0.057128572849451088 0 -0.031557064478929996 0.056599466616052259 0 -0.033238938878428492 0.054999947593101423 0 -0.035531786142304407 0.055000019431922391 0 -0.033220717549104724 0.057128572849451088 0 -0.033238938878428492 0.054999947593101423 0 -0.028653250898617155 0.054999816875387235 0 -0.027451060517084597 0.057484203245312671 0 -0.028653651833872987 0.055000017876294278 0 -0.029823745237740701 0.057058584612263132 0 -0.027895269460942004 0.057359983354201241 0 -0.030946060812111719 0.054999954341703482 0 -0.028653651833872987 0.055000017876294278 0 -0.029823745237740701 0.057058584612263132 0 -0.030946060812111719 0.054999954341703482 0 -0.031557064478929996 0.056599466616052259 0 -0.029823745237740701 0.057058584612263132 0 -0.030981838237579537 0.059112312725151647 0 -0.031557064478929996 0.056599466616052259 0 -0.029823745237740701 0.057058584612263132 0 -0.029823745237740701 0.057058584612263132 0 -0.027895269460942004 0.057359983354201241 0 -0.028934666273264992 0.058830836445529354 0 -0.027075022633910938 0.059573767280763877 0 -0.027895269460942004 0.057359983354201241 0 -0.028934666273264992 0.058830836445529354 0 -0.030981838237579537 0.059112312725151647 0 -0.028934666273264992 0.058830836445529354 0 -0.028936494461737242 0.060982240276508136 0 -0.030981838237579537 0.059112312725151647 0 -0.029823745237740701 0.057058584612263132 0 -0.028934666273264992 0.058830836445529354 0 -0.034323682851005066 0.057137496683002172 0 -0.034406430925730577 0.057101807861327986 0 -0.034521952676199737 0.05706712174092677 0 -0.034357716043345747 0.057205400394735033 0 -0.034323682851005066 0.057137496683002172 0 -0.034406430925730577 0.057101807861327986 0 -0.032438293831778611 0.058989097685695699 0 -0.03178268921682384 0.054197808991013736 0 -0.034357716043345747 0.057205400394735033 0 -0.034406430925730577 0.057101807861327986 0 -0.034329871143978334 0.056948028069412959 0 -0.027045044268193229 0.057640429970133002 0 -0.03178268921682384 0.054197808991013736 0 -0.027075022633910938 0.059573767280763877 0 -0.028934666273264992 0.058830836445529354 0 -0.028936494461737242 0.060982240276508136 0 -0.032100416907623365 0.044574456430202122 0 -0.034531887147909564 0.042437264943041259 0 -0.03453744888275731 0.044873953731054989 0 -0.034531887147909564 0.042437264943041259 0 -0.03453744888275731 0.044873953731054989 0 -0.03596943421412753 0.043511922052901782 0 -0.031716540760869688 0.047322218958607151 0 -0.03178268921682384 0.054197808991013736 0 -0.032100416907623365 0.044574456430202122 0 -0.03453744888275731 0.044873953731054989 0 -0.033374787275342391 0.046565087535524484 0 -0.03453744888275731 0.044873953731054989 0 -0.033374787275342391 0.046565087535524484 0 -0.036063244148106209 0.046241409086951284 0 -0.035085466646058563 0.047845730139507395 0 -0.037755013123732382 0.044020804054770601 0 -0.03453744888275731 0.044873953731054989 0 -0.035987367038533474 0.04480237858491383 0 -0.036063244148106209 0.046241409086951284 0 -0.035987367038533474 0.04480237858491383 0 -0.03733423734909172 0.044581316580219736 0 -0.036063244148106209 0.046241409086951284 0 -0.035325501556158094 0.050446348602383631 0 -0.035085466646058563 0.047845730139507395 0 -0.035987367038533474 0.04480237858491383 0 -0.03596943421412753 0.043511922052901782 0 -0.03733423734909172 0.044581316580219736 0 -0.03445169239524621 0.056888209824006344 0 -0.034329871143978334 0.056948028069412959 0 -0.034256607437034202 0.056640691571001191 0 -0.03453744888275731 0.044873953731054989 0 -0.035987367038533474 0.04480237858491383 0 -0.03596943421412753 0.043511922052901782 0 -0.034406430925730577 0.057101807861327986 0 -0.034521952676199737 0.05706712174092677 0 -0.03445169239524621 0.056888209824006344 0 -0.03178268921682384 0.054197808991013736 0 -0.035325501556158094 0.050446348602383631 0 -0.034406430925730577 0.057101807861327986 0 -0.03445169239524621 0.056888209824006344 0 -0.034329871143978334 0.056948028069412959 0 -0.034357716043345747 0.057205400394735033 0 -0.034329871143978334 0.056948028069412959 0 -0.034109863462099044 0.056839154700627705 0 -0.034854192400859116 0.054190002217522883 0 -0.035085466646058563 0.047845730139507395 0 -0.034329871143978334 0.056948028069412959 0 -0.034109863462099044 0.056839154700627705 0 -0.034256607437034202 0.056640691571001191 0 -0.037353990157604045 0.053932851980090811 0 -0.038694032661877938 0.055063063800292592 0 -0.038478653532238477 0.052919487158678516 0 -0.038694032661877938 0.055063063800292592 0 -0.040219319328565761 0.053098695705628148 0 -0.038478653532238477 0.052919487158678516 0 -0.034854192400859116 0.054190002217522883 0 -0.03457118008824115 0.044314890689886463 0 -0.032766460509766601 0.05039425745783449 0 -0.030460747545636924 0.043451566132501104 0 -0.027974658510564167 0.040797753142589023 0 -0.037234025633126208 0.052091828718433243 0 -0.038478653532238477 0.052919487158678516 0 -0.038731646683188556 0.050100230178881489 0 -0.040219319328565761 0.053098695705628148 0 -0.038478653532238477 0.052919487158678516 0 -0.038731646683188556 0.050100230178881489 0 -0.032766460509766601 0.05039425745783449 0 -0.030460747545636924 0.043451566132501104 0 -0.035317094051051691 0.047227491042604638 0 -0.030895338704332118 0.043782678199998225 0 -0.035085466646058563 0.047845730139507395 0 -0.030460747545636924 0.043451566132501104 0 -0.035096250767511966 0.046981195064608156 0 -0.034682767235309428 0.042116149186135841 0 -0.035096250767511966 0.046981195064608156 0 -0.034682767235309428 0.042116149186135841 0 -0.039270642746237892 0.041748726612558219 0 -0.034682767235309428 0.042116149186135841 0 -0.036008740147535648 0.038634779338280974 0 -0.039270642746237892 0.041748726612558219 0 -0.034682767235309428 0.042116149186135841 0 -0.032163207082940404 0.040243409351754737 0 -0.036008740147535648 0.038634779338280974 0 -0.030460747545636924 0.043451566132501104 0 -0.034682767235309428 0.042116149186135841 0 -0.032163207082940404 0.040243409351754737 0 -0.032163207082940404 0.040243409351754737 0 -0.036008740147535648 0.038634779338280974 0 -0.031634545889792164 0.036225367603820884 0 -0.026138018615018223 0.034845007203073652 0 -0.028715118834550569 0.039959171500352608 0 -0.028393338357600086 0.03575413951964377 0 -0.032901974473776179 0.034400018900211327 0 -0.03457118008824115 0.044314890689886463 0 -0.030460747545636924 0.043451566132501104 0 -0.032163207082940404 0.040243409351754737 0 -0.027974658510564167 0.040797753142589023 0 -0.03457118008824115 0.044314890689886463 0 -0.031868335012017183 0.036051276395450998 0 -0.028715118834550569 0.039959171500352608 0 -0.028393338357600086 0.03575413951964377 0 -0.032030712938606452 0.035750493094986471 0 -0.032163207082940404 0.040243409351754737 0 -0.027974658510564167 0.040797753142589023 0 -0.031634545889792164 0.036225367603820884 0 -0.030912954882777594 0.032883753456415865 0 -0.031653392661585573 0.027662173524368599 0 -0.026484615549714385 0.034249720414524371 0 -0.029959722584045844 0.032290018090742716 0 -0.031256070379114112 0.028423174045033549 0 -0.026484615549714385 0.034249720414524371 0 -0.028393338357600086 0.03575413951964377 0 -0.028828438104488943 0.034169220462825049 0 -0.026138018615018223 0.034845007203073652 0 -0.026484615549714385 0.034249720414524371 0 -0.028393338357600086 0.03575413951964377 0 -0.028828438104488943 0.034169220462825049 0 -0.029959722584045844 0.032290018090742716 0 -0.032030712938606452 0.035750493094986471 0 -0.028393338357600086 0.03575413951964377 0 -0.028828438104488943 0.034169220462825049 0 -0.032030712938606452 0.035750493094986471 0 -0.029959722584045844 0.032290018090742716 0 -0.032030712938606452 0.035750493094986471 0 -0.0325472514944962 0.031100277145526482 0 -0.026484615549714385 0.034249720414524371 0 -0.028828438104488943 0.034169220462825049 0 -0.029959722584045844 0.032290018090742716 0 -0.030912954882777594 0.032883753456415865 0 -0.031364391430804481 0.026848737727085948 0 -0.029709056838704933 0.028970789364951698 0 -0.031132505551660375 0.02691942204762331 0 -0.029563474296135678 0.027467317933902925 0 -0.036008740147535648 0.038634779338280974 0 -0.031634545889792164 0.036225367603820884 0 -0.037713780420661584 0.03473225302530885 0 -0.031634545889792164 0.036225367603820884 0 -0.035388055599056757 0.031561106059812452 0 -0.037713780420661584 0.03473225302530885 0 -0.032030712938606452 0.035750493094986471 0 -0.035388055599056757 0.031561106059812452 0 -0.0325472514944962 0.031100277145526482 0 -0.031868335012017183 0.036051276395450998 0 -0.034980272291697964 0.032070077434283584 0 -0.035388055599056757 0.031561106059812452 0 -0.037713780420661584 0.03473225302530885 0 -0.040959495933771864 0.031170077103578359 0 -0.041551878679491554 0.034103991941018527 0 -0.043484331718965319 0.03632944728536884 0 -0.040617918680790413 0.037055460265685417 0 -0.037713780420661584 0.03473225302530885 0 -0.041551878679491554 0.034103991941018527 0 -0.040617918680790413 0.037055460265685417 0 -0.037713780420661584 0.03473225302530885 0 -0.041551878679491554 0.034103991941018527 0 -0.040959495933771864 0.031170077103578359 0 -0.048474336449530607 0.029824914340605045 0 -0.041551878679491554 0.034103991941018527 0 -0.043484331718965319 0.03632944728536884 0 -0.033581382868157914 0.034954786688390006 0 -0.033567778606065447 0.035672822188235587 0 -0.034341761643455253 0.034824372117601109 0 -0.048474336449530607 0.029824914340605045 0 -0.041551878679491554 0.034103991941018527 0 -0.040959495933771864 0.031170077103578359 0 -0.033952980664851848 0.025003680101872348 0 -0.038297085733357474 0.039123136131620731 0 -0.032750625271740788 0.041647521741157746 0 -0.038297085733357474 0.039123136131620731 0 -0.034656882233871519 0.048102948336640243 0 -0.033374787275342391 0.046565087535524484 0 -0.036063244148106209 0.046241409086951284 0 -0.038297085733357474 0.039123136131620731 0 -0.041670663555940096 0.037627531055394021 0 -0.032732708910474667 0.048650245299824854 0 -0.034656882233871519 0.048102948336640243 0 -0.033374787275342391 0.046565087535524484 0 -0.036008740147535648 0.038634779338280974 0 -0.037713780420661584 0.03473225302530885 0 -0.040617918680790413 0.037055460265685417 0 -0.036008740147535648 0.038634779338280974 0 -0.039270642746237892 0.041748726612558219 0 -0.040617918680790413 0.037055460265685417 0 -0.038297085733357474 0.039123136131620731 0 -0.037755013123732382 0.044020804054770601 0 -0.04337248098794242 0.036517832426856182 0 -0.039270642746237892 0.041748726612558219 0 -0.040617918680790413 0.037055460265685417 0 -0.041185824687394089 0.023574511289240208 0 -0.036670140942326013 0.022363258155784795 0 -0.034898247095849384 0.018042756617307927 0 -0.039575212744496296 0.027335794205747572 0 -0.035675594484952972 0.026938118412946827 0 -0.036670140942326013 0.022363258155784795 0 -0.041185824687394089 0.023574511289240208 0 -0.039575212744496296 0.027335794205747572 0 -0.036670140942326013 0.022363258155784795 0 -0.030637245486216567 0.014473470103043824 0 -0.030513698182124693 0.013088231867468946 0 -0.029862345048323916 0.013520085572594471 0 -0.033952980664851848 0.025003680101872348 0 -0.036488846368751701 0.018317278863953432 0 -0.048474336449530607 0.029824914340605045 0 -0.041185824687394089 0.023574511289240208 0 -0.039575212744496296 0.027335794205747572 0 -0.048474336449530607 0.029824914340605045 0 -0.040959495933771864 0.031170077103578359 0 -0.039575212744496296 0.027335794205747572 0 -0.035388055599056757 0.031561106059812452 0 -0.040959495933771864 0.031170077103578359 0 -0.039575212744496296 0.027335794205747572 0 -0.035388055599056757 0.031561106059812452 0 -0.0325472514944962 0.031100277145526482 0 -0.035675594484952972 0.026938118412946827 0 -0.035388055599056757 0.031561106059812452 0 -0.039575212744496296 0.027335794205747572 0 -0.035675594484952972 0.026938118412946827 0 -0.0325472514944962 0.031100277145526482 0 -0.035675594484952972 0.026938118412946827 0 -0.031256070379114112 0.028423174045033549 0 -0.028996474023756678 0.031186033350233421 0 -0.03112112385097017 0.027475686582669832 0 -0.032759417799872445 0.02667448574499667 0 -0.031132505551660375 0.02691942204762331 0 -0.029892094196663936 0.026346439081232031 0 -0.029563474296135678 0.027467317933902925 0 -0.029959722584045844 0.032290018090742716 0 -0.0325472514944962 0.031100277145526482 0 -0.031256070379114112 0.028423174045033549 0 -0.031132505551660375 0.02691942204762331 0 -0.030918648105193559 0.024995083394639003 0 -0.033287889610107313 0.023814528352727696 0 -0.031364391430804481 0.026848737727085948 0 -0.032957310935577987 0.024281099670136256 0 -0.03112112385097017 0.027475686582669832 0 -0.032759417799872445 0.02667448574499667 0 -0.033287889610107313 0.023814528352727696 0 -0.031132505551660375 0.02691942204762331 0 -0.030918648105193559 0.024995083394639003 0 -0.029892094196663936 0.026346439081232031 0 -0.030918648105193559 0.024995083394639003 0 -0.029892094196663936 0.026346439081232031 0 -0.029402005048860532 0.025047521803400207 0 -0.030918648105193559 0.024995083394639003 0 -0.030829332211481691 0.022369646389743716 0 -0.029402005048860532 0.025047521803400207 0 -0.030918648105193559 0.024995083394639003 0 -0.030829332211481691 0.022369646389743716 0 -0.033287889610107313 0.023814528352727696 0 -0.030829332211481691 0.022369646389743716 0 -0.033287889610107313 0.023814528352727696 0 -0.033224322716082624 0.021018022286454597 0 -0.030829332211481691 0.022369646389743716 0 -0.033224322716082624 0.021018022286454597 0 -0.030227264617910626 0.018852652132574081 0 -0.031653392661585573 0.027662173524368599 0 -0.036464720838861514 0.02260221450986416 0 -0.035675594484952972 0.026938118412946827 0 -0.031256070379114112 0.028423174045033549 0 -0.036670140942326013 0.022363258155784795 0 -0.032759417799872445 0.02667448574499667 0 -0.033287889610107313 0.023814528352727696 0 -0.036670140942326013 0.022363258155784795 0 -0.033287889610107313 0.023814528352727696 0 -0.033224322716082624 0.021018022286454597 0 -0.036670140942326013 0.022363258155784795 0 -0.033224322716082624 0.021018022286454597 0 -0.036670140942326013 0.022363258155784795 0 -0.034898247095849384 0.018042756617307927 0 -0.033224322716082624 0.021018022286454597 0 -0.034898247095849384 0.018042756617307927 0 -0.030227264617910626 0.018852652132574081 0 -0.034898247095849384 0.018042756617307927 0 -0.030227264617910626 0.018852652132574081 0 -0.028678256544942021 0.013107431661668407 0 -0.030829332211481691 0.022369646389743716 0 -0.030227264617910626 0.018852652132574081 0 -0.027642407653791418 0.020443804134484333 0 -0.031826741215023449 0.015424509425002888 0 -0.028929145279597383 0.013171854735053798 0 -0.02924036918196456 0.012776838683916479 0 -0.028678256544942021 0.013107431661668407 0 -0.029144989143832418 0.012330882175583452 0 -0.02924036918196456 0.012776838683916479 0 -0.029144989143832418 0.012330882175583452 0 -0.02952419749915584 0.012333814276501046 0 -0.029144989143832418 0.012330882175583452 0 -0.02952419749915584 0.012333814276501046 0 -0.029576149121826854 0.011685200436114066 0 -0.030002070260999665 0.011995049647262375 0 -0.02952419749915584 0.012333814276501046 0 -0.029576149121826854 0.011685200436114066 0 -0.030002070260999665 0.011995049647262375 0 -0.02952419749915584 0.012333814276501046 0 -0.029891653852250503 0.012685259049935598 0 -0.02924036918196456 0.012776838683916479 0 -0.02952419749915584 0.012333814276501046 0 -0.029891653852250503 0.012685259049935598 0 -0.036488846368751701 0.018317278863953432 0 -0.031826741215023449 0.015424509425002888 0 -0.029862345048323916 0.013520085572594471 0 -0.02924036918196456 0.012776838683916479 0 -0.029891653852250503 0.012685259049935598 0 -0.030513698182124693 0.013088231867468946 0 -0.029862345048323916 0.013520085572594471 0 -0.029891653852250503 0.012685259049935598 0 -0.030513698182124693 0.013088231867468946 0 -0.029891653852250503 0.012685259049935598 0 -0.030432105367628873 0.012390510506247539 0 -0.030002070260999665 0.011995049647262375 0 -0.029891653852250503 0.012685259049935598 0 -0.030432105367628873 0.012390510506247539 0 -0.030002070260999665 0.011995049647262375 0 -0.030432105367628873 0.012390510506247539 0 -0.030535249916739306 0.011640218028714556 0 -0.030717385920340429 0.010607467641016924 0 -0.030535249916739306 0.011640218028714556 0 -0.030121348078071077 0.011202977903078457 0 -0.030002070260999665 0.011995049647262375 0 -0.030535249916739306 0.011640218028714556 0 -0.030121348078071077 0.011202977903078457 0 -0.030002070260999665 0.011995049647262375 0 -0.030121348078071077 0.011202977903078457 0 -0.029576149121826854 0.011685200436114066 0 -0.030121348078071077 0.011202977903078457 0 -0.029576149121826854 0.011685200436114066 0 -0.029707023664288151 0.010700244262009639 0 -0.030121348078071077 0.011202977903078457 0 -0.029707023664288151 0.010700244262009639 0 -0.030238691645551027 0.010299288928281568 0 -0.029707023664288151 0.010700244262009639 0 -0.030238691645551027 0.010299288928281568 0 -0.029950247665901302 0.0096744970599316402 0 -0.030717385920340429 0.010607467641016924 0 -0.030238691645551027 0.010299288928281568 0 -0.030608315576129995 0.0095064868749859307 0 -0.030717385920340429 0.010607467641016924 0 -0.030121348078071077 0.011202977903078457 0 -0.030238691645551027 0.010299288928281568 0 -0.030238691645551027 0.010299288928281568 0 -0.030608315576129995 0.0095064868749859307 0 -0.029950247665901302 0.0096744970599316402 0 -0.030608315576129995 0.0095064868749859307 0 -0.029950247665901302 0.0096744970599316402 0 -0.03024852550826174 0.0087122138796032027 0 -0.029950247665901302 0.0096744970599316402 0 -0.03024852550826174 0.0087122138796032027 0 -0.029604465654192533 0.0090629723739546718 0 -0.03024852550826174 0.0087122138796032027 0 -0.029827111429584999 0.0081039459529455189 0 -0.030622358810978606 0.007620007780719619 0 -0.03024852550826174 0.0087122138796032027 0 -0.029604465654192533 0.0090629723739546718 0 -0.029827111429584999 0.0081039459529455189 0 -0.031032619533310726 0.009016403127231197 0 -0.030608315576129995 0.0095064868749859307 0 -0.030802125408017866 0.0083552683599176485 0 -0.030608315576129995 0.0095064868749859307 0 -0.03024852550826174 0.0087122138796032027 0 -0.030802125408017866 0.0083552683599176485 0 -0.03024852550826174 0.0087122138796032027 0 -0.030802125408017866 0.0083552683599176485 0 -0.030622358810978606 0.007620007780719619 0 -0.028761409505269616 0.0088268277933266741 0 -0.02815242288705052 0.0081784615994596986 0 -0.027552001606291902 0.0091670069643375891 0 -0.028761409505269616 0.0088268277933266741 0 -0.029604465654192533 0.0090629723739546718 0 -0.029827111429584999 0.0081039459529455189 0 -0.028761409505269616 0.0088268277933266741 0 -0.029604465654192533 0.0090629723739546718 0 -0.029167153155693543 0.0099452799224951319 0 -0.029950247665901302 0.0096744970599316402 0 -0.029604465654192533 0.0090629723739546718 0 -0.029167153155693543 0.0099452799224951319 0 -0.029707023664288151 0.010700244262009639 0 -0.029950247665901302 0.0096744970599316402 0 -0.029167153155693543 0.0099452799224951319 0 -0.028761409505269616 0.0088268277933266741 0 -0.028219763645776372 0.010039416344397671 0 -0.027552001606291902 0.0091670069643375891 0 -0.028761409505269616 0.0088268277933266741 0 -0.029167153155693543 0.0099452799224951319 0 -0.028219763645776372 0.010039416344397671 0 -0.029167153155693543 0.0099452799224951319 0 -0.028219763645776372 0.010039416344397671 0 -0.029010807527633211 0.011221086134969848 0 -0.028219763645776372 0.010039416344397671 0 -0.029010807527633211 0.011221086134969848 0 -0.02782119512272439 0.011031673050889512 0 -0.029707023664288151 0.010700244262009639 0 -0.029167153155693543 0.0099452799224951319 0 -0.029010807527633211 0.011221086134969848 0 -0.029576149121826854 0.011685200436114066 0 -0.029707023664288151 0.010700244262009639 0 -0.029010807527633211 0.011221086134969848 0 -0.029144989143832418 0.012330882175583452 0 -0.029576149121826854 0.011685200436114066 0 -0.029010807527633211 0.011221086134969848 0 -0.028678256544942021 0.013107431661668407 0 -0.029144989143832418 0.012330882175583452 0 -0.028580739249901933 0.011919769117166107 0 -0.029144989143832418 0.012330882175583452 0 -0.029010807527633211 0.011221086134969848 0 -0.028580739249901933 0.011919769117166107 0 -0.029010807527633211 0.011221086134969848 0 -0.028580739249901933 0.011919769117166107 0 -0.02782119512272439 0.011031673050889512 0 -0.028678256544942021 0.013107431661668407 0 -0.028580739249901933 0.011919769117166107 0 -0.026201779868597258 0.012401685738307463 0 -0.026201779868597258 0.012401685738307463 0 -0.02782119512272439 0.011031673050889512 0 -0.026679288971737845 0.010949427183136958 0 -0.028580739249901933 0.011919769117166107 0 -0.026201779868597258 0.012401685738307463 0 -0.02782119512272439 0.011031673050889512 0 -0.026201779868597258 0.012401685738307463 0 -0.025722187122177543 0.011316813397489566 0 -0.026679288971737845 0.010949427183136958 0 -0.026201779868597258 0.012401685738307463 0 -0.025417347277577589 0.012353716240152891 0 -0.025509903876776159 0.013079560235357111 0 -0.026201779868597258 0.012401685738307463 0 -0.025722187122177543 0.011316813397489566 0 -0.025417347277577589 0.012353716240152891 0 -0.025722187122177543 0.011316813397489566 0 -0.026679288971737845 0.010949427183136958 0 -0.026339498492447332 0.0099823917602994104 0 -0.025722187122177543 0.011316813397489566 0 -0.026339498492447332 0.0099823917602994104 0 -0.025474988109073306 0.010523123320037875 0 -0.026679288971737845 0.010949427183136958 0 -0.027349097444248714 0.010137428932659882 0 -0.026339498492447332 0.0099823917602994104 0 -0.028219763645776372 0.010039416344397671 0 -0.02782119512272439 0.011031673050889512 0 -0.027349097444248714 0.010137428932659882 0 -0.02782119512272439 0.011031673050889512 0 -0.026679288971737845 0.010949427183136958 0 -0.027349097444248714 0.010137428932659882 0 -0.027349097444248714 0.010137428932659882 0 -0.026339498492447332 0.0099823917602994104 0 -0.027552001606291902 0.0091670069643375891 0 -0.028219763645776372 0.010039416344397671 0 -0.027349097444248714 0.010137428932659882 0 -0.027552001606291902 0.0091670069643375891 0 -0.026339498492447332 0.0099823917602994104 0 -0.026460319513930023 0.0088809916490420384 0 -0.027552001606291902 0.0091670069643375891 0 -0.026339498492447332 0.0099823917602994104 0 -0.025079208237200043 0.0096185557327732561 0 -0.025474988109073306 0.010523123320037875 0 -0.026339498492447332 0.0099823917602994104 0 -0.026460319513930023 0.0088809916490420384 0 -0.025079208237200043 0.0096185557327732561 0 -0.026460319513930023 0.0088809916490420384 0 -0.025079208237200043 0.0096185557327732561 0 -0.025418213792020281 0.0081288731570483067 0 -0.026460319513930023 0.0088809916490420384 0 -0.025418213792020281 0.0081288731570483067 0 -0.026589393082394521 0.0078121597722221334 0 -0.026460319513930023 0.0088809916490420384 0 -0.027305872531658067 0.0084053069459261234 0 -0.026589393082394521 0.0078121597722221334 0 -0.02815242288705052 0.0081784615994596986 0 -0.027305872531658067 0.0084053069459261234 0 -0.027552001606291902 0.0091670069643375891 0 -0.02815242288705052 0.0081784615994596986 0 -0.027305872531658067 0.0084053069459261234 0 -0.02762749324522959 0.0079353408690698863 0 -0.026460319513930023 0.0088809916490420384 0 -0.027305872531658067 0.0084053069459261234 0 -0.027552001606291902 0.0091670069643375891 0 -0.039097205664293137 0.016227209444896248 0 -0.039024003911402934 0.016241724922797941 0 -0.039005851569471117 0.016237466120308457 0 -0.039238625187725196 0.016244624939558399 0 -0.039097205664293137 0.016227209444896248 0 -0.038798003670793883 0.016302333757090968 0 -0.039238625187725196 0.016244624939558399 0 -0.039097205664293137 0.016227209444896248 0 -0.039791040982422046 0.016057477675374018 0 -0.039097205664293137 0.016227209444896248 0 -0.039029825115837753 0.016204290980748177 0 -0.039024003911402934 0.016241724922797941 0 -0.031888588459797015 0.012705267322342336 0 -0.034165462967222573 0.013505190445347922 0 -0.039097205664293137 0.016227209444896248 0 -0.039029825115837753 0.016204290980748177 0 -0.038798003670793883 0.016302333757090968 0 -0.040788903246945958 0.016588669808238372 0 -0.034165462967222573 0.013505190445347922 0 -0.038963172294907693 0.016189031939262861 0 -0.039029825115837753 0.016204290980748177 0 -0.038798003670793883 0.016302333757090968 0 -0.031888588459797015 0.012705267322342336 0 -0.032080383592135019 0.013837997532193063 0 -0.038963172294907693 0.016189031939262861 0 -0.038991959489549498 0.016258242019667295 0 -0.039029825115837753 0.016204290980748177 0 -0.038963172294907693 0.016189031939262861 0 -0.038991959489549498 0.016258242019667295 0 -0.038998269390792789 0.016321953722640455 0 -0.038991959489549498 0.016258242019667295 0 -0.039029825115837753 0.016204290980748177 0 -0.039024003911402934 0.016241724922797941 0 -0.038991959489549498 0.016258242019667295 0 -0.039024003911402934 0.016241724922797941 0 -0.038969082467446195 0.016296453261964928 0 -0.038991959489549498 0.016258242019667295 0 -0.038998269390792789 0.016321953722640455 0 -0.038902986416964991 0.016412327852330749 0 -0.038991959489549498 0.016258242019667295 0 -0.038902986416964991 0.016412327852330749 0 -0.038969082467446195 0.016296453261964928 0 -0.025079208237200043 0.0096185557327732561 0 -0.025474988109073306 0.010523123320037875 0 -0.024800991888768789 0.011143042836286849 0 -0.025722187122177543 0.011316813397489566 0 -0.025474988109073306 0.010523123320037875 0 -0.024800991888768789 0.011143042836286849 0 -0.025722187122177543 0.011316813397489566 0 -0.024800991888768789 0.011143042836286849 0 -0.024777567399172744 0.012315113593812016 0 -0.024800991888768789 0.011143042836286849 0 -0.024777567399172744 0.012315113593812016 0 -0.02462368713776425 0.012485495004566128 0 -0.025219032293983156 0.011319386458842626 0 -0.0267312210004302 0.013622069807605448 0 -0.025722187122177543 0.011316813397489566 0 -0.024584979852494502 0.012673278213657288 0 -0.025417347277577589 0.012353716240152891 0 -0.032080383592135019 0.013837997532193063 0 -0.029449009509667803 0.013852879477946205 0 -0.0267312210004302 0.013622069807605448 0 -0.029449009509667803 0.013852879477946205 0 -0.024584979852494502 0.012673278213657288 0 -0.025417347277577589 0.012353716240152891 0 -0.025044492224219197 0.01288008939234 0 -0.041756492718722719 0.021578524494698336 0 -0.035109034982888324 0.019990193616816324 0 -0.038998269390792789 0.016321953722640455 0 -0.038902986416964991 0.016412327852330749 0 -0.038944489043977105 0.016510996342259925 0 -0.038902986416964991 0.016412327852330749 0 -0.038873688458504585 0.01659266382333462 0 -0.038944489043977105 0.016510996342259925 0 -0.043483584181561528 0.025660936266606753 0 -0.043751121418635304 0.026717286802645488 0 -0.043330359594077307 0.026504397646671812 0 -0.024390963736829863 0.013447581046763331 0 -0.024084787546955068 0.013523595973943399 0 -0.024444206704291246 0.012896132857176588 0 -0.035109034982888324 0.019990193616816324 0 -0.029449009509667803 0.013852879477946205 0 -0.024390963736829863 0.013447581046763331 0 -0.024084787546955068 0.013523595973943399 0 -0.023815337692444392 0.013971274642145336 0 -0.024390963736829863 0.013447581046763331 0 -0.024313097931521612 0.013915193284583153 0 -0.023815337692444392 0.013971274642145336 0 -0.024390963736829863 0.013447581046763331 0 -0.024313097931521612 0.013915193284583153 0 -0.024725278369041814 0.013594363441529081 0 -0.043751121418635304 0.026717286802645488 0 -0.04345684172188382 0.027040573020606872 0 -0.043330359594077307 0.026504397646671812 0 -0.035109034982888324 0.019990193616816324 0 -0.033490633829715274 0.020442875355021404 0 -0.023815337692444392 0.013971274642145336 0 -0.02407918261090624 0.014298152477303394 0 -0.023824324587465071 0.014576821155368538 0 -0.023824324587465071 0.014576821155368538 0 -0.024280383025408282 0.014891853848573266 0 -0.023545736464013707 0.014898672478378823 0 -0.024313097931521612 0.013915193284583153 0 -0.023815337692444392 0.013971274642145336 0 -0.02407918261090624 0.014298152477303394 0 -0.024313097931521612 0.013915193284583153 0 -0.02407918261090624 0.014298152477303394 0 -0.024359115215983357 0.014382636524541316 0 -0.024313097931521612 0.013915193284583153 0 -0.024359115215983357 0.014382636524541316 0 -0.024736022887117629 0.01405808281510189 0 -0.02407918261090624 0.014298152477303394 0 -0.024359115215983357 0.014382636524541316 0 -0.024131486548934 0.014539903545894772 0 -0.024359115215983357 0.014382636524541316 0 -0.024800207608068395 0.01453291961912857 0 -0.024280383025408282 0.014891853848573266 0 -0.024359115215983357 0.014382636524541316 0 -0.024131486548934 0.014539903545894772 0 -0.024280383025408282 0.014891853848573266 0 -0.024131486548934 0.014539903545894772 0 -0.023824324587465071 0.014576821155368538 0 -0.024280383025408282 0.014891853848573266 0 -0.02407918261090624 0.014298152477303394 0 -0.024131486548934 0.014539903545894772 0 -0.023824324587465071 0.014576821155368538 0 -0.025399459646113339 0.015036450376208557 0 -0.024800207608068395 0.01453291961912857 0 -0.024280383025408282 0.014891853848573266 0 -0.02548631328042162 0.015041742724742593 0 -0.023987380252447447 0.015103253968514809 0 -0.025399459646113339 0.015036450376208557 0 -0.024800207608068395 0.01453291961912857 0 -0.025269233760966042 0.014302967213466163 0 -0.024800207608068395 0.01453291961912857 0 -0.024736022887117629 0.01405808281510189 0 -0.025269233760966042 0.014302967213466163 0 -0.024359115215983357 0.014382636524541316 0 -0.024800207608068395 0.01453291961912857 0 -0.024736022887117629 0.01405808281510189 0 -0.024736022887117629 0.01405808281510189 0 -0.025269233760966042 0.014302967213466163 0 -0.025215210742008994 0.013724598049412735 0 -0.025215210742008994 0.013724598049412735 0 -0.025022592188366066 0.013232681363925802 0 -0.025509903876776159 0.013079560235357111 0 -0.025215210742008994 0.013724598049412735 0 -0.024725278369041814 0.013594363441529081 0 -0.025022592188366066 0.013232681363925802 0 -0.024313097931521612 0.013915193284583153 0 -0.024736022887117629 0.01405808281510189 0 -0.024725278369041814 0.013594363441529081 0 -0.024736022887117629 0.01405808281510189 0 -0.025215210742008994 0.013724598049412735 0 -0.024725278369041814 0.013594363441529081 0 -0.024390963736829863 0.013447581046763331 0 -0.024725278369041814 0.013594363441529081 0 -0.024730438747956482 0.013163344066479938 0 -0.024584979852494502 0.012673278213657288 0 -0.024390963736829863 0.013447581046763331 0 -0.024444206704291246 0.012896132857176588 0 -0.024584979852494502 0.012673278213657288 0 -0.024390963736829863 0.013447581046763331 0 -0.024730438747956482 0.013163344066479938 0 -0.024730438747956482 0.013163344066479938 0 -0.025022592188366066 0.013232681363925802 0 -0.025044492224219197 0.01288008939234 0 -0.024725278369041814 0.013594363441529081 0 -0.024730438747956482 0.013163344066479938 0 -0.025022592188366066 0.013232681363925802 0 -0.024584979852494502 0.012673278213657288 0 -0.024730438747956482 0.013163344066479938 0 -0.025044492224219197 0.01288008939234 0 -0.025417347277577589 0.012353716240152891 0 -0.025044492224219197 0.01288008939234 0 -0.025509903876776159 0.013079560235357111 0 -0.025022592188366066 0.013232681363925802 0 -0.025044492224219197 0.01288008939234 0 -0.025509903876776159 0.013079560235357111 0 -0.026201779868597258 0.012401685738307463 0 -0.025509903876776159 0.013079560235357111 0 -0.026263314654510546 0.014177661866263238 0 -0.026040840836115551 0.013103970474407011 0 -0.025212781718299573 0.014740152867340732 0 -0.025215210742008994 0.013724598049412735 0 -0.025509903876776159 0.013079560235357111 0 -0.026263314654510546 0.014177661866263238 0 -0.026201779868597258 0.012401685738307463 0 -0.027530797754064883 0.016293734786399991 0 -0.024328065471728159 0.017225657734681467 0 -0.030227264617910626 0.018852652132574081 0 -0.028678256544942021 0.013107431661668407 0 -0.027530797754064883 0.016293734786399991 0 -0.028678256544942021 0.013107431661668407 0 -0.026201779868597258 0.012401685738307463 0 -0.027530797754064883 0.016293734786399991 0 -0.027530797754064883 0.016293734786399991 0 -0.027642407653791418 0.020443804134484333 0 -0.024328065471728159 0.017225657734681467 0 -0.030227264617910626 0.018852652132574081 0 -0.027530797754064883 0.016293734786399991 0 -0.027642407653791418 0.020443804134484333 0 -0.025212781718299573 0.014740152867340732 0 -0.026960036014887355 0.024432363592939516 0 -0.025399459646113339 0.015036450376208557 0 -0.026263314654510546 0.014177661866263238 0 -0.026044910913893857 0.015824811921955676 0 -0.027642407653791418 0.020443804134484333 0 -0.024328065471728159 0.017225657734681467 0 -0.023202385984705528 0.023485946317146098 0 -0.025269233760966042 0.014302967213466163 0 -0.025215210742008994 0.013724598049412735 0 -0.026263314654510546 0.014177661866263238 0 -0.025399459646113339 0.015036450376208557 0 -0.025269233760966042 0.014302967213466163 0 -0.026263314654510546 0.014177661866263238 0 -0.030829332211481691 0.022369646389743716 0 -0.027642407653791418 0.020443804134484333 0 -0.029402005048860532 0.025047521803400207 0 -0.026960036014887355 0.024432363592939516 0 -0.02843127761982241 0.024903888852865392 0 -0.027642407653791418 0.020443804134484333 0 -0.023202385984705528 0.023485946317146098 0 -0.029402005048860532 0.025047521803400207 0 -0.027022254021030683 0.025019360308445267 0 -0.029402005048860532 0.025047521803400207 0 -0.028356550558443324 0.026486747176049305 0 -0.029892094196663936 0.026346439081232031 0 -0.029402005048860532 0.025047521803400207 0 -0.028356550558443324 0.026486747176049305 0 -0.029892094196663936 0.026346439081232031 0 -0.028356550558443324 0.026486747176049305 0 -0.029563474296135678 0.027467317933902925 0 -0.027725433327367866 0.032000925681331005 0 -0.027584920493748208 0.033254906149778655 0 -0.028301992098867138 0.032431526260392932 0 -0.026905257031528684 0.027808429681113418 0 -0.027022254021030683 0.025019360308445267 0 -0.028356550558443324 0.026486747176049305 0 -0.027327049117954555 0.03083203841019622 0 -0.026960036014887355 0.024432363592939516 0 -0.026905257031528684 0.027808429681113418 0 -0.028279372281680523 0.028193173803983989 0 -0.028356550558443324 0.026486747176049305 0 -0.027584920493748208 0.033254906149778655 0 -0.028301992098867138 0.032431526260392932 0 -0.028574146298358343 0.03294592591441791 0 -0.028929338315344146 0.031478812183470609 0 -0.028301992098867138 0.032431526260392932 0 -0.028922998841920337 0.032392137188553077 0 -0.028301992098867138 0.032431526260392932 0 -0.028574146298358343 0.03294592591441791 0 -0.028922998841920337 0.032392137188553077 0 -0.028574146298358343 0.03294592591441791 0 -0.028922998841920337 0.032392137188553077 0 -0.029202490129802413 0.033007875052086404 0 -0.029342821057457485 0.03198162626106614 0 -0.028922998841920337 0.032392137188553077 0 -0.029690676789560215 0.03247877380779722 0 -0.029924401362202702 0.031690675790322344 0 -0.029690676789560215 0.03247877380779722 0 -0.030327674563403056 0.03238181794370075 0 -0.029690676789560215 0.03247877380779722 0 -0.029809362496376168 0.033153409324441496 0 -0.030303107672029334 0.032928877755479209 0 -0.029690676789560215 0.03247877380779722 0 -0.029202490129802413 0.033007875052086404 0 -0.029809362496376168 0.033153409324441496 0 -0.028922998841920337 0.032392137188553077 0 -0.029690676789560215 0.03247877380779722 0 -0.029202490129802413 0.033007875052086404 0 -0.029202490129802413 0.033007875052086404 0 -0.029459923447459128 0.033344458235595807 0 -0.029809362496376168 0.033153409324441496 0 -0.029202490129802413 0.033007875052086404 0 -0.029459923447459128 0.033344458235595807 0 -0.02897703582943988 0.033610864325088426 0 -0.029802144962410165 0.033517061268025915 0 -0.02897703582943988 0.033610864325088426 0 -0.030476601192697142 0.033976792156494892 0 -0.024591539836416633 0.01531430776364638 0 -0.024759686276570651 0.015484276472284654 0 -0.024098768181161127 0.015444499522061625 0 -0.026978509646740728 0.024800054858287401 0 -0.02697193511973367 0.022168206952443193 0 -0.029459923447459128 0.033344458235595807 0 -0.029802144962410165 0.033517061268025915 0 -0.02897703582943988 0.033610864325088426 0 -0.023987380252447447 0.015103253968514809 0 -0.02697193511973367 0.022168206952443193 0 -0.029459923447459128 0.033344458235595807 0 -0.029809362496376168 0.033153409324441496 0 -0.029802144962410165 0.033517061268025915 0 -0.029809362496376168 0.033153409324441496 0 -0.029802144962410165 0.033517061268025915 0 -0.03029066134858031 0.033500275470424466 0 -0.027584920493748208 0.033254906149778655 0 -0.028574146298358343 0.03294592591441791 0 -0.02897703582943988 0.033610864325088426 0 -0.025399459646113339 0.015036450376208557 0 -0.024591539836416633 0.01531430776364638 0 -0.024759686276570651 0.015484276472284654 0 -0.026960036014887355 0.024432363592939516 0 -0.026978509646740728 0.024800054858287401 0 -0.025399459646113339 0.015036450376208557 0 -0.026044910913893857 0.015824811921955676 0 -0.024759686276570651 0.015484276472284654 0 -0.028574146298358343 0.03294592591441791 0 -0.029202490129802413 0.033007875052086404 0 -0.02897703582943988 0.033610864325088426 0 -0.041234057711766206 0.028646345825136886 0 -0.041137825071979418 0.028883113395991814 0 -0.041073622088301842 0.028608282619835404 0 -0.036281518796138168 0.02725804589229126 0 -0.042324461076767343 0.028359024079700125 0 -0.042379005399977118 0.028017531864249864 0 -0.041600434391789995 0.028159744189223037 0 -0.042045067101509168 0.027854462124078331 0 -0.03145064686304045 0.0333625055808522 0 -0.030832281168375757 0.033411013079268533 0 -0.031399507686723005 0.033038836901745937 0 -0.03145064686304045 0.0333625055808522 0 -0.031241446058445223 0.033962849412453977 0 -0.032340450918866281 0.033038373566695797 0 -0.03145064686304045 0.0333625055808522 0 -0.031399507686723005 0.033038836901745937 0 -0.032340450918866281 0.033038373566695797 0 -0.036281518796138168 0.02725804589229126 0 -0.036239535792791502 0.031198838728646164 0 -0.036281518796138168 0.02725804589229126 0 -0.02697193511973367 0.022168206952443193 0 -0.031241446058445223 0.033962849412453977 0 -0.030476601192697142 0.033976792156494892 0 -0.030832281168375757 0.033411013079268533 0 -0.02697193511973367 0.022168206952443193 0 -0.035754469712589013 0.023778863376634884 0 -0.036502509507253388 0.023967700381759178 0 -0.028148280901053323 0.024281732618262195 0 -0.034703301164892786 0.025746921114922397 0 -0.03145064686304045 0.0333625055808522 0 -0.031241446058445223 0.033962849412453977 0 -0.030832281168375757 0.033411013079268533 0 -0.036281518796138168 0.02725804589229126 0 -0.035754469712589013 0.023778863376634884 0 -0.030476601192697142 0.033976792156494892 0 -0.03029066134858031 0.033500275470424466 0 -0.030832281168375757 0.033411013079268533 0 -0.029802144962410165 0.033517061268025915 0 -0.030476601192697142 0.033976792156494892 0 -0.03029066134858031 0.033500275470424466 0 -0.03029066134858031 0.033500275470424466 0 -0.030832281168375757 0.033411013079268533 0 -0.030303107672029334 0.032928877755479209 0 -0.029809362496376168 0.033153409324441496 0 -0.03029066134858031 0.033500275470424466 0 -0.030303107672029334 0.032928877755479209 0 -0.030832281168375757 0.033411013079268533 0 -0.030882954069533015 0.032744295643186427 0 -0.031399507686723005 0.033038836901745937 0 -0.030832281168375757 0.033411013079268533 0 -0.030882954069533015 0.032744295643186427 0 -0.030303107672029334 0.032928877755479209 0 -0.030882954069533015 0.032744295643186427 0 -0.030303107672029334 0.032928877755479209 0 -0.030327674563403056 0.03238181794370075 0 -0.029690676789560215 0.03247877380779722 0 -0.030303107672029334 0.032928877755479209 0 -0.030327674563403056 0.03238181794370075 0 -0.030882954069533015 0.032744295643186427 0 -0.03088620718838974 0.032140050402754014 0 -0.031632573862437431 0.032471589201997567 0 -0.030882954069533015 0.032744295643186427 0 -0.030327674563403056 0.03238181794370075 0 -0.03088620718838974 0.032140050402754014 0 -0.03151449283223029 0.031591404199029872 0 -0.03088620718838974 0.032140050402754014 0 -0.031632573862437431 0.032471589201997567 0 -0.030882954069533015 0.032744295643186427 0 -0.031632573862437431 0.032471589201997567 0 -0.031399507686723005 0.033038836901745937 0 -0.031632573862437431 0.032471589201997567 0 -0.031399507686723005 0.033038836901745937 0 -0.032340450918866281 0.033038373566695797 0 -0.031632573862437431 0.032471589201997567 0 -0.032504571182358562 0.032215818032396093 0 -0.032340450918866281 0.033038373566695797 0 -0.03151449283223029 0.031591404199029872 0 -0.031632573862437431 0.032471589201997567 0 -0.032504571182358562 0.032215818032396093 0 -0.041158653315346128 0.034981967713696722 0 -0.036239535792791502 0.031198838728646164 0 -0.033549664770208348 0.031994043927388811 0 -0.032504571182358562 0.032215818032396093 0 -0.032340450918866281 0.033038373566695797 0 -0.040823219298767172 0.029425744290917429 0 -0.040813666725618723 0.028929795598239043 0 -0.041137825071979418 0.028883113395991814 0 -0.041158653315346128 0.034981967713696722 0 -0.050617464309982874 0.033368058432627322 0 -0.049523402080944752 0.036091907052341318 0 -0.04710667662581132 0.03584776114662528 0 -0.048685165442248116 0.038018141791307421 0 -0.040823219298767172 0.029425744290917429 0 -0.040813666725618723 0.028929795598239043 0 -0.040239461061556299 0.028922605301335912 0 -0.04710667662581132 0.03584776114662528 0 -0.04679089844107874 0.036152843606297246 0 -0.048685165442248116 0.038018141791307421 0 -0.048485428565827486 0.029949742956898617 0 -0.050617464309982874 0.033368058432627322 0 -0.040637354546903252 0.028349998683061831 0 -0.040640221488332677 0.027657307293209921 0 -0.040239461061556299 0.028922605301335912 0 -0.040813666725618723 0.028929795598239043 0 -0.040637354546903252 0.028349998683061831 0 -0.040239461061556299 0.028922605301335912 0 -0.040813666725618723 0.028929795598239043 0 -0.040637354546903252 0.028349998683061831 0 -0.040939014389425619 0.02871129606558109 0 -0.040637354546903252 0.028349998683061831 0 -0.040939014389425619 0.02871129606558109 0 -0.041073622088301842 0.028608282619835404 0 -0.040318358045654076 0.028381495599029836 0 -0.042324461076767343 0.028359024079700125 0 -0.040637354546903252 0.028349998683061831 0 -0.041600434391789995 0.028159744189223037 0 -0.041212822540113284 0.027844906161339486 0 -0.041137825071979418 0.028883113395991814 0 -0.040939014389425619 0.02871129606558109 0 -0.041073622088301842 0.028608282619835404 0 -0.040813666725618723 0.028929795598239043 0 -0.041137825071979418 0.028883113395991814 0 -0.040939014389425619 0.02871129606558109 0 -0.041600434391789995 0.028159744189223037 0 -0.041671517631211463 0.027714027708817163 0 -0.041212822540113284 0.027844906161339486 0 -0.041212822540113284 0.027844906161339486 0 -0.041474343125847857 0.027328843813635567 0 -0.040640221488332677 0.027657307293209921 0 -0.041671517631211463 0.027714027708817163 0 -0.041474343125847857 0.027328843813635567 0 -0.04198877166740362 0.027329151871788294 0 -0.041671517631211463 0.027714027708817163 0 -0.041212822540113284 0.027844906161339486 0 -0.041474343125847857 0.027328843813635567 0 -0.040637354546903252 0.028349998683061831 0 -0.041212822540113284 0.027844906161339486 0 -0.040640221488332677 0.027657307293209921 0 -0.048485428565827486 0.029949742956898617 0 -0.049174392420349725 0.029406599409592119 0 -0.056752080300226888 0.032965813636811399 0 -0.056925256703329881 0.032612715219980527 0 -0.056629690072486034 0.032815241712870757 0 -0.041474343125847857 0.027328843813635567 0 -0.041803104236534001 0.026667713271964325 0 -0.041186718483074293 0.026270101847102201 0 -0.041474343125847857 0.027328843813635567 0 -0.040640221488332677 0.027657307293209921 0 -0.041186718483074293 0.026270101847102201 0 -0.041474343125847857 0.027328843813635567 0 -0.041803104236534001 0.026667713271964325 0 -0.04198877166740362 0.027329151871788294 0 -0.041803104236534001 0.026667713271964325 0 -0.042505521012782516 0.026883906929995007 0 -0.042188885986442361 0.026053331522892034 0 -0.042505521012782516 0.026883906929995007 0 -0.042953367565158558 0.026295901498708443 0 -0.042188885986442361 0.026053331522892034 0 -0.041803104236534001 0.026667713271964325 0 -0.042505521012782516 0.026883906929995007 0 -0.04198877166740362 0.027329151871788294 0 -0.042505521012782516 0.026883906929995007 0 -0.04198877166740362 0.027329151871788294 0 -0.042425723377283481 0.027482606357406063 0 -0.04198877166740362 0.027329151871788294 0 -0.042425723377283481 0.027482606357406063 0 -0.042045067101509168 0.027854462124078331 0 -0.042379005399977118 0.028017531864249864 0 -0.042045067101509168 0.027854462124078331 0 -0.042459674948473379 0.027922437240286049 0 -0.04345640402440161 0.027297791151160586 0 -0.035754469712589013 0.023778863376634884 0 -0.042425723377283481 0.027482606357406063 0 -0.042045067101509168 0.027854462124078331 0 -0.042610551398117348 0.027944775869331674 0 -0.041671517631211463 0.027714027708817163 0 -0.04198877166740362 0.027329151871788294 0 -0.042045067101509168 0.027854462124078331 0 -0.041600434391789995 0.028159744189223037 0 -0.041671517631211463 0.027714027708817163 0 -0.042045067101509168 0.027854462124078331 0 -0.033490633829715274 0.020442875355021404 0 -0.035754469712589013 0.023778863376634884 0 -0.04345684172188382 0.027040573020606872 0 -0.042610551398117348 0.027944775869331674 0 -0.042814101216472278 0.027244467174624924 0 -0.023815337692444392 0.013971274642145336 0 -0.023824324587465071 0.014576821155368538 0 -0.023231204192128856 0.01487208971402048 0 -0.023824324587465071 0.014576821155368538 0 -0.023545736464013707 0.014898672478378823 0 -0.023231204192128856 0.01487208971402048 0 -0.042425723377283481 0.027482606357406063 0 -0.042610551398117348 0.027944775869331674 0 -0.042814101216472278 0.027244467174624924 0 -0.042505521012782516 0.026883906929995007 0 -0.042425723377283481 0.027482606357406063 0 -0.042814101216472278 0.027244467174624924 0 -0.04345684172188382 0.027040573020606872 0 -0.042814101216472278 0.027244467174624924 0 -0.043024524354053455 0.026829285228400675 0 -0.04345684172188382 0.027040573020606872 0 -0.043024524354053455 0.026829285228400675 0 -0.043330359594077307 0.026504397646671812 0 -0.042505521012782516 0.026883906929995007 0 -0.042814101216472278 0.027244467174624924 0 -0.043024524354053455 0.026829285228400675 0 -0.042505521012782516 0.026883906929995007 0 -0.043024524354053455 0.026829285228400675 0 -0.042953367565158558 0.026295901498708443 0 -0.043024524354053455 0.026829285228400675 0 -0.043330359594077307 0.026504397646671812 0 -0.042953367565158558 0.026295901498708443 0 -0.042953367565158558 0.026295901498708443 0 -0.042188885986442361 0.026053331522892034 0 -0.042702576891784652 0.025335341124587605 0 -0.043483584181561528 0.025660936266606753 0 -0.042953367565158558 0.026295901498708443 0 -0.042702576891784652 0.025335341124587605 0 -0.043483584181561528 0.025660936266606753 0 -0.043330359594077307 0.026504397646671812 0 -0.042953367565158558 0.026295901498708443 0 -0.042702576891784652 0.025335341124587605 0 -0.042598266163735792 0.02441662755940226 0 -0.041746417280458949 0.024973999619874881 0 -0.042188885986442361 0.026053331522892034 0 -0.042702576891784652 0.025335341124587605 0 -0.041746417280458949 0.024973999619874881 0 -0.041756492718722719 0.021578524494698336 0 -0.040944374600369156 0.020404811842159969 0 -0.042702576891784652 0.025335341124587605 0 -0.043225928657349005 0.024589309711469887 0 -0.042598266163735792 0.02441662755940226 0 -0.043483584181561528 0.025660936266606753 0 -0.042702576891784652 0.025335341124587605 0 -0.043225928657349005 0.024589309711469887 0 -0.043225928657349005 0.024589309711469887 0 -0.042598266163735792 0.02441662755940226 0 -0.042953655531619811 0.023509517124868842 0 -0.040944374600369156 0.020404811842159969 0 -0.042690897785212581 0.019090494687123552 0 -0.039024003911402934 0.016241724922797941 0 -0.038969082467446195 0.016296453261964928 0 -0.039005851569471117 0.016237466120308457 0 -0.042598266163735792 0.02441662755940226 0 -0.042327289321177387 0.023669960443693058 0 -0.041746417280458949 0.024973999619874881 0 -0.054995056673032831 0.026868732092830652 0 -0.048694794954676032 0.028981080134958537 0 -0.042598266163735792 0.02441662755940226 0 -0.042327289321177387 0.023669960443693058 0 -0.042953655531619811 0.023509517124868842 0 -0.054995056673032831 0.026868732092830652 0 -0.042690897785212581 0.019090494687123552 0 -0.064803123337025009 0.027810811508926604 0 -0.065578537070337353 0.026054848828686545 0 -0.064109382563231662 0.026294945810108643 0 -0.052453498432247836 0.023189969037505569 0 -0.052386371281465768 0.02318191680622244 0 -0.052442951047082478 0.023240179647121398 0 -0.054995056673032831 0.026868732092830652 0 -0.057191212190596079 0.022552202473609909 0 -0.038088098123950968 0.016060397563624623 0 -0.042690897785212581 0.019090494687123552 0 -0.042690897785212581 0.019090494687123552 0 -0.057191212190596079 0.022552202473609909 0 -0.039639923018297059 0.016390163099217796 0 -0.039791040982422046 0.016057477675374018 0 -0.040045567921849441 0.016617483018858424 0 -0.039238625187725196 0.016244624939558399 0 -0.039639923018297059 0.016390163099217796 0 -0.039791040982422046 0.016057477675374018 0 -0.062960079574976943 0.026908381567548854 0 -0.062577020493754951 0.028322136510497191 0 -0.061485457983666718 0.026502882983546614 0 -0.062577020493754951 0.028322136510497191 0 -0.060317744200544414 0.028826465986491825 0 -0.061485457983666718 0.026502882983546614 0 -0.054995056673032831 0.026868732092830652 0 -0.060924829531350318 0.03030324539226871 0 -0.064803123337025009 0.027810811508926604 0 -0.062960079574976943 0.026908381567548854 0 -0.062577020493754951 0.028322136510497191 0 -0.064803123337025009 0.027810811508926604 0 -0.062960079574976943 0.026908381567548854 0 -0.064109382563231662 0.026294945810108643 0 -0.05720148400004528 0.031871892509129016 0 -0.056927994793485287 0.031995706563045262 0 -0.057068977437878095 0.032241605325901701 0 -0.056927994793485287 0.031995706563045262 0 -0.056804377760816351 0.032279838579399422 0 -0.057068977437878095 0.032241605325901701 0 -0.056927994793485287 0.031995706563045262 0 -0.056804377760816351 0.032279838579399422 0 -0.056658383147719468 0.032102067071139828 0 -0.060924829531350318 0.03030324539226871 0 -0.058247883062587782 0.030464661439565978 0 -0.056804377760816351 0.032279838579399422 0 -0.057068977437878095 0.032241605325901701 0 -0.056925256703329881 0.032612715219980527 0 -0.042188885986442361 0.026053331522892034 0 -0.041746417280458949 0.024973999619874881 0 -0.041186718483074293 0.026270101847102201 0 -0.048694794954676032 0.028981080134958537 0 -0.049174392420349725 0.029406599409592119 0 -0.041803104236534001 0.026667713271964325 0 -0.042188885986442361 0.026053331522892034 0 -0.041186718483074293 0.026270101847102201 0 -0.056804377760816351 0.032279838579399422 0 -0.056925256703329881 0.032612715219980527 0 -0.056672672751344418 0.032500272506372475 0 -0.056925256703329881 0.032612715219980527 0 -0.056672672751344418 0.032500272506372475 0 -0.056629690072486034 0.032815241712870757 0 -0.056672672751344418 0.032500272506372475 0 -0.056498924221594006 0.032689697771339399 0 -0.056629690072486034 0.032815241712870757 0 -0.056672672751344418 0.032500272506372475 0 -0.056498924221594006 0.032689697771339399 0 -0.056531502628936317 0.032442944959519195 0 -0.056498924221594006 0.032689697771339399 0 -0.056384124717225578 0.032529636205489321 0 -0.056230894171443731 0.03293443870104687 0 -0.056498924221594006 0.032689697771339399 0 -0.056531502628936317 0.032442944959519195 0 -0.056384124717225578 0.032529636205489321 0 -0.056468181495732191 0.03225841882005092 0 -0.056588220597212413 0.032263241611212613 0 -0.056417829531407289 0.032157867087465347 0 -0.056531502628936317 0.032442944959519195 0 -0.056384124717225578 0.032529636205489321 0 -0.056468181495732191 0.03225841882005092 0 -0.056384124717225578 0.032529636205489321 0 -0.056468181495732191 0.03225841882005092 0 -0.056250600274015267 0.032238994014710663 0 -0.056531502628936317 0.032442944959519195 0 -0.056468181495732191 0.03225841882005092 0 -0.056588220597212413 0.032263241611212613 0 -0.056468181495732191 0.03225841882005092 0 -0.056417897264070031 0.031914364060633832 0 -0.056250600274015267 0.032238994014710663 0 -0.056879205192118469 0.032120653715393022 0 -0.057320993601780411 0.030851079638296867 0 -0.056804377760816351 0.032279838579399422 0 -0.056672672751344418 0.032500272506372475 0 -0.056588220597212413 0.032263241611212613 0 -0.056804377760816351 0.032279838579399422 0 -0.056588220597212413 0.032263241611212613 0 -0.056658383147719468 0.032102067071139828 0 -0.056672672751344418 0.032500272506372475 0 -0.056531502628936317 0.032442944959519195 0 -0.056588220597212413 0.032263241611212613 0 -0.060317744200544414 0.028826465986491825 0 -0.058072442583578132 0.02931792403943128 0 -0.059309506376395302 0.026846187605959911 0 -0.056588220597212413 0.032263241611212613 0 -0.056658383147719468 0.032102067071139828 0 -0.056417829531407289 0.032157867087465347 0 -0.058247883062587782 0.030464661439565978 0 -0.057320993601780411 0.030851079638296867 0 -0.058072442583578132 0.02931792403943128 0 -0.059309506376395302 0.026846187605959911 0 -0.057040892742215125 0.027056093737927393 0 -0.060317744200544414 0.028826465986491825 0 -0.059309506376395302 0.026846187605959911 0 -0.061485457983666718 0.026502882983546614 0 -0.054999990083395948 0.028557475587834114 0 -0.056435572690624672 0.029449510340053449 0 -0.055924296233179592 0.027149926936124461 0 -0.057367814704247969 0.028042380692432253 0 -0.056435572690624672 0.029449510340053449 0 -0.055924296233179592 0.027149926936124461 0 -0.057320993601780411 0.030851079638296867 0 -0.056328040653584134 0.031359380809397451 0 -0.057320993601780411 0.030851079638296867 0 -0.057296874945193081 0.027410850392540362 0 -0.058536961066182745 0.030590386512162979 0 -0.056435572690624672 0.029449510340053449 0 -0.056770985887222729 0.030976863310636746 0 -0.058536961066182745 0.030590386512162979 0 -0.057367814704247969 0.028042380692432253 0 -0.056435572690624672 0.029449510340053449 0 -0.054999990083395948 0.028557475587834114 0 -0.056435572690624672 0.029449510340053449 0 -0.054999991349620941 0.031375066274710935 0 -0.056435572690624672 0.029449510340053449 0 -0.054999991349620941 0.031375066274710935 0 -0.056770985887222729 0.030976863310636746 0 -0.05500031171403847 0.031375218800691836 0 -0.056328040653584134 0.031359380809397451 0 -0.055000055118347893 0.031376020945580785 0 -0.055872989525795398 0.032279677313947749 0 -0.055992825843641736 0.031806875202234068 0 -0.055000055118347893 0.031376020945580785 0 -0.055872989525795398 0.032279677313947749 0 -0.055561927989813444 0.032968701555940394 0 -0.056417897264070031 0.031914364060633832 0 -0.055992825843641736 0.031806875202234068 0 -0.056250600274015267 0.032238994014710663 0 -0.055872989525795398 0.032279677313947749 0 -0.055992825843641736 0.031806875202234068 0 -0.056250600274015267 0.032238994014710663 0 -0.055872989525795398 0.032279677313947749 0 -0.056250600274015267 0.032238994014710663 0 -0.056124881465507016 0.032597405069819223 0 -0.056384124717225578 0.032529636205489321 0 -0.056250600274015267 0.032238994014710663 0 -0.056124881465507016 0.032597405069819223 0 -0.056384124717225578 0.032529636205489321 0 -0.056124881465507016 0.032597405069819223 0 -0.056230894171443731 0.03293443870104687 0 -0.056124881465507016 0.032597405069819223 0 -0.055561927989813444 0.032968701555940394 0 -0.056230894171443731 0.03293443870104687 0 -0.055561927989813444 0.032968701555940394 0 -0.054999810920619056 0.034540820143045138 0 -0.057781985707449142 0.035318028051591302 0 -0.055000055118347893 0.031376020945580785 0 -0.055561927989813444 0.032968701555940394 0 -0.054999810920619056 0.034540820143045138 0 -0.055872989525795398 0.032279677313947749 0 -0.056124881465507016 0.032597405069819223 0 -0.055561927989813444 0.032968701555940394 0 -0.055582938693696952 0.032980840448296155 0 -0.057117898206369956 0.034090144942687306 0 -0.054999810920619056 0.034540820143045138 0 -0.056292543295043775 0.036286389264285769 0 -0.057781985707449142 0.035318028051591302 0 -0.055000052189486351 0.037708034530576397 0 -0.056292543295043775 0.036286389264285769 0 -0.057384283449071441 0.037572912570024854 0 -0.054999810920619056 0.034540820143045138 0 -0.055000052189486351 0.037708034530576397 0 -0.056292543295043775 0.036286389264285769 0 -0.056292543295043775 0.036286389264285769 0 -0.057384283449071441 0.037572912570024854 0 -0.057781985707449142 0.035318028051591302 0 -0.057384283449071441 0.037572912570024854 0 -0.057781985707449142 0.035318028051591302 0 -0.059908716305536368 0.037514382031445685 0 -0.056498924221594006 0.032689697771339399 0 -0.056230894171443731 0.03293443870104687 0 -0.056474677921943647 0.03289349942814105 0 -0.056498924221594006 0.032689697771339399 0 -0.056474677921943647 0.03289349942814105 0 -0.056629690072486034 0.032815241712870757 0 -0.056674679872768002 0.032051473396327988 0 -0.057288219314543261 0.035695564152171379 0 -0.056752080300226888 0.032965813636811399 0 -0.056629690072486034 0.032815241712870757 0 -0.05640729696744843 0.033073282257676674 0 -0.056474677921943647 0.03289349942814105 0 -0.056629690072486034 0.032815241712870757 0 -0.056506684183793753 0.033123929870602919 0 -0.057117898206369956 0.034090144942687306 0 -0.057288219314543261 0.035695564152171379 0 -0.056230894171443731 0.03293443870104687 0 -0.056474677921943647 0.03289349942814105 0 -0.056506684183793753 0.033123929870602919 0 -0.055176257460048901 0.037443407848687417 0 -0.055245665134340059 0.037366274480324424 0 -0.055153864373762705 0.037332608259322247 0 -0.057288219314543261 0.035695564152171379 0 -0.05693786334776265 0.038447738114833971 0 -0.057384283449071441 0.037572912570024854 0 -0.059908716305536368 0.037514382031445685 0 -0.058773748341199833 0.039251924290760735 0 -0.055176257460048901 0.037443407848687417 0 -0.055039676620791254 0.037337414772935028 0 -0.055153864373762705 0.037332608259322247 0 -0.056752080300226888 0.032965813636811399 0 -0.05640729696744843 0.033073282257676674 0 -0.056569580473325623 0.033281204381093742 0 -0.057288219314543261 0.035695564152171379 0 -0.050617464309982874 0.033368058432627322 0 -0.055093710954439032 0.037249526229450478 0 -0.055039676620791254 0.037337414772935028 0 -0.055153864373762705 0.037332608259322247 0 -0.052680868101461893 0.040777501103474431 0 -0.050617464309982874 0.033368058432627322 0 -0.055093710954439032 0.037249526229450478 0 -0.055153864373762705 0.037332608259322247 0 -0.055218571718021421 0.037260742055691479 0 -0.055245665134340059 0.037366274480324424 0 -0.055153864373762705 0.037332608259322247 0 -0.055218571718021421 0.037260742055691479 0 -0.055245665134340059 0.037366274480324424 0 -0.055218571718021421 0.037260742055691479 0 -0.055331975274521231 0.03728258849026847 0 -0.057686596686622925 0.039563891382616484 0 -0.056758633487730775 0.039898759098284345 0 -0.05693786334776265 0.038447738114833971 0 -0.056758633487730775 0.039898759098284345 0 -0.058773748341199833 0.039251924290760735 0 -0.057629299148123356 0.040998070588996245 0 -0.056750826952745678 0.039521562532897042 0 -0.056758633487730775 0.039898759098284345 0 -0.056790273697103745 0.040674405737186746 0 -0.057629299148123356 0.040998070588996245 0 -0.056296400958475094 0.040884610708439593 0 -0.056750826952745678 0.039521562532897042 0 -0.054999927664540045 0.040874232221022287 0 -0.056296400958475094 0.040884610708439593 0 -0.056750826952745678 0.039521562532897042 0 -0.055000052189486351 0.037708034530576397 0 -0.057384283449071441 0.037572912570024854 0 -0.056750826952745678 0.039521562532897042 0 -0.055000052189486351 0.037708034530576397 0 -0.054999927664540045 0.040874232221022287 0 -0.056750826952745678 0.039521562532897042 0 -0.057384283449071441 0.037572912570024854 0 -0.058773748341199833 0.039251924290760735 0 -0.056750826952745678 0.039521562532897042 0 -0.056420861050841417 0.015163086420220429 0 -0.058351138268032662 0.014727241239553525 0 -0.057392013136521466 0.017694344624848386 0 -0.054999750894095034 0.016811089911409203 0 -0.056420861050841417 0.015163086420220429 0 -0.057392013136521466 0.017694344624848386 0 -0.054999750894095034 0.016811089911409203 0 -0.056420861050841417 0.015163086420220429 0 -0.054999726409711402 0.013755687507593699 0 -0.056420861050841417 0.015163086420220429 0 -0.054999726409711402 0.013755687507593699 0 -0.057115031365538922 0.011949243374152404 0 -0.056420861050841417 0.015163086420220429 0 -0.058351138268032662 0.014727241239553525 0 -0.057115031365538922 0.011949243374152404 0 -0.058351138268032662 0.014727241239553525 0 -0.06022778306615164 0.014678834337708812 0 -0.059130326552134592 0.012753921137819521 0 -0.06022778306615164 0.014678834337708812 0 -0.061077865786614928 0.012721182222673379 0 -0.059130326552134592 0.012753921137819521 0 -0.058351138268032662 0.014727241239553525 0 -0.06022778306615164 0.014678834337708812 0 -0.060019158430379457 0.016918113820682559 0 -0.06022778306615164 0.014678834337708812 0 -0.060019158430379457 0.016918113820682559 0 -0.062296169380457768 0.015150657514843766 0 -0.058351138268032662 0.014727241239553525 0 -0.060019158430379457 0.016918113820682559 0 -0.057392013136521466 0.017694344624848386 0 -0.060019158430379457 0.016918113820682559 0 -0.059717944026475574 0.019928245126826599 0 -0.057392013136521466 0.017694344624848386 0 -0.060019158430379457 0.016918113820682559 0 -0.059717944026475574 0.019928245126826599 0 -0.062064096154852824 0.018071039934488508 0 -0.059717944026475574 0.019928245126826599 0 -0.057392013136521466 0.017694344624848386 0 -0.057058851318851432 0.020624713832693171 0 -0.054999750894095034 0.016811089911409203 0 -0.057392013136521466 0.017694344624848386 0 -0.05499978125015155 0.019866845641509118 0 -0.057392013136521466 0.017694344624848386 0 -0.05499978125015155 0.019866845641509118 0 -0.057058851318851432 0.020624713832693171 0 -0.05499996010976943 0.022920940873802358 0 -0.056021380616377625 0.024858918841728507 0 -0.058157675127931859 0.022693894288802134 0 -0.05499978125015155 0.019866845641509118 0 -0.057058851318851432 0.020624713832693171 0 -0.05499996010976943 0.022920940873802358 0 -0.057058851318851432 0.020624713832693171 0 -0.05499996010976943 0.022920940873802358 0 -0.058157675127931859 0.022693894288802134 0 -0.055000209596011512 0.022922586784483286 0 -0.056092778674923426 0.02519479716807755 0 -0.054999998518179334 0.02292221146550865 0 -0.054999993650196942 0.025739841284625666 0 -0.056188581545794668 0.025482120370850812 0 -0.056021380616377625 0.024858918841728507 0 -0.058388081731117855 0.024886890006699868 0 -0.058157675127931859 0.022693894288802134 0 -0.057296874945193081 0.027410850392540362 0 -0.056092778674923426 0.02519479716807755 0 -0.057040892742215125 0.027056093737927393 0 -0.056021380616377625 0.024858918841728507 0 -0.058388081731117855 0.024886890006699868 0 -0.054999990083395948 0.028557475587834114 0 -0.054999993650196942 0.025739841284625666 0 -0.055924296233179592 0.027149926936124461 0 -0.057367814704247969 0.028042380692432253 0 -0.056188581545794668 0.025482120370850812 0 -0.055924296233179592 0.027149926936124461 0 -0.054999993650196942 0.025739841284625666 0 -0.056188581545794668 0.025482120370850812 0 -0.055924296233179592 0.027149926936124461 0 -0.059309506376395302 0.026846187605959911 0 -0.06059013949292822 0.024468448901165535 0 -0.061485457983666718 0.026502882983546614 0 -0.059309506376395302 0.026846187605959911 0 -0.057040892742215125 0.027056093737927393 0 -0.058388081731117855 0.024886890006699868 0 -0.059309506376395302 0.026846187605959911 0 -0.058388081731117855 0.024886890006699868 0 -0.06059013949292822 0.024468448901165535 0 -0.058388081731117855 0.024886890006699868 0 -0.059400054420217417 0.02352286291356773 0 -0.058157675127931859 0.022693894288802134 0 -0.058388081731117855 0.024886890006699868 0 -0.059400054420217417 0.02352286291356773 0 -0.06059013949292822 0.024468448901165535 0 -0.059400054420217417 0.02352286291356773 0 -0.06059013949292822 0.024468448901165535 0 -0.060499243455813666 0.022016039892253526 0 -0.059400054420217417 0.02352286291356773 0 -0.060499243455813666 0.022016039892253526 0 -0.058157675127931859 0.022693894288802134 0 -0.059717944026475574 0.019928245126826599 0 -0.057058851318851432 0.020624713832693171 0 -0.058157675127931859 0.022693894288802134 0 -0.059717944026475574 0.019928245126826599 0 -0.060499243455813666 0.022016039892253526 0 -0.058157675127931859 0.022693894288802134 0 -0.059717944026475574 0.019928245126826599 0 -0.060499243455813666 0.022016039892253526 0 -0.062355897114626961 0.020788948675370043 0 -0.062355897114626961 0.020788948675370043 0 -0.064277963606152386 0.020740810979783 0 -0.063941555266867456 0.019033218435126228 0 -0.062355897114626961 0.020788948675370043 0 -0.063561179007516511 0.022497082501828164 0 -0.064277963606152386 0.020740810979783 0 -0.062355897114626961 0.020788948675370043 0 -0.063561179007516511 0.022497082501828164 0 -0.062154067671618879 0.02313397521349117 0 -0.063561179007516511 0.022497082501828164 0 -0.062154067671618879 0.02313397521349117 0 -0.063393611422586205 0.024083606304376788 0 -0.063561179007516511 0.022497082501828164 0 -0.063393611422586205 0.024083606304376788 0 -0.064957999508085659 0.023518976143487125 0 -0.06059013949292822 0.024468448901165535 0 -0.060499243455813666 0.022016039892253526 0 -0.062154067671618879 0.02313397521349117 0 -0.060499243455813666 0.022016039892253526 0 -0.062355897114626961 0.020788948675370043 0 -0.062154067671618879 0.02313397521349117 0 -0.06059013949292822 0.024468448901165535 0 -0.062154067671618879 0.02313397521349117 0 -0.062076106784367382 0.024637810346538998 0 -0.062154067671618879 0.02313397521349117 0 -0.062076106784367382 0.024637810346538998 0 -0.063393611422586205 0.024083606304376788 0 -0.063393611422586205 0.024083606304376788 0 -0.063042306738810797 0.025552493902913673 0 -0.064286507105931021 0.025132344124093351 0 -0.062076106784367382 0.024637810346538998 0 -0.063393611422586205 0.024083606304376788 0 -0.063042306738810797 0.025552493902913673 0 -0.063042306738810797 0.025552493902913673 0 -0.064109382563231662 0.026294945810108643 0 -0.064286507105931021 0.025132344124093351 0 -0.062960079574976943 0.026908381567548854 0 -0.063042306738810797 0.025552493902913673 0 -0.064109382563231662 0.026294945810108643 0 -0.062960079574976943 0.026908381567548854 0 -0.063042306738810797 0.025552493902913673 0 -0.061485457983666718 0.026502882983546614 0 -0.06059013949292822 0.024468448901165535 0 -0.062076106784367382 0.024637810346538998 0 -0.061485457983666718 0.026502882983546614 0 -0.062076106784367382 0.024637810346538998 0 -0.063042306738810797 0.025552493902913673 0 -0.061485457983666718 0.026502882983546614 0 -0.039505589599284276 0.016650235090633909 0 -0.040045567921849441 0.016617483018858424 0 -0.039827972098403629 0.017126521730215571 0 -0.057191212190596079 0.022552202473609909 0 -0.05255617086232689 0.020382011686262063 0 -0.039471040021629988 0.016958829293358187 0 -0.039505589599284276 0.016650235090633909 0 -0.039827972098403629 0.017126521730215571 0 -0.039639923018297059 0.016390163099217796 0 -0.039505589599284276 0.016650235090633909 0 -0.040045567921849441 0.016617483018858424 0 -0.039238625187725196 0.016244624939558399 0 -0.039639923018297059 0.016390163099217796 0 -0.039505589599284276 0.016650235090633909 0 -0.065578537070337353 0.026054848828686545 0 -0.064109382563231662 0.026294945810108643 0 -0.064286507105931021 0.025132344124093351 0 -0.057191212190596079 0.022552202473609909 0 -0.066138722419496018 0.023792397428696835 0 -0.063393611422586205 0.024083606304376788 0 -0.064286507105931021 0.025132344124093351 0 -0.064957999508085659 0.023518976143487125 0 -0.06529570645116492 0.02366265781535732 0 -0.065016185279091435 0.022623819143870971 0 -0.065622373014401825 0.023049731022609592 0 -0.065578537070337353 0.026054848828686545 0 -0.064286507105931021 0.025132344124093351 0 -0.064957999508085659 0.023518976143487125 0 -0.065460988261225442 0.022595136510181229 0 -0.065701536725090159 0.022550458134952909 0 -0.065622373014401825 0.023049731022609592 0 -0.065016185279091435 0.022623819143870971 0 -0.065460988261225442 0.022595136510181229 0 -0.065622373014401825 0.023049731022609592 0 -0.065460988261225442 0.022595136510181229 0 -0.065701536725090159 0.022550458134952909 0 -0.065679949498263543 0.022386205889079122 0 -0.039471040021629988 0.016958829293358187 0 -0.039827972098403629 0.017126521730215571 0 -0.039375325102328641 0.017235540808892016 0 -0.05255617086232689 0.020382011686262063 0 -0.047979361643198722 0.015051970164118817 0 -0.039827972098403629 0.017126521730215571 0 -0.039607151976145026 0.017677617327053148 0 -0.039375325102328641 0.017235540808892016 0 -0.065701536725090159 0.022550458134952909 0 -0.065622373014401825 0.023049731022609592 0 -0.065935641582107116 0.022331781070575974 0 -0.058877035606643403 0.018182856465303838 0 -0.05851117737905405 0.0180399436191922 0 -0.060372214006093605 0.015020134633538419 0 -0.065813337828769927 0.022322970917258697 0 -0.065799011763343199 0.022386831461666198 0 -0.065679949498263543 0.022386205889079122 0 -0.065701536725090159 0.022550458134952909 0 -0.065935641582107116 0.022331781070575974 0 -0.065799011763343199 0.022386831461666198 0 -0.060269088102272786 0.019246921678330805 0 -0.060453631259359535 0.019577764326487904 0 -0.065935641582107116 0.022331781070575974 0 -0.065808985376493656 0.022273320877741046 0 -0.065799011763343199 0.022386831461666198 0 -0.047979361643198722 0.015051970164118817 0 -0.060269088102272786 0.019246921678330805 0 -0.060269088102272786 0.019246921678330805 0 -0.066212454482072219 0.022002213246920199 0 -0.065701536725090159 0.022550458134952909 0 -0.065799011763343199 0.022386831461666198 0 -0.065679949498263543 0.022386205889079122 0 -0.065460988261225442 0.022595136510181229 0 -0.065679949498263543 0.022386205889079122 0 -0.06560738103742704 0.022103401000927971 0 -0.066408210981699092 0.022472357161498958 0 -0.06560738103742704 0.022103401000927971 0 -0.066085480410131389 0.02185077220254197 0 -0.065813337828769927 0.022322970917258697 0 -0.065679949498263543 0.022386205889079122 0 -0.06560738103742704 0.022103401000927971 0 -0.06560738103742704 0.022103401000927971 0 -0.065960291041134614 0.021582607604669513 0 -0.0654928444262316 0.021187003377745841 0 -0.06560738103742704 0.022103401000927971 0 -0.066085480410131389 0.02185077220254197 0 -0.065960291041134614 0.021582607604669513 0 -0.066085480410131389 0.02185077220254197 0 -0.065960291041134614 0.021582607604669513 0 -0.066388080944880745 0.02122803467759125 0 -0.066408210981699092 0.022472357161498958 0 -0.066085480410131389 0.02185077220254197 0 -0.066388080944880745 0.02122803467759125 0 -0.065016185279091435 0.022623819143870971 0 -0.0654928444262316 0.021187003377745841 0 -0.064277963606152386 0.020740810979783 0 -0.065016185279091435 0.022623819143870971 0 -0.06560738103742704 0.022103401000927971 0 -0.0654928444262316 0.021187003377745841 0 -0.063561179007516511 0.022497082501828164 0 -0.064957999508085659 0.023518976143487125 0 -0.064277963606152386 0.020740810979783 0 -0.066138722419496018 0.023792397428696835 0 -0.063972635662796651 0.020480931634645375 0 -0.065016185279091435 0.022623819143870971 0 -0.065460988261225442 0.022595136510181229 0 -0.06560738103742704 0.022103401000927971 0 -0.0654928444262316 0.021187003377745841 0 -0.064277963606152386 0.020740810979783 0 -0.065399450883517313 0.01986690924439918 0 -0.066408210981699092 0.022472357161498958 0 -0.066388080944880745 0.02122803467759125 0 -0.067296652680263538 0.019932254037818373 0 -0.060269088102272786 0.019246921678330805 0 -0.063704076161926762 0.01728830268186525 0 -0.0654928444262316 0.021187003377745841 0 -0.066388080944880745 0.02122803467759125 0 -0.066212734059968192 0.020331004092772914 0 -0.065960291041134614 0.021582607604669513 0 -0.0654928444262316 0.021187003377745841 0 -0.066388080944880745 0.02122803467759125 0 -0.0654928444262316 0.021187003377745841 0 -0.066212734059968192 0.020331004092772914 0 -0.065399450883517313 0.01986690924439918 0 -0.066388080944880745 0.02122803467759125 0 -0.066212734059968192 0.020331004092772914 0 -0.067296652680263538 0.019932254037818373 0 -0.066276571958891708 0.019342804090315951 0 -0.066837689652678015 0.018241509859999672 0 -0.067296652680263538 0.019932254037818373 0 -0.066212734059968192 0.020331004092772914 0 -0.066276571958891708 0.019342804090315951 0 -0.067296652680263538 0.019932254037818373 0 -0.066212734059968192 0.020331004092772914 0 -0.066276571958891708 0.019342804090315951 0 -0.065399450883517313 0.01986690924439918 0 -0.066276571958891708 0.019342804090315951 0 -0.066837689652678015 0.018241509859999672 0 -0.065637156534353244 0.01827584715348422 0 -0.066276571958891708 0.019342804090315951 0 -0.065637156534353244 0.01827584715348422 0 -0.065399450883517313 0.01986690924439918 0 -0.066837689652678015 0.018241509859999672 0 -0.066525607332593537 0.01657097525734496 0 -0.068217438364074345 0.016964483626373903 0 -0.066837689652678015 0.018241509859999672 0 -0.065637156534353244 0.01827584715348422 0 -0.066525607332593537 0.01657097525734496 0 -0.065637156534353244 0.01827584715348422 0 -0.066525607332593537 0.01657097525734496 0 -0.064276789666337195 0.016384482441724375 0 -0.065637156534353244 0.01827584715348422 0 -0.063941555266867456 0.019033218435126228 0 -0.064276789666337195 0.016384482441724375 0 -0.065637156534353244 0.01827584715348422 0 -0.065399450883517313 0.01986690924439918 0 -0.063941555266867456 0.019033218435126228 0 -0.064277963606152386 0.020740810979783 0 -0.065399450883517313 0.01986690924439918 0 -0.063941555266867456 0.019033218435126228 0 -0.062355897114626961 0.020788948675370043 0 -0.063941555266867456 0.019033218435126228 0 -0.062064096154852824 0.018071039934488508 0 -0.059717944026475574 0.019928245126826599 0 -0.062355897114626961 0.020788948675370043 0 -0.062064096154852824 0.018071039934488508 0 -0.063941555266867456 0.019033218435126228 0 -0.062064096154852824 0.018071039934488508 0 -0.064276789666337195 0.016384482441724375 0 -0.062064096154852824 0.018071039934488508 0 -0.062296169380457768 0.015150657514843766 0 -0.064276789666337195 0.016384482441724375 0 -0.062296169380457768 0.015150657514843766 0 -0.064346668771098153 0.014356434800338165 0 -0.064276789666337195 0.016384482441724375 0 -0.060019158430379457 0.016918113820682559 0 -0.062064096154852824 0.018071039934488508 0 -0.062296169380457768 0.015150657514843766 0 -0.06022778306615164 0.014678834337708812 0 -0.062296169380457768 0.015150657514843766 0 -0.061077865786614928 0.012721182222673379 0 -0.062296169380457768 0.015150657514843766 0 -0.063281068666294626 0.012678214243546079 0 -0.061077865786614928 0.012721182222673379 0 -0.062296169380457768 0.015150657514843766 0 -0.064346668771098153 0.014356434800338165 0 -0.063281068666294626 0.012678214243546079 0 -0.064346668771098153 0.014356434800338165 0 -0.065998959576351685 0.014799285420641663 0 -0.065537761362196509 0.012664427147476913 0 -0.067117567621177585 0.01371171090763198 0 -0.065998959576351685 0.014799285420641663 0 -0.065537761362196509 0.012664427147476913 0 -0.067117567621177585 0.01371171090763198 0 -0.065998959576351685 0.014799285420641663 0 -0.067425019754204979 0.015158771429248957 0 -0.065998959576351685 0.014799285420641663 0 -0.066525607332593537 0.01657097525734496 0 -0.067425019754204979 0.015158771429248957 0 -0.066525607332593537 0.01657097525734496 0 -0.067425019754204979 0.015158771429248957 0 -0.068217438364074345 0.016964483626373903 0 -0.064346668771098153 0.014356434800338165 0 -0.065998959576351685 0.014799285420641663 0 -0.064276789666337195 0.016384482441724375 0 -0.065998959576351685 0.014799285420641663 0 -0.066525607332593537 0.01657097525734496 0 -0.064276789666337195 0.016384482441724375 0 -0.062559903171923323 0.0094233886939736871 0 -0.062827468934834652 0.0095792724142732561 0 -0.061746682751852598 0.012078942330938425 0 -0.064589515722405441 0.011091535061567686 0 -0.064539625948497645 0.013872965765088676 0 -0.062559903171923323 0.0094233886939736871 0 -0.062230782788357197 0.0084379339820519587 0 -0.060676798448360381 0.010868551465968813 0 -0.067425019754204979 0.015158771429248957 0 -0.068988088654360999 0.013836449333002264 0 -0.068217438364074345 0.016964483626373903 0 -0.062230782788357197 0.0084379339820519587 0 -0.062004012579006583 0.0081487842622537457 0 -0.060676798448360381 0.010868551465968813 0 -0.067117567621177585 0.01371171090763198 0 -0.067425019754204979 0.015158771429248957 0 -0.068988088654360999 0.013836449333002264 0 -0.062230782788357197 0.0084379339820519587 0 -0.062248770378513486 0.0081371283121803879 0 -0.062591218817536376 0.0071838769991046849 0 -0.063527924743116693 0.0098984045454240353 0 -0.064589515722405441 0.011091535061567686 0 -0.062559903171923323 0.0094233886939736871 0 -0.062269366266431293 0.0064109063820625206 0 -0.060897196088734611 0.0051614496991409086 0 -0.062560386971423659 0.0092086075298771445 0 -0.061761493443605001 0.0062079168875534023 0 -0.062559903171923323 0.0094233886939736871 0 -0.062230782788357197 0.0084379339820519587 0 -0.062591218817536376 0.0071838769991046849 0 -0.062827468934834652 0.0095792724142732561 0 -0.062269366266431293 0.0064109063820625206 0 -0.063966347468387252 0.0063199025531383386 0 -0.062559903171923323 0.0094233886939736871 0 -0.062827468934834652 0.0095792724142732561 0 -0.062269366266431293 0.0064109063820625206 0 -0.033280727188992373 0.0061866770113583602 0 -0.033373352529828808 0.0061721840841705271 0 -0.033406525856481586 0.0058654129077020025 0 -0.04791732367490973 0.0083901297238954953 0 -0.048411220989355776 0.0034955835768169115 0 -0.033133842351777888 0.0062060359384148349 0 -0.033280727188992373 0.0061866770113583602 0 -0.033406525856481586 0.0058654129077020025 0 -0.033373352529828808 0.0061721840841705271 0 -0.033232928328516043 0.0063301308873448103 0 -0.033364587379343905 0.0063096036700693685 0 -0.033280727188992373 0.0061866770113583602 0 -0.033373352529828808 0.0061721840841705271 0 -0.033232928328516043 0.0063301308873448103 0 -0.033232928328516043 0.0063301308873448103 0 -0.032987548396972051 0.0065761998769373773 0 -0.033121680252196146 0.0063987342907904903 0 -0.033232928328516043 0.0063301308873448103 0 -0.033155824878206015 0.0064108798297776229 0 -0.032987548396972051 0.0065761998769373773 0 -0.033133842351777888 0.0062060359384148349 0 -0.033155824878206015 0.0064108798297776229 0 -0.033096337881272496 0.0065402839252158181 0 -0.033133842351777888 0.0062060359384148349 0 -0.033280727188992373 0.0061866770113583602 0 -0.033155824878206015 0.0064108798297776229 0 -0.033280727188992373 0.0061866770113583602 0 -0.033232928328516043 0.0063301308873448103 0 -0.033155824878206015 0.0064108798297776229 0 -0.033155824878206015 0.0064108798297776229 0 -0.033007421629222974 0.0066311751296851493 0 -0.032987548396972051 0.0065761998769373773 0 -0.033155824878206015 0.0064108798297776229 0 -0.033096337881272496 0.0065402839252158181 0 -0.033007421629222974 0.0066311751296851493 0 -0.033096337881272496 0.0065402839252158181 0 -0.033007421629222974 0.0066311751296851493 0 -0.033044738586726199 0.0066694983131357867 0 -0.033007421629222974 0.0066311751296851493 0 -0.032987548396972051 0.0065761998769373773 0 -0.032676844744668657 0.0067138835676856063 0 -0.032987548396972051 0.0065761998769373773 0 -0.032676844744668657 0.0067138835676856063 0 -0.032716391279681373 0.0067179743348514025 0 -0.033007421629222974 0.0066311751296851493 0 -0.032676844744668657 0.0067138835676856063 0 -0.03293183715154957 0.0066907296522545614 0 -0.033007421629222974 0.0066311751296851493 0 -0.03293183715154957 0.0066907296522545614 0 -0.033044738586726199 0.0066694983131357867 0 -0.03293183715154957 0.0066907296522545614 0 -0.033075647701932782 0.0067020167061824431 0 -0.033044738586726199 0.0066694983131357867 0 -0.033075647701932782 0.0067020167061824431 0 -0.033044738586726199 0.0066694983131357867 0 -0.033061255097122551 0.0066827783962015658 0 -0.033075647701932782 0.0067020167061824431 0 -0.033061255097122551 0.0066827783962015658 0 -0.033299601485496148 0.0067257422620908731 0 -0.04791732367490973 0.0083901297238954953 0 -0.047435219116480978 0.0093543474698630207 0 -0.062559903171923323 0.0094233886939736871 0 -0.061746682751852598 0.012078942330938425 0 -0.060676798448360381 0.010868551465968813 0 -0.033133842351777888 0.0062060359384148349 0 -0.033096337881272496 0.0065402839252158181 0 -0.033061255097122551 0.0066827783962015658 0 -0.033096337881272496 0.0065402839252158181 0 -0.033044738586726199 0.0066694983131357867 0 -0.033061255097122551 0.0066827783962015658 0 -0.061746682751852598 0.012078942330938425 0 -0.060676798448360381 0.010868551465968813 0 -0.059556311679091277 0.014264698243921653 0 -0.066837689652678015 0.018241509859999672 0 -0.068217438364074345 0.016964483626373903 0 -0.067296652680263538 0.019932254037818373 0 -0.061746682751852598 0.012078942330938425 0 -0.059556311679091277 0.014264698243921653 0 -0.060372214006093605 0.015020134633538419 0 -0.047435219116480978 0.0093543474698630207 0 -0.046714806843828317 0.010398595115668508 0 -0.064539625948497645 0.013872965765088676 0 -0.063704076161926762 0.01728830268186525 0 -0.033299601485496148 0.0067257422620908731 0 -0.033149269886559245 0.0066486159355519658 0 -0.033277795784733527 0.0065845606087640667 0 -0.05851117737905405 0.0180399436191922 0 -0.059556311679091277 0.014264698243921653 0 -0.060372214006093605 0.015020134633538419 0 -0.033075647701932782 0.0067020167061824431 0 -0.033299601485496148 0.0067257422620908731 0 -0.033149269886559245 0.0066486159355519658 0 -0.033075647701932782 0.0067020167061824431 0 -0.033149269886559245 0.0066486159355519658 0 -0.03290985995615614 0.006624022814305709 0 -0.033149269886559245 0.0066486159355519658 0 -0.033129739116282704 0.0065275048992038572 0 -0.03290985995615614 0.006624022814305709 0 -0.033129739116282704 0.0065275048992038572 0 -0.033056988762428768 0.0063622576192418553 0 -0.03290985995615614 0.006624022814305709 0 -0.033149269886559245 0.0066486159355519658 0 -0.033129739116282704 0.0065275048992038572 0 -0.033277795784733527 0.0065845606087640667 0 -0.033129739116282704 0.0065275048992038572 0 -0.033277795784733527 0.0065845606087640667 0 -0.033264353475894716 0.0064220559045652242 0 -0.033569866312616312 0.0065431438876709094 0 -0.033277795784733527 0.0065845606087640667 0 -0.033264353475894716 0.0064220559045652242 0 -0.033569866312616312 0.0065431438876709094 0 -0.033299601485496148 0.0067257422620908731 0 -0.033277795784733527 0.0065845606087640667 0 -0.047979361643198722 0.015051970164118817 0 -0.046714806843828317 0.010398595115668508 0 -0.047979361643198722 0.015051970164118817 0 -0.03438230098628986 0.011308621086859202 0 -0.039607151976145026 0.017677617327053148 0 -0.039375325102328641 0.017235540808892016 0 -0.0388561376933464 0.017402868015327869 0 -0.039471040021629988 0.016958829293358187 0 -0.039375325102328641 0.017235540808892016 0 -0.039175333183214062 0.016829197514936743 0 -0.039375325102328641 0.017235540808892016 0 -0.0388561376933464 0.017402868015327869 0 -0.039175333183214062 0.016829197514936743 0 -0.0388561376933464 0.017402868015327869 0 -0.038661489527537667 0.016828672796674868 0 -0.039175333183214062 0.016829197514936743 0 -0.03438230098628986 0.011308621086859202 0 -0.034511995800350609 0.010503596862551956 0 -0.0388561376933464 0.017402868015327869 0 -0.038661489527537667 0.016828672796674868 0 -0.038157655076036301 0.017116952516630264 0 -0.033129739116282704 0.0065275048992038572 0 -0.033264353475894716 0.0064220559045652242 0 -0.033056988762428768 0.0063622576192418553 0 -0.034165462967222573 0.013505190445347922 0 -0.034511995800350609 0.010503596862551956 0 -0.038661489527537667 0.016828672796674868 0 -0.038334333684265802 0.016359248207241807 0 -0.038157655076036301 0.017116952516630264 0 -0.038661489527537667 0.016828672796674868 0 -0.038334333684265802 0.016359248207241807 0 -0.038925324447508153 0.016553713738358688 0 -0.039238625187725196 0.016244624939558399 0 -0.038334333684265802 0.016359248207241807 0 -0.038925324447508153 0.016553713738358688 0 -0.038925324447508153 0.016553713738358688 0 -0.039211577373125993 0.016567277104090585 0 -0.039175333183214062 0.016829197514936743 0 -0.039505589599284276 0.016650235090633909 0 -0.039211577373125993 0.016567277104090585 0 -0.039175333183214062 0.016829197514936743 0 -0.039238625187725196 0.016244624939558399 0 -0.038925324447508153 0.016553713738358688 0 -0.039211577373125993 0.016567277104090585 0 -0.039238625187725196 0.016244624939558399 0 -0.039505589599284276 0.016650235090633909 0 -0.039211577373125993 0.016567277104090585 0 -0.039471040021629988 0.016958829293358187 0 -0.039505589599284276 0.016650235090633909 0 -0.039175333183214062 0.016829197514936743 0 -0.038661489527537667 0.016828672796674868 0 -0.038925324447508153 0.016553713738358688 0 -0.039175333183214062 0.016829197514936743 0 -0.027763189982722557 0.0074936021454094235 0 -0.02762749324522959 0.0079353408690698863 0 -0.026589393082394521 0.0078121597722221334 0 -0.030155196961714134 0.0082200363357216779 0 -0.028096652515039091 0.0090321944910695135 0 -0.029820201457940152 0.010242725751719006 0 -0.031347665874090269 0.0098973621172210088 0 -0.031183784249388304 0.010788281595054553 0 -0.030155196961714134 0.0082200363357216779 0 -0.03164851758104132 0.0083632389161861151 0 -0.027305872531658067 0.0084053069459261234 0 -0.02762749324522959 0.0079353408690698863 0 -0.026589393082394521 0.0078121597722221334 0 -0.034165462967222573 0.013505190445347922 0 -0.028096652515039091 0.0090321944910695135 0 -0.032869954471604526 0.0095562287099464471 0 -0.031347665874090269 0.0098973621172210088 0 -0.032012764377339478 0.010420657358914674 0 -0.032869954471604526 0.0095562287099464471 0 -0.032012764377339478 0.010420657358914674 0 -0.032542145883169359 0.011310621621904243 0 -0.032012764377339478 0.010420657358914674 0 -0.031183784249388304 0.010788281595054553 0 -0.032542145883169359 0.011310621621904243 0 -0.031347665874090269 0.0098973621172210088 0 -0.032012764377339478 0.010420657358914674 0 -0.031183784249388304 0.010788281595054553 0 -0.032604476159504514 0.0060706541190843656 0 -0.032898111068060031 0.0062133741545109585 0 -0.032653076573470351 0.0063861177213936568 0 -0.03164851758104132 0.0083632389161861151 0 -0.034511995800350609 0.010503596862551956 0 -0.032604476159504514 0.0060706541190843656 0 -0.032332510224982687 0.0062541691426414771 0 -0.032653076573470351 0.0063861177213936568 0 -0.032332510224982687 0.0062541691426414771 0 -0.032653076573470351 0.0063861177213936568 0 -0.032207453101594966 0.0065389405039502748 0 -0.032183199312877338 0.0058846314059015819 0 -0.032604476159504514 0.0060706541190843656 0 -0.032332510224982687 0.0062541691426414771 0 -0.032653076573470351 0.0063861177213936568 0 -0.03290985995615614 0.006624022814305709 0 -0.032207453101594966 0.0065389405039502748 0 -0.032898111068060031 0.0062133741545109585 0 -0.032653076573470351 0.0063861177213936568 0 -0.03290985995615614 0.006624022814305709 0 -0.034511995800350609 0.010503596862551956 0 -0.032617728200283025 0.0048590076533845481 0 -0.03293183715154957 0.0066907296522545614 0 -0.033075647701932782 0.0067020167061824431 0 -0.03290985995615614 0.006624022814305709 0 -0.032676844744668657 0.0067138835676856063 0 -0.03293183715154957 0.0066907296522545614 0 -0.03290985995615614 0.006624022814305709 0 -0.032676844744668657 0.0067138835676856063 0 -0.03290985995615614 0.006624022814305709 0 -0.032207453101594966 0.0065389405039502748 0 -0.032676844744668657 0.0067138835676856063 0 -0.03203509257178061 0.0066919360656694645 0 -0.032207453101594966 0.0065389405039502748 0 -0.03203509257178061 0.0066919360656694645 0 -0.031426499458644917 0.0066392243012712623 0 -0.031359330970086655 0.0067048496593451797 0 -0.031426499458644917 0.0066392243012712623 0 -0.032207453101594966 0.0065389405039502748 0 -0.031512193312539308 0.0065443728546273165 0 -0.03203509257178061 0.0066919360656694645 0 -0.031426499458644917 0.0066392243012712623 0 -0.032207453101594966 0.0065389405039502748 0 -0.032207453101594966 0.0065389405039502748 0 -0.031967529731627531 0.0062685047559408319 0 -0.031512193312539308 0.0065443728546273165 0 -0.032332510224982687 0.0062541691426414771 0 -0.032207453101594966 0.0065389405039502748 0 -0.031967529731627531 0.0062685047559408319 0 -0.032183199312877338 0.0058846314059015819 0 -0.032332510224982687 0.0062541691426414771 0 -0.031967529731627531 0.0062685047559408319 0 -0.031967529731627531 0.0062685047559408319 0 -0.031512193312539308 0.0065443728546273165 0 -0.031556268616527008 0.0060640477050357532 0 -0.031426499458644917 0.0066392243012712623 0 -0.031512193312539308 0.0065443728546273165 0 -0.030580459286317856 0.0068010583672344239 0 -0.031512193312539308 0.0065443728546273165 0 -0.031556268616527008 0.0060640477050357532 0 -0.030580459286317856 0.0068010583672344239 0 -0.028949695829698602 0.0071622821895413703 0 -0.029827111429584999 0.0081039459529455189 0 -0.030580459286317856 0.0068010583672344239 0 -0.028761409505269616 0.0088268277933266741 0 -0.028949695829698602 0.0071622821895413703 0 -0.029827111429584999 0.0081039459529455189 0 -0.030316946206685604 0.0066380352925225388 0 -0.030553524648166616 0.0067190119529784223 0 -0.02815242288705052 0.0081784615994596986 0 -0.027763189982722557 0.0074936021454094235 0 -0.028949695829698602 0.0071622821895413703 0 -0.030155196961714134 0.0082200363357216779 0 -0.030316946206685604 0.0066380352925225388 0 -0.032183199312877338 0.0058846314059015819 0 -0.031967529731627531 0.0062685047559408319 0 -0.031556268616527008 0.0060640477050357532 0 -0.028761409505269616 0.0088268277933266741 0 -0.02815242288705052 0.0081784615994596986 0 -0.028949695829698602 0.0071622821895413703 0 -0.02815242288705052 0.0081784615994596986 0 -0.027763189982722557 0.0074936021454094235 0 -0.02762749324522959 0.0079353408690698863 0 -0.030802125408017866 0.0083552683599176485 0 -0.030941868097409848 0.0074309327286445443 0 -0.030622358810978606 0.007620007780719619 0 -0.029827111429584999 0.0081039459529455189 0 -0.030622358810978606 0.007620007780719619 0 -0.030580459286317856 0.0068010583672344239 0 -0.031426499458644917 0.0066392243012712623 0 -0.030580459286317856 0.0068010583672344239 0 -0.030836172953789501 0.006884498362386888 0 -0.030622358810978606 0.007620007780719619 0 -0.030580459286317856 0.0068010583672344239 0 -0.030836172953789501 0.006884498362386888 0 -0.030941868097409848 0.0074309327286445443 0 -0.030836172953789501 0.006884498362386888 0 -0.031016650814173811 0.0068879819492914012 0 -0.030941868097409848 0.0074309327286445443 0 -0.030622358810978606 0.007620007780719619 0 -0.030836172953789501 0.006884498362386888 0 -0.030836172953789501 0.006884498362386888 0 -0.031058414156042546 0.0067201597816552404 0 -0.031016650814173811 0.0068879819492914012 0 -0.031058414156042546 0.0067201597816552404 0 -0.031081041335175617 0.0066695103214507905 0 -0.031016650814173811 0.0068879819492914012 0 -0.031426499458644917 0.0066392243012712623 0 -0.030836172953789501 0.006884498362386888 0 -0.031058414156042546 0.0067201597816552404 0 -0.031426499458644917 0.0066392243012712623 0 -0.031058414156042546 0.0067201597816552404 0 -0.031359330970086655 0.0067048496593451797 0 -0.031058414156042546 0.0067201597816552404 0 -0.031359330970086655 0.0067048496593451797 0 -0.031081230352546823 0.0065906597756591988 0 -0.031058414156042546 0.0067201597816552404 0 -0.031081230352546823 0.0065906597756591988 0 -0.031081041335175617 0.0066695103214507905 0 -0.031715304194932438 0.0062059837100352294 0 -0.032273433735631109 0.0065113871767054953 0 -0.032290050990291058 0.0057600598101230265 0 -0.032651225955939653 0.0061465097709479015 0 -0.033068964544779138 0.006111164203253883 0 -0.032290050990291058 0.0057600598101230265 0 -0.032651225955939653 0.0061465097709479015 0 -0.032031873148020674 0.0060541000213397327 0 -0.032651225955939653 0.0061465097709479015 0 -0.033068964544779138 0.006111164203253883 0 -0.033057371341178234 0.0062682671450598523 0 -0.033068964544779138 0.006111164203253883 0 -0.033098026680579297 0.0063401242874882892 0 -0.033057371341178234 0.0062682671450598523 0 -0.031359330970086655 0.0067048496593451797 0 -0.031081230352546823 0.0065906597756591988 0 -0.03153398605597104 0.0069464896367282683 0 -0.03203509257178061 0.0066919360656694645 0 -0.031359330970086655 0.0067048496593451797 0 -0.03153398605597104 0.0069464896367282683 0 -0.03203509257178061 0.0066919360656694645 0 -0.03153398605597104 0.0069464896367282683 0 -0.032716391279681373 0.0067179743348514025 0 -0.032676844744668657 0.0067138835676856063 0 -0.03203509257178061 0.0066919360656694645 0 -0.032716391279681373 0.0067179743348514025 0 -0.032987548396972051 0.0065761998769373773 0 -0.032716391279681373 0.0067179743348514025 0 -0.033121680252196146 0.0063987342907904903 0 -0.032716391279681373 0.0067179743348514025 0 -0.033098026680579297 0.0063401242874882892 0 -0.033121680252196146 0.0063987342907904903 0 -0.033068964544779138 0.006111164203253883 0 -0.032716391279681373 0.0067179743348514025 0 -0.033098026680579297 0.0063401242874882892 0 -0.032273433735631109 0.0065113871767054953 0 -0.032635610498135868 0.0066850435759214233 0 -0.033098026680579297 0.0063401242874882892 0 -0.03328682470235101 0.0063428424044087856 0 -0.033057371341178234 0.0062682671450598523 0 -0.033098026680579297 0.0063401242874882892 0 -0.03328682470235101 0.0063428424044087856 0 -0.033121680252196146 0.0063987342907904903 0 -0.03328682470235101 0.0063428424044087856 0 -0.033121680252196146 0.0063987342907904903 0 -0.033364587379343905 0.0063096036700693685 0 -0.033232928328516043 0.0063301308873448103 0 -0.033121680252196146 0.0063987342907904903 0 -0.033364587379343905 0.0063096036700693685 0 -0.033364587379343905 0.0063096036700693685 0 -0.033517629827639714 0.0063687819857751677 0 -0.033517730387172685 0.0061700494199198701 0 -0.033373352529828808 0.0061721840841705271 0 -0.033364587379343905 0.0063096036700693685 0 -0.033517730387172685 0.0061700494199198701 0 -0.03328682470235101 0.0063428424044087856 0 -0.033517629827639714 0.0063687819857751677 0 -0.033342538702021057 0.0064341195299893964 0 -0.03328682470235101 0.0063428424044087856 0 -0.033364587379343905 0.0063096036700693685 0 -0.033517629827639714 0.0063687819857751677 0 -0.03328682470235101 0.0063428424044087856 0 -0.033342538702021057 0.0064341195299893964 0 -0.033089652329841658 0.0063528627558445475 0 -0.033342538702021057 0.0064341195299893964 0 -0.033019337895609804 0.0064539793914933277 0 -0.033089652329841658 0.0063528627558445475 0 -0.033342538702021057 0.0064341195299893964 0 -0.033019337895609804 0.0064539793914933277 0 -0.033356830772950222 0.0066302224323611728 0 -0.033019337895609804 0.0064539793914933277 0 -0.032691894804853752 0.0064686416796807143 0 -0.03290616493906829 0.0066026139831026004 0 -0.032691894804853752 0.0064686416796807143 0 -0.03290616493906829 0.0066026139831026004 0 -0.03256161161005923 0.006606632690493679 0 -0.033019337895609804 0.0064539793914933277 0 -0.032691894804853752 0.0064686416796807143 0 -0.032656527317907878 0.0063234658689625359 0 -0.033019337895609804 0.0064539793914933277 0 -0.032656527317907878 0.0063234658689625359 0 -0.033089652329841658 0.0063528627558445475 0 -0.032651225955939653 0.0061465097709479015 0 -0.032656527317907878 0.0063234658689625359 0 -0.032031873148020674 0.0060541000213397327 0 -0.032651225955939653 0.0061465097709479015 0 -0.032656527317907878 0.0063234658689625359 0 -0.033089652329841658 0.0063528627558445475 0 -0.03328682470235101 0.0063428424044087856 0 -0.033057371341178234 0.0062682671450598523 0 -0.033089652329841658 0.0063528627558445475 0 -0.032651225955939653 0.0061465097709479015 0 -0.033057371341178234 0.0062682671450598523 0 -0.033089652329841658 0.0063528627558445475 0 -0.04170944635425354 -0.0048975655835851927 0 -0.040892021290374309 -0.0058038218138008676 0 -0.041717759482970893 -0.0047651028364935188 0 -0.04170944635425354 -0.0048975655835851927 0 -0.041717759482970893 -0.0047651028364935188 0 -0.041991055590762792 -0.0047702639705762351 0 -0.036654209479034312 0.00058344113645912847 0 -0.038266356779527645 0.00082249734657032761 0 -0.04170944635425354 -0.0048975655835851927 0 -0.04141955331961767 -0.0047924054530606068 0 -0.041959823641022874 -0.0047251994108685087 0 -0.04170944635425354 -0.0048975655835851927 0 -0.04141955331961767 -0.0047924054530606068 0 -0.040892021290374309 -0.0058038218138008676 0 -0.041268876096261932 -0.0047391941445983406 0 -0.040650830122347527 -0.0047927759578252505 0 -0.041514457664612904 -0.0047078223264732889 0 -0.040650830122347527 -0.0047927759578252505 0 -0.040892021290374309 -0.0058038218138008676 0 -0.037615205612497482 -0.0041897163782983063 0 -0.04141955331961767 -0.0047924054530606068 0 -0.040650830122347527 -0.0047927759578252505 0 -0.040892021290374309 -0.0058038218138008676 0 -0.04141955331961767 -0.0047924054530606068 0 -0.041268876096261932 -0.0047391941445983406 0 -0.040650830122347527 -0.0047927759578252505 0 -0.033184080245863674 0.0070689111888128254 0 -0.033068553691406315 0.0067840207286598876 0 -0.033356830772950222 0.0066302224323611728 0 -0.033184080245863674 0.0070689111888128254 0 -0.033068553691406315 0.0067840207286598876 0 -0.032681964674980066 0.0068496102134643884 0 -0.033068553691406315 0.0067840207286598876 0 -0.03290616493906829 0.0066026139831026004 0 -0.032681964674980066 0.0068496102134643884 0 -0.033068553691406315 0.0067840207286598876 0 -0.03290616493906829 0.0066026139831026004 0 -0.033356830772950222 0.0066302224323611728 0 -0.033019337895609804 0.0064539793914933277 0 -0.03290616493906829 0.0066026139831026004 0 -0.033356830772950222 0.0066302224323611728 0 -0.033184080245863674 0.0070689111888128254 0 -0.033356830772950222 0.0066302224323611728 0 -0.033815955949811245 0.006471026318728334 0 -0.033342538702021057 0.0064341195299893964 0 -0.033356830772950222 0.0066302224323611728 0 -0.033815955949811245 0.006471026318728334 0 -0.033517629827639714 0.0063687819857751677 0 -0.033342538702021057 0.0064341195299893964 0 -0.033815955949811245 0.006471026318728334 0 -0.038266356779527645 0.00082249734657032761 0 -0.035164191800069564 0.00066285641436450795 0 -0.033517629827639714 0.0063687819857751677 0 -0.033815955949811245 0.006471026318728334 0 -0.033517730387172685 0.0061700494199198701 0 -0.041717759482970893 -0.0047651028364935188 0 -0.041662567981252341 -0.0044988798241039733 0 -0.041905348690212375 -0.0047124425351662367 0 -0.041717759482970893 -0.0047651028364935188 0 -0.041991055590762792 -0.0047702639705762351 0 -0.041905348690212375 -0.0047124425351662367 0 -0.041991055590762792 -0.0047702639705762351 0 -0.042094879414931077 -0.0048207858241284714 0 -0.041905348690212375 -0.0047124425351662367 0 -0.041991055590762792 -0.0047702639705762351 0 -0.042094879414931077 -0.0048207858241284714 0 -0.042324041095127864 -0.0047848531504816171 0 -0.041905348690212375 -0.0047124425351662367 0 -0.042071137019072037 -0.0049724688664618015 0 -0.041845886671790969 -0.0048776484999269272 0 -0.042094879414931077 -0.0048207858241284714 0 -0.041905348690212375 -0.0047124425351662367 0 -0.042071137019072037 -0.0049724688664618015 0 -0.042071137019072037 -0.0049724688664618015 0 -0.042178725311271856 -0.005248873718153981 0 -0.041845886671790969 -0.0048776484999269272 0 -0.042071137019072037 -0.0049724688664618015 0 -0.042242328303388539 -0.0050283154551903067 0 -0.042178725311271856 -0.005248873718153981 0 -0.042094879414931077 -0.0048207858241284714 0 -0.042242328303388539 -0.0050283154551903067 0 -0.042324041095127864 -0.0047848531504816171 0 -0.042094879414931077 -0.0048207858241284714 0 -0.042071137019072037 -0.0049724688664618015 0 -0.042242328303388539 -0.0050283154551903067 0 -0.042242328303388539 -0.0050283154551903067 0 -0.042726540011204427 -0.0049887501729971827 0 -0.042324041095127864 -0.0047848531504816171 0 -0.042726540011204427 -0.0049887501729971827 0 -0.042574626952512004 -0.0048592928499555906 0 -0.042954156283768211 -0.0049849899416101887 0 -0.042574626952512004 -0.0048592928499555906 0 -0.042324041095127864 -0.0047848531504816171 0 -0.042336067177108132 -0.0047737277011598214 0 -0.042574626952512004 -0.0048592928499555906 0 -0.042336067177108132 -0.0047737277011598214 0 -0.042954156283768211 -0.0049849899416101887 0 -0.042726540011204427 -0.0049887501729971827 0 -0.042574626952512004 -0.0048592928499555906 0 -0.042324041095127864 -0.0047848531504816171 0 -0.041991055590762792 -0.0047702639705762351 0 -0.042324041095127864 -0.0047848531504816171 0 -0.041959823641022874 -0.0047251994108685087 0 -0.042324041095127864 -0.0047848531504816171 0 -0.041959823641022874 -0.0047251994108685087 0 -0.042336067177108132 -0.0047737277011598214 0 -0.04170944635425354 -0.0048975655835851927 0 -0.041991055590762792 -0.0047702639705762351 0 -0.041959823641022874 -0.0047251994108685087 0 -0.041514457664612904 -0.0047078223264732889 0 -0.041630479927628798 -0.0047077426995043824 0 -0.041865636441430681 -0.0047030711458767712 0 -0.041268876096261932 -0.0047391941445983406 0 -0.041514457664612904 -0.0047078223264732889 0 -0.041630479927628798 -0.0047077426995043824 0 -0.04141955331961767 -0.0047924054530606068 0 -0.041959823641022874 -0.0047251994108685087 0 -0.041630479927628798 -0.0047077426995043824 0 -0.04141955331961767 -0.0047924054530606068 0 -0.041268876096261932 -0.0047391941445983406 0 -0.041630479927628798 -0.0047077426995043824 0 -0.041959823641022874 -0.0047251994108685087 0 -0.042047770238540033 -0.0047266030289776261 0 -0.042336067177108132 -0.0047737277011598214 0 -0.041959823641022874 -0.0047251994108685087 0 -0.041630479927628798 -0.0047077426995043824 0 -0.042047770238540033 -0.0047266030289776261 0 -0.041630479927628798 -0.0047077426995043824 0 -0.042047770238540033 -0.0047266030289776261 0 -0.041865636441430681 -0.0047030711458767712 0 -0.042047770238540033 -0.0047266030289776261 0 -0.041865636441430681 -0.0047030711458767712 0 -0.042185601288235307 -0.0047536615099688087 0 -0.041865636441430681 -0.0047030711458767712 0 -0.042185601288235307 -0.0047536615099688087 0 -0.042193719877745617 -0.004716595499565321 0 -0.042185601288235307 -0.0047536615099688087 0 -0.042528597526295633 -0.0048596689347786158 0 -0.042423043922572769 -0.0048027874029409716 0 -0.042047770238540033 -0.0047266030289776261 0 -0.042185601288235307 -0.0047536615099688087 0 -0.042528597526295633 -0.0048596689347786158 0 -0.042528597526295633 -0.0048596689347786158 0 -0.042336067177108132 -0.0047737277011598214 0 -0.042954156283768211 -0.0049849899416101887 0 -0.042047770238540033 -0.0047266030289776261 0 -0.042528597526295633 -0.0048596689347786158 0 -0.042336067177108132 -0.0047737277011598214 0 -0.042528597526295633 -0.0048596689347786158 0 -0.042954156283768211 -0.0049849899416101887 0 -0.042840804572861706 -0.0049834322324174484 0 -0.042954156283768211 -0.0049849899416101887 0 -0.042840804572861706 -0.0049834322324174484 0 -0.043312355436642615 -0.0052150859581062111 0 -0.042528597526295633 -0.0048596689347786158 0 -0.042840804572861706 -0.0049834322324174484 0 -0.042423043922572769 -0.0048027874029409716 0 -0.042840804572861706 -0.0049834322324174484 0 -0.043215874626457082 -0.0050072328837894768 0 -0.042715543312236245 -0.0048080295868765804 0 -0.042840804572861706 -0.0049834322324174484 0 -0.043312355436642615 -0.0052150859581062111 0 -0.043215874626457082 -0.0050072328837894768 0 -0.042954156283768211 -0.0049849899416101887 0 -0.043312355436642615 -0.0052150859581062111 0 -0.044061599262153667 -0.0057070879427589738 0 -0.043215874626457082 -0.0050072328837894768 0 -0.044061599262153667 -0.0057070879427589738 0 -0.043973143169669937 -0.0042226880785097651 0 -0.043312355436642615 -0.0052150859581062111 0 -0.043215874626457082 -0.0050072328837894768 0 -0.044061599262153667 -0.0057070879427589738 0 -0.042726540011204427 -0.0049887501729971827 0 -0.044061599262153667 -0.0057070879427589738 0 -0.042391096563443288 -0.0054374582805146931 0 -0.044810786781103257 -0.0058992423718060866 0 -0.044936316978043768 -0.0065553483212495121 0 -0.044061599262153667 -0.0057070879427589738 0 -0.047181718397722401 -0.0048520814845515788 0 -0.049907447977289188 -0.0075984905182918732 0 -0.042726540011204427 -0.0049887501729971827 0 -0.042954156283768211 -0.0049849899416101887 0 -0.044061599262153667 -0.0057070879427589738 0 -0.047181718397722401 -0.0048520814845515788 0 -0.043973143169669937 -0.0042226880785097651 0 -0.046096306976948914 -0.0032648687660163812 0 -0.044061599262153667 -0.0057070879427589738 0 -0.047181718397722401 -0.0048520814845515788 0 -0.043973143169669937 -0.0042226880785097651 0 -0.043215874626457082 -0.0050072328837894768 0 -0.043973143169669937 -0.0042226880785097651 0 -0.042664124156198538 -0.0043540195848400789 0 -0.043973143169669937 -0.0042226880785097651 0 -0.044156397178912468 -0.0027708115290228999 0 -0.046096306976948914 -0.0032648687660163812 0 -0.044156397178912468 -0.0027708115290228999 0 -0.046096306976948914 -0.0032648687660163812 0 -0.045497331465411628 -0.0024362772169839587 0 -0.043973143169669937 -0.0042226880785097651 0 -0.044156397178912468 -0.0027708115290228999 0 -0.043029986361122957 -0.0033443037230470483 0 -0.047488339290437914 -0.0049484545007328845 0 -0.049446065725698304 -0.002729355193371689 0 -0.047181718397722401 -0.0048520814845515788 0 -0.046096306976948914 -0.0032648687660163812 0 -0.04747385240754759 -0.0024230361863571163 0 -0.046096306976948914 -0.0032648687660163812 0 -0.046547179901721213 -0.0025119845439026322 0 -0.04747385240754759 -0.0024230361863571163 0 -0.046096306976948914 -0.0032648687660163812 0 -0.046547179901721213 -0.0025119845439026322 0 -0.045497331465411628 -0.0024362772169839587 0 -0.046547179901721213 -0.0025119845439026322 0 -0.04623424383525291 -0.0020530438550478199 0 -0.045497331465411628 -0.0024362772169839587 0 -0.046547179901721213 -0.0025119845439026322 0 -0.047240515498043249 -0.0023228294140346176 0 -0.04623424383525291 -0.0020530438550478199 0 -0.046547179901721213 -0.0025119845439026322 0 -0.047240515498043249 -0.0023228294140346176 0 -0.04747385240754759 -0.0024230361863571163 0 -0.047240515498043249 -0.0023228294140346176 0 -0.046984504063450033 -0.0018820939979462342 0 -0.04623424383525291 -0.0020530438550478199 0 -0.047240515498043249 -0.0023228294140346176 0 -0.046984504063450033 -0.0018820939979462342 0 -0.048248818418621615 -0.002314922798476129 0 -0.046984504063450033 -0.0018820939979462342 0 -0.04623424383525291 -0.0020530438550478199 0 -0.045973842862190806 -0.00048626923113389377 0 -0.04623424383525291 -0.0020530438550478199 0 -0.044562898049484365 -0.0015542571963708424 0 -0.045973842862190806 -0.00048626923113389377 0 -0.044156397178912468 -0.0027708115290228999 0 -0.044562898049484365 -0.0015542571963708424 0 -0.045497331465411628 -0.0024362772169839587 0 -0.04623424383525291 -0.0020530438550478199 0 -0.044562898049484365 -0.0015542571963708424 0 -0.045497331465411628 -0.0024362772169839587 0 -0.05171032683273543 -0.0027268150739865951 0 -0.054316285679983423 -0.0027093293131114351 0 -0.055402865463352699 -0.0015483252309158105 0 -0.05171032683273543 -0.0027268150739865951 0 -0.051317832981741009 -0.0060779013276593434 0 -0.051736067150906347 -0.0059051634841189174 0 -0.051956384262675459 -0.0029102171873774947 0 -0.053403640982048375 -0.0037796832400540594 0 -0.05171032683273543 -0.0027268150739865951 0 -0.051772857059371451 -0.002532864182413845 0 -0.051736067150906347 -0.0059051634841189174 0 -0.04747385240754759 -0.0024230361863571163 0 -0.048248818418621615 -0.002314922798476129 0 -0.048426307549528154 -0.0027127624201156789 0 -0.049446065725698304 -0.002729355193371689 0 -0.050112525217443235 -0.0041521138540110067 0 -0.047240515498043249 -0.0023228294140346176 0 -0.04747385240754759 -0.0024230361863571163 0 -0.048248818418621615 -0.002314922798476129 0 -0.047181718397722401 -0.0048520814845515788 0 -0.051772857059371451 -0.002532864182413845 0 -0.051291042951151285 -0.003463032100473011 0 -0.05171032683273543 -0.0027268150739865951 0 -0.051772857059371451 -0.002532864182413845 0 -0.051291042951151285 -0.003463032100473011 0 -0.05171032683273543 -0.0027268150739865951 0 -0.051291042951151285 -0.003463032100473011 0 -0.052744867778752397 -0.0031388400490871046 0 -0.051291042951151285 -0.003463032100473011 0 -0.052744867778752397 -0.0031388400490871046 0 -0.053280819221522738 -0.0039595517039843556 0 -0.054316285679983423 -0.0027093293131114351 0 -0.053280819221522738 -0.0039595517039843556 0 -0.055633890415235907 -0.0037474206162923717 0 -0.052744867778752397 -0.0031388400490871046 0 -0.054316285679983423 -0.0027093293131114351 0 -0.053280819221522738 -0.0039595517039843556 0 -0.05171032683273543 -0.0027268150739865951 0 -0.052744867778752397 -0.0031388400490871046 0 -0.054316285679983423 -0.0027093293131114351 0 -0.053280819221522738 -0.0039595517039843556 0 -0.054744964461550014 -0.0051130151863704306 0 -0.055633890415235907 -0.0037474206162923717 0 -0.05366231032877667 -0.0049859063924349491 0 -0.054238254379419149 -0.0038185472012991816 0 -0.053280819221522738 -0.0039595517039843556 0 -0.051362635694097186 -0.005478593914322866 0 -0.054400914221622014 -0.00779244315371155 0 -0.047181718397722401 -0.0048520814845515788 0 -0.051362635694097186 -0.005478593914322866 0 -0.049907447977289188 -0.0075984905182918732 0 -0.047181718397722401 -0.0048520814845515788 0 -0.051291042951151285 -0.003463032100473011 0 -0.051362635694097186 -0.005478593914322866 0 -0.051291042951151285 -0.003463032100473011 0 -0.053280819221522738 -0.0039595517039843556 0 -0.051362635694097186 -0.005478593914322866 0 -0.051362635694097186 -0.005478593914322866 0 -0.049907447977289188 -0.0075984905182918732 0 -0.054400914221622014 -0.00779244315371155 0 -0.042242328303388539 -0.0050283154551903067 0 -0.042391096563443288 -0.0054374582805146931 0 -0.042178725311271856 -0.005248873718153981 0 -0.042242328303388539 -0.0050283154551903067 0 -0.042726540011204427 -0.0049887501729971827 0 -0.042391096563443288 -0.0054374582805146931 0 -0.044936316978043768 -0.0065553483212495121 0 -0.054238254379419149 -0.0038185472012991816 0 -0.054238254379419149 -0.0038185472012991816 0 -0.061926594067677296 -0.0032137114631330399 0 -0.054744964461550014 -0.0051130151863704306 0 -0.056857822933160954 -0.0043742378402465715 0 -0.055633890415235907 -0.0037474206162923717 0 -0.056857822933160954 -0.0043742378402465715 0 -0.057109744518767144 -0.0031587947239889807 0 -0.055633890415235907 -0.0037474206162923717 0 -0.056857822933160954 -0.0043742378402465715 0 -0.057109744518767144 -0.0031587947239889807 0 -0.058135264030956479 -0.002489417171608394 0 -0.057109744518767144 -0.0031587947239889807 0 -0.057627639094566606 -0.0028210653600224166 0 -0.058135264030956479 -0.002489417171608394 0 -0.057109744518767144 -0.0031587947239889807 0 -0.055633890415235907 -0.0037474206162923717 0 -0.056651170629435386 -0.0029136404547240985 0 -0.054316285679983423 -0.0027093293131114351 0 -0.056651170629435386 -0.0029136404547240985 0 -0.056561631885448334 -0.0023503159805275189 0 -0.054316285679983423 -0.0027093293131114351 0 -0.055633890415235907 -0.0037474206162923717 0 -0.056651170629435386 -0.0029136404547240985 0 -0.056651170629435386 -0.0029136404547240985 0 -0.057596093918259851 -0.0026713253613014644 0 -0.057627639094566606 -0.0028210653600224166 0 -0.057109744518767144 -0.0031587947239889807 0 -0.056651170629435386 -0.0029136404547240985 0 -0.057627639094566606 -0.0028210653600224166 0 -0.056651170629435386 -0.0029136404547240985 0 -0.057596093918259851 -0.0026713253613014644 0 -0.056561631885448334 -0.0023503159805275189 0 -0.057596093918259851 -0.0026713253613014644 0 -0.056561631885448334 -0.0023503159805275189 0 -0.057676046640401546 -0.0024369681722411266 0 -0.054316285679983423 -0.0027093293131114351 0 -0.055402865463352699 -0.0015483252309158105 0 -0.056561631885448334 -0.0023503159805275189 0 -0.059073711436617507 -0.001572302323683364 0 -0.059909793492928604 -0.0020888679959461492 0 -0.060278839934470849 -9.1781113410171209e-06 0 -0.061011377812069181 2.7837488707038289e-05 0 -0.061332612198057912 -0.00077036032364030443 0 -0.05787756205197192 -0.0029142018732666386 0 -0.058089907722139567 -0.0030480514000581168 0 -0.058454375071133484 -0.0034131725295379126 0 -0.057596093918259851 -0.0026713253613014644 0 -0.05787756205197192 -0.0029142018732666386 0 -0.058089907722139567 -0.0030480514000581168 0 -0.059073711436617507 -0.001572302323683364 0 -0.058213824262656352 -0.0024740526279099233 0 -0.057596093918259851 -0.0026713253613014644 0 -0.057627639094566606 -0.0028210653600224166 0 -0.05787756205197192 -0.0029142018732666386 0 -0.057627639094566606 -0.0028210653600224166 0 -0.05787756205197192 -0.0029142018732666386 0 -0.058135264030956479 -0.002489417171608394 0 -0.060278839934470849 -9.1781113410171209e-06 0 -0.060022488455424364 -0.0013132015916449877 0 -0.061011377812069181 2.7837488707038289e-05 0 -0.060278839934470849 -9.1781113410171209e-06 0 -0.060022488455424364 -0.0013132015916449877 0 -0.058135264030956479 -0.002489417171608394 0 -0.060022488455424364 -0.0013132015916449877 0 -0.058135264030956479 -0.002489417171608394 0 -0.058824527165607196 -0.0032437204938405599 0 -0.056857822933160954 -0.0043742378402465715 0 -0.058135264030956479 -0.002489417171608394 0 -0.058824527165607196 -0.0032437204938405599 0 -0.064400093219560292 -0.00203783487707036 0 -0.062090268895840746 -0.0018957068872504348 0 -0.063322842395365023 -0.00096200175785363703 0 -0.061926594067677296 -0.0032137114631330399 0 -0.060087921962595194 -0.0025229957785093903 0 -0.060022488455424364 -0.0013132015916449877 0 -0.058824527165607196 -0.0032437204938405599 0 -0.060071128615631887 -0.001712610523809871 0 -0.058824527165607196 -0.0032437204938405599 0 -0.060071128615631887 -0.001712610523809871 0 -0.060444561445555274 -0.0018014693773881105 0 -0.060087921962595194 -0.0025229957785093903 0 -0.060475720033610542 -0.0019661482476791415 0 -0.062090268895840746 -0.0018957068872504348 0 -0.061231965128111437 -0.0013560932762938457 0 -0.060444561445555274 -0.0018014693773881105 0 -0.062090268895840746 -0.0018957068872504348 0 -0.061231965128111437 -0.0013560932762938457 0 -0.061836415028112976 -0.00038183530571286682 0 -0.061231965128111437 -0.0013560932762938457 0 -0.060692975042543638 -0.00056836101484516392 0 -0.06065169488255525 -0.0014176894100960747 0 -0.061231965128111437 -0.0013560932762938457 0 -0.061836415028112976 -0.00038183530571286682 0 -0.060692975042543638 -0.00056836101484516392 0 -0.060692975042543638 -0.00056836101484516392 0 -0.061453649065448819 0.00091340964311710754 0 -0.060119647666508028 0.0012552855346039567 0 -0.061836415028112976 -0.00038183530571286682 0 -0.060692975042543638 -0.00056836101484516392 0 -0.061453649065448819 0.00091340964311710754 0 -0.061453649065448819 0.00091340964311710754 0 -0.061682815151126981 0.0024492332793671885 0 -0.060119647666508028 0.0012552855346039567 0 -0.061453649065448819 0.00091340964311710754 0 -0.062911508420597284 0.0011982654643978544 0 -0.061682815151126981 0.0024492332793671885 0 -0.061836415028112976 -0.00038183530571286682 0 -0.061453649065448819 0.00091340964311710754 0 -0.062911508420597284 0.0011982654643978544 0 -0.062090268895840746 -0.0018957068872504348 0 -0.061836415028112976 -0.00038183530571286682 0 -0.063322842395365023 -0.00096200175785363703 0 -0.061836415028112976 -0.00038183530571286682 0 -0.062911508420597284 0.0011982654643978544 0 -0.063322842395365023 -0.00096200175785363703 0 -0.064400093219560292 -0.00203783487707036 0 -0.063322842395365023 -0.00096200175785363703 0 -0.064328488342964243 7.1578045181271103e-05 0 -0.064400093219560292 -0.00203783487707036 0 -0.064328488342964243 7.1578045181271103e-05 0 -0.065838782970146864 -1.2350696904768698e-05 0 -0.054238254379419149 -0.0038185472012991816 0 -0.053754239351386665 -0.002233964346532823 0 -0.066549563484725197 -0.00214820116496694 0 -0.064400093219560292 -0.00203783487707036 0 -0.065838782970146864 -1.2350696904768698e-05 0 -0.064328488342964243 7.1578045181271103e-05 0 -0.065838782970146864 -1.2350696904768698e-05 0 -0.065198108803455002 0.0025131709574438164 0 -0.041905348690212375 -0.0047124425351662367 0 -0.041845886671790969 -0.0048776484999269272 0 -0.041645182945161591 -0.00460513679756117 0 -0.053754239351386665 -0.002233964346532823 0 -0.054048486326386015 -0.0017512488811495684 0 -0.062911508420597284 0.0011982654643978544 0 -0.063322842395365023 -0.00096200175785363703 0 -0.064328488342964243 7.1578045181271103e-05 0 -0.062911508420597284 0.0011982654643978544 0 -0.064328488342964243 7.1578045181271103e-05 0 -0.065198108803455002 0.0025131709574438164 0 -0.062911508420597284 0.0011982654643978544 0 -0.065198108803455002 0.0025131709574438164 0 -0.062932187954471544 0.0037686450046689052 0 -0.041662567981252341 -0.0044988798241039733 0 -0.041905348690212375 -0.0047124425351662367 0 -0.041645182945161591 -0.00460513679756117 0 -0.033373352529828808 0.0061721840841705271 0 -0.033517730387172685 0.0061700494199198701 0 -0.033406525856481586 0.0058654129077020025 0 -0.035164191800069564 0.00066285641436450795 0 -0.048411220989355776 0.0034955835768169115 0 -0.041662567981252341 -0.0044988798241039733 0 -0.041645182945161591 -0.00460513679756117 0 -0.041512140140237332 -0.0043426632002139904 0 -0.065198108803455002 0.0025131709574438164 0 -0.064250616066462887 0.0057279805373501094 0 -0.062932187954471544 0.0037686450046689052 0 -0.054048486326386015 -0.0017512488811495684 0 -0.048411220989355776 0.0034955835768169115 0 -0.066421717870068911 0.0049275371590314782 0 -0.048411220989355776 0.0034955835768169115 0 -0.062269366266431293 0.0064109063820625206 0 -0.064250616066462887 0.0057279805373501094 0 -0.062932187954471544 0.0037686450046689052 0 -0.062269366266431293 0.0064109063820625206 0 -0.060897196088734611 0.0051614496991409086 0 -0.062932187954471544 0.0037686450046689052 0 -0.067117567621177585 0.01371171090763198 0 -0.068988088654360999 0.013836449333002264 0 -0.0673983256783795 0.011914361442077892 0 -0.064589515722405441 0.011091535061567686 0 -0.065058156312437415 0.0094802879067844639 0 -0.062248770378513486 0.0081371283121803879 0 -0.062591218817536376 0.0071838769991046849 0 -0.06241714871500776 0.0068499212836333392 0 -0.062591218817536376 0.0071838769991046849 0 -0.06241714871500776 0.0068499212836333392 0 -0.062919908026074098 0.0059252480847944416 0 -0.060897196088734611 0.0051614496991409086 0 -0.061682815151126981 0.0024492332793671885 0 -0.060119647666508028 0.0012552855346039567 0 -0.061761493443605001 0.0062079168875534023 0 -0.06155975036136483 0.0035871183264731916 0 -0.062911508420597284 0.0011982654643978544 0 -0.061682815151126981 0.0024492332793671885 0 -0.062932187954471544 0.0037686450046689052 0 -0.060897196088734611 0.0051614496991409086 0 -0.061682815151126981 0.0024492332793671885 0 -0.062932187954471544 0.0037686450046689052 0 -0.065799962269871101 0.0098442114766621059 0 -0.065537761362196509 0.012664427147476913 0 -0.064059761620748307 0.010649311717843411 0 -0.064025318693414435 0.0079585639074758775 0 -0.065058156312437415 0.0094802879067844639 0 -0.06232627521603927 0.0060967731777060849 0 -0.06241714871500776 0.0068499212836333392 0 -0.062919908026074098 0.0059252480847944416 0 -0.067117567621177585 0.01371171090763198 0 -0.0673983256783795 0.011914361442077892 0 -0.065537761362196509 0.012664427147476913 0 -0.065799962269871101 0.0098442114766621059 0 -0.0673983256783795 0.011914361442077892 0 -0.065537761362196509 0.012664427147476913 0 -0.064346668771098153 0.014356434800338165 0 -0.065537761362196509 0.012664427147476913 0 -0.063281068666294626 0.012678214243546079 0 -0.065537761362196509 0.012664427147476913 0 -0.063281068666294626 0.012678214243546079 0 -0.064059761620748307 0.010649311717843411 0 -0.063281068666294626 0.012678214243546079 0 -0.061077865786614928 0.012721182222673379 0 -0.061953785004362882 0.01036096684776165 0 -0.061077865786614928 0.012721182222673379 0 -0.061953785004362882 0.01036096684776165 0 -0.059425175373712641 0.010496480519142572 0 -0.061953785004362882 0.01036096684776165 0 -0.064059761620748307 0.010649311717843411 0 -0.063919139811357939 0.0075272631597696725 0 -0.063281068666294626 0.012678214243546079 0 -0.061953785004362882 0.01036096684776165 0 -0.064059761620748307 0.010649311717843411 0 -0.061953785004362882 0.01036096684776165 0 -0.063919139811357939 0.0075272631597696725 0 -0.060173722304424061 0.0073755606662643577 0 -0.061298782238943125 0.0047005013771353873 0 -0.059625806670690638 0.0038787417798263144 0 -0.060173722304424061 0.0073755606662643577 0 -0.063919139811357939 0.0075272631597696725 0 -0.061298782238943125 0.0047005013771353873 0 -0.060173722304424061 0.0073755606662643577 0 -0.061689311091268351 0.0051504181791113129 0 -0.061767162748141646 0.0039765298124290142 0 -0.061298782238943125 0.0047005013771353873 0 -0.062770904293503016 0.0063299791486587072 0 -0.061415165205389331 0.0048173715371556229 0 -0.061689311091268351 0.0051504181791113129 0 -0.062250713190854241 0.0047232348804528467 0 -0.061767162748141646 0.0039765298124290142 0 -0.062250713190854241 0.0047232348804528467 0 -0.063126705459000065 0.0043313546851377642 0 -0.061767162748141646 0.0039765298124290142 0 -0.061689311091268351 0.0051504181791113129 0 -0.062250713190854241 0.0047232348804528467 0 -0.062493127910267163 0.0052980552000042227 0 -0.062250713190854241 0.0047232348804528467 0 -0.062493127910267163 0.0052980552000042227 0 -0.063126705459000065 0.0043313546851377642 0 -0.064025318693414435 0.0079585639074758775 0 -0.062770904293503016 0.0063299791486587072 0 -0.065799962269871101 0.0098442114766621059 0 -0.064059761620748307 0.010649311717843411 0 -0.063919139811357939 0.0075272631597696725 0 -0.06232627521603927 0.0060967731777060849 0 -0.061689311091268351 0.0051504181791113129 0 -0.062493127910267163 0.0052980552000042227 0 -0.062493127910267163 0.0052980552000042227 0 -0.062919908026074098 0.0059252480847944416 0 -0.063126705459000065 0.0043313546851377642 0 -0.06232627521603927 0.0060967731777060849 0 -0.062493127910267163 0.0052980552000042227 0 -0.062919908026074098 0.0059252480847944416 0 -0.060692975042543638 -0.00056836101484516392 0 -0.060119647666508028 0.0012552855346039567 0 -0.060445040987174334 -0.001902536863820786 0 -0.06155975036136483 0.0035871183264731916 0 -0.061734296831155576 0.0012977668185254333 0 -0.060445040987174334 -0.001902536863820786 0 -0.06065169488255525 -0.0014176894100960747 0 -0.060444561445555274 -0.0018014693773881105 0 -0.061231965128111437 -0.0013560932762938457 0 -0.06065169488255525 -0.0014176894100960747 0 -0.060444561445555274 -0.0018014693773881105 0 -0.060692975042543638 -0.00056836101484516392 0 -0.060445040987174334 -0.001902536863820786 0 -0.06065169488255525 -0.0014176894100960747 0 -0.060445040987174334 -0.001902536863820786 0 -0.060444561445555274 -0.0018014693773881105 0 -0.060849198505478437 -0.00058035070709614356 0 -0.060071128615631887 -0.001712610523809871 0 -0.060444561445555274 -0.0018014693773881105 0 -0.060849198505478437 -0.00058035070709614356 0 -0.060445040987174334 -0.001902536863820786 0 -0.061806254655473125 0.00081917806086107187 0 -0.060849198505478437 -0.00058035070709614356 0 -0.061734296831155576 0.0012977668185254333 0 -0.061794406628749486 0.00080303329881453299 0 -0.063126705459000065 0.0043313546851377642 0 -0.061767162748141646 0.0039765298124290142 0 -0.061806254655473125 0.00081917806086107187 0 -0.060022488455424364 -0.0013132015916449877 0 -0.060849198505478437 -0.00058035070709614356 0 -0.061011377812069181 2.7837488707038289e-05 0 -0.060022488455424364 -0.0013132015916449877 0 -0.060071128615631887 -0.001712610523809871 0 -0.060849198505478437 -0.00058035070709614356 0 -0.061806254655473125 0.00081917806086107187 0 -0.060849198505478437 -0.00058035070709614356 0 -0.061011377812069181 2.7837488707038289e-05 0 -0.061806254655473125 0.00081917806086107187 0 -0.061011377812069181 2.7837488707038289e-05 0 -0.061021858074180708 -0.00020425565243956375 0 -0.061011377812069181 2.7837488707038289e-05 0 -0.061021858074180708 -0.00020425565243956375 0 -0.061332612198057912 -0.00077036032364030443 0 -0.060472217656461054 0.001016234943628995 0 -0.059405952736655825 4.5022149833747145e-05 0 -0.060136509430700952 -0.0010225153413772584 0 -0.061021858074180708 -0.00020425565243956375 0 -0.060472217656461054 0.001016234943628995 0 -0.060136509430700952 -0.0010225153413772584 0 -0.061806254655473125 0.00081917806086107187 0 -0.061021858074180708 -0.00020425565243956375 0 -0.060472217656461054 0.001016234943628995 0 -0.060472217656461054 0.001016234943628995 0 -0.06114430066081069 0.0027070348191848789 0 -0.059625806670690638 0.0038787417798263144 0 -0.061806254655473125 0.00081917806086107187 0 -0.060472217656461054 0.001016234943628995 0 -0.06114430066081069 0.0027070348191848789 0 -0.061767162748141646 0.0039765298124290142 0 -0.06114430066081069 0.0027070348191848789 0 -0.061298782238943125 0.0047005013771353873 0 -0.061767162748141646 0.0039765298124290142 0 -0.061806254655473125 0.00081917806086107187 0 -0.06114430066081069 0.0027070348191848789 0 -0.06114430066081069 0.0027070348191848789 0 -0.061298782238943125 0.0047005013771353873 0 -0.059625806670690638 0.0038787417798263144 0 -0.059625806670690638 0.0038787417798263144 0 -0.058411665996510161 0.0021264300024949477 0 -0.057075555885508271 0.0042469435011918081 0 -0.059625806670690638 0.0038787417798263144 0 -0.057075555885508271 0.0042469435011918081 0 -0.058172299309972954 0.0062647835714814614 0 -0.060472217656461054 0.001016234943628995 0 -0.059625806670690638 0.0038787417798263144 0 -0.058411665996510161 0.0021264300024949477 0 -0.060472217656461054 0.001016234943628995 0 -0.058411665996510161 0.0021264300024949477 0 -0.059405952736655825 4.5022149833747145e-05 0 -0.058411665996510161 0.0021264300024949477 0 -0.059405952736655825 4.5022149833747145e-05 0 -0.057269185105980634 0.00082413864505162136 0 -0.059405952736655825 4.5022149833747145e-05 0 -0.057269185105980634 0.00082413864505162136 0 -0.058279204559718419 -0.0010146138996325173 0 -0.054999753851267007 0.0015337913810699029 0 -0.057269185105980634 0.00082413864505162136 0 -0.056769799481793261 -0.0011833203884046104 0 -0.058411665996510161 0.0021264300024949477 0 -0.057269185105980634 0.00082413864505162136 0 -0.056469255528662277 0.0027070794009642729 0 -0.054999753851267007 0.0015337913810699029 0 -0.056469255528662277 0.0027070794009642729 0 -0.054999636672295939 0.0045890149369316848 0 -0.054999753851267007 0.0015337913810699029 0 -0.057269185105980634 0.00082413864505162136 0 -0.056469255528662277 0.0027070794009642729 0 -0.056469255528662277 0.0027070794009642729 0 -0.054999636672295939 0.0045890149369316848 0 -0.057075555885508271 0.0042469435011918081 0 -0.058411665996510161 0.0021264300024949477 0 -0.056469255528662277 0.0027070794009642729 0 -0.057075555885508271 0.0042469435011918081 0 -0.057075555885508271 0.0042469435011918081 0 -0.056440417805680577 0.0063169846880317664 0 -0.058172299309972954 0.0062647835714814614 0 -0.054999636672295939 0.0045890149369316848 0 -0.056440417805680577 0.0063169846880317664 0 -0.054999588947744683 0.0076444575602715378 0 -0.054999636672295939 0.0045890149369316848 0 -0.057075555885508271 0.0042469435011918081 0 -0.056440417805680577 0.0063169846880317664 0 -0.056440417805680577 0.0063169846880317664 0 -0.054999588947744683 0.0076444575602715378 0 -0.056957719535489372 0.0089136518235081071 0 -0.054999588947744683 0.0076444575602715378 0 -0.056957719535489372 0.0089136518235081071 0 -0.054999586512274275 0.010700044647416675 0 -0.056440417805680577 0.0063169846880317664 0 -0.056957719535489372 0.0089136518235081071 0 -0.058172299309972954 0.0062647835714814614 0 -0.056957719535489372 0.0089136518235081071 0 -0.058172299309972954 0.0062647835714814614 0 -0.058684433510560893 0.0082470266066852274 0 -0.058172299309972954 0.0062647835714814614 0 -0.060173722304424061 0.0073755606662643577 0 -0.058684433510560893 0.0082470266066852274 0 -0.059625806670690638 0.0038787417798263144 0 -0.058172299309972954 0.0062647835714814614 0 -0.060173722304424061 0.0073755606662643577 0 -0.061953785004362882 0.01036096684776165 0 -0.060173722304424061 0.0073755606662643577 0 -0.059425175373712641 0.010496480519142572 0 -0.060173722304424061 0.0073755606662643577 0 -0.058684433510560893 0.0082470266066852274 0 -0.059425175373712641 0.010496480519142572 0 -0.056957719535489372 0.0089136518235081071 0 -0.058684433510560893 0.0082470266066852274 0 -0.059425175373712641 0.010496480519142572 0 -0.056957719535489372 0.0089136518235081071 0 -0.059425175373712641 0.010496480519142572 0 -0.057115031365538922 0.011949243374152404 0 -0.061077865786614928 0.012721182222673379 0 -0.059425175373712641 0.010496480519142572 0 -0.059130326552134592 0.012753921137819521 0 -0.058351138268032662 0.014727241239553525 0 -0.059130326552134592 0.012753921137819521 0 -0.057115031365538922 0.011949243374152404 0 -0.059425175373712641 0.010496480519142572 0 -0.059130326552134592 0.012753921137819521 0 -0.057115031365538922 0.011949243374152404 0 -0.054999726409711402 0.013755687507593699 0 -0.057115031365538922 0.011949243374152404 0 -0.054999586512274275 0.010700044647416675 0 -0.056957719535489372 0.0089136518235081071 0 -0.057115031365538922 0.011949243374152404 0 -0.054999586512274275 0.010700044647416675 0 -0.030705356375577125 0.0072463255599358161 0 -0.031153888227853286 0.0071349469172540337 0 -0.031447280537186907 0.0067472698122297984 0 -0.020395668409616392 0.01042557773253233 0 -0.020567817093540032 0.010189412663001324 0 -0.010110818965881816 0.013549642766287421 0 -0.0097469184453116507 0.013544975074856981 0 -0.0097842072693603427 0.014005024002880298 0 -0.010110818965881816 0.013549642766287421 0 -0.0097469184453116507 0.013544975074856981 0 -0.009987959288213371 0.013161970034539889 0 -0.0097469184453116507 0.013544975074856981 0 -0.009987959288213371 0.013161970034539889 0 -0.009724409628425126 0.013281490085018763 0 -0.0097469184453116507 0.013544975074856981 0 -0.0094413327583522354 0.013563078124789477 0 -0.009724409628425126 0.013281490085018763 0 -0.031153888227853286 0.0071349469172540337 0 -0.031447280537186907 0.0067472698122297984 0 -0.031472606618247093 0.0069598087102637788 0 -0.031447280537186907 0.0067472698122297984 0 -0.031495382472977458 0.0068308516933197711 0 -0.031403435853658193 0.0065563824735675883 0 -0.031447280537186907 0.0067472698122297984 0 -0.031495382472977458 0.0068308516933197711 0 -0.031472606618247093 0.0069598087102637788 0 -0.031447280537186907 0.0067472698122297984 0 -0.031308474513044492 0.006264864261085629 0 -0.031403435853658193 0.0065563824735675883 0 -0.031447280537186907 0.0067472698122297984 0 -0.031515967153523207 0.0065471812433372106 0 -0.031308474513044492 0.006264864261085629 0 -0.030705356375577125 0.0072463255599358161 0 -0.031447280537186907 0.0067472698122297984 0 -0.03101635725927035 0.0071764692953415346 0 -0.031447280537186907 0.0067472698122297984 0 -0.03101635725927035 0.0071764692953415346 0 -0.031515967153523207 0.0065471812433372106 0 -0.03101635725927035 0.0071764692953415346 0 -0.031515967153523207 0.0065471812433372106 0 -0.031479795917802748 0.0076380944452918605 0 -0.031515967153523207 0.0065471812433372106 0 -0.031141112383289649 0.0054793710988689636 0 -0.031308474513044492 0.006264864261085629 0 -0.031513575003115704 0.0065669035445520734 0 -0.031532128560738455 0.0064088918602229006 0 -0.031515967153523207 0.0065471812433372106 0 -0.031141112383289649 0.0054793710988689636 0 -0.0316531276704567 0.0051322407131349041 0 -0.0316531276704567 0.0051322407131349041 0 -0.030974376212380715 0.0042496676982250667 0 -0.030875341856697439 0.004614676482137584 0 -0.031141112383289649 0.0054793710988689636 0 -0.0316531276704567 0.0051322407131349041 0 -0.030875341856697439 0.004614676482137584 0 -0.03101635725927035 0.0071764692953415346 0 -0.031479795917802748 0.0076380944452918605 0 -0.030853159067443403 0.0079896579372618157 0 -0.03101635725927035 0.0071764692953415346 0 -0.030853159067443403 0.0079896579372618157 0 -0.030029354983298458 0.007786610548456644 0 -0.020395668409616392 0.01042557773253233 0 -0.020022383642364111 0.010906194794433935 0 -0.030705356375577125 0.0072463255599358161 0 -0.03101635725927035 0.0071764692953415346 0 -0.030029354983298458 0.007786610548456644 0 -0.010110818965881816 0.013549642766287421 0 -0.010109817537388828 0.013953231902058839 0 -0.0097842072693603427 0.014005024002880298 0 -0.010109817537388828 0.013953231902058839 0 -0.01012290408429097 0.013949367333366222 0 -0.0097842072693603427 0.014005024002880298 0 -0.010083541764103112 0.015460330737902751 0 -0.0091524984150968564 0.015371943142174735 0 -0.0097842072693603427 0.014005024002880298 0 -0.010147939121983817 0.014536934358144722 0 -0.0098268821443742872 0.01409472501014712 0 -0.0097842072693603427 0.014005024002880298 0 -0.0086469488855844805 0.01478777857309809 0 -0.0088964230248602099 0.013925661214103746 0 -0.0091524984150968564 0.015371943142174735 0 -0.0097842072693603427 0.014005024002880298 0 -0.0086469488855844805 0.01478777857309809 0 -0.0072968787723690833 0.014702487765567247 0 -0.0079624459549708267 0.015537584476661591 0 -0.0086469488855844805 0.01478777857309809 0 -0.0091524984150968564 0.015371943142174735 0 -0.0079624459549708267 0.015537584476661591 0 -0.0086469488855844805 0.01478777857309809 0 -0.0084422274787170973 0.01333216433867747 0 -0.0075075840352422426 0.017996660840810256 0 -0.0072968787723690833 0.014702487765567247 0 -0.0086469488855844805 0.01478777857309809 0 -0.0079592960615430305 0.014020346990638624 0 -0.0058762851520174518 0.026503540950210066 0 -0.0058131174902010772 0.024798964437747033 0 -0.0074523300346983328 0.024872157676504445 0 -0.0058131174902010772 0.024798964437747033 0 -0.0074523300346983328 0.024872157676504445 0 -0.0065241436703250954 0.023539739073542912 0 -0.0066384301989789903 0.02053565946436367 0 -0.0075075840352422426 0.017996660840810256 0 -0.0075075840352422426 0.017996660840810256 0 -0.007016423541422726 0.021117599101098092 0 -0.0086469488855844805 0.01478777857309809 0 -0.008179311917091649 0.013881236376728893 0 -0.0088964230248602099 0.013925661214103746 0 -0.008179311917091649 0.013881236376728893 0 -0.0086301528760813796 0.01353016019398234 0 -0.0088964230248602099 0.013925661214103746 0 -0.0075075840352422426 0.017996660840810256 0 -0.0085281746204715764 0.01557969222206922 0 -0.0081127380171083837 0.017863674419324804 0 -0.0088577697286359672 0.017094248897490914 0 -0.0074974630083338894 0.016978449724203142 0 -0.0086112953657205733 0.014874582958424672 0 -0.0073154354193266137 0.015669225362360609 0 -0.0085281746204715764 0.01557969222206922 0 -0.0086112953657205733 0.014874582958424672 0 -0.0073713090322758889 0.018622421283310812 0 -0.0081127380171083837 0.017863674419324804 0 -0.0067587298324112317 0.017742522836644861 0 -0.0061408795259289628 0.016864855152310336 0 -0.0067587298324112317 0.017742522836644861 0 -0.0074974630083338894 0.016978449724203142 0 -0.0081127380171083837 0.017863674419324804 0 -0.0067587298324112317 0.017742522836644861 0 -0.0074974630083338894 0.016978449724203142 0 -0.0044637400758960671 0.019278310910571517 0 -0.007016423541422726 0.021117599101098092 0 -0.0097469184453116507 0.013544975074856981 0 -0.0097842072693603427 0.014005024002880298 0 -0.009418815766444693 0.013683251735233409 0 -0.009418815766444693 0.013683251735233409 0 -0.0088964230248602099 0.013925661214103746 0 -0.0091541091701424215 0.01355302183409378 0 -0.0086301528760813796 0.01353016019398234 0 -0.0088964230248602099 0.013925661214103746 0 -0.0091541091701424215 0.01355302183409378 0 -0.0097842072693603427 0.014005024002880298 0 -0.009418815766444693 0.013683251735233409 0 -0.0088964230248602099 0.013925661214103746 0 -0.0091541091701424215 0.01355302183409378 0 -0.0090271741625845402 0.01331111325279785 0 -0.0094413327583522354 0.013563078124789477 0 -0.0086301528760813796 0.01353016019398234 0 -0.0091541091701424215 0.01355302183409378 0 -0.0090271741625845402 0.01331111325279785 0 -0.0097469184453116507 0.013544975074856981 0 -0.009418815766444693 0.013683251735233409 0 -0.0094413327583522354 0.013563078124789477 0 -0.0086112953657205733 0.014874582958424672 0 -0.0093438146438048694 0.013363644656155539 0 -0.009418815766444693 0.013683251735233409 0 -0.0091541091701424215 0.01355302183409378 0 -0.0094413327583522354 0.013563078124789477 0 -0.0094413327583522354 0.013563078124789477 0 -0.0086431371360298111 0.013766263507171597 0 -0.0089005267939019882 0.013407954470362566 0 -0.0094413327583522354 0.013563078124789477 0 -0.0089005267939019882 0.013407954470362566 0 -0.009341333919090495 0.013264973152522782 0 -0.0086431371360298111 0.013766263507171597 0 -0.008363116063224648 0.013254462794637406 0 -0.0076168126662605777 0.013719722111670688 0 -0.0086112953657205733 0.014874582958424672 0 -0.0087145436572715583 0.014032442744142101 0 -0.0086431371360298111 0.013766263507171597 0 -0.008363116063224648 0.013254462794637406 0 -0.0089005267939019882 0.013407954470362566 0 -0.008373941705525148 0.014060840854363672 0 -0.0094413327583522354 0.013563078124789477 0 -0.0086431371360298111 0.013766263507171597 0 -0.0080515504463384551 0.014530938133604241 0 -0.0086431371360298111 0.013766263507171597 0 -0.0076168126662605777 0.013719722111670688 0 -0.008363116063224648 0.013254462794637406 0 -0.0076168126662605777 0.013719722111670688 0 -0.0079773167129688141 0.012722683883626294 0 -0.0089005267939019882 0.013407954470362566 0 -0.0088381368087971472 0.012827794713008239 0 -0.009341333919090495 0.013264973152522782 0 -0.008363116063224648 0.013254462794637406 0 -0.0089005267939019882 0.013407954470362566 0 -0.0088381368087971472 0.012827794713008239 0 -0.0088381368087971472 0.012827794713008239 0 -0.0093638401120530682 0.012969362013893145 0 -0.009341333919090495 0.013264973152522782 0 -0.0055791273810762276 0.014513884931172911 0 -0.0067711643270461632 0.014561696709313933 0 -0.0067168152987477896 0.013387691015046357 0 -0.0024079830385078404 0.019607478402104427 0 -0.0035733679959369614 0.017117671718849457 0 -0.0055791273810762276 0.014513884931172911 0 -0.0054587616808571332 0.014353541996009375 0 -0.0067168152987477896 0.013387691015046357 0 -0.0044637400758960671 0.019278310910571517 0 -0.0073154354193266137 0.015669225362360609 0 -0.0080515504463384551 0.014530938133604241 0 -0.0067711643270461632 0.014561696709313933 0 -0.0076168126662605777 0.013719722111670688 0 -0.0067711643270461632 0.014561696709313933 0 -0.0076168126662605777 0.013719722111670688 0 -0.0067168152987477896 0.013387691015046357 0 -0.0035733679959369614 0.017117671718849457 0 -0.0041401647024276152 0.01690307268371213 0 -0.0076168126662605777 0.013719722111670688 0 -0.0067168152987477896 0.013387691015046357 0 -0.0079773167129688141 0.012722683883626294 0 0.00071586426195968905 0.021402183049564739 0 -0.00021933587556844256 0.021325806604472669 0 -6.201010852879955e-06 0.020472073154675599 0 0.0010270613386585187 0.022370320939141791 0 0.00071586426195968905 0.021402183049564739 0 -0.00021933587556844256 0.021325806604472669 0 0.00071586426195968905 0.021402183049564739 0 0.0010016533415504844 0.020686848481871578 0 -6.201010852879955e-06 0.020472073154675599 0 0.0010016533415504844 0.020686848481871578 0 -6.201010852879955e-06 0.020472073154675599 0 0.00060870433454908695 0.019918935720149213 0 -6.201010852879955e-06 0.020472073154675599 0 -0.00063260511511741219 0.019680640747063143 0 -0.0012035693545952865 0.020362096453289392 0 -0.00021933587556844256 0.021325806604472669 0 -6.201010852879955e-06 0.020472073154675599 0 -0.0012035693545952865 0.020362096453289392 0 0.000364344065588416 0.01906701836784851 0 -0.00063260511511741219 0.019680640747063143 0 0.00060870433454908695 0.019918935720149213 0 -6.201010852879955e-06 0.020472073154675599 0 -0.00063260511511741219 0.019680640747063143 0 0.00060870433454908695 0.019918935720149213 0 -0.0088381368087971472 0.012827794713008239 0 -0.0091714427248190539 0.012379288277973809 0 -0.0096581957068162354 0.012720013188506759 0 -0.0088381368087971472 0.012827794713008239 0 -0.0079773167129688141 0.012722683883626294 0 -0.0088096006245107807 0.012292050772676255 0 -0.0091520302142901466 0.011916179726730524 0 -0.0072261722500688297 0.014595914657285885 0 -0.008363116063224648 0.013254462794637406 0 -0.0088381368087971472 0.012827794713008239 0 -0.0079773167129688141 0.012722683883626294 0 -0.0041401647024276152 0.01690307268371213 0 -0.0072261722500688297 0.014595914657285885 0 -0.00063260511511741219 0.019680640747063143 0 -0.0012035693545952865 0.020362096453289392 0 -0.001914502907288861 0.019709032095370855 0 -0.0013607588481762756 0.019209315937055976 0 -0.00063260511511741219 0.019680640747063143 0 -0.001914502907288861 0.019709032095370855 0 -0.0091714427248190539 0.012379288277973809 0 -0.0097320959286429157 0.012471015994719736 0 -0.0096581957068162354 0.012720013188506759 0 -0.009888264567796623 0.012265739179123701 0 -0.0091714427248190539 0.012379288277973809 0 -0.0097320959286429157 0.012471015994719736 0 -0.0097320959286429157 0.012471015994719736 0 -0.0096581957068162354 0.012720013188506759 0 -0.010103935044865946 0.012526666271887399 0 -0.009888264567796623 0.012265739179123701 0 -0.0097320959286429157 0.012471015994719736 0 -0.010103935044865946 0.012526666271887399 0 -0.0096581957068162354 0.012720013188506759 0 -0.0099950082902001969 0.013071383223187088 0 -0.010103935044865946 0.012526666271887399 0 -0.020742595843017395 0.010004272936533587 0 -0.020796619067483608 0.010221303079706279 0 -0.0088381368087971472 0.012827794713008239 0 -0.0096581957068162354 0.012720013188506759 0 -0.0093638401120530682 0.012969362013893145 0 -0.0096581957068162354 0.012720013188506759 0 -0.0093638401120530682 0.012969362013893145 0 -0.0096641817193431449 0.013112368997686551 0 -0.0093638401120530682 0.012969362013893145 0 -0.009341333919090495 0.013264973152522782 0 -0.0096641817193431449 0.013112368997686551 0 -0.0096581957068162354 0.012720013188506759 0 -0.0096641817193431449 0.013112368997686551 0 -0.0099950082902001969 0.013071383223187088 0 -0.0096641817193431449 0.013112368997686551 0 -0.0099950082902001969 0.013071383223187088 0 -0.009724409628425126 0.013281490085018763 0 -0.020567817093540032 0.010189412663001324 0 -0.020742595843017395 0.010004272936533587 0 -0.009987959288213371 0.013161970034539889 0 -0.0099950082902001969 0.013071383223187088 0 -0.009724409628425126 0.013281490085018763 0 -0.0094413327583522354 0.013563078124789477 0 -0.009341333919090495 0.013264973152522782 0 -0.009724409628425126 0.013281490085018763 0 -0.009341333919090495 0.013264973152522782 0 -0.0096641817193431449 0.013112368997686551 0 -0.009724409628425126 0.013281490085018763 0 -0.031495382472977458 0.0068308516933197711 0 -0.031472606618247093 0.0069598087102637788 0 -0.031552085482918095 0.0070976094728789326 0 -0.031153888227853286 0.0071349469172540337 0 -0.031481469345182221 0.0070534127351520827 0 -0.031472606618247093 0.0069598087102637788 0 -0.031481469345182221 0.0070534127351520827 0 -0.031472606618247093 0.0069598087102637788 0 -0.031552085482918095 0.0070976094728789326 0 -0.031552085482918095 0.0070976094728789326 0 -0.031593961187210265 0.0073246671800238734 0 -0.031582732819978504 0.0073533348399996744 0 -0.031552085482918095 0.0070976094728789326 0 -0.031582732819978504 0.0073533348399996744 0 -0.031614242076795092 0.007249196046573903 0 -0.031481469345182221 0.0070534127351520827 0 -0.031552085482918095 0.0070976094728789326 0 -0.031593961187210265 0.0073246671800238734 0 -0.021013129935876753 0.0085954018745207673 0 -0.020796619067483608 0.010221303079706279 0 -0.031569676529641613 0.0075398370422572339 0 -0.031593961187210265 0.0073246671800238734 0 -0.031582732819978504 0.0073533348399996744 0 -0.03158816205330868 0.0074946725976802811 0 -0.031582732819978504 0.0073533348399996744 0 -0.031643276479382615 0.0074805233573235182 0 -0.031582732819978504 0.0073533348399996744 0 -0.031643276479382615 0.0074805233573235182 0 -0.031614242076795092 0.007249196046573903 0 -0.031614242076795092 0.007249196046573903 0 -0.031727410211102341 0.0074678535550455885 0 -0.03161912244809284 0.0071131029968918525 0 -0.03174653772528413 0.0076495585980207378 0 -0.031643276479382615 0.0074805233573235182 0 -0.031727410211102341 0.0074678535550455885 0 -0.031643276479382615 0.0074805233573235182 0 -0.031614242076795092 0.007249196046573903 0 -0.031727410211102341 0.0074678535550455885 0 -0.03174653772528413 0.0076495585980207378 0 -0.031727410211102341 0.0074678535550455885 0 -0.031918763987279553 0.0077338403946384587 0 -0.031727410211102341 0.0074678535550455885 0 -0.031918763987279553 0.0077338403946384587 0 -0.031735572738109931 0.0073391709588529171 0 -0.031918763987279553 0.0077338403946384587 0 -0.031735572738109931 0.0073391709588529171 0 -0.031860955561431946 0.0076386940336024183 0 -0.031735572738109931 0.0073391709588529171 0 -0.031554901709972376 0.0069206740581584823 0 -0.031637819553357933 0.007154433375671637 0 -0.031735572738109931 0.0073391709588529171 0 -0.031860955561431946 0.0076386940336024183 0 -0.031637819553357933 0.007154433375671637 0 -0.031727410211102341 0.0074678535550455885 0 -0.031735572738109931 0.0073391709588529171 0 -0.03161912244809284 0.0071131029968918525 0 -0.031735572738109931 0.0073391709588529171 0 -0.03161912244809284 0.0071131029968918525 0 -0.031554901709972376 0.0069206740581584823 0 -0.03161912244809284 0.0071131029968918525 0 -0.031554901709972376 0.0069206740581584823 0 -0.031462763966680359 0.0067049831033685614 0 -0.031554901709972376 0.0069206740581584823 0 -0.031637819553357933 0.007154433375671637 0 -0.031459875000436038 0.0067740367496428823 0 -0.031554901709972376 0.0069206740581584823 0 -0.031361443881226775 0.0064662009159174878 0 -0.031462763966680359 0.0067049831033685614 0 -0.031554901709972376 0.0069206740581584823 0 -0.031361443881226775 0.0064662009159174878 0 -0.031459875000436038 0.0067740367496428823 0 -0.031462763966680359 0.0067049831033685614 0 -0.031543081606507269 0.0069390064197249902 0 -0.03143056589937987 0.0066218316070520309 0 -0.031495382472977458 0.0068308516933197711 0 -0.031543081606507269 0.0069390064197249902 0 -0.03143056589937987 0.0066218316070520309 0 -0.031495382472977458 0.0068308516933197711 0 -0.031552085482918095 0.0070976094728789326 0 -0.031543081606507269 0.0069390064197249902 0 -0.031552085482918095 0.0070976094728789326 0 -0.031614242076795092 0.007249196046573903 0 -0.031543081606507269 0.0069390064197249902 0 -0.03161912244809284 0.0071131029968918525 0 -0.031462763966680359 0.0067049831033685614 0 -0.031543081606507269 0.0069390064197249902 0 -0.031614242076795092 0.007249196046573903 0 -0.03161912244809284 0.0071131029968918525 0 -0.031543081606507269 0.0069390064197249902 0 -0.030941868097409848 0.0074309327286445443 0 -0.031170898408148004 0.0071512896213599426 0 -0.031016650814173811 0.0068879819492914012 0 -0.030802125408017866 0.0083552683599176485 0 -0.030941868097409848 0.0074309327286445443 0 -0.031208671732424344 0.0080174575952342234 0 -0.030941868097409848 0.0074309327286445443 0 -0.031170898408148004 0.0071512896213599426 0 -0.031208671732424344 0.0080174575952342234 0 -0.031208671732424344 0.0080174575952342234 0 -0.03142232760542104 0.0074339058963600203 0 -0.031594545554412407 0.0079928839439675613 0 -0.031170898408148004 0.0071512896213599426 0 -0.031208671732424344 0.0080174575952342234 0 -0.03142232760542104 0.0074339058963600203 0 -0.031170898408148004 0.0071512896213599426 0 -0.03142232760542104 0.0074339058963600203 0 -0.031339867187090711 0.006764014717726397 0 -0.03142232760542104 0.0074339058963600203 0 -0.031571930235188651 0.0072525855282021675 0 -0.031339867187090711 0.006764014717726397 0 -0.031571930235188651 0.0072525855282021675 0 -0.031594545554412407 0.0079928839439675613 0 -0.031860955561431946 0.0076386940336024183 0 -0.03142232760542104 0.0074339058963600203 0 -0.031571930235188651 0.0072525855282021675 0 -0.031594545554412407 0.0079928839439675613 0 -0.031571930235188651 0.0072525855282021675 0 -0.031860955561431946 0.0076386940336024183 0 -0.031637819553357933 0.007154433375671637 0 -0.031571930235188651 0.0072525855282021675 0 -0.031637819553357933 0.007154433375671637 0 -0.031459875000436038 0.0067740367496428823 0 -0.031361443881226775 0.0064662009159174878 0 -0.031459875000436038 0.0067740367496428823 0 -0.031265947959887103 0.0062736652562620171 0 -0.031339867187090711 0.006764014717726397 0 -0.031286763319322779 0.0061122484551753642 0 -0.031265947959887103 0.0062736652562620171 0 -0.031459875000436038 0.0067740367496428823 0 -0.031339867187090711 0.006764014717726397 0 -0.031265947959887103 0.0062736652562620171 0 -0.031571930235188651 0.0072525855282021675 0 -0.031459875000436038 0.0067740367496428823 0 -0.031339867187090711 0.006764014717726397 0 -0.031170898408148004 0.0071512896213599426 0 -0.031339867187090711 0.006764014717726397 0 -0.031081041335175617 0.0066695103214507905 0 -0.031339867187090711 0.006764014717726397 0 -0.031081041335175617 0.0066695103214507905 0 -0.031286763319322779 0.0061122484551753642 0 -0.031170898408148004 0.0071512896213599426 0 -0.031081041335175617 0.0066695103214507905 0 -0.031016650814173811 0.0068879819492914012 0 -0.031715304194932438 0.0062059837100352294 0 -0.031364300183329259 0.0061188108663882725 0 -0.032290050990291058 0.0057600598101230265 0 -0.032031873148020674 0.0060541000213397327 0 -0.031286763319322779 0.0061122484551753642 0 -0.031081230352546823 0.0065906597756591988 0 -0.031081041335175617 0.0066695103214507905 0 -0.031286763319322779 0.0061122484551753642 0 -0.032031873148020674 0.0060541000213397327 0 -0.031286763319322779 0.0061122484551753642 0 -0.031093801859064966 0.0058559849434370375 0 -0.031286763319322779 0.0061122484551753642 0 -0.031127467057971873 0.0059668804298910472 0 -0.031093801859064966 0.0058559849434370375 0 -0.031286763319322779 0.0061122484551753642 0 -0.031127467057971873 0.0059668804298910472 0 -0.031265947959887103 0.0062736652562620171 0 -0.031361443881226775 0.0064662009159174878 0 -0.031265947959887103 0.0062736652562620171 0 -0.031170743462009563 0.0059811882293735628 0 -0.031127467057971873 0.0059668804298910472 0 -0.031265947959887103 0.0062736652562620171 0 -0.031170743462009563 0.0059811882293735628 0 -0.031127467057971873 0.0059668804298910472 0 -0.031035505535652402 0.0053883321560350712 0 -0.031170743462009563 0.0059811882293735628 0 -0.031035505535652402 0.0053883321560350712 0 -0.030913729458467189 0.0048069819040126088 0 -0.030937721095031241 0.0044480807479699196 0 -0.031035505535652402 0.0053883321560350712 0 -0.030971927460369444 0.0050895518670833273 0 -0.030937721095031241 0.0044480807479699196 0 -0.030913729458467189 0.0048069819040126088 0 -0.031093801859064966 0.0058559849434370375 0 -0.030429503265144583 0.0044618413635044681 0 -0.031035505535652402 0.0053883321560350712 0 -0.030913729458467189 0.0048069819040126088 0 -0.031093801859064966 0.0058559849434370375 0 -0.031127467057971873 0.0059668804298910472 0 -0.031035505535652402 0.0053883321560350712 0 -0.031093801859064966 0.0058559849434370375 0 -0.032031873148020674 0.0060541000213397327 0 -0.031093801859064966 0.0058559849434370375 0 -0.032234301865138502 0.0064126027644795065 0 -0.031093801859064966 0.0058559849434370375 0 -0.031664510038689891 0.0066089480426514873 0 -0.032234301865138502 0.0064126027644795065 0 -0.031664510038689891 0.0066089480426514873 0 -0.032234301865138502 0.0064126027644795065 0 -0.032250552958996474 0.0067575430861820263 0 -0.031065536777830128 0.0054849191962880782 0 -0.031011895265644775 0.0062669707613713594 0 -0.032234301865138502 0.0064126027644795065 0 -0.03256161161005923 0.006606632690493679 0 -0.032250552958996474 0.0067575430861820263 0 -0.032691894804853752 0.0064686416796807143 0 -0.032234301865138502 0.0064126027644795065 0 -0.03256161161005923 0.006606632690493679 0 -0.032691894804853752 0.0064686416796807143 0 -0.032656527317907878 0.0063234658689625359 0 -0.032234301865138502 0.0064126027644795065 0 -0.032656527317907878 0.0063234658689625359 0 -0.032031873148020674 0.0060541000213397327 0 -0.032234301865138502 0.0064126027644795065 0 -0.031299242812246296 0.0062997283627279181 0 -0.031235962986559247 0.0061393833387996021 0 -0.031110681227533115 0.0058260138552197246 0 -0.031299242812246296 0.0062997283627279181 0 -0.031308474513044492 0.006264864261085629 0 -0.031110681227533115 0.0058260138552197246 0 -0.031299242812246296 0.0062997283627279181 0 -0.031308474513044492 0.006264864261085629 0 -0.031403435853658193 0.0065563824735675883 0 -0.031495382472977458 0.0068308516933197711 0 -0.031403435853658193 0.0065563824735675883 0 -0.03143056589937987 0.0066218316070520309 0 -0.031299242812246296 0.0062997283627279181 0 -0.031403435853658193 0.0065563824735675883 0 -0.03143056589937987 0.0066218316070520309 0 -0.031299242812246296 0.0062997283627279181 0 -0.03143056589937987 0.0066218316070520309 0 -0.031235962986559247 0.0061393833387996021 0 -0.031462763966680359 0.0067049831033685614 0 -0.03143056589937987 0.0066218316070520309 0 -0.031235962986559247 0.0061393833387996021 0 -0.031361443881226775 0.0064662009159174878 0 -0.031462763966680359 0.0067049831033685614 0 -0.031235962986559247 0.0061393833387996021 0 -0.031361443881226775 0.0064662009159174878 0 -0.031170743462009563 0.0059811882293735628 0 -0.031235962986559247 0.0061393833387996021 0 -0.031170743462009563 0.0059811882293735628 0 -0.031235962986559247 0.0061393833387996021 0 -0.031075429819462961 0.0056069485163579569 0 -0.031035505535652402 0.0053883321560350712 0 -0.031170743462009563 0.0059811882293735628 0 -0.031075429819462961 0.0056069485163579569 0 -0.031235962986559247 0.0061393833387996021 0 -0.031008157096436922 0.0054633415077453701 0 -0.031075429819462961 0.0056069485163579569 0 -0.031235962986559247 0.0061393833387996021 0 -0.031008157096436922 0.0054633415077453701 0 -0.031110681227533115 0.0058260138552197246 0 -0.031008157096436922 0.0054633415077453701 0 -0.030971927460369444 0.0050895518670833273 0 -0.030892436951614134 0.0049837433322976578 0 -0.031008157096436922 0.0054633415077453701 0 -0.031075429819462961 0.0056069485163579569 0 -0.030971927460369444 0.0050895518670833273 0 -0.031035505535652402 0.0053883321560350712 0 -0.031075429819462961 0.0056069485163579569 0 -0.030971927460369444 0.0050895518670833273 0 -0.030971927460369444 0.0050895518670833273 0 -0.030866111855557682 0.004573923152349323 0 -0.030892436951614134 0.0049837433322976578 0 -0.030971927460369444 0.0050895518670833273 0 -0.030866111855557682 0.004573923152349323 0 -0.030937721095031241 0.0044480807479699196 0 -0.031008157096436922 0.0054633415077453701 0 -0.030892436951614134 0.0049837433322976578 0 -0.030838092456725561 0.0049703922005282048 0 -0.030866111855557682 0.004573923152349323 0 -0.030892436951614134 0.0049837433322976578 0 -0.030773308455747318 0.0045402187907198424 0 -0.030892436951614134 0.0049837433322976578 0 -0.030838092456725561 0.0049703922005282048 0 -0.030773308455747318 0.0045402187907198424 0 -0.030838092456725561 0.0049703922005282048 0 -0.030861227590217127 0.0049487665119095055 0 -0.030607587282222359 0.0043104207364411213 0 -0.030838092456725561 0.0049703922005282048 0 -0.030671997112416385 0.00440037893581419 0 -0.030773308455747318 0.0045402187907198424 0 -0.031008157096436922 0.0054633415077453701 0 -0.030838092456725561 0.0049703922005282048 0 -0.031110681227533115 0.0058260138552197246 0 -0.030838092456725561 0.0049703922005282048 0 -0.031110681227533115 0.0058260138552197246 0 -0.031029813884114937 0.005513115869747346 0 -0.031308474513044492 0.006264864261085629 0 -0.031110681227533115 0.0058260138552197246 0 -0.031029813884114937 0.005513115869747346 0 -0.031141112383289649 0.0054793710988689636 0 -0.031308474513044492 0.006264864261085629 0 -0.031029813884114937 0.005513115869747346 0 -0.031141112383289649 0.0054793710988689636 0 -0.031029813884114937 0.005513115869747346 0 -0.030861227590217127 0.0049487665119095055 0 -0.030838092456725561 0.0049703922005282048 0 -0.031029813884114937 0.005513115869747346 0 -0.030861227590217127 0.0049487665119095055 0 -0.031141112383289649 0.0054793710988689636 0 -0.030861227590217127 0.0049487665119095055 0 -0.030875341856697439 0.004614676482137584 0 -0.030519738662917746 0.0039105639191421761 0 -0.030607587282222359 0.0043104207364411213 0 -0.030875341856697439 0.004614676482137584 0 -0.030861227590217127 0.0049487665119095055 0 -0.030607587282222359 0.0043104207364411213 0 -0.030875341856697439 0.004614676482137584 0 -0.030519738662917746 0.0039105639191421761 0 -0.030374176097046006 0.0037725309914702445 0 -0.030607587282222359 0.0043104207364411213 0 -0.030519738662917746 0.0039105639191421761 0 -0.030374176097046006 0.0037725309914702445 0 -0.030121433461978299 0.0034159457955484163 0 -0.030374176097046006 0.0037725309914702445 0 -0.030121433461978299 0.0034159457955484163 0 -0.030202720912706094 0.0035369427847032368 0 -0.030338602504040794 0.0036868936546303431 0 -0.03048649149647361 0.0039450043128194381 0 -0.030394849662463166 0.0036846155873192302 0 -0.030374176097046006 0.0037725309914702445 0 -0.030338602504040794 0.0036868936546303431 0 -0.030202720912706094 0.0035369427847032368 0 -0.030374176097046006 0.0037725309914702445 0 -0.030338602504040794 0.0036868936546303431 0 -0.03048649149647361 0.0039450043128194381 0 -0.030838092456725561 0.0049703922005282048 0 -0.030607587282222359 0.0043104207364411213 0 -0.030671997112416385 0.00440037893581419 0 -0.03048649149647361 0.0039450043128194381 0 -0.030671997112416385 0.00440037893581419 0 -0.030627125390669495 0.0041025549256551346 0 -0.03048649149647361 0.0039450043128194381 0 -0.030607587282222359 0.0043104207364411213 0 -0.030671997112416385 0.00440037893581419 0 -0.030374176097046006 0.0037725309914702445 0 -0.03048649149647361 0.0039450043128194381 0 -0.030607587282222359 0.0043104207364411213 0 -0.030671997112416385 0.00440037893581419 0 -0.030773308455747318 0.0045402187907198424 0 -0.030627125390669495 0.0041025549256551346 0 -0.030773308455747318 0.0045402187907198424 0 -0.030627125390669495 0.0041025549256551346 0 -0.030753232873455331 0.004189472412538196 0 -0.030866111855557682 0.004573923152349323 0 -0.030773308455747318 0.0045402187907198424 0 -0.030753232873455331 0.004189472412538196 0 -0.030627125390669495 0.0041025549256551346 0 -0.030753232873455331 0.004189472412538196 0 -0.03067118029630923 0.0038869552138932669 0 -0.030866111855557682 0.004573923152349323 0 -0.0308227019953797 0.0039641396236541277 0 -0.030937721095031241 0.0044480807479699196 0 -0.030866111855557682 0.004573923152349323 0 -0.030753232873455331 0.004189472412538196 0 -0.0308227019953797 0.0039641396236541277 0 -0.030753232873455331 0.004189472412538196 0 -0.0308227019953797 0.0039641396236541277 0 -0.03067118029630923 0.0038869552138932669 0 -0.0308227019953797 0.0039641396236541277 0 -0.030712920431272314 0.0036874732180430954 0 -0.030802599630301259 0.0035448157708382532 0 -0.0308227019953797 0.0039641396236541277 0 -0.030712920431272314 0.0036874732180430954 0 -0.03067118029630923 0.0038869552138932669 0 -0.03067118029630923 0.0038869552138932669 0 -0.030587539760436443 0.003640253445254359 0 -0.030542417615455595 0.0037819354233354467 0 -0.030712920431272314 0.0036874732180430954 0 -0.03067118029630923 0.0038869552138932669 0 -0.030587539760436443 0.003640253445254359 0 -0.030712920431272314 0.0036874732180430954 0 -0.030677846642823157 0.0034879094838450634 0 -0.030802599630301259 0.0035448157708382532 0 -0.030712920431272314 0.0036874732180430954 0 -0.030587539760436443 0.003640253445254359 0 -0.030677846642823157 0.0034879094838450634 0 -0.030587539760436443 0.003640253445254359 0 -0.030677846642823157 0.0034879094838450634 0 -0.030503324845244383 0.0034585876772775725 0 -0.030627125390669495 0.0041025549256551346 0 -0.030517537365833857 0.0038767254866379892 0 -0.030542417615455595 0.0037819354233354467 0 -0.03048649149647361 0.0039450043128194381 0 -0.030517537365833857 0.0038767254866379892 0 -0.030394849662463166 0.0036846155873192302 0 -0.03048649149647361 0.0039450043128194381 0 -0.030627125390669495 0.0041025549256551346 0 -0.030517537365833857 0.0038767254866379892 0 -0.030627125390669495 0.0041025549256551346 0 -0.03067118029630923 0.0038869552138932669 0 -0.030542417615455595 0.0037819354233354467 0 -0.030542417615455595 0.0037819354233354467 0 -0.030394849662463166 0.0036846155873192302 0 -0.030442638037859474 0.0035795142780888061 0 -0.030587539760436443 0.003640253445254359 0 -0.030542417615455595 0.0037819354233354467 0 -0.030442638037859474 0.0035795142780888061 0 -0.030517537365833857 0.0038767254866379892 0 -0.030542417615455595 0.0037819354233354467 0 -0.030394849662463166 0.0036846155873192302 0 -0.030394849662463166 0.0036846155873192302 0 -0.030293735311138947 0.0035247092000414608 0 -0.030442638037859474 0.0035795142780888061 0 -0.030394849662463166 0.0036846155873192302 0 -0.030293735311138947 0.0035247092000414608 0 -0.030183000851987218 0.0034945355014383349 0 -0.030293735311138947 0.0035247092000414608 0 -0.030442638037859474 0.0035795142780888061 0 -0.030316013675873991 0.0034650802373595853 0 -0.030293735311138947 0.0035247092000414608 0 -0.030316013675873991 0.0034650802373595853 0 -0.030155530091651429 0.0034617887732308699 0 -0.030293735311138947 0.0035247092000414608 0 -0.030155530091651429 0.0034617887732308699 0 -0.030183000851987218 0.0034945355014383349 0 -0.030677846642823157 0.0034879094838450634 0 -0.030503324845244383 0.0034585876772775725 0 -0.030649999901491153 0.0033062694592781903 0 -0.030442638037859474 0.0035795142780888061 0 -0.030316013675873991 0.0034650802373595853 0 -0.030503324845244383 0.0034585876772775725 0 -0.030587539760436443 0.003640253445254359 0 -0.030442638037859474 0.0035795142780888061 0 -0.030503324845244383 0.0034585876772775725 0 -0.030316013675873991 0.0034650802373595853 0 -0.030503324845244383 0.0034585876772775725 0 -0.030401409545799209 0.0033908187355913074 0 -0.030503324845244383 0.0034585876772775725 0 -0.030401409545799209 0.0033908187355913074 0 -0.030649999901491153 0.0033062694592781903 0 -0.030401409545799209 0.0033908187355913074 0 -0.030296031647209943 0.0034353873775761056 0 -0.030609735484305747 0.0032734185695923192 0 -0.030401409545799209 0.0033908187355913074 0 -0.030177173761055828 0.0034614576370429226 0 -0.030296031647209943 0.0034353873775761056 0 -0.030316013675873991 0.0034650802373595853 0 -0.030401409545799209 0.0033908187355913074 0 -0.030177173761055828 0.0034614576370429226 0 -0.030177173761055828 0.0034614576370429226 0 -0.030296031647209943 0.0034353873775761056 0 -0.030059825555437601 0.0035258896608710661 0 -0.030296031647209943 0.0034353873775761056 0 -0.030200163541451282 0.0035413642727424844 0 -0.030059825555437601 0.0035258896608710661 0 -0.030155530091651429 0.0034617887732308699 0 -0.029986159749915524 0.0034891531884918892 0 -0.03003430711186679 0.0034312085433821919 0 -0.030316013675873991 0.0034650802373595853 0 -0.030177173761055828 0.0034614576370429226 0 -0.030155530091651429 0.0034617887732308699 0 -0.030177173761055828 0.0034614576370429226 0 -0.029986159749915524 0.0034891531884918892 0 -0.030059825555437601 0.0035258896608710661 0 -0.030177173761055828 0.0034614576370429226 0 -0.030155530091651429 0.0034617887732308699 0 -0.029986159749915524 0.0034891531884918892 0 -0.029986159749915524 0.0034891531884918892 0 -0.029921886070930846 0.0034420681334856092 0 -0.03003430711186679 0.0034312085433821919 0 -0.029921886070930846 0.0034420681334856092 0 -0.03003430711186679 0.0034312085433821919 0 -0.029827926988506046 0.0033714605973047098 0 -0.03003430711186679 0.0034312085433821919 0 -0.029827926988506046 0.0033714605973047098 0 -0.029977687379927832 0.0033756762603830842 0 -0.029827926988506046 0.0033714605973047098 0 -0.029648425997678314 0.003277658467196555 0 -0.029559631360563849 0.0033504433041334713 0 -0.029648425997678314 0.003277658467196555 0 -0.029796784772026165 0.0032895400234106936 0 -0.029431381729439245 0.0032179697329443287 0 -0.029648425997678314 0.003277658467196555 0 -0.029977687379927832 0.0033756762603830842 0 -0.029796784772026165 0.0032895400234106936 0 -0.029827926988506046 0.0033714605973047098 0 -0.029648425997678314 0.003277658467196555 0 -0.029977687379927832 0.0033756762603830842 0 -0.029796784772026165 0.0032895400234106936 0 -0.030121433461978299 0.0034159457955484163 0 -0.029790270884956779 0.0032684781648676903 0 -0.029977687379927832 0.0033756762603830842 0 -0.029796784772026165 0.0032895400234106936 0 -0.030121433461978299 0.0034159457955484163 0 -0.029977687379927832 0.0033756762603830842 0 -0.030121433461978299 0.0034159457955484163 0 -0.030202720912706094 0.0035369427847032368 0 -0.030338602504040794 0.0036868936546303431 0 -0.030202720912706094 0.0035369427847032368 0 -0.030183000851987218 0.0034945355014383349 0 -0.030338602504040794 0.0036868936546303431 0 -0.030394849662463166 0.0036846155873192302 0 -0.030183000851987218 0.0034945355014383349 0 -0.030155530091651429 0.0034617887732308699 0 -0.03003430711186679 0.0034312085433821919 0 -0.030183000851987218 0.0034945355014383349 0 -0.03003430711186679 0.0034312085433821919 0 -0.029977687379927832 0.0033756762603830842 0 -0.030183000851987218 0.0034945355014383349 0 -0.029977687379927832 0.0033756762603830842 0 -0.030202720912706094 0.0035369427847032368 0 -0.030183000851987218 0.0034945355014383349 0 -0.040892021290374309 -0.0058038218138008676 0 -0.035713003894048675 -0.0043902580559053188 0 -0.031798282457065279 -0.0049161353845967835 0 -0.033184080245863674 0.0070689111888128254 0 -0.032681964674980066 0.0068496102134643884 0 -0.031930189326367604 0.0073990801558114702 0 -0.036654209479034312 0.00058344113645912847 0 -0.032365346307796208 0.0020002316443041624 0 -0.040650830122347527 -0.0047927759578252505 0 -0.037615205612497482 -0.0041897163782983063 0 -0.03696489856547866 -0.0031119471307465866 0 -0.040892021290374309 -0.0058038218138008676 0 -0.037615205612497482 -0.0041897163782983063 0 -0.035713003894048675 -0.0043902580559053188 0 -0.037615205612497482 -0.0041897163782983063 0 -0.03696489856547866 -0.0031119471307465866 0 -0.03603968414324412 -0.0034758447571216823 0 -0.037615205612497482 -0.0041897163782983063 0 -0.03603968414324412 -0.0034758447571216823 0 -0.035713003894048675 -0.0043902580559053188 0 -0.03696489856547866 -0.0031119471307465866 0 -0.03603968414324412 -0.0034758447571216823 0 -0.035378962922462759 -0.0024882457757879994 0 -0.03603968414324412 -0.0034758447571216823 0 -0.034609648921994016 -0.003270646992795472 0 -0.035378962922462759 -0.0024882457757879994 0 -0.03603968414324412 -0.0034758447571216823 0 -0.034609648921994016 -0.003270646992795472 0 -0.035713003894048675 -0.0043902580559053188 0 -0.034609648921994016 -0.003270646992795472 0 -0.035713003894048675 -0.0043902580559053188 0 -0.033760528802608623 -0.0037930682657133954 0 -0.032681964674980066 0.0068496102134643884 0 -0.032250552958996474 0.0067575430861820263 0 -0.031930189326367604 0.0073990801558114702 0 -0.03256161161005923 0.006606632690493679 0 -0.032681964674980066 0.0068496102134643884 0 -0.032250552958996474 0.0067575430861820263 0 -0.03290616493906829 0.0066026139831026004 0 -0.03256161161005923 0.006606632690493679 0 -0.032681964674980066 0.0068496102134643884 0 -0.030429503265144583 0.0044618413635044681 0 -0.030876836486635511 0.0035285956903386585 0 -0.030734447156882817 0.0031352389334789303 0 -0.031664510038689891 0.0066089480426514873 0 -0.032250552958996474 0.0067575430861820263 0 -0.031930189326367604 0.0073990801558114702 0 -0.031011895265644775 0.0062669707613713594 0 -0.032365346307796208 0.0020002316443041624 0 -0.030876836486635511 0.0035285956903386585 0 -0.031045883781057815 0.003036840204129474 0 -0.031146157900415566 0.0030976661567449935 0 -0.030876836486635511 0.0035285956903386585 0 -0.030734447156882817 0.0031352389334789303 0 -0.031045883781057815 0.003036840204129474 0 -0.035713003894048675 -0.0043902580559053188 0 -0.031798282457065279 -0.0049161353845967835 0 -0.033760528802608623 -0.0037930682657133954 0 -0.031798282457065279 -0.0049161353845967835 0 -0.033760528802608623 -0.0037930682657133954 0 -0.032927341971351616 -0.0026235272940204383 0 -0.034609648921994016 -0.003270646992795472 0 -0.033760528802608623 -0.0037930682657133954 0 -0.032927341971351616 -0.0026235272940204383 0 -0.030979468777233114 0.0029649891942115703 0 -0.031208783044584364 0.0029155544663492399 0 -0.031452296030191028 0.0027973861528398339 0 -0.031208783044584364 0.0029155544663492399 0 -0.031348370940222227 0.0028676578792926769 0 -0.031045883781057815 0.003036840204129474 0 -0.031208783044584364 0.0029155544663492399 0 -0.031348370940222227 0.0028676578792926769 0 -0.031452296030191028 0.0027973861528398339 0 -0.031348370940222227 0.0028676578792926769 0 -0.031045883781057815 0.003036840204129474 0 -0.031146157900415566 0.0030976661567449935 0 -0.030979468777233114 0.0029649891942115703 0 -0.031208783044584364 0.0029155544663492399 0 -0.031045883781057815 0.003036840204129474 0 -0.032365346307796208 0.0020002316443041624 0 -0.031613588457045816 0.002283900319541433 0 -0.031146157900415566 0.0030976661567449935 0 -0.031066667521689781 0.0032989181097956566 0 -0.031253720145930926 0.0029722375701576567 0 -0.031348370940222227 0.0028676578792926769 0 -0.031146157900415566 0.0030976661567449935 0 -0.031253720145930926 0.0029722375701576567 0 -0.031013166243276047 0.0032966753170331465 0 -0.031066667521689781 0.0032989181097956566 0 -0.031253720145930926 0.0029722375701576567 0 -0.031013166243276047 0.0032966753170331465 0 -0.031066667521689781 0.0032989181097956566 0 -0.030953575469233278 0.0037902241861724169 0 -0.030876836486635511 0.0035285956903386585 0 -0.031066667521689781 0.0032989181097956566 0 -0.030953575469233278 0.0037902241861724169 0 -0.030876836486635511 0.0035285956903386585 0 -0.031146157900415566 0.0030976661567449935 0 -0.031066667521689781 0.0032989181097956566 0 -0.030429503265144583 0.0044618413635044681 0 -0.030876836486635511 0.0035285956903386585 0 -0.030953575469233278 0.0037902241861724169 0 -0.030913729458467189 0.0048069819040126088 0 -0.030429503265144583 0.0044618413635044681 0 -0.030953575469233278 0.0037902241861724169 0 -0.0308227019953797 0.0039641396236541277 0 -0.030937721095031241 0.0044480807479699196 0 -0.030903085147299027 0.0036759372935312121 0 -0.030913729458467189 0.0048069819040126088 0 -0.030953575469233278 0.0037902241861724169 0 -0.030937721095031241 0.0044480807479699196 0 -0.030953575469233278 0.0037902241861724169 0 -0.030937721095031241 0.0044480807479699196 0 -0.030903085147299027 0.0036759372935312121 0 -0.0308227019953797 0.0039641396236541277 0 -0.030903085147299027 0.0036759372935312121 0 -0.030802599630301259 0.0035448157708382532 0 -0.031013166243276047 0.0032966753170331465 0 -0.030953575469233278 0.0037902241861724169 0 -0.030903085147299027 0.0036759372935312121 0 -0.031013166243276047 0.0032966753170331465 0 -0.030903085147299027 0.0036759372935312121 0 -0.030858287949020031 0.0033298483317528512 0 -0.030677846642823157 0.0034879094838450634 0 -0.030858287949020031 0.0033298483317528512 0 -0.030802599630301259 0.0035448157708382532 0 -0.030903085147299027 0.0036759372935312121 0 -0.030858287949020031 0.0033298483317528512 0 -0.030802599630301259 0.0035448157708382532 0 -0.030677846642823157 0.0034879094838450634 0 -0.030858287949020031 0.0033298483317528512 0 -0.030649999901491153 0.0033062694592781903 0 -0.031013166243276047 0.0032966753170331465 0 -0.030858287949020031 0.0033298483317528512 0 -0.030972796846500721 0.0030808474855515537 0 -0.030858287949020031 0.0033298483317528512 0 -0.030972796846500721 0.0030808474855515537 0 -0.030649999901491153 0.0033062694592781903 0 -0.030401409545799209 0.0033908187355913074 0 -0.030649999901491153 0.0033062694592781903 0 -0.030609735484305747 0.0032734185695923192 0 -0.030972796846500721 0.0030808474855515537 0 -0.030649999901491153 0.0033062694592781903 0 -0.030609735484305747 0.0032734185695923192 0 -0.030514977233355237 0.0034493423701160179 0 -0.03099697384757899 0.0031272282530747275 0 -0.030861435440663554 0.0037161467930548215 0 -0.030296031647209943 0.0034353873775761056 0 -0.030514977233355237 0.0034493423701160179 0 -0.030200163541451282 0.0035413642727424844 0 -0.030296031647209943 0.0034353873775761056 0 -0.030609735484305747 0.0032734185695923192 0 -0.030514977233355237 0.0034493423701160179 0 -0.030972796846500721 0.0030808474855515537 0 -0.030609735484305747 0.0032734185695923192 0 -0.03099697384757899 0.0031272282530747275 0 -0.030609735484305747 0.0032734185695923192 0 -0.030514977233355237 0.0034493423701160179 0 -0.03099697384757899 0.0031272282530747275 0 -0.031974833689551334 0.0027753909943188364 0 -0.032464541894673155 0.0023328678830648341 0 -0.032800581044077161 0.0021665219843434846 0 -0.031988607374574561 0.002667191731227544 0 -0.031899910300542851 0.0030562087708574329 0 -0.03099697384757899 0.0031272282530747275 0 -0.031974833689551334 0.0027753909943188364 0 -0.031352197994306934 0.002876494360111068 0 -0.03099697384757899 0.0031272282530747275 0 -0.031974833689551334 0.0027753909943188364 0 -0.030861435440663554 0.0037161467930548215 0 -0.031974833689551334 0.0027753909943188364 0 -0.031352197994306934 0.002876494360111068 0 -0.031601477189537618 0.0027538805214991887 0 -0.030972796846500721 0.0030808474855515537 0 -0.03099697384757899 0.0031272282530747275 0 -0.031352197994306934 0.002876494360111068 0 -0.030972796846500721 0.0030808474855515537 0 -0.031352197994306934 0.002876494360111068 0 -0.031253720145930926 0.0029722375701576567 0 -0.031013166243276047 0.0032966753170331465 0 -0.030972796846500721 0.0030808474855515537 0 -0.031253720145930926 0.0029722375701576567 0 -0.031352197994306934 0.002876494360111068 0 -0.031253720145930926 0.0029722375701576567 0 -0.031601477189537618 0.0027538805214991887 0 -0.031348370940222227 0.0028676578792926769 0 -0.031253720145930926 0.0029722375701576567 0 -0.031601477189537618 0.0027538805214991887 0 -0.032365346307796208 0.0020002316443041624 0 -0.032603704453596748 0.00097361377214464186 0 -0.032927341971351616 -0.0026235272940204383 0 -0.033138738568898159 0.0022257047403268352 0 -0.03367833997877917 0.00055363384021878505 0 -0.031798282457065279 -0.0049161353845967835 0 -0.032927341971351616 -0.0026235272940204383 0 -0.033138738568898159 0.0022257047403268352 0 -0.030979468777233114 0.0029649891942115703 0 -0.031985266501589907 0.0026054671909600422 0 -0.033138738568898159 0.0022257047403268352 0 -0.031348370940222227 0.0028676578792926769 0 -0.031601477189537618 0.0027538805214991887 0 -0.031664688708785443 0.002716038593948191 0 -0.031664688708785443 0.002716038593948191 0 -0.031985266501589907 0.0026054671909600422 0 -0.031921371758883252 0.002640969554504389 0 -0.031664688708785443 0.002716038593948191 0 -0.031452296030191028 0.0027973861528398339 0 -0.031985266501589907 0.0026054671909600422 0 -0.031601477189537618 0.0027538805214991887 0 -0.031664688708785443 0.002716038593948191 0 -0.031921371758883252 0.002640969554504389 0 -0.031348370940222227 0.0028676578792926769 0 -0.031664688708785443 0.002716038593948191 0 -0.031452296030191028 0.0027973861528398339 0 -0.030979468777233114 0.0029649891942115703 0 -0.031452296030191028 0.0027973861528398339 0 -0.031985266501589907 0.0026054671909600422 0 -0.031985266501589907 0.0026054671909600422 0 -0.032281807295478818 0.0024971829729579461 0 -0.033138738568898159 0.0022257047403268352 0 -0.031974833689551334 0.0027753909943188364 0 -0.032281807295478818 0.0024971829729579461 0 -0.031921371758883252 0.002640969554504389 0 -0.031985266501589907 0.0026054671909600422 0 -0.032281807295478818 0.0024971829729579461 0 -0.031921371758883252 0.002640969554504389 0 -0.031974833689551334 0.0027753909943188364 0 -0.031601477189537618 0.0027538805214991887 0 -0.031921371758883252 0.002640969554504389 0 -0.032464541894673155 0.0023328678830648341 0 -0.034041512386917536 0.0021301436012539756 0 -0.032496813374161819 0.0020414653859888625 0 -0.031974833689551334 0.0027753909943188364 0 -0.032447640769234266 0.0024257076637964467 0 -0.032464541894673155 0.0023328678830648341 0 -0.03827027135685903 -0.0015321298884080352 0 -0.037262768371452974 -0.00071990217582323327 0 -0.031974833689551334 0.0027753909943188364 0 -0.032281807295478818 0.0024971829729579461 0 -0.032447640769234266 0.0024257076637964467 0 -0.032447640769234266 0.0024257076637964467 0 -0.032464541894673155 0.0023328678830648341 0 -0.033138738568898159 0.0022257047403268352 0 -0.032281807295478818 0.0024971829729579461 0 -0.032447640769234266 0.0024257076637964467 0 -0.033138738568898159 0.0022257047403268352 0 -0.032464541894673155 0.0023328678830648341 0 -0.033138738568898159 0.0022257047403268352 0 -0.034041512386917536 0.0021301436012539756 0 -0.033138738568898159 0.0022257047403268352 0 -0.034041512386917536 0.0021301436012539756 0 -0.03367833997877917 0.00055363384021878505 0 -0.042337683188002032 -0.0046101005100148652 0 -0.042423043922572769 -0.0048027874029409716 0 -0.042295976905124724 -0.0045638231028370616 0 -0.042840804572861706 -0.0049834322324174484 0 -0.042423043922572769 -0.0048027874029409716 0 -0.042715543312236245 -0.0048080295868765804 0 -0.042423043922572769 -0.0048027874029409716 0 -0.042715543312236245 -0.0048080295868765804 0 -0.042295976905124724 -0.0045638231028370616 0 -0.042337683188002032 -0.0046101005100148652 0 -0.042423043922572769 -0.0048027874029409716 0 -0.042193719877745617 -0.004716595499565321 0 -0.041865636441430681 -0.0047030711458767712 0 -0.042337683188002032 -0.0046101005100148652 0 -0.042193719877745617 -0.004716595499565321 0 -0.042185601288235307 -0.0047536615099688087 0 -0.042423043922572769 -0.0048027874029409716 0 -0.042193719877745617 -0.004716595499565321 0 -0.040650830122347527 -0.0047927759578252505 0 -0.041514457664612904 -0.0047078223264732889 0 -0.042337683188002032 -0.0046101005100148652 0 -0.040585522736183897 -0.0047439365661860449 0 -0.03827027135685903 -0.0015321298884080352 0 -0.040650830122347527 -0.0047927759578252505 0 -0.034041512386917536 0.0021301436012539756 0 -0.035247047171547058 -0.00060941874365375416 0 -0.041514457664612904 -0.0047078223264732889 0 -0.041865636441430681 -0.0047030711458767712 0 -0.042337683188002032 -0.0046101005100148652 0 -0.034041512386917536 0.0021301436012539756 0 -0.034182301009577809 0.0005097096794521044 0 -0.035247047171547058 -0.00060941874365375416 0 -0.034041512386917536 0.0021301436012539756 0 -0.034182301009577809 0.0005097096794521044 0 -0.03367833997877917 0.00055363384021878505 0 -0.034182301009577809 0.0005097096794521044 0 -0.034059001041903542 -0.00059925621098735622 0 -0.035247047171547058 -0.00060941874365375416 0 -0.034182301009577809 0.0005097096794521044 0 -0.03367833997877917 0.00055363384021878505 0 -0.034059001041903542 -0.00059925621098735622 0 -0.03696489856547866 -0.0031119471307465866 0 -0.035247047171547058 -0.00060941874365375416 0 -0.035378962922462759 -0.0024882457757879994 0 -0.035247047171547058 -0.00060941874365375416 0 -0.034463675872221614 -0.0019079595417317604 0 -0.035378962922462759 -0.0024882457757879994 0 -0.032927341971351616 -0.0026235272940204383 0 -0.03367833997877917 0.00055363384021878505 0 -0.034059001041903542 -0.00059925621098735622 0 -0.032927341971351616 -0.0026235272940204383 0 -0.034059001041903542 -0.00059925621098735622 0 -0.034463675872221614 -0.0019079595417317604 0 -0.034059001041903542 -0.00059925621098735622 0 -0.035247047171547058 -0.00060941874365375416 0 -0.034463675872221614 -0.0019079595417317604 0 -0.034609648921994016 -0.003270646992795472 0 -0.032927341971351616 -0.0026235272940204383 0 -0.034463675872221614 -0.0019079595417317604 0 -0.034609648921994016 -0.003270646992795472 0 -0.034463675872221614 -0.0019079595417317604 0 -0.035378962922462759 -0.0024882457757879994 0 -0.040650830122347527 -0.0047927759578252505 0 -0.03696489856547866 -0.0031119471307465866 0 -0.035247047171547058 -0.00060941874365375416 0 -0.042664124156198538 -0.0043540195848400789 0 -0.042071793531909138 -0.0034388139294009618 0 -0.043029986361122957 -0.0033443037230470483 0 -0.043973143169669937 -0.0042226880785097651 0 -0.042664124156198538 -0.0043540195848400789 0 -0.043029986361122957 -0.0033443037230470483 0 -0.042664124156198538 -0.0043540195848400789 0 -0.042295976905124724 -0.0045638231028370616 0 -0.041719149371648466 -0.0041983741067348106 0 -0.042664124156198538 -0.0043540195848400789 0 -0.042715543312236245 -0.0048080295868765804 0 -0.042295976905124724 -0.0045638231028370616 0 -0.043215874626457082 -0.0050072328837894768 0 -0.042664124156198538 -0.0043540195848400789 0 -0.042715543312236245 -0.0048080295868765804 0 -0.042337683188002032 -0.0046101005100148652 0 -0.042295976905124724 -0.0045638231028370616 0 -0.041719149371648466 -0.0041983741067348106 0 -0.032464541894673155 0.0023328678830648341 0 -0.032496813374161819 0.0020414653859888625 0 -0.032800581044077161 0.0021665219843434846 0 -0.042664124156198538 -0.0043540195848400789 0 -0.041719149371648466 -0.0041983741067348106 0 -0.042071793531909138 -0.0034388139294009618 0 -0.041719149371648466 -0.0041983741067348106 0 -0.042071793531909138 -0.0034388139294009618 0 -0.040841179480952602 -0.0030169143879327305 0 -0.032790426456443179 0.0018197671270127275 0 -0.033076119989099595 0.0016678745558298229 0 -0.03279921853137667 0.0013789363518809669 0 -0.032790426456443179 0.0018197671270127275 0 -0.032800581044077161 0.0021665219843434846 0 -0.033076119989099595 0.0016678745558298229 0 -0.032496813374161819 0.0020414653859888625 0 -0.032790426456443179 0.0018197671270127275 0 -0.03279921853137667 0.0013789363518809669 0 -0.031899910300542851 0.0030562087708574329 0 -0.030486253882008218 0.001704230647166245 0 -0.037262768371452974 -0.00071990217582323327 0 -0.035732410425879324 -0.0025302926910729367 0 -0.032496813374161819 0.0020414653859888625 0 -0.032790426456443179 0.0018197671270127275 0 -0.032800581044077161 0.0021665219843434846 0 -0.030861435440663554 0.0037161467930548215 0 -0.030263586087128553 0.003681478189853407 0 -0.030230554554553948 0.0041533026946968723 0 -0.030514977233355237 0.0034493423701160179 0 -0.030861435440663554 0.0037161467930548215 0 -0.030263586087128553 0.003681478189853407 0 -0.030514977233355237 0.0034493423701160179 0 -0.030263586087128553 0.003681478189853407 0 -0.030200163541451282 0.0035413642727424844 0 -0.030263586087128553 0.003681478189853407 0 -0.030200163541451282 0.0035413642727424844 0 -0.029936674831014191 0.0036501507962229986 0 -0.030263586087128553 0.003681478189853407 0 -0.02980433270950807 0.0038083621959853942 0 -0.029936674831014191 0.0036501507962229986 0 -0.030263586087128553 0.003681478189853407 0 -0.02980433270950807 0.0038083621959853942 0 -0.030230554554553948 0.0041533026946968723 0 -0.030283590324200135 0.0034643058557742449 0 -0.030486253882008218 0.001704230647166245 0 -0.02980433270950807 0.0038083621959853942 0 -0.029208210441061047 0.0035557290195085476 0 -0.029397653860310624 0.0034666887692089937 0 -0.02985878771946145 -0.0023442762669360372 0 -0.029821865919895579 -0.0022798282259412464 0 -0.02992254815150195 -0.0023699395035456047 0 -0.029208210441061047 0.0035557290195085476 0 -0.029397653860310624 0.0034666887692089937 0 -0.028785707723218652 0.0027514829164350892 0 -0.029979354614886062 -0.0023108870953820917 0 -0.02985878771946145 -0.0023442762669360372 0 -0.02992254815150195 -0.0023699395035456047 0 -0.029762679864743142 -0.0023525904288427004 0 -0.030089212567528247 -0.0026148297518482529 0 -0.029979354614886062 -0.0023108870953820917 0 -0.02985878771946145 -0.0023442762669360372 0 -0.029749354953281456 -0.0023481503104030295 0 -0.030486253882008218 0.001704230647166245 0 -0.029205919230389961 -1.3801943866062322e-05 0 -0.02985878771946145 -0.0023442762669360372 0 -0.029749354953281456 -0.0023481503104030295 0 -0.029821865919895579 -0.0022798282259412464 0 -0.030452644517822425 -0.0033726918580059577 0 -0.030589960059910812 -0.0033358021955541294 0 -0.02992254815150195 -0.0023699395035456047 0 -0.029749354953281456 -0.0023481503104030295 0 -0.029821865919895579 -0.0022798282259412464 0 -0.029616926322807255 -0.0021660921604911136 0 -0.037387355968691742 -0.0047078505537374322 0 -0.038229961381860092 -0.0061468472741912222 0 -0.038593774642356089 -0.0042079986900716354 0 -0.03376703955160025 -0.0040952983268400982 0 -0.035732410425879324 -0.0025302926910729367 0 -0.038229961381860092 -0.0061468472741912222 0 -0.039785223886154325 -0.004762157185060267 0 -0.038593774642356089 -0.0042079986900716354 0 -0.030452644517822425 -0.0033726918580059577 0 -0.02992254815150195 -0.0023699395035456047 0 -0.029827999630441363 -0.002384249929132005 0 -0.030486253882008218 0.001704230647166245 0 -0.035732410425879324 -0.0025302926910729367 0 -0.029979354614886062 -0.0023108870953820917 0 -0.02992254815150195 -0.0023699395035456047 0 -0.029827999630441363 -0.002384249929132005 0 -0.042071793531909138 -0.0034388139294009618 0 -0.040841179480952602 -0.0030169143879327305 0 -0.042111528401019865 -0.001651442442252874 0 -0.035732410425879324 -0.0025302926910729367 0 -0.041251303401527717 -0.0031627535089249511 0 -0.044156397178912468 -0.0027708115290228999 0 -0.044562898049484365 -0.0015542571963708424 0 -0.042111528401019865 -0.001651442442252874 0 -0.044156397178912468 -0.0027708115290228999 0 -0.042111528401019865 -0.001651442442252874 0 -0.043029986361122957 -0.0033443037230470483 0 -0.042071793531909138 -0.0034388139294009618 0 -0.042111528401019865 -0.001651442442252874 0 -0.043029986361122957 -0.0033443037230470483 0 -0.029761107901076441 0.0035187973591994438 0 -0.029621786122838997 0.0035043729701718456 0 -0.029789774239335539 0.0034507812374222958 0 -0.029761107901076441 0.0035187973591994438 0 -0.029621786122838997 0.0035043729701718456 0 -0.029755483686532816 0.0034636920549080967 0 -0.029206366337639404 0.0033968010055750197 0 -0.029621786122838997 0.0035043729701718456 0 -0.029133733535875634 0.0041177834990349495 0 -0.029206366337639404 0.0033968010055750197 0 -0.029621786122838997 0.0035043729701718456 0 -0.029559631360563849 0.0033504433041334713 0 -0.029206366337639404 0.0033968010055750197 0 -0.029559631360563849 0.0033504433041334713 0 -0.029054048975611733 0.0031920490855514507 0 -0.029648425997678314 0.003277658467196555 0 -0.029559631360563849 0.0033504433041334713 0 -0.029054048975611733 0.0031920490855514507 0 -0.029827926988506046 0.0033714605973047098 0 -0.029559631360563849 0.0033504433041334713 0 -0.029789774239335539 0.0034507812374222958 0 -0.029921886070930846 0.0034420681334856092 0 -0.029827926988506046 0.0033714605973047098 0 -0.029789774239335539 0.0034507812374222958 0 -0.029621786122838997 0.0035043729701718456 0 -0.029559631360563849 0.0033504433041334713 0 -0.029789774239335539 0.0034507812374222958 0 -0.029761107901076441 0.0035187973591994438 0 -0.029789774239335539 0.0034507812374222958 0 -0.029857338702687156 0.0035263625130244848 0 -0.029921886070930846 0.0034420681334856092 0 -0.029789774239335539 0.0034507812374222958 0 -0.029857338702687156 0.0035263625130244848 0 -0.029986159749915524 0.0034891531884918892 0 -0.029921886070930846 0.0034420681334856092 0 -0.029857338702687156 0.0035263625130244848 0 -0.029986159749915524 0.0034891531884918892 0 -0.029857338702687156 0.0035263625130244848 0 -0.029871887092571294 0.0035846096941672396 0 -0.029986159749915524 0.0034891531884918892 0 -0.030059825555437601 0.0035258896608710661 0 -0.029871887092571294 0.0035846096941672396 0 -0.030200163541451282 0.0035413642727424844 0 -0.030059825555437601 0.0035258896608710661 0 -0.029936674831014191 0.0036501507962229986 0 -0.029871887092571294 0.0035846096941672396 0 -0.029936674831014191 0.0036501507962229986 0 -0.029695143484347198 0.0036437081326878059 0 -0.030059825555437601 0.0035258896608710661 0 -0.029871887092571294 0.0035846096941672396 0 -0.029936674831014191 0.0036501507962229986 0 -0.02980433270950807 0.0038083621959853942 0 -0.029936674831014191 0.0036501507962229986 0 -0.029695143484347198 0.0036437081326878059 0 -0.029871887092571294 0.0035846096941672396 0 -0.029695143484347198 0.0036437081326878059 0 -0.02967852840916247 0.003543156975672103 0 -0.029695143484347198 0.0036437081326878059 0 -0.02967852840916247 0.003543156975672103 0 -0.029377728177686181 0.0033480099015433949 0 -0.029397653860310624 0.0034666887692089937 0 -0.029695143484347198 0.0036437081326878059 0 -0.029377728177686181 0.0033480099015433949 0 -0.02980433270950807 0.0038083621959853942 0 -0.029397653860310624 0.0034666887692089937 0 -0.029695143484347198 0.0036437081326878059 0 -0.029761107901076441 0.0035187973591994438 0 -0.029857338702687156 0.0035263625130244848 0 -0.02967852840916247 0.003543156975672103 0 -0.029857338702687156 0.0035263625130244848 0 -0.029871887092571294 0.0035846096941672396 0 -0.02967852840916247 0.003543156975672103 0 -0.029761107901076441 0.0035187973591994438 0 -0.029624179447799673 0.0034308478668055747 0 -0.029755483686532816 0.0034636920549080967 0 -0.029761107901076441 0.0035187973591994438 0 -0.02967852840916247 0.003543156975672103 0 -0.029624179447799673 0.0034308478668055747 0 -0.029624179447799673 0.0034308478668055747 0 -0.029568201602604042 0.0032249188271813345 0 -0.029755483686532816 0.0034636920549080967 0 -0.029624179447799673 0.0034308478668055747 0 -0.029307725204332963 0.0030934184454424279 0 -0.029434037976407094 0.0033166504942250879 0 -0.02967852840916247 0.003543156975672103 0 -0.029624179447799673 0.0034308478668055747 0 -0.029434037976407094 0.0033166504942250879 0 -0.029624179447799673 0.0034308478668055747 0 -0.029307725204332963 0.0030934184454424279 0 -0.029568201602604042 0.0032249188271813345 0 -0.028785707723218652 0.0027514829164350892 0 -0.029377728177686181 0.0033480099015433949 0 -0.029170593030595219 0.0030568033494376462 0 -0.029397653860310624 0.0034666887692089937 0 -0.028785707723218652 0.0027514829164350892 0 -0.029377728177686181 0.0033480099015433949 0 -0.02967852840916247 0.003543156975672103 0 -0.029377728177686181 0.0033480099015433949 0 -0.029434037976407094 0.0033166504942250879 0 -0.029377728177686181 0.0033480099015433949 0 -0.029434037976407094 0.0033166504942250879 0 -0.029170593030595219 0.0030568033494376462 0 -0.029307725204332963 0.0030934184454424279 0 -0.029434037976407094 0.0033166504942250879 0 -0.029170593030595219 0.0030568033494376462 0 -0.029307725204332963 0.0030934184454424279 0 -0.029170593030595219 0.0030568033494376462 0 -0.028956677347175937 0.0026855448306925835 0 -0.029749354953281456 -0.0023481503104030295 0 -0.029616926322807255 -0.0021660921604911136 0 -0.029338612627238959 -0.0020658713563237409 0 -0.029205919230389961 -1.3801943866062322e-05 0 -0.028795987793492534 -0.00013180721604455216 0 -0.028785707723218652 0.0027514829164350892 0 -0.029170593030595219 0.0030568033494376462 0 -0.028956677347175937 0.0026855448306925835 0 -0.028785707723218652 0.0027514829164350892 0 -0.028956677347175937 0.0026855448306925835 0 -0.028551883559793028 0.0017986336611764174 0 -0.029235769286932327 0.0028462679082146337 0 -0.029829525481362883 0.0033211428586521386 0 -0.028551883559793028 0.0017986336611764174 0 -0.027133142244821218 0.0017271221427578587 0 -0.028426509994275016 0.0017930677162641981 0 -0.026279845846550302 0.0011951840415520938 0 -0.024431767526881105 -1.4611966160428163e-05 0 -0.028551883559793028 0.0017986336611764174 0 -0.029307725204332963 0.0030934184454424279 0 -0.029568201602604042 0.0032249188271813345 0 -0.029235769286932327 0.0028462679082146337 0 -0.029307725204332963 0.0030934184454424279 0 -0.028956677347175937 0.0026855448306925835 0 -0.029235769286932327 0.0028462679082146337 0 -0.028956677347175937 0.0026855448306925835 0 -0.029235769286932327 0.0028462679082146337 0 -0.028551883559793028 0.0017986336611764174 0 -0.029568201602604042 0.0032249188271813345 0 -0.029235769286932327 0.0028462679082146337 0 -0.029829525481362883 0.0033211428586521386 0 -0.026279845846550302 0.0011951840415520938 0 -0.024431767526881105 -1.4611966160428163e-05 0 -0.024069010884309468 0.00086759709498165439 0 -0.029621786122838997 0.0035043729701718456 0 -0.029755483686532816 0.0034636920549080967 0 -0.029133733535875634 0.0041177834990349495 0 -0.029829525481362883 0.0033211428586521386 0 -0.029755483686532816 0.0034636920549080967 0 -0.029133733535875634 0.0041177834990349495 0 -0.029568201602604042 0.0032249188271813345 0 -0.029829525481362883 0.0033211428586521386 0 -0.029755483686532816 0.0034636920549080967 0 -0.027133142244821218 0.0017271221427578587 0 -0.026197390030814671 0.0026534056085813244 0 -0.024431767526881105 -1.4611966160428163e-05 0 -0.023582765080822517 0.00060346312844215518 0 -0.023151280210178905 0.0012684165812067304 0 -0.024431767526881105 -1.4611966160428163e-05 0 -0.023582765080822517 0.00060346312844215518 0 -0.024069010884309468 0.00086759709498165439 0 -0.023582765080822517 0.00060346312844215518 0 -0.023151280210178905 0.0012684165812067304 0 -0.023100193957142939 0.00055083403434043094 0 -0.023614947953568829 0.00085499374585233233 0 -0.023151280210178905 0.0012684165812067304 0 -0.023100193957142939 0.00055083403434043094 0 -0.023614947953568829 0.00085499374585233233 0 -0.023151280210178905 0.0012684165812067304 0 -0.025192637231742022 0.0020372304426764156 0 -0.023151280210178905 0.0012684165812067304 0 -0.025192637231742022 0.0020372304426764156 0 -0.026094828837443018 0.0032706540628592144 0 -0.026197390030814671 0.0026534056085813244 0 -0.026105444605987762 0.0032078954778264695 0 -0.025312019560491464 0.0013460594432822693 0 -0.025197744303659092 0.0016121958889494482 0 -0.025776166497694673 0.0020674192691501206 0 -0.025312019560491464 0.0013460594432822693 0 -0.025443411336547976 0.0011740172814359913 0 -0.025776166497694673 0.0020674192691501206 0 -0.015304262627926092 -0.0037687293346050981 0 -0.014418285185936209 -0.0035840750537925272 0 -0.014922763182819475 -0.0030142276617029541 0 -0.025343596882271353 0.0016531787658034482 0 -0.02514446925425334 0.0010959665603749291 0 -0.025312019560491464 0.0013460594432822693 0 -0.025443411336547976 0.0011740172814359913 0 -0.024963461052941026 0.00093450028741348863 0 -0.025619617486427815 0.0016969769716465432 0 -0.024848541948151965 0.0013265578618259083 0 -0.024963461052941026 0.00093450028741348863 0 -0.025312019560491464 0.0013460594432822693 0 -0.025290878313901626 0.0016735893150707168 0 -0.024963461052941026 0.00093450028741348863 0 -0.025346058652153659 0.0015253612003974242 0 -0.025343596882271353 0.0016531787658034482 0 -0.023614947953568829 0.00085499374585233233 0 -0.024848541948151965 0.0013265578618259083 0 -0.025192637231742022 0.0020372304426764156 0 -0.023614947953568829 0.00085499374585233233 0 -0.024848541948151965 0.0013265578618259083 0 -0.023985498977535168 0.00071046763893962267 0 -0.025619617486427815 0.0016969769716465432 0 -0.024848541948151965 0.0013265578618259083 0 -0.025192637231742022 0.0020372304426764156 0 -0.024848541948151965 0.0013265578618259083 0 -0.023985498977535168 0.00071046763893962267 0 -0.024963461052941026 0.00093450028741348863 0 -0.025619617486427815 0.0016969769716465432 0 -0.025192637231742022 0.0020372304426764156 0 -0.026420271488850944 0.0034062896047122476 0 -0.02522585980078591 0.0021759552944954352 0 -0.025423462222906444 0.0039539530571544024 0 -0.024554047872882574 0.0044983009375563444 0 -0.025197744303659092 0.0016121958889494482 0 -0.025213476835437291 0.0025501402126798093 0 -0.025746357986095335 0.0022064456028442598 0 -0.025343596882271353 0.0016531787658034482 0 -0.023671927974880724 0.0046528470139584489 0 -0.025343596882271353 0.0016531787658034482 0 -0.025720782155948609 0.0044456093755542922 0 -0.023671927974880724 0.0046528470139584489 0 -0.020986310840218899 0.0066910503858056119 0 -0.024404362950388826 0.0069749747294106388 0 -0.024742881292676391 0.006783846828822865 0 -0.024329726986714519 0.0064103052376362716 0 -0.023671927974880724 0.0046528470139584489 0 -0.015945528336061776 0.0028761860540091368 0 -0.023671927974880724 0.0046528470139584489 0 -0.025720782155948609 0.0044456093755542922 0 -0.025192637231742022 0.0020372304426764156 0 -0.026420271488850944 0.0034062896047122476 0 -0.026094828837443018 0.0032706540628592144 0 -0.026420271488850944 0.0034062896047122476 0 -0.026094828837443018 0.0032706540628592144 0 -0.027418057531664153 0.0030754355145037426 0 -0.025720782155948609 0.0044456093755542922 0 -0.027707753532268876 0.0028882015844146607 0 -0.025720782155948609 0.0044456093755542922 0 -0.026469196835325629 0.0045305038712214318 0 -0.024742881292676391 0.006783846828822865 0 -0.025048725537353836 0.0059862492173128239 0 -0.024593878374212518 0.0061673529105287627 0 -0.027401041544008239 0.0030243139231438555 0 -0.027418057531664153 0.0030754355145037426 0 -0.028175522765892119 0.0031726746636909662 0 -0.017585349039052876 0.0071802845931458583 0 -0.017815377973191934 0.0093323774811597468 0 -0.018312879563200334 0.0067239462985416295 0 -0.017364093497891708 0.0050401139901367345 0 -0.017585349039052876 0.0071802845931458583 0 -0.018312879563200334 0.0067239462985416295 0 -0.024742881292676391 0.006783846828822865 0 -0.024329726986714519 0.0064103052376362716 0 -0.024593878374212518 0.0061673529105287627 0 -0.029206366337639404 0.0033968010055750197 0 -0.029133733535875634 0.0041177834990349495 0 -0.02819910416722347 0.0031985102985013177 0 -0.026094828837443018 0.0032706540628592144 0 -0.027418057531664153 0.0030754355145037426 0 -0.02819910416722347 0.0031985102985013177 0 -0.029133733535875634 0.0041177834990349495 0 -0.026094828837443018 0.0032706540628592144 0 -0.02819910416722347 0.0031985102985013177 0 -0.027418057531664153 0.0030754355145037426 0 -0.028257747748698422 0.0031014185037714654 0 -0.028175522765892119 0.0031726746636909662 0 -0.027418057531664153 0.0030754355145037426 0 -0.02819910416722347 0.0031985102985013177 0 -0.028257747748698422 0.0031014185037714654 0 -0.029206366337639404 0.0033968010055750197 0 -0.02819910416722347 0.0031985102985013177 0 -0.029054048975611733 0.0031920490855514507 0 -0.028257747748698422 0.0031014185037714654 0 -0.029054048975611733 0.0031920490855514507 0 -0.028843071851045874 0.0031536801648590169 0 -0.02819910416722347 0.0031985102985013177 0 -0.028257747748698422 0.0031014185037714654 0 -0.029054048975611733 0.0031920490855514507 0 -0.029648425997678314 0.003277658467196555 0 -0.029054048975611733 0.0031920490855514507 0 -0.029431381729439245 0.0032179697329443287 0 -0.029054048975611733 0.0031920490855514507 0 -0.029431381729439245 0.0032179697329443287 0 -0.028843071851045874 0.0031536801648590169 0 -0.029431381729439245 0.0032179697329443287 0 -0.029236258978058118 0.003185102866111868 0 -0.028843071851045874 0.0031536801648590169 0 -0.029796784772026165 0.0032895400234106936 0 -0.029431381729439245 0.0032179697329443287 0 -0.029790270884956779 0.0032684781648676903 0 -0.029431381729439245 0.0032179697329443287 0 -0.029790270884956779 0.0032684781648676903 0 -0.029236258978058118 0.003185102866111868 0 -0.029790270884956779 0.0032684781648676903 0 -0.029887600535250941 0.0032713170573707268 0 -0.029236258978058118 0.003185102866111868 0 -0.030121433461978299 0.0034159457955484163 0 -0.029790270884956779 0.0032684781648676903 0 -0.029887600535250941 0.0032713170573707268 0 -0.029887600535250941 0.0032713170573707268 0 -0.029236258978058118 0.003185102866111868 0 -0.029283348993635581 0.0030414913785403053 0 -0.029236258978058118 0.003185102866111868 0 -0.028175522765892119 0.0031726746636909662 0 -0.029283348993635581 0.0030414913785403053 0 -0.028257747748698422 0.0031014185037714654 0 -0.028843071851045874 0.0031536801648590169 0 -0.028175522765892119 0.0031726746636909662 0 -0.029236258978058118 0.003185102866111868 0 -0.028843071851045874 0.0031536801648590169 0 -0.028175522765892119 0.0031726746636909662 0 -0.025048725537353836 0.0059862492173128239 0 -0.024599757714801648 0.0058157423346479192 0 -0.024807143033764526 0.0053536401344861798 0 -0.025048725537353836 0.0059862492173128239 0 -0.024593878374212518 0.0061673529105287627 0 -0.024599757714801648 0.0058157423346479192 0 -0.017214508043389368 0.0095676317143287247 0 -0.01417133127741408 0.0081521966188945368 0 -0.020986310840218899 0.0066910503858056119 0 -0.017214508043389368 0.0095676317143287247 0 -0.024329726986714519 0.0064103052376362716 0 -0.024593878374212518 0.0061673529105287627 0 -0.024213991638328505 0.0057951923213975312 0 -0.024593878374212518 0.0061673529105287627 0 -0.024599757714801648 0.0058157423346479192 0 -0.024213991638328505 0.0057951923213975312 0 -0.024599757714801648 0.0058157423346479192 0 -0.024213991638328505 0.0057951923213975312 0 -0.024199781424042336 0.0057208989076643268 0 -0.017214508043389368 0.0095676317143287247 0 -0.016941021466231353 0.012107404899194471 0 -0.016941021466231353 0.012107404899194471 0 -0.0095968095967995087 0.015845534372130259 0 -0.028687265193624766 0.011227742853550776 0 -0.029961964943540764 0.010532980980495406 0 -0.029329143709344307 0.0093017433727129797 0 -0.016941021466231353 0.012107404899194471 0 -0.028684919364666519 0.0072224215964282789 0 -0.024599757714801648 0.0058157423346479192 0 -0.024199781424042336 0.0057208989076643268 0 -0.024807143033764526 0.0053536401344861798 0 -0.016941021466231353 0.012107404899194471 0 -0.02018155216178524 0.011562470588868237 0 -0.025048725537353836 0.0059862492173128239 0 -0.024807143033764526 0.0053536401344861798 0 -0.025418061928004321 0.0050180361979794749 0 -0.026469196835325629 0.0045305038712214318 0 -0.028890839552000398 0.0051049508541845985 0 -0.028684919364666519 0.0072224215964282789 0 -0.028890839552000398 0.0051049508541845985 0 -0.029961964943540764 0.010532980980495406 0 -0.029329143709344307 0.0093017433727129797 0 -0.03039290544242762 0.0089360103056368989 0 -0.029961964943540764 0.010532980980495406 0 -0.03039290544242762 0.0089360103056368989 0 -0.030995470355281982 0.0098887614232265591 0 -0.010477474497681183 0.013353833362839886 0 -0.010241117834983639 0.01375738639049077 0 -0.010337647055162838 0.013736739665139565 0 -0.030029354983298458 0.007786610548456644 0 -0.029329143709344307 0.0093017433727129797 0 -0.03039290544242762 0.0089360103056368989 0 -0.010109817537388828 0.013953231902058839 0 -0.01012290408429097 0.013949367333366222 0 -0.010241117834983639 0.01375738639049077 0 -0.020022383642364111 0.010906194794433935 0 -0.02018155216178524 0.011562470588868237 0 -0.01012290408429097 0.013949367333366222 0 -0.010241117834983639 0.01375738639049077 0 -0.010337647055162838 0.013736739665139565 0 -0.030853159067443403 0.0079896579372618157 0 -0.030029354983298458 0.007786610548456644 0 -0.03039290544242762 0.0089360103056368989 0 -0.030853159067443403 0.0079896579372618157 0 -0.03039290544242762 0.0089360103056368989 0 -0.031295914296378999 0.0086396255610002182 0 -0.0316531276704567 0.0051322407131349041 0 -0.031553591450940076 0.004135341671309101 0 -0.030974376212380715 0.0042496676982250667 0 -0.031532128560738455 0.0064088918602229006 0 -0.031549055900538456 0.0065150117309553633 0 -0.031479795917802748 0.0076380944452918605 0 -0.030853159067443403 0.0079896579372618157 0 -0.031295914296378999 0.0086396255610002182 0 -0.030519738662917746 0.0039105639191421761 0 -0.030974376212380715 0.0042496676982250667 0 -0.030875341856697439 0.004614676482137584 0 -0.030519738662917746 0.0039105639191421761 0 -0.030974376212380715 0.0042496676982250667 0 -0.030499655842807845 0.003466294301074771 0 -0.031553591450940076 0.004135341671309101 0 -0.030974376212380715 0.0042496676982250667 0 -0.030499655842807845 0.003466294301074771 0 -0.030519738662917746 0.0039105639191421761 0 -0.030121433461978299 0.0034159457955484163 0 -0.030499655842807845 0.003466294301074771 0 -0.030121433461978299 0.0034159457955484163 0 -0.029887600535250941 0.0032713170573707268 0 -0.030499655842807845 0.003466294301074771 0 -0.03039290544242762 0.0089360103056368989 0 -0.031295914296378999 0.0086396255610002182 0 -0.030995470355281982 0.0098887614232265591 0 -0.031183127375832093 0.0027986839108529509 0 -0.028890839552000398 0.0051049508541845985 0 -0.029887600535250941 0.0032713170573707268 0 -0.030499655842807845 0.003466294301074771 0 -0.029283348993635581 0.0030414913785403053 0 -0.031549055900538456 0.0065150117309553633 0 -0.028890839552000398 0.0051049508541845985 0 -0.031553591450940076 0.004135341671309101 0 -0.030499655842807845 0.003466294301074771 0 -0.031919569123695229 0.0026572995929336086 0 -0.0086580527182150147 0.016392878867407396 0 -0.0089761410997054938 0.017076854737712564 0 -0.0081423258542137351 0.017525139660781876 0 -0.0074302171243589036 0.021977682757699887 0 -0.0072381885639254007 0.024047177239704613 0 -0.0074065405433671834 0.016489581550560739 0 -0.0086580527182150147 0.016392878867407396 0 -0.0081423258542137351 0.017525139660781876 0 -0.0074065405433671834 0.016489581550560739 0 -0.0079624459549708267 0.015537584476661591 0 -0.0086580527182150147 0.016392878867407396 0 -0.0091524984150968564 0.015371943142174735 0 -0.0079624459549708267 0.015537584476661591 0 -0.0086580527182150147 0.016392878867407396 0 -0.0091524984150968564 0.015371943142174735 0 -0.0086580527182150147 0.016392878867407396 0 -0.0095497384141080676 0.016122096169089772 0 -0.010147939121983817 0.014536934358144722 0 -0.0095968095967995087 0.015845534372130259 0 -0.010083541764103112 0.015460330737902751 0 -0.0091524984150968564 0.015371943142174735 0 -0.0095497384141080676 0.016122096169089772 0 -0.010083541764103112 0.015460330737902751 0 -0.0095497384141080676 0.016122096169089772 0 -0.010198455603236978 0.016646068239833622 0 -0.010198455603236978 0.016646068239833622 0 -0.0098349831658908482 0.017011819110437233 0 -0.0094746282093566905 0.016736021259815749 0 -0.0095497384141080676 0.016122096169089772 0 -0.010198455603236978 0.016646068239833622 0 -0.0094746282093566905 0.016736021259815749 0 -0.0098349831658908482 0.017011819110437233 0 -0.0094746282093566905 0.016736021259815749 0 -0.0095539813244480461 0.017264693073253151 0 -0.010198455603236978 0.016646068239833622 0 -0.0098349831658908482 0.017011819110437233 0 -0.009986716281586679 0.017298627387014046 0 -0.0086580527182150147 0.016392878867407396 0 -0.0094746282093566905 0.016736021259815749 0 -0.0089761410997054938 0.017076854737712564 0 -0.0086580527182150147 0.016392878867407396 0 -0.0095497384141080676 0.016122096169089772 0 -0.0094746282093566905 0.016736021259815749 0 -0.0094746282093566905 0.016736021259815749 0 -0.0089761410997054938 0.017076854737712564 0 -0.0095539813244480461 0.017264693073253151 0 -0.0089761410997054938 0.017076854737712564 0 -0.0091494069960786715 0.017697073676870161 0 -0.0095539813244480461 0.017264693073253151 0 -0.0091494069960786715 0.017697073676870161 0 -0.0095539813244480461 0.017264693073253151 0 -0.0097506303788256858 0.017648394056636197 0 -0.010346406088671121 0.017724022899670646 0 -0.010198455603236978 0.016646068239833622 0 -0.009986716281586679 0.017298627387014046 0 -0.0098349831658908482 0.017011819110437233 0 -0.009986716281586679 0.017298627387014046 0 -0.0095539813244480461 0.017264693073253151 0 -0.009986716281586679 0.017298627387014046 0 -0.0095539813244480461 0.017264693073253151 0 -0.0097506303788256858 0.017648394056636197 0 -0.010346406088671121 0.017724022899670646 0 -0.009986716281586679 0.017298627387014046 0 -0.0097506303788256858 0.017648394056636197 0 -0.010610782600028774 0.010294489660242977 0 -0.010633701684938154 0.010464920484281551 0 -0.01184977152270697 0.0097413929375396637 0 -0.010610782600028774 0.010294489660242977 0 -0.01184977152270697 0.0097413929375396637 0 -0.0109082141250617 0.0083826664011687306 0 -0.016941021466231353 0.012107404899194471 0 -0.010299136996574251 0.014161163258509342 0 -0.010346406088671121 0.017724022899670646 0 -0.0097506303788256858 0.017648394056636197 0 -0.0096012029998707171 0.018158277993200911 0 -0.0091494069960786715 0.017697073676870161 0 -0.0096012029998707171 0.018158277993200911 0 -0.0088751344942805208 0.018568362496280001 0 -0.010299136996574251 0.014161163258509342 0 -0.0075703291541215322 0.015614702555044936 0 -0.0091494069960786715 0.017697073676870161 0 -0.0097506303788256858 0.017648394056636197 0 -0.0096012029998707171 0.018158277993200911 0 -0.0091494069960786715 0.017697073676870161 0 -0.0081423258542137351 0.017525139660781876 0 -0.0088751344942805208 0.018568362496280001 0 -0.0072381885639254007 0.024047177239704613 0 -0.0075703291541215322 0.015614702555044936 0 -0.0061730988789940322 0.028057288295198966 0 -0.006353647062880427 0.025539695738800595 0 -0.0042784113362984754 0.024749911729461373 0 -0.0089761410997054938 0.017076854737712564 0 -0.0091494069960786715 0.017697073676870161 0 -0.0081423258542137351 0.017525139660781876 0 -0.0080086333508902364 0.025791210254466835 0 -0.0061730988789940322 0.028057288295198966 0 -0.006353647062880427 0.025539695738800595 0 -0.0080086333508902364 0.025791210254466835 0 -0.006353647062880427 0.025539695738800595 0 -0.0071103589364678432 0.022837209724224768 0 -0.0072660792680185899 0.014720967166363768 0 -0.0075703291541215322 0.015614702555044936 0 -0.006353647062880427 0.025539695738800595 0 -0.0071103589364678432 0.022837209724224768 0 -0.0042784113362984754 0.024749911729461373 0 -0.0063208989096202838 0.0029107452621331036 0 -0.0084440470695964099 0.0048747038234510376 0 -0.0086708406021923107 0.0012217936624746462 0 -0.0063208989096202838 0.0029107452621331036 0 -0.0084440470695964099 0.0048747038234510376 0 -0.0052917987280104717 0.006728303199754899 0 -0.01184977152270697 0.0097413929375396637 0 -0.0109082141250617 0.0083826664011687306 0 -0.012293113812440476 0.007648311005527899 0 -0.01184977152270697 0.0097413929375396637 0 -0.013110422805716917 0.0090016032570154805 0 -0.012293113812440476 0.007648311005527899 0 -0.0075703291541215322 0.015614702555044936 0 -0.0075803216370937329 0.0049512855961848269 0 -0.0063208989096202838 0.0029107452621331036 0 -0.0052917987280104717 0.006728303199754899 0 -0.0042118820746792872 0.0043308693894214666 0 -0.0042118820746792872 0.0043308693894214666 0 -0.0032092376749880188 0.0019589987167000877 0 -0.0048569141410394218 0.0023473534760045482 0 -0.0063208989096202838 0.0029107452621331036 0 -0.0042118820746792872 0.0043308693894214666 0 -0.0048569141410394218 0.0023473534760045482 0 -0.01417133127741408 0.0081521966188945368 0 -0.015945528336061776 0.0028761860540091368 0 -0.0109082141250617 0.0083826664011687306 0 -0.012293113812440476 0.007648311005527899 0 -0.011266356321758925 0.0063596411408038903 0 -0.0075803216370937329 0.0049512855961848269 0 -0.012702113914745239 0.0022869112653744949 0 -0.017364093497891708 0.0050401139901367345 0 -0.018312879563200334 0.0067239462985416295 0 -0.018796460971698441 0.0041303861350358061 0 -0.012293113812440476 0.007648311005527899 0 -0.011266356321758925 0.0063596411408038903 0 -0.011442391511704777 0.0062461031300011429 0 -0.025197744303659092 0.0016121958889494482 0 -0.025746357986095335 0.0022064456028442598 0 -0.025776166497694673 0.0020674192691501206 0 -0.013940896729855856 -0.0045822408901175452 0 -0.013731443623231981 -0.0050212613906619958 0 -0.014351263572761097 -0.0042635726445582785 0 -0.013940896729855856 -0.0045822408901175452 0 -0.013453648641960145 -0.0044717488369971298 0 -0.014351263572761097 -0.0042635726445582785 0 -0.015945528336061776 0.0028761860540091368 0 -0.015357476841224883 0.0015783716371004426 0 -0.015945528336061776 0.0028761860540091368 0 -0.012702113914745239 0.0022869112653744949 0 -0.015545435447968086 0.0039090003958235243 0 -0.015981531235524718 0.0016340774222933893 0 -0.016914818736595529 0.0030582087606757262 0 -0.015357476841224883 0.0015783716371004426 0 -0.012702113914745239 0.0022869112653744949 0 -0.013731443623231981 -0.0050212613906619958 0 -0.01356477294832458 -0.005170876885543115 0 -0.013453648641960145 -0.0044717488369971298 0 -0.013940896729855856 -0.0045822408901175452 0 -0.013731443623231981 -0.0050212613906619958 0 -0.013453648641960145 -0.0044717488369971298 0 -0.012702113914745239 0.0022869112653744949 0 -0.0082192005763200068 -0.0022190757849569502 0 -0.01356477294832458 -0.005170876885543115 0 -0.013453648641960145 -0.0044717488369971298 0 -0.011790589603013005 -0.0041536865971693055 0 -0.0032092376749880188 0.0019589987167000877 0 -0.0048569141410394218 0.0023473534760045482 0 -0.0057262910678958475 0.00018806591316581234 0 -0.0063208989096202838 0.0029107452621331036 0 -0.0048569141410394218 0.0023473534760045482 0 -0.0057262910678958475 0.00018806591316581234 0 -0.013453648641960145 -0.0044717488369971298 0 -0.011790589603013005 -0.0041536865971693055 0 -0.01334427442268704 -0.0036569470664907957 0 -0.011790589603013005 -0.0041536865971693055 0 -0.01334427442268704 -0.0036569470664907957 0 -0.01199269823218602 -0.0023860515934018599 0 -0.020762287790964194 -0.0015460706891846177 0 -0.015357476841224883 0.0015783716371004426 0 -0.015304262627926092 -0.0037687293346050981 0 -0.013731443623231981 -0.0050212613906619958 0 -0.014351263572761097 -0.0042635726445582785 0 -0.013453648641960145 -0.0044717488369971298 0 -0.01334427442268704 -0.0036569470664907957 0 -0.014351263572761097 -0.0042635726445582785 0 -0.01334427442268704 -0.0036569470664907957 0 -0.014418285185936209 -0.0035840750537925272 0 -0.013900316368965663 -0.0027555854750661241 0 -0.01334427442268704 -0.0036569470664907957 0 -0.014418285185936209 -0.0035840750537925272 0 -0.014351263572761097 -0.0042635726445582785 0 -0.015304262627926092 -0.0037687293346050981 0 -0.014418285185936209 -0.0035840750537925272 0 -0.014351263572761097 -0.0042635726445582785 0 -0.0099134954984326212 0.0021314304466843225 0 -0.0084440470695964099 0.0048747038234510376 0 -0.0086708406021923107 0.0012217936624746462 0 -0.0099134954984326212 0.0021314304466843225 0 -0.01090903688931058 -0.0005576678756177173 0 -0.0086708406021923107 0.0012217936624746462 0 -0.0063208989096202838 0.0029107452621331036 0 -0.0057262910678958475 0.00018806591316581234 0 -0.0086708406021923107 0.0012217936624746462 0 -0.0082192005763200068 -0.0022190757849569502 0 -0.0095826498708666639 -0.0020383590922095803 0 -0.0057262910678958475 0.00018806591316581234 0 -0.0086708406021923107 0.0012217936624746462 0 -0.0094577604639402846 -0.0019804929821699317 0 -0.011790589603013005 -0.0041536865971693055 0 -0.0094577604639402846 -0.0019804929821699317 0 -0.01199269823218602 -0.0023860515934018599 0 -0.01090903688931058 -0.0005576678756177173 0 -0.0086708406021923107 0.0012217936624746462 0 -0.0094577604639402846 -0.0019804929821699317 0 -0.01090903688931058 -0.0005576678756177173 0 -0.0094577604639402846 -0.0019804929821699317 0 -0.009929124843597625 -0.0020765004562895927 0 -0.0094577604639402846 -0.0019804929821699317 0 -0.009929124843597625 -0.0020765004562895927 0 -0.010657088082766693 -0.0017610238614126212 0 -0.0094577604639402846 -0.0019804929821699317 0 -0.010657088082766693 -0.0017610238614126212 0 -0.01199269823218602 -0.0023860515934018599 0 -0.010657088082766693 -0.0017610238614126212 0 -0.011789112155308486 -0.0013670539513313423 0 -0.01199269823218602 -0.0023860515934018599 0 -0.010657088082766693 -0.0017610238614126212 0 -0.011789112155308486 -0.0013670539513313423 0 -0.010792283827397477 -0.00069347734922097632 0 -0.011789112155308486 -0.0013670539513313423 0 -0.012449472771806401 -0.00029673623598690843 0 -0.010792283827397477 -0.00069347734922097632 0 -0.0098017677399045051 -0.0011208030667548816 0 -0.010583360363538749 -0.00075180689782918832 0 -0.0093128100546533716 -0.0008112839212789908 0 -0.010792283827397477 -0.00069347734922097632 0 -0.0098001156134540808 -0.00082264807096318242 0 -0.009929124843597625 -0.0020765004562895927 0 -0.010657088082766693 -0.0017610238614126212 0 -0.010792283827397477 -0.00069347734922097632 0 -0.013900316368965663 -0.0027555854750661241 0 -0.013481082265115029 -0.0013613076488803021 0 -0.01486051206955767 -0.002068843248000015 0 -0.013900316368965663 -0.0027555854750661241 0 -0.01486051206955767 -0.002068843248000015 0 -0.014922763182819475 -0.0030142276617029541 0 -0.014418285185936209 -0.0035840750537925272 0 -0.013900316368965663 -0.0027555854750661241 0 -0.014922763182819475 -0.0030142276617029541 0 -0.013900316368965663 -0.0027555854750661241 0 -0.01199269823218602 -0.0023860515934018599 0 -0.013481082265115029 -0.0013613076488803021 0 -0.01334427442268704 -0.0036569470664907957 0 -0.013900316368965663 -0.0027555854750661241 0 -0.01199269823218602 -0.0023860515934018599 0 -0.011789112155308486 -0.0013670539513313423 0 -0.01199269823218602 -0.0023860515934018599 0 -0.013481082265115029 -0.0013613076488803021 0 -0.011789112155308486 -0.0013670539513313423 0 -0.013481082265115029 -0.0013613076488803021 0 -0.012449472771806401 -0.00029673623598690843 0 -0.013481082265115029 -0.0013613076488803021 0 -0.01486051206955767 -0.002068843248000015 0 -0.01478358470752341 -0.00073624550447332754 0 -0.013481082265115029 -0.0013613076488803021 0 -0.013851600572155343 0.00020969216681081617 0 -0.01478358470752341 -0.00073624550447332754 0 -0.013851600572155343 0.00020969216681081617 0 -0.01478358470752341 -0.00073624550447332754 0 -0.015534384740167906 0.00049017536546556344 0 -0.013481082265115029 -0.0013613076488803021 0 -0.013851600572155343 0.00020969216681081617 0 -0.012449472771806401 -0.00029673623598690843 0 -0.013851600572155343 0.00020969216681081617 0 -0.012449472771806401 -0.00029673623598690843 0 -0.013128136899681576 0.00089618323593255598 0 -0.013851600572155343 0.00020969216681081617 0 -0.014670762020811022 0.001303801071179211 0 -0.015534384740167906 0.00049017536546556344 0 -0.013851600572155343 0.00020969216681081617 0 -0.013128136899681576 0.00089618323593255598 0 -0.014670762020811022 0.001303801071179211 0 -0.010792283827397477 -0.00069347734922097632 0 -0.0098001156134540808 -0.00082264807096318242 0 -0.010361577552046339 -0.00036507768385230432 0 -0.010792283827397477 -0.00069347734922097632 0 -0.011759212528686135 0.00041209574344814974 0 -0.010361577552046339 -0.00036507768385230432 0 -0.012449472771806401 -0.00029673623598690843 0 -0.010792283827397477 -0.00069347734922097632 0 -0.011759212528686135 0.00041209574344814974 0 -0.012449472771806401 -0.00029673623598690843 0 -0.013128136899681576 0.00089618323593255598 0 -0.011759212528686135 0.00041209574344814974 0 -0.013128136899681576 0.00089618323593255598 0 -0.011759212528686135 0.00041209574344814974 0 -0.012557890664363946 0.0015313455615875394 0 -0.011759212528686135 0.00041209574344814974 0 -0.01145047331690487 0.0010138653554824678 0 -0.010361577552046339 -0.00036507768385230432 0 -0.01145047331690487 0.0010138653554824678 0 -0.012114362183507914 0.0019042379181838901 0 -0.012557890664363946 0.0015313455615875394 0 -0.01145047331690487 0.0010138653554824678 0 -0.012114362183507914 0.0019042379181838901 0 -0.011383361632022615 0.0021185999876681622 0 -0.012114362183507914 0.0019042379181838901 0 -0.012024423402868606 0.0023593476673267268 0 -0.011383361632022615 0.0021185999876681622 0 -0.012114362183507914 0.0019042379181838901 0 -0.012024423402868606 0.0023593476673267268 0 -0.0122734078669853 0.0022190274493105533 0 -0.012114362183507914 0.0019042379181838901 0 -0.012644348123719684 0.0021077971454335864 0 -0.012557890664363946 0.0015313455615875394 0 -0.012114362183507914 0.0019042379181838901 0 -0.012644348123719684 0.0021077971454335864 0 -0.0122734078669853 0.0022190274493105533 0 -0.011759212528686135 0.00041209574344814974 0 -0.01145047331690487 0.0010138653554824678 0 -0.012557890664363946 0.0015313455615875394 0 -0.012557890664363946 0.0015313455615875394 0 -0.013660632304027033 0.0016519511877886544 0 -0.013244176505217198 0.002012491164253363 0 -0.013128136899681576 0.00089618323593255598 0 -0.012557890664363946 0.0015313455615875394 0 -0.013660632304027033 0.0016519511877886544 0 -0.013128136899681576 0.00089618323593255598 0 -0.014670762020811022 0.001303801071179211 0 -0.013660632304027033 0.0016519511877886544 0 -0.014670762020811022 0.001303801071179211 0 -0.014530753831823855 0.0018274969812317921 0 -0.015546697543208258 0.0018800196304096064 0 -0.014670762020811022 0.001303801071179211 0 -0.013660632304027033 0.0016519511877886544 0 -0.014530753831823855 0.0018274969812317921 0 -0.013660632304027033 0.0016519511877886544 0 -0.014530753831823855 0.0018274969812317921 0 -0.01399271012140995 0.0020463683421841974 0 -0.014530753831823855 0.0018274969812317921 0 -0.01399271012140995 0.0020463683421841974 0 -0.014854051632900026 0.002125552088450246 0 -0.01399271012140995 0.0020463683421841974 0 -0.01418987427086818 0.0023075202125860208 0 -0.013586684893309128 0.0021962960549279302 0 -0.01399271012140995 0.0020463683421841974 0 -0.01418987427086818 0.0023075202125860208 0 -0.014854051632900026 0.002125552088450246 0 -0.012644348123719684 0.0021077971454335864 0 -0.012557890664363946 0.0015313455615875394 0 -0.013244176505217198 0.002012491164253363 0 -0.013660632304027033 0.0016519511877886544 0 -0.01399271012140995 0.0020463683421841974 0 -0.013244176505217198 0.002012491164253363 0 -0.01399271012140995 0.0020463683421841974 0 -0.013244176505217198 0.002012491164253363 0 -0.013586684893309128 0.0021962960549279302 0 -0.012644348123719684 0.0021077971454335864 0 -0.013244176505217198 0.002012491164253363 0 -0.012979262260232641 0.0022302784126240582 0 -0.012979262260232641 0.0022302784126240582 0 -0.013586684893309128 0.0021962960549279302 0 -0.013470637946811507 0.0023087169353424846 0 -0.013244176505217198 0.002012491164253363 0 -0.012979262260232641 0.0022302784126240582 0 -0.013586684893309128 0.0021962960549279302 0 -0.012979262260232641 0.0022302784126240582 0 -0.013470637946811507 0.0023087169353424846 0 -0.013154167187014728 0.0023258842756864748 0 -0.012979262260232641 0.0022302784126240582 0 -0.012760946876992092 0.0022333597554230816 0 -0.013154167187014728 0.0023258842756864748 0 -0.012979262260232641 0.0022302784126240582 0 -0.012760946876992092 0.0022333597554230816 0 -0.012425156982575312 0.0021997359214513969 0 -0.01418987427086818 0.0023075202125860208 0 -0.013586684893309128 0.0021962960549279302 0 -0.013470637946811507 0.0023087169353424846 0 -0.013470637946811507 0.0023087169353424846 0 -0.013862082492280433 0.0024313343543884728 0 -0.013154167187014728 0.0023258842756864748 0 -0.01418987427086818 0.0023075202125860208 0 -0.013470637946811507 0.0023087169353424846 0 -0.013862082492280433 0.0024313343543884728 0 -0.01418987427086818 0.0023075202125860208 0 -0.013862082492280433 0.0024313343543884728 0 -0.014570143227200091 0.0025078407816839588 0 -0.013862082492280433 0.0024313343543884728 0 -0.014197217803660313 0.0025854381323079413 0 -0.014570143227200091 0.0025078407816839588 0 -0.013560583797025211 0.0024493729106143452 0 -0.013717962065373821 0.0025744424636252165 0 -0.014197217803660313 0.0025854381323079413 0 -0.013862082492280433 0.0024313343543884728 0 -0.013560583797025211 0.0024493729106143452 0 -0.014197217803660313 0.0025854381323079413 0 -0.013560583797025211 0.0024493729106143452 0 -0.013018848709689338 0.0023015024584873665 0 -0.013154167187014728 0.0023258842756864748 0 -0.013862082492280433 0.0024313343543884728 0 -0.013560583797025211 0.0024493729106143452 0 -0.013154167187014728 0.0023258842756864748 0 -0.013018848709689338 0.0023015024584873665 0 -0.013393134436489129 0.0024394993348810386 0 -0.013088141893856667 0.0023313696305467171 0 -0.013560583797025211 0.0024493729106143452 0 -0.013018848709689338 0.0023015024584873665 0 -0.013393134436489129 0.0024394993348810386 0 -0.013393134436489129 0.0024394993348810386 0 -0.013717962065373821 0.0025744424636252165 0 -0.013088141893856667 0.0023313696305467171 0 -0.013560583797025211 0.0024493729106143452 0 -0.013393134436489129 0.0024394993348810386 0 -0.013717962065373821 0.0025744424636252165 0 -0.012760946876992092 0.0022333597554230816 0 -0.012549685201238185 0.002126443701625509 0 -0.012425156982575312 0.0021997359214513969 0 -0.012760946876992092 0.0022333597554230816 0 -0.013154167187014728 0.0023258842756864748 0 -0.012549685201238185 0.002126443701625509 0 -0.013018848709689338 0.0023015024584873665 0 -0.013154167187014728 0.0023258842756864748 0 -0.012549685201238185 0.002126443701625509 0 -0.013018848709689338 0.0023015024584873665 0 -0.012549685201238185 0.002126443701625509 0 -0.012494614156865392 0.0019951901014203031 0 -0.012549685201238185 0.002126443701625509 0 -0.012425156982575312 0.0021997359214513969 0 -0.012161059679268817 0.0018741608175056941 0 -0.012425156982575312 0.0021997359214513969 0 -0.012161059679268817 0.0018741608175056941 0 -0.012192949819850868 0.0021909774448039734 0 -0.012161059679268817 0.0018741608175056941 0 -0.012209320561232504 0.0017981056681587878 0 -0.012192949819850868 0.0021909774448039734 0 -0.012209320561232504 0.0017981056681587878 0 -0.012408406400984517 0.001753569182187012 0 -0.012158457165143877 0.0022697376650716262 0 -0.012209320561232504 0.0017981056681587878 0 -0.012192949819850868 0.0021909774448039734 0 -0.012158457165143877 0.0022697376650716262 0 -0.012192949819850868 0.0021909774448039734 0 -0.012024423402868606 0.0023593476673267268 0 -0.0122734078669853 0.0022190274493105533 0 -0.012192949819850868 0.0021909774448039734 0 -0.012024423402868606 0.0023593476673267268 0 -0.012158457165143877 0.0022697376650716262 0 -0.012644348123719684 0.0021077971454335864 0 -0.012979262260232641 0.0022302784126240582 0 -0.012425156982575312 0.0021997359214513969 0 -0.012644348123719684 0.0021077971454335864 0 -0.012425156982575312 0.0021997359214513969 0 -0.0122734078669853 0.0022190274493105533 0 -0.012425156982575312 0.0021997359214513969 0 -0.012192949819850868 0.0021909774448039734 0 -0.0122734078669853 0.0022190274493105533 0 -0.016621667614278485 -0.011672287707132524 0 -0.016628469545091264 -0.011370689225448012 0 -0.016223511445845214 -0.011399737609112044 0 -0.026045438246894523 -0.021433611755955359 0 -0.024492446782344201 -0.021555697004119197 0 -0.026267185505821539 -0.024959916683794891 0 -0.024745966602387794 -0.012047625961599223 0 -0.024596047770062891 -0.014255345568653335 0 -0.023220916580486223 -0.011362063216140864 0 -0.022529243078887786 -0.017503642441720608 0 -0.029320087893364162 -0.013368851605987667 0 -0.019788347961992692 -0.0058433988927978926 0 -0.022529243078887786 -0.017503642441720608 0 -0.026267185505821539 -0.024959916683794891 0 -0.030324828515313207 -0.022446647791724995 0 -0.028472166647734855 -0.022251882767069794 0 -0.027215437795475184 -0.022420996758802901 0 -0.026045438246894523 -0.021433611755955359 0 -0.026267185505821539 -0.024959916683794891 0 -0.029320087893364162 -0.013368851605987667 0 -0.035412149025230599 -0.018030947120440302 0 -0.027215437795475184 -0.022420996758802901 0 -0.026267185505821539 -0.024959916683794891 0 -0.028472166647734855 -0.022251882767069794 0 -0.027215437795475184 -0.022420996758802901 0 -0.026045438246894523 -0.021433611755955359 0 -0.027501116830192643 -0.021002928314943693 0 -0.027215437795475184 -0.022420996758802901 0 -0.027501116830192643 -0.021002928314943693 0 -0.028472166647734855 -0.022251882767069794 0 -0.027501116830192643 -0.021002928314943693 0 -0.028472166647734855 -0.022251882767069794 0 -0.02892244958134748 -0.020784631588577188 0 -0.027501116830192643 -0.021002928314943693 0 -0.02892244958134748 -0.020784631588577188 0 -0.027637409909448241 -0.019539728868302124 0 -0.027501116830192643 -0.021002928314943693 0 -0.026103269466200944 -0.019757077695862244 0 -0.027637409909448241 -0.019539728868302124 0 -0.026045438246894523 -0.021433611755955359 0 -0.027501116830192643 -0.021002928314943693 0 -0.026103269466200944 -0.019757077695862244 0 -0.022529243078887786 -0.017503642441720608 0 -0.019275913680583394 -0.01378958950248943 0 -0.026045438246894523 -0.021433611755955359 0 -0.026103269466200944 -0.019757077695862244 0 -0.024492446782344201 -0.021555697004119197 0 -0.016628469545091264 -0.011370689225448012 0 -0.016126176323803667 -0.011137742599765016 0 -0.016223511445845214 -0.011399737609112044 0 -0.016628469545091264 -0.011370689225448012 0 -0.016126176323803667 -0.011137742599765016 0 -0.016259214419847744 -0.010859250904009913 0 -0.016126176323803667 -0.011137742599765016 0 -0.016223511445845214 -0.011399737609112044 0 -0.015852722596712464 -0.01109301211052143 0 -0.013717962065373821 0.0025744424636252165 0 -0.014366791576593211 0.0028686002872846616 0 -0.014582197579861357 0.0027475060533194164 0 -0.016126176323803667 -0.011137742599765016 0 -0.015852722596712464 -0.01109301211052143 0 -0.01589751045145317 -0.010899988027214416 0 -0.015834393166566658 0.0029712084045878258 0 -0.014366791576593211 0.0028686002872846616 0 -0.014582197579861357 0.0027475060533194164 0 -0.015834393166566658 0.0029712084045878258 0 -0.014582197579861357 0.0027475060533194164 0 -0.014875056235830761 0.0026785691184520919 0 -0.015620977830631735 -0.003967747359142266 0 -0.014965974125104448 -0.0038870844785972121 0 -0.014582197579861357 0.0027475060533194164 0 -0.014197217803660313 0.0025854381323079413 0 -0.014875056235830761 0.0026785691184520919 0 -0.013717962065373821 0.0025744424636252165 0 -0.014582197579861357 0.0027475060533194164 0 -0.014197217803660313 0.0025854381323079413 0 -0.014197217803660313 0.0025854381323079413 0 -0.014570143227200091 0.0025078407816839588 0 -0.014875056235830761 0.0026785691184520919 0 -0.015834393166566658 0.0029712084045878258 0 -0.014875056235830761 0.0026785691184520919 0 -0.015320539079267372 0.0025725449426865603 0 -0.014570143227200091 0.0025078407816839588 0 -0.014875056235830761 0.0026785691184520919 0 -0.015320539079267372 0.0025725449426865603 0 -0.015320539079267372 0.0025725449426865603 0 -0.015802970914676296 0.0024447629352223011 0 -0.015096295759540823 0.0023784120041763159 0 -0.01418987427086818 0.0023075202125860208 0 -0.014570143227200091 0.0025078407816839588 0 -0.015096295759540823 0.0023784120041763159 0 -0.014570143227200091 0.0025078407816839588 0 -0.015320539079267372 0.0025725449426865603 0 -0.015096295759540823 0.0023784120041763159 0 -0.019788347961992692 -0.0058433988927978926 0 -0.015620977830631735 -0.003967747359142266 0 -0.017031870269244662 0.0026511452360992813 0 -0.015834393166566658 0.0029712084045878258 0 -0.016106286022877475 0.0026262330176490562 0 -0.015834393166566658 0.0029712084045878258 0 -0.015320539079267372 0.0025725449426865603 0 -0.016106286022877475 0.0026262330176490562 0 -0.015320539079267372 0.0025725449426865603 0 -0.016106286022877475 0.0026262330176490562 0 -0.015802970914676296 0.0024447629352223011 0 -0.016106286022877475 0.0026262330176490562 0 -0.016225798062939438 0.0024958726364308834 0 -0.015802970914676296 0.0024447629352223011 0 -0.016106286022877475 0.0026262330176490562 0 -0.016605557634805996 0.0025014951419205056 0 -0.016225798062939438 0.0024958726364308834 0 -0.017031870269244662 0.0026511452360992813 0 -0.016106286022877475 0.0026262330176490562 0 -0.016605557634805996 0.0025014951419205056 0 -0.016773148009372262 0.0022918663044539417 0 -0.016886628035604041 0.00206656214156682 0 -0.017344019319755179 0.0023925648606375398 0 -0.016605557634805996 0.0025014951419205056 0 -0.016762086590297983 0.0023879321392152042 0 -0.017219758461012001 0.0023789652190417312 0 -0.016605557634805996 0.0025014951419205056 0 -0.016762086590297983 0.0023879321392152042 0 -0.0163604984865913 0.0023992049468100438 0 -0.016762086590297983 0.0023879321392152042 0 -0.0163604984865913 0.0023992049468100438 0 -0.016773148009372262 0.0022918663044539417 0 -0.016605557634805996 0.0025014951419205056 0 -0.016225798062939438 0.0024958726364308834 0 -0.0163604984865913 0.0023992049468100438 0 -0.015802970914676296 0.0024447629352223011 0 -0.0163604984865913 0.0023992049468100438 0 -0.015939624809344938 0.0022535505012311074 0 -0.016225798062939438 0.0024958726364308834 0 -0.015802970914676296 0.0024447629352223011 0 -0.0163604984865913 0.0023992049468100438 0 -0.0163604984865913 0.0023992049468100438 0 -0.016773148009372262 0.0022918663044539417 0 -0.015939624809344938 0.0022535505012311074 0 -0.016773148009372262 0.0022918663044539417 0 -0.015939624809344938 0.0022535505012311074 0 -0.016886628035604041 0.00206656214156682 0 -0.016762086590297983 0.0023879321392152042 0 -0.016773148009372262 0.0022918663044539417 0 -0.017219758461012001 0.0023789652190417312 0 -0.01418987427086818 0.0023075202125860208 0 -0.015096295759540823 0.0023784120041763159 0 -0.014854051632900026 0.002125552088450246 0 -0.015096295759540823 0.0023784120041763159 0 -0.015939624809344938 0.0022535505012311074 0 -0.014854051632900026 0.002125552088450246 0 -0.015802970914676296 0.0024447629352223011 0 -0.015096295759540823 0.0023784120041763159 0 -0.015939624809344938 0.0022535505012311074 0 -0.015939624809344938 0.0022535505012311074 0 -0.014854051632900026 0.002125552088450246 0 -0.015546697543208258 0.0018800196304096064 0 -0.014670762020811022 0.001303801071179211 0 -0.015546697543208258 0.0018800196304096064 0 -0.016422022990332921 0.0013864785480172869 0 -0.014530753831823855 0.0018274969812317921 0 -0.014854051632900026 0.002125552088450246 0 -0.015546697543208258 0.0018800196304096064 0 -0.015939624809344938 0.0022535505012311074 0 -0.015546697543208258 0.0018800196304096064 0 -0.016886628035604041 0.00206656214156682 0 -0.015546697543208258 0.0018800196304096064 0 -0.016886628035604041 0.00206656214156682 0 -0.016422022990332921 0.0013864785480172869 0 -0.016886628035604041 0.00206656214156682 0 -0.017344019319755179 0.0023925648606375398 0 -0.019297126300996951 0.0018154665409024909 0 -0.016886628035604041 0.00206656214156682 0 -0.019297126300996951 0.0018154665409024909 0 -0.016422022990332921 0.0013864785480172869 0 -0.020770757107922366 0.0030733620929162485 0 -0.019720452447941277 0.0048021331921366747 0 -0.019297126300996951 0.0018154665409024909 0 -0.019948495026246651 0.00088274280185617873 0 -0.018862724584265283 0.0028714423697591574 0 -0.020770757107922366 0.0030733620929162485 0 -0.019720452447941277 0.0048021331921366747 0 -0.022134609851370848 0.0037044895038221238 0 -0.023354264427514978 -0.0059638502252226588 0 -0.024831258864853344 -0.0051305743992947142 0 -0.02738772001729111 -0.0074930240710111354 0 -0.016773148009372262 0.0022918663044539417 0 -0.017219758461012001 0.0023789652190417312 0 -0.017344019319755179 0.0023925648606375398 0 -0.019609885102230436 0.0010282950363370606 0 -0.019948495026246651 0.00088274280185617873 0 -0.024745966602387794 -0.012047625961599223 0 -0.023640659521500507 -0.011068157668145399 0 -0.023220916580486223 -0.011362063216140864 0 -0.023483533582164193 -0.003434844731675359 0 -0.023354264427514978 -0.0059638502252226588 0 -0.024831258864853344 -0.0051305743992947142 0 -0.023483533582164193 -0.003434844731675359 0 -0.024831258864853344 -0.0051305743992947142 0 -0.025186917559082624 -0.0048820830110011381 0 -0.019788347961992692 -0.0058433988927978926 0 -0.026770462255988149 -0.0098896314267414819 0 -0.026820889368661002 -0.0095514522706424566 0 -0.026770462255988149 -0.0098896314267414819 0 -0.017031870269244662 0.0026511452360992813 0 -0.016605557634805996 0.0025014951419205056 0 -0.017219758461012001 0.0023789652190417312 0 -0.017031870269244662 0.0026511452360992813 0 -0.017219758461012001 0.0023789652190417312 0 -0.017261124434170199 0.0023625186782411985 0 -0.019788347961992692 -0.0058433988927978926 0 -0.019948495026246651 0.00088274280185617873 0 -0.029320087893364162 -0.013368851605987667 0 -0.029988277465694525 -0.0035642815862158583 0 -0.025192483496211403 -0.0048823436601105556 0 -0.02582425172437448 -0.0044610233787543878 0 -0.02738772001729111 -0.0074930240710111354 0 -0.04051880760472331 -0.011046820605356606 0 -0.039969237432217967 -0.0096028731232376732 0 -0.039181152780686318 -0.010762518517548203 0 -0.019948495026246651 0.00088274280185617873 0 -0.029988277465694525 -0.0035642815862158583 0 -0.026770462255988149 -0.0098896314267414819 0 -0.029320087893364162 -0.013368851605987667 0 -0.024831258864853344 -0.0051305743992947142 0 -0.025192483496211403 -0.0048823436601105556 0 -0.02738772001729111 -0.0074930240710111354 0 -0.020770757107922366 0.0030733620929162485 0 -0.022134609851370848 0.0037044895038221238 0 -0.021775367012545368 0.001953672159274107 0 -0.022134609851370848 0.0037044895038221238 0 -0.021775367012545368 0.001953672159274107 0 -0.023143831833980347 0.0013716872730367186 0 -0.021775367012545368 0.001953672159274107 0 -0.021392228599151384 0.00079982391002136443 0 -0.023143831833980347 0.0013716872730367186 0 -0.020770757107922366 0.0030733620929162485 0 -0.021775367012545368 0.001953672159274107 0 -0.019297126300996951 0.0018154665409024909 0 -0.021775367012545368 0.001953672159274107 0 -0.019297126300996951 0.0018154665409024909 0 -0.021392228599151384 0.00079982391002136443 0 -0.021392228599151384 0.00079982391002136443 0 -0.020566195377692643 -0.00021148720769872636 0 -0.022452461562105879 0.00045979657468294208 0 -0.019297126300996951 0.0018154665409024909 0 -0.021392228599151384 0.00079982391002136443 0 -0.020566195377692643 -0.00021148720769872636 0 -0.021392228599151384 0.00079982391002136443 0 -0.022452461562105879 0.00045979657468294208 0 -0.023143831833980347 0.0013716872730367186 0 -0.016422022990332921 0.0013864785480172869 0 -0.017748084762479008 0.0006216602627611206 0 -0.015534384740167906 0.00049017536546556344 0 -0.014670762020811022 0.001303801071179211 0 -0.016422022990332921 0.0013864785480172869 0 -0.015534384740167906 0.00049017536546556344 0 -0.019297126300996951 0.0018154665409024909 0 -0.016422022990332921 0.0013864785480172869 0 -0.017748084762479008 0.0006216602627611206 0 -0.019297126300996951 0.0018154665409024909 0 -0.020566195377692643 -0.00021148720769872636 0 -0.017748084762479008 0.0006216602627611206 0 -0.020566195377692643 -0.00021148720769872636 0 -0.017748084762479008 0.0006216602627611206 0 -0.016411658044041051 -0.0010629996576511857 0 -0.01478358470752341 -0.00073624550447332754 0 -0.015534384740167906 0.00049017536546556344 0 -0.016411658044041051 -0.0010629996576511857 0 -0.017748084762479008 0.0006216602627611206 0 -0.015534384740167906 0.00049017536546556344 0 -0.016411658044041051 -0.0010629996576511857 0 -0.016411658044041051 -0.0010629996576511857 0 -0.017353130029911581 -0.0026441314619187238 0 -0.015781693914577948 -0.0025989543361321634 0 -0.01486051206955767 -0.002068843248000015 0 -0.016411658044041051 -0.0010629996576511857 0 -0.015781693914577948 -0.0025989543361321634 0 -0.01486051206955767 -0.002068843248000015 0 -0.01478358470752341 -0.00073624550447332754 0 -0.016411658044041051 -0.0010629996576511857 0 -0.020780344822350284 -0.00016489367370805857 0 -0.020607183806954213 -0.00099487862987645767 0 -0.020566195377692643 -0.00021148720769872636 0 -0.023866110423424604 0.00016219925074017347 0 -0.022571165036071435 0.00023297198214191817 0 -0.020566195377692643 -0.00021148720769872636 0 -0.016411658044041051 -0.0010629996576511857 0 -0.017353130029911581 -0.0026441314619187238 0 -0.023985498977535168 0.00071046763893962267 0 -0.023866110423424604 0.00016219925074017347 0 -0.022571165036071435 0.00023297198214191817 0 -0.023985498977535168 0.00071046763893962267 0 -0.023866110423424604 0.00016219925074017347 0 -0.024963461052941026 0.00093450028741348863 0 -0.020762287790964194 -0.0015460706891846177 0 -0.020607183806954213 -0.00099487862987645767 0 -0.025443411336547976 0.0011740172814359913 0 -0.023866110423424604 0.00016219925074017347 0 -0.024963461052941026 0.00093450028741348863 0 -0.015304262627926092 -0.0037687293346050981 0 -0.017353130029911581 -0.0026441314619187238 0 -0.015781693914577948 -0.0025989543361321634 0 -0.015304262627926092 -0.0037687293346050981 0 -0.014922763182819475 -0.0030142276617029541 0 -0.015781693914577948 -0.0025989543361321634 0 -0.01486051206955767 -0.002068843248000015 0 -0.014922763182819475 -0.0030142276617029541 0 -0.015781693914577948 -0.0025989543361321634 0 -0.022452461562105879 0.00045979657468294208 0 -0.022571165036071435 0.00023297198214191817 0 -0.023100193957142939 0.00055083403434043094 0 -0.020566195377692643 -0.00021148720769872636 0 -0.022452461562105879 0.00045979657468294208 0 -0.022571165036071435 0.00023297198214191817 0 -0.023614947953568829 0.00085499374585233233 0 -0.023985498977535168 0.00071046763893962267 0 -0.022571165036071435 0.00023297198214191817 0 -0.023614947953568829 0.00085499374585233233 0 -0.022571165036071435 0.00023297198214191817 0 -0.023100193957142939 0.00055083403434043094 0 -0.023582765080822517 0.00060346312844215518 0 -0.023100193957142939 0.00055083403434043094 0 -0.024069010884309468 0.00086759709498165439 0 -0.023100193957142939 0.00055083403434043094 0 -0.023812187515320157 0.0011149648355306459 0 -0.024069010884309468 0.00086759709498165439 0 -0.022452461562105879 0.00045979657468294208 0 -0.023100193957142939 0.00055083403434043094 0 -0.023812187515320157 0.0011149648355306459 0 -0.028447656584771469 0.0018930812437109857 0 -0.027907295933488358 0.0016160776859411208 0 -0.028482725999445457 0.00080628530345944714 0 -0.028447656584771469 0.0018930812437109857 0 -0.027582855419448219 0.0018252917367476307 0 -0.027907295933488358 0.0016160776859411208 0 -0.026309417237957326 0.0011212865025722681 0 -0.026349746293867087 0.0011277512751676124 0 -0.026279845846550302 0.0011951840415520938 0 -0.028447656584771469 0.0018930812437109857 0 -0.027582855419448219 0.0018252917367476307 0 -0.026279845846550302 0.0011951840415520938 0 -0.023812187515320157 0.0011149648355306459 0 -0.024069010884309468 0.00086759709498165439 0 -0.026279845846550302 0.0011951840415520938 0 -0.02791149703541326 0.001834753794444753 0 -0.027582855419448219 0.0018252917367476307 0 -0.026279845846550302 0.0011951840415520938 0 -0.02791149703541326 0.001834753794444753 0 -0.028551883559793028 0.0017986336611764174 0 -0.028785707723218652 0.0027514829164350892 0 -0.028551883559793028 0.0017986336611764174 0 -0.028255562454949121 0.0017448637661921531 0 -0.029616926322807255 -0.0021660921604911136 0 -0.029338612627238959 -0.0020658713563237409 0 -0.029507434408649266 -0.0020414145066961552 0 -0.02791149703541326 0.001834753794444753 0 -0.028255562454949121 0.0017448637661921531 0 -0.027831592485801099 0.0017107270746636342 0 -0.02791149703541326 0.001834753794444753 0 -0.028551883559793028 0.0017986336611764174 0 -0.028255562454949121 0.0017448637661921531 0 -0.029616926322807255 -0.0021660921604911136 0 -0.029507434408649266 -0.0020414145066961552 0 -0.029595552114200646 -0.0019622836965555793 0 -0.029338612627238959 -0.0020658713563237409 0 -0.029459416276190163 -0.0019628099580354689 0 -0.029507434408649266 -0.0020414145066961552 0 -0.029459416276190163 -0.0019628099580354689 0 -0.029507434408649266 -0.0020414145066961552 0 -0.029595552114200646 -0.0019622836965555793 0 -0.031392389068986636 -0.0045118859670304681 0 -0.034195190160020872 -0.0049500927201502768 0 -0.029338612627238959 -0.0020658713563237409 0 -0.029459416276190163 -0.0019628099580354689 0 -0.028685633234249039 -0.0012535354716446693 0 -0.028255562454949121 0.0017448637661921531 0 -0.027831592485801099 0.0017107270746636342 0 -0.02735969816955865 0.0014778710785359097 0 -0.039421184463954727 -0.011999038799906532 0 -0.03946893684219413 -0.012186088454832747 0 -0.039509055749525061 -0.012054246454936633 0 -0.030964051385741046 -0.0030140430619959176 0 -0.034195190160020872 -0.0049500927201502768 0 -0.029459416276190163 -0.0019628099580354689 0 -0.028685633234249039 -0.0012535354716446693 0 -0.028908442481490229 -0.0011185058248466117 0 -0.029459416276190163 -0.0019628099580354689 0 -0.028908442481490229 -0.0011185058248466117 0 -0.029688342844795389 -0.0019291509588865445 0 -0.037270518472982517 -0.010015844580476071 0 -0.034195190160020872 -0.0049500927201502768 0 -0.028795987793492534 -0.00013180721604455216 0 -0.028079769793576865 4.8265682705950033e-05 0 -0.034631017780671763 -0.006667080995583558 0 -0.03443177607860879 -0.0065849609042951552 0 -0.033850511319568836 -0.0051012104994024709 0 -0.027582855419448219 0.0018252917367476307 0 -0.027907295933488358 0.0016160776859411208 0 -0.027654906231092936 0.0017018248429933585 0 -0.027582855419448219 0.0018252917367476307 0 -0.027737909713264106 0.0017376474757031741 0 -0.027654906231092936 0.0017018248429933585 0 -0.02791149703541326 0.001834753794444753 0 -0.027582855419448219 0.0018252917367476307 0 -0.027737909713264106 0.0017376474757031741 0 -0.02791149703541326 0.001834753794444753 0 -0.027831592485801099 0.0017107270746636342 0 -0.027737909713264106 0.0017376474757031741 0 -0.027831592485801099 0.0017107270746636342 0 -0.027737909713264106 0.0017376474757031741 0 -0.02735969816955865 0.0014778710785359097 0 -0.027737909713264106 0.0017376474757031741 0 -0.027654906231092936 0.0017018248429933585 0 -0.02735969816955865 0.0014778710785359097 0 -0.027907295933488358 0.0016160776859411208 0 -0.027654906231092936 0.0017018248429933585 0 -0.02735969816955865 0.0014778710785359097 0 -0.028079769793576865 4.8265682705950033e-05 0 -0.028114130132737915 -0.00062747973436037732 0 -0.02735969816955865 0.0014778710785359097 0 -0.02821748954128744 0.0003267412656371314 0 -0.028482725999445457 0.00080628530345944714 0 -0.02735969816955865 0.0014778710785359097 0 -0.028107746892608858 -0.00072406764149360162 0 -0.02821748954128744 0.0003267412656371314 0 -0.027907295933488358 0.0016160776859411208 0 -0.02735969816955865 0.0014778710785359097 0 -0.028482725999445457 0.00080628530345944714 0 -0.028685633234249039 -0.0012535354716446693 0 -0.028908442481490229 -0.0011185058248466117 0 -0.028107746892608858 -0.00072406764149360162 0 -0.034631017780671763 -0.006667080995583558 0 -0.03443177607860879 -0.0065849609042951552 0 -0.0350570782961689 -0.0080428271226305106 0 -0.037270518472982517 -0.010015844580476071 0 -0.038009514456506965 -0.010124689410319467 0 -0.039421184463954727 -0.011999038799906532 0 -0.039481599301921952 -0.011951044560017349 0 -0.039434373735441675 -0.011889702902944894 0 -0.039421184463954727 -0.011999038799906532 0 -0.039481599301921952 -0.011951044560017349 0 -0.039509055749525061 -0.012054246454936633 0 -0.039421184463954727 -0.011999038799906532 0 -0.039434373735441675 -0.011889702902944894 0 -0.039409922891949105 -0.011875006762349392 0 -0.039481599301921952 -0.011951044560017349 0 -0.039434373735441675 -0.011889702902944894 0 -0.039464893882518913 -0.011903647773136551 0 -0.039481599301921952 -0.011951044560017349 0 -0.039464893882518913 -0.011903647773136551 0 -0.039504266522405386 -0.011896940247511593 0 -0.039434373735441675 -0.011889702902944894 0 -0.039444619475636739 -0.011898035266741054 0 -0.039456641816162659 -0.011892738216748359 0 -0.039434373735441675 -0.011889702902944894 0 -0.039444619475636739 -0.011898035266741054 0 -0.039464893882518913 -0.011903647773136551 0 -0.039444619475636739 -0.011898035266741054 0 -0.039456641816162659 -0.011892738216748359 0 -0.039450071657717224 -0.011927217443866274 0 -0.039471742036215271 -0.011894811488925003 0 -0.039504266522405386 -0.011896940247511593 0 -0.039485893171134011 -0.01188241964204379 0 -0.039444619475636739 -0.011898035266741054 0 -0.039464893882518913 -0.011903647773136551 0 -0.039471742036215271 -0.011894811488925003 0 -0.039444619475636739 -0.011898035266741054 0 -0.039471742036215271 -0.011894811488925003 0 -0.039455734366922353 -0.011901767838364278 0 -0.039471742036215271 -0.011894811488925003 0 -0.039485893171134011 -0.01188241964204379 0 -0.039455734366922353 -0.011901767838364278 0 -0.039464893882518913 -0.011903647773136551 0 -0.039471742036215271 -0.011894811488925003 0 -0.039504266522405386 -0.011896940247511593 0 -0.028908442481490229 -0.0011185058248466117 0 -0.028107746892608858 -0.00072406764149360162 0 -0.028012827694952488 -0.00080844709415078516 0 -0.030964051385741046 -0.0030140430619959176 0 -0.033999598197542481 -0.0069052808466180367 0 -0.034631017780671763 -0.006667080995583558 0 -0.0350570782961689 -0.0080428271226305106 0 -0.035460172653246011 -0.0082048949984819871 0 -0.038009514456506965 -0.010124689410319467 0 -0.033999598197542481 -0.0069052808466180367 0 -0.039074218661901562 -0.010816648101593411 0 -0.038009514456506965 -0.010124689410319467 0 -0.029041024918404809 -0.00029492107326025297 0 -0.030361367043680275 -9.0919593283921016e-05 0 -0.028482725999445457 0.00080628530345944714 0 -0.028107746892608858 -0.00072406764149360162 0 -0.028012827694952488 -0.00080844709415078516 0 -0.029607032165473501 -0.0019806799753629887 0 -0.028107746892608858 -0.00072406764149360162 0 -0.029041024918404809 -0.00029492107326025297 0 -0.029607032165473501 -0.0019806799753629887 0 -0.028107746892608858 -0.00072406764149360162 0 -0.029041024918404809 -0.00029492107326025297 0 -0.02821748954128744 0.0003267412656371314 0 -0.029041024918404809 -0.00029492107326025297 0 -0.030361367043680275 -9.0919593283921016e-05 0 -0.029607032165473501 -0.0019806799753629887 0 -0.026349746293867087 0.0011277512751676124 0 -0.026164661135467671 0.0015768432487828256 0 -0.022452461562105879 0.00045979657468294208 0 -0.023812187515320157 0.0011149648355306459 0 -0.023143831833980347 0.0013716872730367186 0 -0.028447656584771469 0.0018930812437109857 0 -0.030361367043680275 -9.0919593283921016e-05 0 -0.028482725999445457 0.00080628530345944714 0 -0.029041024918404809 -0.00029492107326025297 0 -0.02821748954128744 0.0003267412656371314 0 -0.028482725999445457 0.00080628530345944714 0 -0.04141645003689251 -0.0096763724728857886 0 -0.039763806447483896 -0.0086544346342596473 0 -0.043001325919584645 -0.0067514439213799647 0 -0.04036045111656713 -0.0071553591362292423 0 -0.043620382025233329 -0.0082489613406195126 0 -0.039763806447483896 -0.0086544346342596473 0 -0.044782451616107784 -0.0033960411754754773 0 -0.040502047366539388 -0.012170208489895945 0 -0.040753942645009082 -0.012427454343478779 0 -0.040178565129235122 -0.012432291685042767 0 -0.040502047366539388 -0.012170208489895945 0 -0.040753942645009082 -0.012427454343478779 0 -0.040863102262650629 -0.012023483684179034 0 -0.041251303401527717 -0.0031627535089249511 0 -0.044782451616107784 -0.0033960411754754773 0 -0.044562898049484365 -0.0015542571963708424 0 -0.042111528401019865 -0.001651442442252874 0 -0.044037504091933015 0.00016328737311277196 0 -0.039785223886154325 -0.004762157185060267 0 -0.039682515187169899 -0.0027814258777274148 0 -0.041369745603981441 -0.0033385271580702873 0 -0.039785223886154325 -0.004762157185060267 0 -0.039682515187169899 -0.0027814258777274148 0 -0.038593774642356089 -0.0042079986900716354 0 -0.040178565129235122 -0.012432291685042767 0 -0.039772389765293591 -0.01218334530804315 0 -0.039995286882420072 -0.012098392905412165 0 -0.039763806447483896 -0.0086544346342596473 0 -0.040263771428709419 -0.012306589986897515 0 -0.040502047366539388 -0.012170208489895945 0 -0.040178565129235122 -0.012432291685042767 0 -0.040264778985435873 -0.011996911898735379 0 -0.040178565129235122 -0.012432291685042767 0 -0.039995286882420072 -0.012098392905412165 0 -0.040264778985435873 -0.011996911898735379 0 -0.039832249088830103 -0.012155886027519302 0 -0.039772389765293591 -0.01218334530804315 0 -0.039731049314637799 -0.012210458861888729 0 -0.039763806447483896 -0.0086544346342596473 0 -0.039593948279521417 -0.0076257401354224118 0 -0.039772389765293591 -0.01218334530804315 0 -0.039680915590746962 -0.012124312451652769 0 -0.039726688800471845 -0.012051153582100817 0 -0.039772389765293591 -0.01218334530804315 0 -0.039680915590746962 -0.012124312451652769 0 -0.039731049314637799 -0.012210458861888729 0 -0.039682515187169899 -0.0027814258777274148 0 -0.038097832201275841 -0.0030220573584867519 0 -0.038593774642356089 -0.0042079986900716354 0 -0.037387355968691742 -0.0047078505537374322 0 -0.038097832201275841 -0.0030220573584867519 0 -0.038593774642356089 -0.0042079986900716354 0 -0.03376703955160025 -0.0040952983268400982 0 -0.034195190160020872 -0.0049500927201502768 0 -0.037387355968691742 -0.0047078505537374322 0 -0.038097832201275841 -0.0030220573584867519 0 -0.036519867561549964 -0.0032501383238455273 0 -0.029821865919895579 -0.0022798282259412464 0 -0.029616926322807255 -0.0021660921604911136 0 -0.029595552114200646 -0.0019622836965555793 0 -0.029762679864743142 -0.0023525904288427004 0 -0.034195190160020872 -0.0049500927201502768 0 -0.030452644517822425 -0.0033726918580059577 0 -0.030589960059910812 -0.0033358021955541294 0 -0.031509755590862644 -0.0049773455027823437 0 -0.039731049314637799 -0.012210458861888729 0 -0.03946893684219413 -0.012186088454832747 0 -0.039577453706680116 -0.012127830631182727 0 -0.039593948279521417 -0.0076257401354224118 0 -0.034195190160020872 -0.0049500927201502768 0 -0.03946893684219413 -0.012186088454832747 0 -0.039577453706680116 -0.012127830631182727 0 -0.039509055749525061 -0.012054246454936633 0 -0.039680915590746962 -0.012124312451652769 0 -0.039731049314637799 -0.012210458861888729 0 -0.039577453706680116 -0.012127830631182727 0 -0.039680915590746962 -0.012124312451652769 0 -0.039577453706680116 -0.012127830631182727 0 -0.039599171677723317 -0.012020939499084841 0 -0.039577453706680116 -0.012127830631182727 0 -0.039509055749525061 -0.012054246454936633 0 -0.039599171677723317 -0.012020939499084841 0 -0.039481599301921952 -0.011951044560017349 0 -0.039509055749525061 -0.012054246454936633 0 -0.039599171677723317 -0.012020939499084841 0 -0.039599171677723317 -0.012020939499084841 0 -0.039587343499299765 -0.011922007729339152 0 -0.039681274844182331 -0.011970333767494552 0 -0.039481599301921952 -0.011951044560017349 0 -0.039599171677723317 -0.012020939499084841 0 -0.039587343499299765 -0.011922007729339152 0 -0.039481599301921952 -0.011951044560017349 0 -0.039504266522405386 -0.011896940247511593 0 -0.039587343499299765 -0.011922007729339152 0 -0.039504266522405386 -0.011896940247511593 0 -0.039553731769720997 -0.011878182371933898 0 -0.039587343499299765 -0.011922007729339152 0 -0.039504266522405386 -0.011896940247511593 0 -0.039553731769720997 -0.011878182371933898 0 -0.039485893171134011 -0.01188241964204379 0 -0.039553731769720997 -0.011878182371933898 0 -0.039546084689899057 -0.011858973394994763 0 -0.039485893171134011 -0.01188241964204379 0 -0.039553731769720997 -0.011878182371933898 0 -0.0396444825073375 -0.011852044173135658 0 -0.039546084689899057 -0.011858973394994763 0 -0.0396444825073375 -0.011852044173135658 0 -0.039616435910059915 -0.011823027406233791 0 -0.039546084689899057 -0.011858973394994763 0 -0.039587343499299765 -0.011922007729339152 0 -0.039697131382276832 -0.011900692384775846 0 -0.039681274844182331 -0.011970333767494552 0 -0.039553731769720997 -0.011878182371933898 0 -0.039587343499299765 -0.011922007729339152 0 -0.0396444825073375 -0.011852044173135658 0 -0.039587343499299765 -0.011922007729339152 0 -0.039697131382276832 -0.011900692384775846 0 -0.0396444825073375 -0.011852044173135658 0 -0.039697131382276832 -0.011900692384775846 0 -0.0396444825073375 -0.011852044173135658 0 -0.039788550403926481 -0.01183134897852535 0 -0.039697131382276832 -0.011900692384775846 0 -0.039788550403926481 -0.01183134897852535 0 -0.039801548864955967 -0.011937720686088412 0 -0.039734331516808358 -0.011799628138523135 0 -0.0396444825073375 -0.011852044173135658 0 -0.039616435910059915 -0.011823027406233791 0 -0.039734331516808358 -0.011799628138523135 0 -0.0396444825073375 -0.011852044173135658 0 -0.039788550403926481 -0.01183134897852535 0 -0.039788550403926481 -0.01183134897852535 0 -0.039898080587445366 -0.011751869324135664 0 -0.039954737711583477 -0.011823281342313131 0 -0.039734331516808358 -0.011799628138523135 0 -0.039788550403926481 -0.01183134897852535 0 -0.039898080587445366 -0.011751869324135664 0 -0.039788550403926481 -0.01183134897852535 0 -0.039801548864955967 -0.011937720686088412 0 -0.039954737711583477 -0.011823281342313131 0 -0.039801548864955967 -0.011937720686088412 0 -0.03985256218199263 -0.012044221297626135 0 -0.039992806288435392 -0.011953831523983865 0 -0.039801548864955967 -0.011937720686088412 0 -0.039992806288435392 -0.011953831523983865 0 -0.039954737711583477 -0.011823281342313131 0 -0.039801548864955967 -0.011937720686088412 0 -0.039681274844182331 -0.011970333767494552 0 -0.039726688800471845 -0.012051153582100817 0 -0.039697131382276832 -0.011900692384775846 0 -0.039801548864955967 -0.011937720686088412 0 -0.039681274844182331 -0.011970333767494552 0 -0.039599171677723317 -0.012020939499084841 0 -0.039681274844182331 -0.011970333767494552 0 -0.039726688800471845 -0.012051153582100817 0 -0.039680915590746962 -0.012124312451652769 0 -0.039599171677723317 -0.012020939499084841 0 -0.039726688800471845 -0.012051153582100817 0 -0.039772389765293591 -0.01218334530804315 0 -0.03985256218199263 -0.012044221297626135 0 -0.039995286882420072 -0.012098392905412165 0 -0.039772389765293591 -0.01218334530804315 0 -0.039726688800471845 -0.012051153582100817 0 -0.03985256218199263 -0.012044221297626135 0 -0.039801548864955967 -0.011937720686088412 0 -0.039726688800471845 -0.012051153582100817 0 -0.03985256218199263 -0.012044221297626135 0 -0.039995286882420072 -0.012098392905412165 0 -0.040264778985435873 -0.011996911898735379 0 -0.039992806288435392 -0.011953831523983865 0 -0.03985256218199263 -0.012044221297626135 0 -0.039995286882420072 -0.012098392905412165 0 -0.039992806288435392 -0.011953831523983865 0 -0.040264778985435873 -0.011996911898735379 0 -0.039992806288435392 -0.011953831523983865 0 -0.040170631858007524 -0.011810091569965124 0 -0.040264778985435873 -0.011996911898735379 0 -0.040170631858007524 -0.011810091569965124 0 -0.040411906868654916 -0.011759467352746019 0 -0.039992806288435392 -0.011953831523983865 0 -0.039954737711583477 -0.011823281342313131 0 -0.040170631858007524 -0.011810091569965124 0 -0.039954737711583477 -0.011823281342313131 0 -0.040108630895332287 -0.011704869701474668 0 -0.040170631858007524 -0.011810091569965124 0 -0.039898080587445366 -0.011751869324135664 0 -0.039954737711583477 -0.011823281342313131 0 -0.040108630895332287 -0.011704869701474668 0 -0.039898080587445366 -0.011751869324135664 0 -0.040108630895332287 -0.011704869701474668 0 -0.040007044483993143 -0.011676721662080029 0 -0.040108630895332287 -0.011704869701474668 0 -0.040356276997970779 -0.01163858805851975 0 -0.040290082519442411 -0.01158760428505932 0 -0.040170631858007524 -0.011810091569965124 0 -0.040411906868654916 -0.011759467352746019 0 -0.040356276997970779 -0.01163858805851975 0 -0.040108630895332287 -0.011704869701474668 0 -0.040170631858007524 -0.011810091569965124 0 -0.040356276997970779 -0.01163858805851975 0 -0.040411906868654916 -0.011759467352746019 0 -0.040356276997970779 -0.01163858805851975 0 -0.040641398592189695 -0.011570503203350301 0 -0.040356276997970779 -0.01163858805851975 0 -0.040662931283281432 -0.011441232776846813 0 -0.040290082519442411 -0.01158760428505932 0 -0.040356276997970779 -0.01163858805851975 0 -0.040641398592189695 -0.011570503203350301 0 -0.040662931283281432 -0.011441232776846813 0 -0.040901555758368742 -0.011392369501848227 0 -0.040662931283281432 -0.011441232776846813 0 -0.041128951160148544 -0.011256182590912977 0 -0.040901555758368742 -0.011392369501848227 0 -0.040641398592189695 -0.011570503203350301 0 -0.040662931283281432 -0.011441232776846813 0 -0.040641398592189695 -0.011570503203350301 0 -0.040907620803889252 -0.011705188271321632 0 -0.041061016101048897 -0.011421294153487051 0 -0.040901555758368742 -0.011392369501848227 0 -0.040641398592189695 -0.011570503203350301 0 -0.041061016101048897 -0.011421294153487051 0 -0.040641398592189695 -0.011570503203350301 0 -0.040907620803889252 -0.011705188271321632 0 -0.040579303483995154 -0.011856752439029334 0 -0.040264778985435873 -0.011996911898735379 0 -0.040411906868654916 -0.011759467352746019 0 -0.040579303483995154 -0.011856752439029334 0 -0.040411906868654916 -0.011759467352746019 0 -0.040641398592189695 -0.011570503203350301 0 -0.040579303483995154 -0.011856752439029334 0 -0.040502047366539388 -0.012170208489895945 0 -0.040264778985435873 -0.011996911898735379 0 -0.040579303483995154 -0.011856752439029334 0 -0.040502047366539388 -0.012170208489895945 0 -0.040579303483995154 -0.011856752439029334 0 -0.040863102262650629 -0.012023483684179034 0 -0.040907620803889252 -0.011705188271321632 0 -0.040579303483995154 -0.011856752439029334 0 -0.040863102262650629 -0.012023483684179034 0 -0.040289061326439168 -0.011518916373410059 0 -0.040469755441914688 -0.011474831908297426 0 -0.040750452460156107 -0.011380705523212787 0 -0.040289061326439168 -0.011518916373410059 0 -0.040750452460156107 -0.011380705523212787 0 -0.040689927132276649 -0.011358318027556685 0 -0.040289061326439168 -0.011518916373410059 0 -0.040469755441914688 -0.011474831908297426 0 -0.040139130724810373 -0.011586663360152124 0 -0.040289061326439168 -0.011518916373410059 0 -0.040139130724810373 -0.011586663360152124 0 -0.039955929964263968 -0.011649446390903831 0 -0.040469755441914688 -0.011474831908297426 0 -0.040345590038108503 -0.011523817880310325 0 -0.040139130724810373 -0.011586663360152124 0 -0.040469755441914688 -0.011474831908297426 0 -0.04079345547252481 -0.011379273194792703 0 -0.04062887999704555 -0.01142957495091078 0 -0.040469755441914688 -0.011474831908297426 0 -0.04079345547252481 -0.011379273194792703 0 -0.040750452460156107 -0.011380705523212787 0 -0.04079345547252481 -0.011379273194792703 0 -0.04062887999704555 -0.01142957495091078 0 -0.040973770086299058 -0.011314432305065581 0 -0.040662931283281432 -0.011441232776846813 0 -0.041128951160148544 -0.011256182590912977 0 -0.040973770086299058 -0.011314432305065581 0 -0.04062887999704555 -0.01142957495091078 0 -0.040662931283281432 -0.011441232776846813 0 -0.040973770086299058 -0.011314432305065581 0 -0.040662931283281432 -0.011441232776846813 0 -0.040411703446654366 -0.011515463519031561 0 -0.040290082519442411 -0.01158760428505932 0 -0.04062887999704555 -0.01142957495091078 0 -0.040662931283281432 -0.011441232776846813 0 -0.040411703446654366 -0.011515463519031561 0 -0.040411703446654366 -0.011515463519031561 0 -0.040345590038108503 -0.011523817880310325 0 -0.040149945522269567 -0.011598210651536642 0 -0.040469755441914688 -0.011474831908297426 0 -0.04062887999704555 -0.01142957495091078 0 -0.040345590038108503 -0.011523817880310325 0 -0.04062887999704555 -0.01142957495091078 0 -0.040411703446654366 -0.011515463519031561 0 -0.040345590038108503 -0.011523817880310325 0 -0.040345590038108503 -0.011523817880310325 0 -0.040149945522269567 -0.011598210651536642 0 -0.040139130724810373 -0.011586663360152124 0 -0.040108630895332287 -0.011704869701474668 0 -0.040290082519442411 -0.01158760428505932 0 -0.040007044483993143 -0.011676721662080029 0 -0.040411703446654366 -0.011515463519031561 0 -0.040149945522269567 -0.011598210651536642 0 -0.040290082519442411 -0.01158760428505932 0 -0.040149945522269567 -0.011598210651536642 0 -0.040290082519442411 -0.01158760428505932 0 -0.040007044483993143 -0.011676721662080029 0 -0.040007044483993143 -0.011676721662080029 0 -0.039879352039773726 -0.011696052008673748 0 -0.039752181314500576 -0.011759607507446779 0 -0.040149945522269567 -0.011598210651536642 0 -0.040007044483993143 -0.011676721662080029 0 -0.039879352039773726 -0.011696052008673748 0 -0.040149945522269567 -0.011598210651536642 0 -0.039879352039773726 -0.011696052008673748 0 -0.039854900857836918 -0.01169313655347869 0 -0.039879352039773726 -0.011696052008673748 0 -0.039854900857836918 -0.01169313655347869 0 -0.039684957076693866 -0.011767476984711837 0 -0.040149945522269567 -0.011598210651536642 0 -0.039854900857836918 -0.01169313655347869 0 -0.040139130724810373 -0.011586663360152124 0 -0.039854900857836918 -0.01169313655347869 0 -0.040139130724810373 -0.011586663360152124 0 -0.039955929964263968 -0.011649446390903831 0 -0.039854900857836918 -0.01169313655347869 0 -0.03962253034646971 -0.011793514731262864 0 -0.03962270326608551 -0.011795514100006116 0 -0.039854900857836918 -0.01169313655347869 0 -0.039955929964263968 -0.011649446390903831 0 -0.03962270326608551 -0.011795514100006116 0 -0.03962253034646971 -0.011793514731262864 0 -0.039450389645757249 -0.011889849062101929 0 -0.03962270326608551 -0.011795514100006116 0 -0.039450389645757249 -0.011889849062101929 0 -0.039512294442987886 -0.011848581276573943 0 -0.039410089888315875 -0.01192786176185243 0 -0.03962253034646971 -0.011793514731262864 0 -0.039450389645757249 -0.011889849062101929 0 -0.039512294442987886 -0.011848581276573943 0 -0.03962253034646971 -0.011793514731262864 0 -0.039512294442987886 -0.011848581276573943 0 -0.039684957076693866 -0.011767476984711837 0 -0.039854900857836918 -0.01169313655347869 0 -0.03962253034646971 -0.011793514731262864 0 -0.039684957076693866 -0.011767476984711837 0 -0.039879352039773726 -0.011696052008673748 0 -0.039684957076693866 -0.011767476984711837 0 -0.039752181314500576 -0.011759607507446779 0 -0.039898080587445366 -0.011751869324135664 0 -0.040007044483993143 -0.011676721662080029 0 -0.039752181314500576 -0.011759607507446779 0 -0.039734331516808358 -0.011799628138523135 0 -0.039898080587445366 -0.011751869324135664 0 -0.039752181314500576 -0.011759607507446779 0 -0.039752181314500576 -0.011759607507446779 0 -0.039616435910059915 -0.011823027406233791 0 -0.039576169111526956 -0.011821760881782585 0 -0.039734331516808358 -0.011799628138523135 0 -0.039752181314500576 -0.011759607507446779 0 -0.039616435910059915 -0.011823027406233791 0 -0.039512294442987886 -0.011848581276573943 0 -0.039684957076693866 -0.011767476984711837 0 -0.039576169111526956 -0.011821760881782585 0 -0.039684957076693866 -0.011767476984711837 0 -0.039752181314500576 -0.011759607507446779 0 -0.039576169111526956 -0.011821760881782585 0 -0.039576169111526956 -0.011821760881782585 0 -0.039506334133271273 -0.011864237687548978 0 -0.039477433317392362 -0.011878025823366141 0 -0.039512294442987886 -0.011848581276573943 0 -0.039576169111526956 -0.011821760881782585 0 -0.039477433317392362 -0.011878025823366141 0 -0.039616435910059915 -0.011823027406233791 0 -0.039546084689899057 -0.011858973394994763 0 -0.039506334133271273 -0.011864237687548978 0 -0.039616435910059915 -0.011823027406233791 0 -0.039576169111526956 -0.011821760881782585 0 -0.039506334133271273 -0.011864237687548978 0 -0.039546084689899057 -0.011858973394994763 0 -0.039485893171134011 -0.01188241964204379 0 -0.039506334133271273 -0.011864237687548978 0 -0.039485893171134011 -0.01188241964204379 0 -0.039506334133271273 -0.011864237687548978 0 -0.039465017119632781 -0.011895575203293799 0 -0.039506334133271273 -0.011864237687548978 0 -0.039465017119632781 -0.011895575203293799 0 -0.039477433317392362 -0.011878025823366141 0 -0.039465017119632781 -0.011895575203293799 0 -0.039477433317392362 -0.011878025823366141 0 -0.039448080002804704 -0.011916242724164319 0 -0.039477433317392362 -0.011878025823366141 0 -0.039448080002804704 -0.011916242724164319 0 -0.039418060889629639 -0.011949882470261795 0 -0.039477433317392362 -0.011878025823366141 0 -0.039418060889629639 -0.011949882470261795 0 -0.03943360454481 -0.011912106864081633 0 -0.039512294442987886 -0.011848581276573943 0 -0.039477433317392362 -0.011878025823366141 0 -0.03943360454481 -0.011912106864081633 0 -0.039512294442987886 -0.011848581276573943 0 -0.03943360454481 -0.011912106864081633 0 -0.039410089888315875 -0.01192786176185243 0 -0.039410089888315875 -0.01192786176185243 0 -0.039367623016145471 -0.011989532731675377 0 -0.039283030895154794 -0.0120537390865171 0 -0.039450389645757249 -0.011889849062101929 0 -0.039410089888315875 -0.01192786176185243 0 -0.039283030895154794 -0.0120537390865171 0 -0.03943360454481 -0.011912106864081633 0 -0.039410089888315875 -0.01192786176185243 0 -0.039367623016145471 -0.011989532731675377 0 -0.039418060889629639 -0.011949882470261795 0 -0.039367623016145471 -0.011989532731675377 0 -0.039406761767353027 -0.01204606724188613 0 -0.039367623016145471 -0.011989532731675377 0 -0.039328548519362863 -0.01210216219120222 0 -0.039406761767353027 -0.01204606724188613 0 -0.039418060889629639 -0.011949882470261795 0 -0.03943360454481 -0.011912106864081633 0 -0.039367623016145471 -0.011989532731675377 0 -0.039367623016145471 -0.011989532731675377 0 -0.039328548519362863 -0.01210216219120222 0 -0.039283030895154794 -0.0120537390865171 0 -0.039328548519362863 -0.01210216219120222 0 -0.039283030895154794 -0.0120537390865171 0 -0.039248805683777012 -0.012252615411274219 0 -0.039283030895154794 -0.0120537390865171 0 -0.039195826566014967 -0.012141882267043951 0 -0.039157165830613475 -0.012263416661451344 0 -0.039195826566014967 -0.012141882267043951 0 -0.039157165830613475 -0.012263416661451344 0 -0.039041023875773427 -0.012374834368003998 0 -0.039157165830613475 -0.012263416661451344 0 -0.039248805683777012 -0.012252615411274219 0 -0.03909864082843021 -0.012483242319187789 0 -0.039283030895154794 -0.0120537390865171 0 -0.039157165830613475 -0.012263416661451344 0 -0.039248805683777012 -0.012252615411274219 0 -0.039248805683777012 -0.012252615411274219 0 -0.03909864082843021 -0.012483242319187789 0 -0.039256403035342946 -0.012456125342283193 0 -0.038878464607193818 -0.012837378263461954 0 -0.039069414287434878 -0.01287242668413633 0 -0.038739945028233871 -0.013653754932365364 0 -0.03909864082843021 -0.012483242319187789 0 -0.038878464607193818 -0.012837378263461954 0 -0.039069414287434878 -0.01287242668413633 0 -0.038878464607193818 -0.012837378263461954 0 -0.039041023875773427 -0.012374834368003998 0 -0.038912158576122 -0.012516694800613071 0 -0.038878464607193818 -0.012837378263461954 0 -0.038912158576122 -0.012516694800613071 0 -0.038644913782185562 -0.013230401629537892 0 -0.03909864082843021 -0.012483242319187789 0 -0.038878464607193818 -0.012837378263461954 0 -0.039041023875773427 -0.012374834368003998 0 -0.039157165830613475 -0.012263416661451344 0 -0.03909864082843021 -0.012483242319187789 0 -0.039041023875773427 -0.012374834368003998 0 -0.039041023875773427 -0.012374834368003998 0 -0.039140038145623564 -0.012174023154527076 0 -0.038912158576122 -0.012516694800613071 0 -0.039140038145623564 -0.012174023154527076 0 -0.038912158576122 -0.012516694800613071 0 -0.039114677704362714 -0.012173011938769934 0 -0.038912158576122 -0.012516694800613071 0 -0.038851024235476241 -0.012623010789481139 0 -0.039114677704362714 -0.012173011938769934 0 -0.038912158576122 -0.012516694800613071 0 -0.038851024235476241 -0.012623010789481139 0 -0.038644913782185562 -0.013230401629537892 0 -0.038851024235476241 -0.012623010789481139 0 -0.039097168314798432 -0.012162566434229917 0 -0.039114677704362714 -0.012173011938769934 0 -0.039114677704362714 -0.012173011938769934 0 -0.039348703110948617 -0.011973432488907169 0 -0.03949220822942761 -0.011852869368722787 0 -0.039140038145623564 -0.012174023154527076 0 -0.039114677704362714 -0.012173011938769934 0 -0.039348703110948617 -0.011973432488907169 0 -0.039140038145623564 -0.012174023154527076 0 -0.039348703110948617 -0.011973432488907169 0 -0.03933673075610658 -0.011980168740779392 0 -0.039195826566014967 -0.012141882267043951 0 -0.039140038145623564 -0.012174023154527076 0 -0.03933673075610658 -0.011980168740779392 0 -0.039195826566014967 -0.012141882267043951 0 -0.039041023875773427 -0.012374834368003998 0 -0.039140038145623564 -0.012174023154527076 0 -0.039450389645757249 -0.011889849062101929 0 -0.039283030895154794 -0.0120537390865171 0 -0.03933673075610658 -0.011980168740779392 0 -0.039283030895154794 -0.0120537390865171 0 -0.039195826566014967 -0.012141882267043951 0 -0.03933673075610658 -0.011980168740779392 0 -0.039450389645757249 -0.011889849062101929 0 -0.03933673075610658 -0.011980168740779392 0 -0.03962270326608551 -0.011795514100006116 0 -0.039348703110948617 -0.011973432488907169 0 -0.03933673075610658 -0.011980168740779392 0 -0.03962270326608551 -0.011795514100006116 0 -0.03962270326608551 -0.011795514100006116 0 -0.039851325756305636 -0.01167452022852807 0 -0.039583084671389067 -0.011820383699850737 0 -0.040289061326439168 -0.011518916373410059 0 -0.039955929964263968 -0.011649446390903831 0 -0.039851325756305636 -0.01167452022852807 0 -0.039955929964263968 -0.011649446390903831 0 -0.03962270326608551 -0.011795514100006116 0 -0.039851325756305636 -0.01167452022852807 0 -0.039851325756305636 -0.01167452022852807 0 -0.03949220822942761 -0.011852869368722787 0 -0.039821629077786337 -0.011616704078923535 0 -0.039348703110948617 -0.011973432488907169 0 -0.039583084671389067 -0.011820383699850737 0 -0.03949220822942761 -0.011852869368722787 0 -0.039851325756305636 -0.01167452022852807 0 -0.039583084671389067 -0.011820383699850737 0 -0.03949220822942761 -0.011852869368722787 0 -0.039348703110948617 -0.011973432488907169 0 -0.03962270326608551 -0.011795514100006116 0 -0.039583084671389067 -0.011820383699850737 0 -0.039114677704362714 -0.012173011938769934 0 -0.03949220822942761 -0.011852869368722787 0 -0.039419883929736256 -0.011860522605865453 0 -0.039419883929736256 -0.011860522605865453 0 -0.040226124010847839 -0.011186689568764717 0 -0.039084779330934211 -0.011992970985702175 0 -0.039097168314798432 -0.012162566434229917 0 -0.039419883929736256 -0.011860522605865453 0 -0.039084779330934211 -0.011992970985702175 0 -0.039097168314798432 -0.012162566434229917 0 -0.039114677704362714 -0.012173011938769934 0 -0.039419883929736256 -0.011860522605865453 0 -0.03949220822942761 -0.011852869368722787 0 -0.039419883929736256 -0.011860522605865453 0 -0.039821629077786337 -0.011616704078923535 0 -0.039821629077786337 -0.011616704078923535 0 -0.040226124010847839 -0.011186689568764717 0 -0.040239459677495787 -0.011471831411123424 0 -0.040226124010847839 -0.011186689568764717 0 -0.040239459677495787 -0.011471831411123424 0 -0.04068596501000224 -0.011248218693068824 0 -0.039419883929736256 -0.011860522605865453 0 -0.039821629077786337 -0.011616704078923535 0 -0.040226124010847839 -0.011186689568764717 0 -0.040239459677495787 -0.011471831411123424 0 -0.04068596501000224 -0.011248218693068824 0 -0.040689927132276649 -0.011358318027556685 0 -0.039851325756305636 -0.01167452022852807 0 -0.039821629077786337 -0.011616704078923535 0 -0.040239459677495787 -0.011471831411123424 0 -0.040289061326439168 -0.011518916373410059 0 -0.039851325756305636 -0.01167452022852807 0 -0.040239459677495787 -0.011471831411123424 0 -0.040289061326439168 -0.011518916373410059 0 -0.040239459677495787 -0.011471831411123424 0 -0.040689927132276649 -0.011358318027556685 0 -0.037269265192680215 -0.010128203928941867 0 -0.038591053121248768 -0.010999335814916748 0 -0.039109551843123001 -0.01209421953008534 0 -0.039085288159436869 -0.011845441365790585 0 -0.038799648837284151 -0.01168628879663791 0 -0.039642584928086949 -0.012212986638621829 0 -0.039531747485290501 -0.012214091503870322 0 -0.039404863427150945 -0.012193801659390571 0 -0.037269265192680215 -0.010128203928941867 0 -0.038471384858843993 -0.010535475327858606 0 -0.038590237672600856 -0.0099305663964612267 0 -0.039642584928086949 -0.012212986638621829 0 -0.039561183199228918 -0.012195059422116777 0 -0.039471442426390356 -0.012016542797085588 0 -0.039642584928086949 -0.012212986638621829 0 -0.039531747485290501 -0.012214091503870322 0 -0.039561183199228918 -0.012195059422116777 0 -0.039531747485290501 -0.012214091503870322 0 -0.039561183199228918 -0.012195059422116777 0 -0.039552064999414528 -0.012230659658520777 0 -0.037269265192680215 -0.010128203928941867 0 -0.038591053121248768 -0.010999335814916748 0 -0.038471384858843993 -0.010535475327858606 0 -0.039969237432217967 -0.0096028731232376732 0 -0.039181152780686318 -0.010762518517548203 0 -0.038590237672600856 -0.0099305663964612267 0 -0.038591053121248768 -0.010999335814916748 0 -0.038471384858843993 -0.010535475327858606 0 -0.039181152780686318 -0.010762518517548203 0 -0.038471384858843993 -0.010535475327858606 0 -0.039181152780686318 -0.010762518517548203 0 -0.038590237672600856 -0.0099305663964612267 0 -0.029988277465694525 -0.0035642815862158583 0 -0.026164661135467671 0.0015768432487828256 0 -0.029988277465694525 -0.0035642815862158583 0 -0.034586813363605917 -0.0054631072453134285 0 -0.032128298903728598 -0.0029859930652499137 0 -0.030361367043680275 -9.0919593283921016e-05 0 -0.029607032165473501 -0.0019806799753629887 0 -0.039969237432217967 -0.0096028731232376732 0 -0.038590237672600856 -0.0099305663964612267 0 -0.038081772429073159 -0.0086264982329879152 0 -0.033999598197542481 -0.0069052808466180367 0 -0.039085288159436869 -0.011845441365790585 0 -0.035747097867573907 -0.0077012762743182139 0 -0.037269265192680215 -0.010128203928941867 0 -0.038081772429073159 -0.0086264982329879152 0 -0.033999598197542481 -0.0069052808466180367 0 -0.034586813363605917 -0.0054631072453134285 0 -0.037269265192680215 -0.010128203928941867 0 -0.038590237672600856 -0.0099305663964612267 0 -0.038081772429073159 -0.0086264982329879152 0 -0.038009514456506965 -0.010124689410319467 0 -0.039833955206329374 -0.012625236510566764 0 -0.039456641816162659 -0.011892738216748359 0 -0.039463206814471123 -0.011981596691977891 0 -0.039471442426390356 -0.012016542797085588 0 -0.039399391388255309 -0.011476722628075425 0 -0.039642584928086949 -0.012212986638621829 0 -0.039471442426390356 -0.012016542797085588 0 -0.039456641816162659 -0.011892738216748359 0 -0.039463206814471123 -0.011981596691977891 0 -0.039450071657717224 -0.011927217443866274 0 -0.039196738651682363 -0.011393177730007495 0 -0.039399391388255309 -0.011476722628075425 0 -0.039471442426390356 -0.012016542797085588 0 -0.039463206814471123 -0.011981596691977891 0 -0.039471442426390356 -0.012016542797085588 0 -0.039497562362813612 -0.012092563155668054 0 -0.039465017119632781 -0.011895575203293799 0 -0.039463704420151638 -0.011899463945678075 0 -0.039452056588677627 -0.011923153787053725 0 -0.039485893171134011 -0.01188241964204379 0 -0.039465017119632781 -0.011895575203293799 0 -0.039463704420151638 -0.011899463945678075 0 -0.039485893171134011 -0.01188241964204379 0 -0.039463704420151638 -0.011899463945678075 0 -0.039455734366922353 -0.011901767838364278 0 -0.039463704420151638 -0.011899463945678075 0 -0.039455734366922353 -0.011901767838364278 0 -0.039452056588677627 -0.011923153787053725 0 -0.039455734366922353 -0.011901767838364278 0 -0.039450071657717224 -0.011927217443866274 0 -0.039452056588677627 -0.011923153787053725 0 -0.039444619475636739 -0.011898035266741054 0 -0.039455734366922353 -0.011901767838364278 0 -0.039450071657717224 -0.011927217443866274 0 -0.039463206814471123 -0.011981596691977891 0 -0.039450071657717224 -0.011927217443866274 0 -0.039453258204961719 -0.011971833076426895 0 -0.039450071657717224 -0.011927217443866274 0 -0.039453258204961719 -0.011971833076426895 0 -0.039452056588677627 -0.011923153787053725 0 -0.039453258204961719 -0.011971833076426895 0 -0.039452056588677627 -0.011923153787053725 0 -0.039440101165624047 -0.011949964534043593 0 -0.039465017119632781 -0.011895575203293799 0 -0.039452056588677627 -0.011923153787053725 0 -0.039440101165624047 -0.011949964534043593 0 -0.039465017119632781 -0.011895575203293799 0 -0.039448080002804704 -0.011916242724164319 0 -0.039440101165624047 -0.011949964534043593 0 -0.039418060889629639 -0.011949882470261795 0 -0.039440101165624047 -0.011949964534043593 0 -0.039406761767353027 -0.01204606724188613 0 -0.039440101165624047 -0.011949964534043593 0 -0.039448112564417472 -0.012017655990443884 0 -0.039406761767353027 -0.01204606724188613 0 -0.039448080002804704 -0.011916242724164319 0 -0.039418060889629639 -0.011949882470261795 0 -0.039440101165624047 -0.011949964534043593 0 -0.039453258204961719 -0.011971833076426895 0 -0.039448112564417472 -0.012017655990443884 0 -0.039477672885772766 -0.012062402566519357 0 -0.039453258204961719 -0.011971833076426895 0 -0.039440101165624047 -0.011949964534043593 0 -0.039448112564417472 -0.012017655990443884 0 -0.039448112564417472 -0.012017655990443884 0 -0.039456540975596567 -0.012086555159536267 0 -0.039477672885772766 -0.012062402566519357 0 -0.039456540975596567 -0.012086555159536267 0 -0.039505526641438936 -0.012160930421502666 0 -0.039456800702124567 -0.012159557348132068 0 -0.039456540975596567 -0.012086555159536267 0 -0.039406761767353027 -0.01204606724188613 0 -0.039456800702124567 -0.012159557348132068 0 -0.039448112564417472 -0.012017655990443884 0 -0.039456540975596567 -0.012086555159536267 0 -0.039406761767353027 -0.01204606724188613 0 -0.039561183199228918 -0.012195059422116777 0 -0.039471442426390356 -0.012016542797085588 0 -0.039497562362813612 -0.012092563155668054 0 -0.039463206814471123 -0.011981596691977891 0 -0.039497562362813612 -0.012092563155668054 0 -0.039477672885772766 -0.012062402566519357 0 -0.039463206814471123 -0.011981596691977891 0 -0.039453258204961719 -0.011971833076426895 0 -0.039477672885772766 -0.012062402566519357 0 -0.039456540975596567 -0.012086555159536267 0 -0.039477672885772766 -0.012062402566519357 0 -0.039505526641438936 -0.012160930421502666 0 -0.039477672885772766 -0.012062402566519357 0 -0.039505526641438936 -0.012160930421502666 0 -0.039534095958011793 -0.01217826528479591 0 -0.039561183199228918 -0.012195059422116777 0 -0.039534095958011793 -0.01217826528479591 0 -0.039552064999414528 -0.012230659658520777 0 -0.039497562362813612 -0.012092563155668054 0 -0.039477672885772766 -0.012062402566519357 0 -0.039534095958011793 -0.01217826528479591 0 -0.039561183199228918 -0.012195059422116777 0 -0.039497562362813612 -0.012092563155668054 0 -0.039534095958011793 -0.01217826528479591 0 -0.039505526641438936 -0.012160930421502666 0 -0.039534095958011793 -0.01217826528479591 0 -0.039563146693285665 -0.01225315390222077 0 -0.039534095958011793 -0.01217826528479591 0 -0.039563146693285665 -0.01225315390222077 0 -0.039552064999414528 -0.012230659658520777 0 -0.039563146693285665 -0.01225315390222077 0 -0.039593482686279872 -0.012340531103463148 0 -0.039552064999414528 -0.012230659658520777 0 -0.039505526641438936 -0.012160930421502666 0 -0.039529216619499659 -0.012261102620315134 0 -0.039456800702124567 -0.012159557348132068 0 -0.039505526641438936 -0.012160930421502666 0 -0.039563146693285665 -0.01225315390222077 0 -0.039529216619499659 -0.012261102620315134 0 -0.039563146693285665 -0.01225315390222077 0 -0.039529216619499659 -0.012261102620315134 0 -0.039634815198950374 -0.012401808217790158 0 -0.039529216619499659 -0.012261102620315134 0 -0.039533261588845417 -0.012374728700125457 0 -0.039634815198950374 -0.012401808217790158 0 -0.039563146693285665 -0.01225315390222077 0 -0.039634815198950374 -0.012401808217790158 0 -0.039593482686279872 -0.012340531103463148 0 -0.039634815198950374 -0.012401808217790158 0 -0.039593482686279872 -0.012340531103463148 0 -0.039647457144112309 -0.012439494976053324 0 -0.039328548519362863 -0.01210216219120222 0 -0.039406761767353027 -0.01204606724188613 0 -0.039392654076261975 -0.012236734547564231 0 -0.039328548519362863 -0.01210216219120222 0 -0.039248805683777012 -0.012252615411274219 0 -0.039392654076261975 -0.012236734547564231 0 -0.039529216619499659 -0.012261102620315134 0 -0.039456800702124567 -0.012159557348132068 0 -0.039392654076261975 -0.012236734547564231 0 -0.039406761767353027 -0.01204606724188613 0 -0.039456800702124567 -0.012159557348132068 0 -0.039392654076261975 -0.012236734547564231 0 -0.039529216619499659 -0.012261102620315134 0 -0.039533261588845417 -0.012374728700125457 0 -0.039392654076261975 -0.012236734547564231 0 -0.039533261588845417 -0.012374728700125457 0 -0.039392654076261975 -0.012236734547564231 0 -0.039428364906489162 -0.012452952202570948 0 -0.039248805683777012 -0.012252615411274219 0 -0.039392654076261975 -0.012236734547564231 0 -0.039256403035342946 -0.012456125342283193 0 -0.039392654076261975 -0.012236734547564231 0 -0.039256403035342946 -0.012456125342283193 0 -0.039428364906489162 -0.012452952202570948 0 -0.039256403035342946 -0.012456125342283193 0 -0.039358262465069634 -0.012702804396091373 0 -0.039069414287434878 -0.01287242668413633 0 -0.03909864082843021 -0.012483242319187789 0 -0.039256403035342946 -0.012456125342283193 0 -0.039069414287434878 -0.01287242668413633 0 -0.039428364906489162 -0.012452952202570948 0 -0.039358262465069634 -0.012702804396091373 0 -0.039623267741665115 -0.012565569380729802 0 -0.039256403035342946 -0.012456125342283193 0 -0.039428364906489162 -0.012452952202570948 0 -0.039358262465069634 -0.012702804396091373 0 -0.039533261588845417 -0.012374728700125457 0 -0.039428364906489162 -0.012452952202570948 0 -0.039623267741665115 -0.012565569380729802 0 -0.039358262465069634 -0.012702804396091373 0 -0.039618302210405111 -0.012842960786588692 0 -0.039191039654409163 -0.013360383096951743 0 -0.039358262465069634 -0.012702804396091373 0 -0.039623267741665115 -0.012565569380729802 0 -0.039618302210405111 -0.012842960786588692 0 -0.039358262465069634 -0.012702804396091373 0 -0.039069414287434878 -0.01287242668413633 0 -0.039191039654409163 -0.013360383096951743 0 -0.039618302210405111 -0.012842960786588692 0 -0.040078392137137146 -0.012762747808887436 0 -0.039191039654409163 -0.013360383096951743 0 -0.03980181788205734 -0.01258751663096982 0 -0.039647457144112309 -0.012439494976053324 0 -0.039588901039196427 -0.01246599015625645 0 -0.039634815198950374 -0.012401808217790158 0 -0.03980181788205734 -0.01258751663096982 0 -0.039647457144112309 -0.012439494976053324 0 -0.039634815198950374 -0.012401808217790158 0 -0.03980181788205734 -0.01258751663096982 0 -0.039623267741665115 -0.012565569380729802 0 -0.039533261588845417 -0.012374728700125457 0 -0.039634815198950374 -0.012401808217790158 0 -0.039623267741665115 -0.012565569380729802 0 -0.039783272998456638 -0.012688584482429252 0 -0.039618302210405111 -0.012842960786588692 0 -0.040078392137137146 -0.012762747808887436 0 -0.03980181788205734 -0.01258751663096982 0 -0.039623267741665115 -0.012565569380729802 0 -0.039783272998456638 -0.012688584482429252 0 -0.039623267741665115 -0.012565569380729802 0 -0.039783272998456638 -0.012688584482429252 0 -0.039618302210405111 -0.012842960786588692 0 -0.03980181788205734 -0.01258751663096982 0 -0.039588901039196427 -0.01246599015625645 0 -0.040078392137137146 -0.012762747808887436 0 -0.03980181788205734 -0.01258751663096982 0 -0.039783272998456638 -0.012688584482429252 0 -0.040078392137137146 -0.012762747808887436 0 -0.039588901039196427 -0.01246599015625645 0 -0.03912516381642045 -0.01232979838071612 0 -0.040078392137137146 -0.012762747808887436 0 -0.035412149025230599 -0.018030947120440302 0 -0.037327369663058621 -0.016026825597065756 0 -0.032211232491617899 -0.020124101753750394 0 -0.030324828515313207 -0.022446647791724995 0 -0.035024374445461935 -0.019412628734746664 0 -0.032211232491617899 -0.020124101753750394 0 -0.030665844043503896 -0.02096328356966851 0 -0.031099227870769235 -0.019985145696072324 0 -0.039647457144112309 -0.012439494976053324 0 -0.039588901039196427 -0.01246599015625645 0 -0.039569844947456433 -0.012383821388135641 0 -0.039593482686279872 -0.012340531103463148 0 -0.039647457144112309 -0.012439494976053324 0 -0.039569844947456433 -0.012383821388135641 0 -0.039642584928086949 -0.012212986638621829 0 -0.039404863427150945 -0.012193801659390571 0 -0.039109551843123001 -0.01209421953008534 0 -0.039593482686279872 -0.012340531103463148 0 -0.039569844947456433 -0.012383821388135641 0 -0.039518430684054993 -0.0122682954968892 0 -0.039569844947456433 -0.012383821388135641 0 -0.039453284299407365 -0.012325046922145968 0 -0.039518430684054993 -0.0122682954968892 0 -0.039588901039196427 -0.01246599015625645 0 -0.039569844947456433 -0.012383821388135641 0 -0.039453284299407365 -0.012325046922145968 0 -0.039588901039196427 -0.01246599015625645 0 -0.039453284299407365 -0.012325046922145968 0 -0.039308314712729879 -0.012279358646085972 0 -0.039308314712729879 -0.012279358646085972 0 -0.039404863427150945 -0.012193801659390571 0 -0.039109551843123001 -0.01209421953008534 0 -0.039588901039196427 -0.01246599015625645 0 -0.039308314712729879 -0.012279358646085972 0 -0.03912516381642045 -0.01232979838071612 0 -0.039453284299407365 -0.012325046922145968 0 -0.039308314712729879 -0.012279358646085972 0 -0.039404863427150945 -0.012193801659390571 0 -0.039453284299407365 -0.012325046922145968 0 -0.039404863427150945 -0.012193801659390571 0 -0.039518430684054993 -0.0122682954968892 0 -0.039531747485290501 -0.012214091503870322 0 -0.039404863427150945 -0.012193801659390571 0 -0.039518430684054993 -0.0122682954968892 0 -0.039593482686279872 -0.012340531103463148 0 -0.039552064999414528 -0.012230659658520777 0 -0.039518430684054993 -0.0122682954968892 0 -0.039531747485290501 -0.012214091503870322 0 -0.039552064999414528 -0.012230659658520777 0 -0.039518430684054993 -0.0122682954968892 0 -0.04051880760472331 -0.011046820605356606 0 -0.039109551843123001 -0.01209421953008534 0 -0.03912516381642045 -0.01232979838071612 0 -0.04051880760472331 -0.011046820605356606 0 -0.039181152780686318 -0.010762518517548203 0 -0.039109551843123001 -0.01209421953008534 0 -0.038591053121248768 -0.010999335814916748 0 -0.039181152780686318 -0.010762518517548203 0 -0.039109551843123001 -0.01209421953008534 0 -0.039308314712729879 -0.012279358646085972 0 -0.039109551843123001 -0.01209421953008534 0 -0.03912516381642045 -0.01232979838071612 0 -0.030324828515313207 -0.022446647791724995 0 -0.028472166647734855 -0.022251882767069794 0 -0.029691608207837845 -0.021476826057105988 0 -0.028472166647734855 -0.022251882767069794 0 -0.029691608207837845 -0.021476826057105988 0 -0.02892244958134748 -0.020784631588577188 0 -0.030324828515313207 -0.022446647791724995 0 -0.029691608207837845 -0.021476826057105988 0 -0.030665844043503896 -0.02096328356966851 0 -0.032211232491617899 -0.020124101753750394 0 -0.030324828515313207 -0.022446647791724995 0 -0.030665844043503896 -0.02096328356966851 0 -0.030665844043503896 -0.02096328356966851 0 -0.03000657643556388 -0.020310812273054077 0 -0.031099227870769235 -0.019985145696072324 0 -0.029691608207837845 -0.021476826057105988 0 -0.030665844043503896 -0.02096328356966851 0 -0.03000657643556388 -0.020310812273054077 0 -0.03000657643556388 -0.020310812273054077 0 -0.031099227870769235 -0.019985145696072324 0 -0.030572301342534334 -0.019345031913773104 0 -0.02892244958134748 -0.020784631588577188 0 -0.029141034168972103 -0.019317103614041396 0 -0.027637409909448241 -0.019539728868302124 0 -0.03000657643556388 -0.020310812273054077 0 -0.02892244958134748 -0.020784631588577188 0 -0.029141034168972103 -0.019317103614041396 0 -0.029691608207837845 -0.021476826057105988 0 -0.03000657643556388 -0.020310812273054077 0 -0.02892244958134748 -0.020784631588577188 0 -0.029141034168972103 -0.019317103614041396 0 -0.029090854597383604 -0.01800049573925425 0 -0.02782826245229128 -0.018247453089040258 0 -0.029141034168972103 -0.019317103614041396 0 -0.030159560089441758 -0.01799675866558945 0 -0.029090854597383604 -0.01800049573925425 0 -0.030572301342534334 -0.019345031913773104 0 -0.030159560089441758 -0.01799675866558945 0 -0.031849493603081841 -0.018726572338815847 0 -0.029141034168972103 -0.019317103614041396 0 -0.030572301342534334 -0.019345031913773104 0 -0.030159560089441758 -0.01799675866558945 0 -0.03000657643556388 -0.020310812273054077 0 -0.029141034168972103 -0.019317103614041396 0 -0.030572301342534334 -0.019345031913773104 0 -0.030159560089441758 -0.01799675866558945 0 -0.029090854597383604 -0.01800049573925425 0 -0.029355827688616987 -0.016785529814063564 0 -0.0286530601081833 -0.015229009037586222 0 -0.031140274967552711 -0.016137856365232284 0 -0.028910024222038869 -0.013493112372617086 0 -0.029090854597383604 -0.01800049573925425 0 -0.029355827688616987 -0.016785529814063564 0 -0.02773572766156978 -0.016612923272709065 0 -0.029355827688616987 -0.016785529814063564 0 -0.0286530601081833 -0.015229009037586222 0 -0.02773572766156978 -0.016612923272709065 0 -0.030159560089441758 -0.01799675866558945 0 -0.029355827688616987 -0.016785529814063564 0 -0.031140274967552711 -0.016137856365232284 0 -0.029355827688616987 -0.016785529814063564 0 -0.0286530601081833 -0.015229009037586222 0 -0.031140274967552711 -0.016137856365232284 0 -0.033796491595183387 -0.016922625822870092 0 -0.034325614485106432 -0.016909180074931161 0 -0.033812470785152822 -0.017244035026153424 0 -0.031140274967552711 -0.016137856365232284 0 -0.031849493603081841 -0.018726572338815847 0 -0.033907821173656476 -0.018935271458523757 0 -0.033796491595183387 -0.016922625822870092 0 -0.034325614485106432 -0.016909180074931161 0 -0.033907821173656476 -0.018935271458523757 0 -0.032502772064315781 -0.016801854552202903 0 -0.033867225025072348 -0.018779498764648725 0 -0.030159560089441758 -0.01799675866558945 0 -0.031140274967552711 -0.016137856365232284 0 -0.031849493603081841 -0.018726572338815847 0 -0.032211232491617899 -0.020124101753750394 0 -0.031099227870769235 -0.019985145696072324 0 -0.031849493603081841 -0.018726572338815847 0 -0.031099227870769235 -0.019985145696072324 0 -0.030572301342534334 -0.019345031913773104 0 -0.031849493603081841 -0.018726572338815847 0 -0.032211232491617899 -0.020124101753750394 0 -0.031849493603081841 -0.018726572338815847 0 -0.033907821173656476 -0.018935271458523757 0 -0.032211232491617899 -0.020124101753750394 0 -0.033907821173656476 -0.018935271458523757 0 -0.035024374445461935 -0.019412628734746664 0 -0.035024374445461935 -0.019412628734746664 0 -0.035667162805605834 -0.017136155148022976 0 -0.038523019516083369 -0.015406723416861338 0 -0.034325614485106432 -0.016909180074931161 0 -0.033907821173656476 -0.018935271458523757 0 -0.035667162805605834 -0.017136155148022976 0 -0.033907821173656476 -0.018935271458523757 0 -0.035024374445461935 -0.019412628734746664 0 -0.035667162805605834 -0.017136155148022976 0 -0.040078392137137146 -0.012762747808887436 0 -0.039191039654409163 -0.013360383096951743 0 -0.039099881654511774 -0.013826910273660923 0 -0.040078392137137146 -0.012762747808887436 0 -0.039099881654511774 -0.013826910273660923 0 -0.038523019516083369 -0.015406723416861338 0 -0.037327369663058621 -0.016026825597065756 0 -0.038440524476640738 -0.015526619061396171 0 -0.039191039654409163 -0.013360383096951743 0 -0.039099881654511774 -0.013826910273660923 0 -0.038739945028233871 -0.013653754932365364 0 -0.039069414287434878 -0.01287242668413633 0 -0.039191039654409163 -0.013360383096951743 0 -0.038739945028233871 -0.013653754932365364 0 -0.039099881654511774 -0.013826910273660923 0 -0.038523019516083369 -0.015406723416861338 0 -0.038739945028233871 -0.013653754932365364 0 -0.035667162805605834 -0.017136155148022976 0 -0.038523019516083369 -0.015406723416861338 0 -0.036610110111598121 -0.015875034223444488 0 -0.038523019516083369 -0.015406723416861338 0 -0.036610110111598121 -0.015875034223444488 0 -0.038163151239255955 -0.014924245707489465 0 -0.034325614485106432 -0.016909180074931161 0 -0.035395401765524616 -0.016546643558594781 0 -0.034396258975138851 -0.015983702566031273 0 -0.036610110111598121 -0.015875034223444488 0 -0.035395401765524616 -0.016546643558594781 0 -0.034396258975138851 -0.015983702566031273 0 -0.034325614485106432 -0.016909180074931161 0 -0.035667162805605834 -0.017136155148022976 0 -0.035395401765524616 -0.016546643558594781 0 -0.035667162805605834 -0.017136155148022976 0 -0.036610110111598121 -0.015875034223444488 0 -0.035395401765524616 -0.016546643558594781 0 -0.032427193837262447 -0.024109849731526183 0 -0.031717167971277438 -0.022168112604878071 0 -0.032056373046616203 -0.022749593063607677 0 -0.035365762497847134 -0.019514608798357352 0 -0.033341297186350594 -0.019192508271785501 0 -0.036610110111598121 -0.015875034223444488 0 -0.038163151239255955 -0.014924245707489465 0 -0.034396258975138851 -0.015983702566031273 0 -0.032056373046616203 -0.022749593063607677 0 -0.0324481884465673 -0.023290571557106409 0 -0.03244983988066881 -0.022895986234508465 0 -0.0324481884465673 -0.023290571557106409 0 -0.03244983988066881 -0.022895986234508465 0 -0.032939197531000455 -0.02349145756164242 0 -0.032427193837262447 -0.024109849731526183 0 -0.0324481884465673 -0.023290571557106409 0 -0.032939197531000455 -0.02349145756164242 0 -0.032427193837262447 -0.024109849731526183 0 -0.032056373046616203 -0.022749593063607677 0 -0.0324481884465673 -0.023290571557106409 0 -0.032056373046616203 -0.022749593063607677 0 -0.03244983988066881 -0.022895986234508465 0 -0.032047262440124111 -0.022463875446333884 0 -0.03244983988066881 -0.022895986234508465 0 -0.032047262440124111 -0.022463875446333884 0 -0.032600874630885852 -0.02252398562976865 0 -0.031717167971277438 -0.022168112604878071 0 -0.032056373046616203 -0.022749593063607677 0 -0.031885947310913383 -0.022126814013509882 0 -0.032056373046616203 -0.022749593063607677 0 -0.032047262440124111 -0.022463875446333884 0 -0.031885947310913383 -0.022126814013509882 0 -0.031885947310913383 -0.022126814013509882 0 -0.03225728237339584 -0.021419521816487284 0 -0.03208505810528197 -0.022150881985246198 0 -0.031717167971277438 -0.022168112604878071 0 -0.031885947310913383 -0.022126814013509882 0 -0.03225728237339584 -0.021419521816487284 0 -0.031717167971277438 -0.022168112604878071 0 -0.03225728237339584 -0.021419521816487284 0 -0.033401550390757158 -0.019634531600479229 0 -0.03225728237339584 -0.021419521816487284 0 -0.032902661523552028 -0.021695978305707176 0 -0.03208505810528197 -0.022150881985246198 0 -0.033401550390757158 -0.019634531600479229 0 -0.033762461784531184 -0.018346920291431434 0 -0.034532784489138865 -0.021240983414947148 0 -0.033401550390757158 -0.019634531600479229 0 -0.032902661523552028 -0.021695978305707176 0 -0.034532784489138865 -0.021240983414947148 0 -0.03225728237339584 -0.021419521816487284 0 -0.033401550390757158 -0.019634531600479229 0 -0.032902661523552028 -0.021695978305707176 0 -0.033401550390757158 -0.019634531600479229 0 -0.033762461784531184 -0.018346920291431434 0 -0.033812470785152822 -0.017244035026153424 0 -0.032502772064315781 -0.016801854552202903 0 -0.031390668569904086 -0.015235647911169126 0 -0.033796491595183387 -0.016922625822870092 0 -0.033762461784531184 -0.018346920291431434 0 -0.033812470785152822 -0.017244035026153424 0 -0.0286530601081833 -0.015229009037586222 0 -0.028910024222038869 -0.013493112372617086 0 -0.027777008545152013 -0.01404936476937803 0 -0.033341297186350594 -0.019192508271785501 0 -0.033665342245862061 -0.019641575288975692 0 -0.034325614485106432 -0.016909180074931161 0 -0.034396258975138851 -0.015983702566031273 0 -0.033812470785152822 -0.017244035026153424 0 -0.034396258975138851 -0.015983702566031273 0 -0.033401550390757158 -0.019634531600479229 0 -0.033812470785152822 -0.017244035026153424 0 -0.039613420703340431 -0.026566652773033987 0 -0.037942891947810635 -0.026496310654862614 0 -0.038336344372292247 -0.025300187171753145 0 -0.037942891947810635 -0.026496310654862614 0 -0.036596338517083535 -0.026340091386105872 0 -0.036911666428918195 -0.025368522995458748 0 -0.037942891947810635 -0.026496310654862614 0 -0.036911666428918195 -0.025368522995458748 0 -0.038336344372292247 -0.025300187171753145 0 -0.037942891947810635 -0.026496310654862614 0 -0.038271147473469901 -0.02838062989231574 0 -0.036596338517083535 -0.026340091386105872 0 -0.039613420703340431 -0.026566652773033987 0 -0.037942891947810635 -0.026496310654862614 0 -0.038271147473469901 -0.02838062989231574 0 -0.041667172491566255 -0.01687696029562907 0 -0.041396719103761234 -0.01474268561968262 0 -0.039461675140565436 -0.014853716437770692 0 -0.041667172491566255 -0.01687696029562907 0 -0.041396719103761234 -0.01474268561968262 0 -0.043696498644451159 -0.015447794731923946 0 -0.040988143876807895 -0.01406508499230553 0 -0.03918716722542278 -0.013852683610918456 0 -0.041667172491566255 -0.01687696029562907 0 -0.039461675140565436 -0.014853716437770692 0 -0.039013127494010674 -0.015509175205851451 0 -0.039884692470899458 -0.018068992085007958 0 -0.039296745402571741 -0.014914828281889253 0 -0.036596338517083535 -0.026340091386105872 0 -0.035634976841964171 -0.025335934831430564 0 -0.034321586049888705 -0.026118633093335362 0 -0.039884692470899458 -0.018068992085007958 0 -0.036402488621110562 -0.020941566859511422 0 -0.038271147473469901 -0.02838062989231574 0 -0.036596338517083535 -0.026340091386105872 0 -0.034321586049888705 -0.026118633093335362 0 -0.039124228203322571 -0.014916243852326693 0 -0.038853943667098656 -0.014891970362824677 0 -0.038660792426549045 -0.01470752908052117 0 -0.036596338517083535 -0.026340091386105872 0 -0.035634976841964171 -0.025335934831430564 0 -0.036911666428918195 -0.025368522995458748 0 -0.038472376866110436 -0.014711986913743065 0 -0.038660792426549045 -0.01470752908052117 0 -0.038415408842965744 -0.014904802224112383 0 -0.035634976841964171 -0.025335934831430564 0 -0.034321586049888705 -0.026118633093335362 0 -0.034544083944688449 -0.024618061671102243 0 -0.038472376866110436 -0.014711986913743065 0 -0.038660792426549045 -0.01470752908052117 0 -0.038654773489600475 -0.014851960343387365 0 -0.039084779330934211 -0.011992970985702175 0 -0.038389477218108752 -0.014307583515743186 0 -0.038644913782185562 -0.013230401629537892 0 -0.039013127494010674 -0.015509175205851451 0 -0.038654773489600475 -0.014851960343387365 0 -0.038389477218108752 -0.014307583515743186 0 -0.03918716722542278 -0.013852683610918456 0 -0.038620656664772303 -0.014224367616611684 0 -0.039461675140565436 -0.014853716437770692 0 -0.039013127494010674 -0.015509175205851451 0 -0.038654773489600475 -0.014851960343387365 0 -0.038851024235476241 -0.012623010789481139 0 -0.039084779330934211 -0.011992970985702175 0 -0.038644913782185562 -0.013230401629537892 0 -0.039296745402571741 -0.014914828281889253 0 -0.038673404821677235 -0.014874494284399502 0 -0.038853943667098656 -0.014891970362824677 0 -0.038660792426549045 -0.01470752908052117 0 -0.038654773489600475 -0.014851960343387365 0 -0.038851024235476241 -0.012623010789481139 0 -0.039097168314798432 -0.012162566434229917 0 -0.039084779330934211 -0.011992970985702175 0 -0.038472376866110436 -0.014711986913743065 0 -0.038654773489600475 -0.014851960343387365 0 -0.038389477218108752 -0.014307583515743186 0 -0.038878464607193818 -0.012837378263461954 0 -0.038644913782185562 -0.013230401629537892 0 -0.038739945028233871 -0.013653754932365364 0 -0.038389477218108752 -0.014307583515743186 0 -0.038644913782185562 -0.013230401629537892 0 -0.038739945028233871 -0.013653754932365364 0 -0.038523019516083369 -0.015406723416861338 0 -0.038389477218108752 -0.014307583515743186 0 -0.038739945028233871 -0.013653754932365364 0 -0.032427193837262447 -0.024109849731526183 0 -0.034321586049888705 -0.026118633093335362 0 -0.033578669272616581 -0.024353121143122554 0 -0.038523019516083369 -0.015406723416861338 0 -0.038163151239255955 -0.014924245707489465 0 -0.038415408842965744 -0.014904802224112383 0 -0.035365762497847134 -0.019514608798357352 0 -0.036402488621110562 -0.020941566859511422 0 -0.038523019516083369 -0.015406723416861338 0 -0.038389477218108752 -0.014307583515743186 0 -0.038415408842965744 -0.014904802224112383 0 -0.038163151239255955 -0.014924245707489465 0 -0.038660792426549045 -0.01470752908052117 0 -0.038415408842965744 -0.014904802224112383 0 -0.038472376866110436 -0.014711986913743065 0 -0.038389477218108752 -0.014307583515743186 0 -0.038415408842965744 -0.014904802224112383 0 -0.032427193837262447 -0.024109849731526183 0 -0.033578669272616581 -0.024353121143122554 0 -0.032939197531000455 -0.02349145756164242 0 -0.033578669272616581 -0.024353121143122554 0 -0.032939197531000455 -0.02349145756164242 0 -0.033881362967013329 -0.023521861532774899 0 -0.03244983988066881 -0.022895986234508465 0 -0.032939197531000455 -0.02349145756164242 0 -0.033182368105432195 -0.022830102830592218 0 -0.03244983988066881 -0.022895986234508465 0 -0.033182368105432195 -0.022830102830592218 0 -0.032600874630885852 -0.02252398562976865 0 -0.032939197531000455 -0.02349145756164242 0 -0.033182368105432195 -0.022830102830592218 0 -0.033881362967013329 -0.023521861532774899 0 -0.033182368105432195 -0.022830102830592218 0 -0.033881362967013329 -0.023521861532774899 0 -0.033961592055547621 -0.022630354663676355 0 -0.033961592055547621 -0.022630354663676355 0 -0.034772725143306898 -0.023071725005017245 0 -0.03477856926295491 -0.022374561508348895 0 -0.033881362967013329 -0.023521861532774899 0 -0.033961592055547621 -0.022630354663676355 0 -0.034772725143306898 -0.023071725005017245 0 -0.033881362967013329 -0.023521861532774899 0 -0.034772725143306898 -0.023071725005017245 0 -0.034711241178285446 -0.023788486105780382 0 -0.033881362967013329 -0.023521861532774899 0 -0.034711241178285446 -0.023788486105780382 0 -0.034544083944688449 -0.024618061671102243 0 -0.033578669272616581 -0.024353121143122554 0 -0.033881362967013329 -0.023521861532774899 0 -0.034544083944688449 -0.024618061671102243 0 -0.034321586049888705 -0.026118633093335362 0 -0.033578669272616581 -0.024353121143122554 0 -0.034544083944688449 -0.024618061671102243 0 -0.035634976841964171 -0.025335934831430564 0 -0.034544083944688449 -0.024618061671102243 0 -0.035728293196394457 -0.02400977303437845 0 -0.036911666428918195 -0.025368522995458748 0 -0.035728293196394457 -0.02400977303437845 0 -0.037210462393228276 -0.024073068353865437 0 -0.035634976841964171 -0.025335934831430564 0 -0.036911666428918195 -0.025368522995458748 0 -0.035728293196394457 -0.02400977303437845 0 -0.035728293196394457 -0.02400977303437845 0 -0.036507552172143208 -0.023033433672673208 0 -0.037210462393228276 -0.024073068353865437 0 -0.034711241178285446 -0.023788486105780382 0 -0.034544083944688449 -0.024618061671102243 0 -0.035728293196394457 -0.02400977303437845 0 -0.034772725143306898 -0.023071725005017245 0 -0.034711241178285446 -0.023788486105780382 0 -0.035728293196394457 -0.02400977303437845 0 -0.036507552172143208 -0.023033433672673208 0 -0.036236849816578591 -0.021178390145464979 0 -0.035565851787804553 -0.022242831611808844 0 -0.034772725143306898 -0.023071725005017245 0 -0.035728293196394457 -0.02400977303437845 0 -0.035522066573791991 -0.022909522603483907 0 -0.035522066573791991 -0.022909522603483907 0 -0.035565851787804553 -0.022242831611808844 0 -0.03477856926295491 -0.022374561508348895 0 -0.034772725143306898 -0.023071725005017245 0 -0.035522066573791991 -0.022909522603483907 0 -0.03477856926295491 -0.022374561508348895 0 -0.035522066573791991 -0.022909522603483907 0 -0.036507552172143208 -0.023033433672673208 0 -0.035565851787804553 -0.022242831611808844 0 -0.035728293196394457 -0.02400977303437845 0 -0.035522066573791991 -0.022909522603483907 0 -0.036507552172143208 -0.023033433672673208 0 -0.036507552172143208 -0.023033433672673208 0 -0.038444618035575091 -0.023084752958503013 0 -0.037210462393228276 -0.024073068353865437 0 -0.036507552172143208 -0.023033433672673208 0 -0.038444618035575091 -0.023084752958503013 0 -0.036236849816578591 -0.021178390145464979 0 -0.039942649812669817 -0.022696950867363272 0 -0.041663556435792441 -0.020410887672376508 0 -0.039942649812669817 -0.022696950867363272 0 -0.036716031030847085 -0.02208942787674047 0 -0.038444618035575091 -0.023084752958503013 0 -0.038698235337668085 -0.023855690533969885 0 -0.037210462393228276 -0.024073068353865437 0 -0.039942649812669817 -0.022696950867363272 0 -0.039187296022729516 -0.023538586254846623 0 -0.036911666428918195 -0.025368522995458748 0 -0.037210462393228276 -0.024073068353865437 0 -0.038336344372292247 -0.025300187171753145 0 -0.038698235337668085 -0.023855690533969885 0 -0.037210462393228276 -0.024073068353865437 0 -0.038336344372292247 -0.025300187171753145 0 -0.038698235337668085 -0.023855690533969885 0 -0.038336344372292247 -0.025300187171753145 0 -0.041325746666804893 -0.024328313264900467 0 -0.039613420703340431 -0.026566652773033987 0 -0.038336344372292247 -0.025300187171753145 0 -0.041325746666804893 -0.024328313264900467 0 -0.038009936885612335 -0.022046385927321686 0 -0.036716031030847085 -0.02208942787674047 0 -0.039448300548234692 -0.019863521443546202 0 -0.038612869080654491 -0.021272318113858178 0 -0.039807251773811086 -0.02130989858405893 0 -0.039575588904180302 -0.022747099301416381 0 -0.038612869080654491 -0.021272318113858178 0 -0.039807251773811086 -0.02130989858405893 0 -0.035441696553979329 -0.022061394727578173 0 -0.03477856926295491 -0.022374561508348895 0 -0.03439455121938273 -0.022111903685299587 0 -0.035441696553979329 -0.022061394727578173 0 -0.035565851787804553 -0.022242831611808844 0 -0.03477856926295491 -0.022374561508348895 0 -0.036716031030847085 -0.02208942787674047 0 -0.035936479685654062 -0.022290779430993061 0 -0.036716031030847085 -0.02208942787674047 0 -0.035442416593727585 -0.022456480049694479 0 -0.035441696553979329 -0.022061394727578173 0 -0.03439455121938273 -0.022111903685299587 0 -0.034109476631547522 -0.021663151550514095 0 -0.036960621984457105 -0.023443788136131526 0 -0.036684294245755644 -0.023881380776906977 0 -0.036291865735338463 -0.023342900957545858 0 -0.03439455121938273 -0.022111903685299587 0 -0.033428922232248096 -0.022249597553099378 0 -0.034109476631547522 -0.021663151550514095 0 -0.033428922232248096 -0.022249597553099378 0 -0.033091311440611414 -0.022028015349509846 0 -0.034109476631547522 -0.021663151550514095 0 -0.033961592055547621 -0.022630354663676355 0 -0.03439455121938273 -0.022111903685299587 0 -0.033428922232248096 -0.022249597553099378 0 -0.033961592055547621 -0.022630354663676355 0 -0.03477856926295491 -0.022374561508348895 0 -0.03439455121938273 -0.022111903685299587 0 -0.033182368105432195 -0.022830102830592218 0 -0.033961592055547621 -0.022630354663676355 0 -0.033428922232248096 -0.022249597553099378 0 -0.033182368105432195 -0.022830102830592218 0 -0.033428922232248096 -0.022249597553099378 0 -0.032600874630885852 -0.02252398562976865 0 -0.033428922232248096 -0.022249597553099378 0 -0.032731653956165854 -0.02229685885848972 0 -0.032600874630885852 -0.02252398562976865 0 -0.033428922232248096 -0.022249597553099378 0 -0.033091311440611414 -0.022028015349509846 0 -0.032731653956165854 -0.02229685885848972 0 -0.033091311440611414 -0.022028015349509846 0 -0.032975815684588732 -0.02172210268402652 0 -0.032294827932778665 -0.02232288043150904 0 -0.033091311440611414 -0.022028015349509846 0 -0.032975815684588732 -0.02172210268402652 0 -0.034109476631547522 -0.021663151550514095 0 -0.032975815684588732 -0.02172210268402652 0 -0.033299747731630303 -0.021211762618011255 0 -0.032366011913510392 -0.021775263292918731 0 -0.030011487628007961 -0.025661298107064461 0 -0.031174782215957875 -0.024311360580047705 0 -0.030671520343914894 -0.025475067499570278 0 -0.032516045117552302 -0.0234901243736075 0 -0.031672591067734422 -0.02309500732520435 0 -0.030011487628007961 -0.025661298107064461 0 -0.030145788605899462 -0.025974001583862382 0 -0.030671520343914894 -0.025475067499570278 0 -0.032516045117552302 -0.0234901243736075 0 -0.032185833047154513 -0.024225880459177323 0 -0.032516045117552302 -0.0234901243736075 0 -0.032673574817910341 -0.024973459320258788 0 -0.030019934228277468 -0.025919812407092586 0 -0.029227285708155918 -0.027104948357005745 0 -0.030145788605899462 -0.025974001583862382 0 -0.035845406657977641 -0.022762855955950241 0 -0.036291865735338463 -0.023342900957545858 0 -0.036255924650507469 -0.022661774033880745 0 -0.032975815684588732 -0.02172210268402652 0 -0.033299747731630303 -0.021211762618011255 0 -0.034109476631547522 -0.021663151550514095 0 -0.032516045117552302 -0.0234901243736075 0 -0.035442416593727585 -0.022456480049694479 0 -0.036291865735338463 -0.023342900957545858 0 -0.036561339353352471 -0.023016647507573547 0 -0.036866058160776344 -0.023132740944377592 0 -0.036291865735338463 -0.023342900957545858 0 -0.036561339353352471 -0.023016647507573547 0 -0.036255924650507469 -0.022661774033880745 0 -0.036589578558754499 -0.022763033265836743 0 -0.036561339353352471 -0.023016647507573547 0 -0.036255924650507469 -0.022661774033880745 0 -0.036589578558754499 -0.022763033265836743 0 -0.036561339353352471 -0.023016647507573547 0 -0.03673347526786308 -0.022883672002596805 0 -0.036561339353352471 -0.023016647507573547 0 -0.03673347526786308 -0.022883672002596805 0 -0.036866058160776344 -0.023132740944377592 0 -0.03673347526786308 -0.022883672002596805 0 -0.036946558030925676 -0.022844807086118697 0 -0.036866058160776344 -0.023132740944377592 0 -0.03673347526786308 -0.022883672002596805 0 -0.0368259251891895 -0.022773131061777915 0 -0.036946558030925676 -0.022844807086118697 0 -0.03673347526786308 -0.022883672002596805 0 -0.0368259251891895 -0.022773131061777915 0 -0.036723687330873257 -0.022676383875291778 0 -0.036589578558754499 -0.022763033265836743 0 -0.03673347526786308 -0.022883672002596805 0 -0.036723687330873257 -0.022676383875291778 0 -0.0368259251891895 -0.022773131061777915 0 -0.036898259222803216 -0.022687177470596773 0 -0.036723687330873257 -0.022676383875291778 0 -0.037075319585357404 -0.022741116474900059 0 -0.036898259222803216 -0.022687177470596773 0 -0.036946558030925676 -0.022844807086118697 0 -0.0368259251891895 -0.022773131061777915 0 -0.036898259222803216 -0.022687177470596773 0 -0.036946558030925676 -0.022844807086118697 0 -0.037075319585357404 -0.022741116474900059 0 -0.036946558030925676 -0.022844807086118697 0 -0.037091866571736999 -0.022900460207493003 0 -0.036946558030925676 -0.022844807086118697 0 -0.036866058160776344 -0.023132740944377592 0 -0.037091866571736999 -0.022900460207493003 0 -0.036960621984457105 -0.023443788136131526 0 -0.036291865735338463 -0.023342900957545858 0 -0.036866058160776344 -0.023132740944377592 0 -0.036960621984457105 -0.023443788136131526 0 -0.036866058160776344 -0.023132740944377592 0 -0.037270551088634814 -0.022980154225415717 0 -0.031849991152360639 -0.022712708156909914 0 -0.032360522064572586 -0.022618812589956863 0 -0.031622303962187889 -0.023312929715906261 0 -0.031849991152360639 -0.022712708156909914 0 -0.031846330977231531 -0.022742072127667302 0 -0.031622303962187889 -0.023312929715906261 0 -0.032608746088478115 -0.023236850657951714 0 -0.032360522064572586 -0.022618812589956863 0 -0.031622303962187889 -0.023312929715906261 0 -0.029633701267119034 -0.026372665035966525 0 -0.029373531695174624 -0.025607759442028654 0 -0.032608746088478115 -0.023236850657951714 0 -0.032360522064572586 -0.022618812589956863 0 -0.033495952793728898 -0.02251596818731175 0 -0.032360522064572586 -0.022618812589956863 0 -0.032902661523552028 -0.021695978305707176 0 -0.033495952793728898 -0.02251596818731175 0 -0.032360522064572586 -0.022618812589956863 0 -0.032902661523552028 -0.021695978305707176 0 -0.03208505810528197 -0.022150881985246198 0 -0.031849991152360639 -0.022712708156909914 0 -0.032360522064572586 -0.022618812589956863 0 -0.03208505810528197 -0.022150881985246198 0 -0.031849991152360639 -0.022712708156909914 0 -0.03208505810528197 -0.022150881985246198 0 -0.031893603509464519 -0.02246168631851303 0 -0.031885947310913383 -0.022126814013509882 0 -0.03208505810528197 -0.022150881985246198 0 -0.031893603509464519 -0.02246168631851303 0 -0.032047262440124111 -0.022463875446333884 0 -0.031885947310913383 -0.022126814013509882 0 -0.031893603509464519 -0.02246168631851303 0 -0.032047262440124111 -0.022463875446333884 0 -0.031893603509464519 -0.02246168631851303 0 -0.032174928911915743 -0.022470855908609751 0 -0.032047262440124111 -0.022463875446333884 0 -0.032600874630885852 -0.02252398562976865 0 -0.032174928911915743 -0.022470855908609751 0 -0.032731653956165854 -0.02229685885848972 0 -0.032600874630885852 -0.02252398562976865 0 -0.032174928911915743 -0.022470855908609751 0 -0.032731653956165854 -0.02229685885848972 0 -0.032174928911915743 -0.022470855908609751 0 -0.032294827932778665 -0.02232288043150904 0 -0.033091311440611414 -0.022028015349509846 0 -0.032731653956165854 -0.02229685885848972 0 -0.032294827932778665 -0.02232288043150904 0 -0.032174928911915743 -0.022470855908609751 0 -0.031846330977231531 -0.022742072127667302 0 -0.032294827932778665 -0.02232288043150904 0 -0.031893603509464519 -0.02246168631851303 0 -0.032174928911915743 -0.022470855908609751 0 -0.031846330977231531 -0.022742072127667302 0 -0.031849991152360639 -0.022712708156909914 0 -0.031893603509464519 -0.02246168631851303 0 -0.031846330977231531 -0.022742072127667302 0 -0.031846330977231531 -0.022742072127667302 0 -0.032294827932778665 -0.02232288043150904 0 -0.031504419012821083 -0.023287615697540353 0 -0.032294827932778665 -0.02232288043150904 0 -0.032366011913510392 -0.021775263292918731 0 -0.031504419012821083 -0.023287615697540353 0 -0.032975815684588732 -0.02172210268402652 0 -0.032294827932778665 -0.02232288043150904 0 -0.032366011913510392 -0.021775263292918731 0 -0.031174782215957875 -0.024311360580047705 0 -0.031449202456582795 -0.024755547583374435 0 -0.030671520343914894 -0.025475067499570278 0 -0.031174782215957875 -0.024311360580047705 0 -0.031506491543754414 -0.023831200356194068 0 -0.031449202456582795 -0.024755547583374435 0 -0.031672591067734422 -0.02309500732520435 0 -0.031700997937748387 -0.023196036027049047 0 -0.031174782215957875 -0.024311360580047705 0 -0.031506491543754414 -0.023831200356194068 0 -0.031504419012821083 -0.023287615697540353 0 -0.031506491543754414 -0.023831200356194068 0 -0.031408884436281106 -0.023630264782316737 0 -0.031300979923892122 -0.022808035744916206 0 -0.031408884436281106 -0.023630264782316737 0 -0.031377207946475964 -0.023577458407163812 0 -0.030722687785698831 -0.024126079728167542 0 -0.031506491543754414 -0.023831200356194068 0 -0.031408884436281106 -0.023630264782316737 0 -0.031504419012821083 -0.023287615697540353 0 -0.031846330977231531 -0.022742072127667302 0 -0.031504419012821083 -0.023287615697540353 0 -0.031622303962187889 -0.023312929715906261 0 -0.031408884436281106 -0.023630264782316737 0 -0.031504419012821083 -0.023287615697540353 0 -0.031377207946475964 -0.023577458407163812 0 -0.031504419012821083 -0.023287615697540353 0 -0.031377207946475964 -0.023577458407163812 0 -0.031622303962187889 -0.023312929715906261 0 -0.031377207946475964 -0.023577458407163812 0 -0.031622303962187889 -0.023312929715906261 0 -0.030722687785698831 -0.024126079728167542 0 -0.027845662380767619 -0.02943797914301122 0 -0.029771226906605663 -0.025282288209634331 0 -0.030722687785698831 -0.024126079728167542 0 -0.029633701267119034 -0.026372665035966525 0 -0.030929292606050672 -0.024139905631199988 0 -0.032608746088478115 -0.023236850657951714 0 -0.031622303962187889 -0.023312929715906261 0 -0.030722687785698831 -0.024126079728167542 0 -0.027844073731166662 -0.027771467497872356 0 -0.027489643992387326 -0.02620848017117916 0 -0.029771226906605663 -0.025282288209634331 0 -0.029633701267119034 -0.026372665035966525 0 -0.029145436147020354 -0.026398118009856846 0 -0.027489643992387326 -0.02620848017117916 0 -0.029771226906605663 -0.025282288209634331 0 -0.028860077932386895 -0.023886983360986255 0 -0.031408884436281106 -0.023630264782316737 0 -0.028860077932386895 -0.023886983360986255 0 -0.031300979923892122 -0.022808035744916206 0 -0.031408884436281106 -0.023630264782316737 0 -0.028860077932386895 -0.023886983360986255 0 -0.030722687785698831 -0.024126079728167542 0 -0.028860077932386895 -0.023886983360986255 0 -0.026842183206774513 -0.022472894265146062 0 -0.031300979923892122 -0.022808035744916206 0 -0.029771226906605663 -0.025282288209634331 0 -0.028860077932386895 -0.023886983360986255 0 -0.030722687785698831 -0.024126079728167542 0 -0.028860077932386895 -0.023886983360986255 0 -0.026842183206774513 -0.022472894265146062 0 -0.025472359255541577 -0.025699004844011674 0 -0.026842183206774513 -0.022472894265146062 0 -0.02172707048815312 -0.024774994373837247 0 -0.025472359255541577 -0.025699004844011674 0 -0.024213460068943145 -0.024652843295541717 0 -0.022033975638906547 -0.024726794503887387 0 -0.022548466982349739 -0.026214757599534125 0 -0.025472359255541577 -0.025699004844011674 0 -0.023929219067364008 -0.027734794387827354 0 -0.02172707048815312 -0.024774994373837247 0 -0.022548466982349739 -0.026214757599534125 0 -0.025472359255541577 -0.025699004844011674 0 -0.025472359255541577 -0.025699004844011674 0 -0.025912350363868353 -0.027739581092318794 0 -0.023929219067364008 -0.027734794387827354 0 -0.027489643992387326 -0.02620848017117916 0 -0.028860077932386895 -0.023886983360986255 0 -0.025472359255541577 -0.025699004844011674 0 -0.027489643992387326 -0.02620848017117916 0 -0.025472359255541577 -0.025699004844011674 0 -0.025912350363868353 -0.027739581092318794 0 -0.027844073731166662 -0.027771467497872356 0 -0.027489643992387326 -0.02620848017117916 0 -0.025912350363868353 -0.027739581092318794 0 -0.027844073731166662 -0.027771467497872356 0 -0.025912350363868353 -0.027739581092318794 0 -0.026476702215870243 -0.029495241986992628 0 -0.025912350363868353 -0.027739581092318794 0 -0.024533427375396672 -0.02911989489508943 0 -0.026476702215870243 -0.029495241986992628 0 -0.025912350363868353 -0.027739581092318794 0 -0.023929219067364008 -0.027734794387827354 0 -0.024533427375396672 -0.02911989489508943 0 -0.022548466982349739 -0.026214757599534125 0 -0.023929219067364008 -0.027734794387827354 0 -0.021623789197175062 -0.027383322044622748 0 -0.023929219067364008 -0.027734794387827354 0 -0.022650675214189484 -0.029160347847917292 0 -0.021623789197175062 -0.027383322044622748 0 -0.023929219067364008 -0.027734794387827354 0 -0.024533427375396672 -0.02911989489508943 0 -0.022650675214189484 -0.029160347847917292 0 -0.024533427375396672 -0.02911989489508943 0 -0.022650675214189484 -0.029160347847917292 0 -0.023792695028862821 -0.030260271711032287 0 -0.022838984785517682 -0.030361525598173969 0 -0.023792695028862821 -0.030260271711032287 0 -0.02366068876860378 -0.031252214851707684 0 -0.022650675214189484 -0.029160347847917292 0 -0.022838984785517682 -0.030361525598173969 0 -0.023792695028862821 -0.030260271711032287 0 -0.023792695028862821 -0.030260271711032287 0 -0.024806404614446446 -0.030265819261164454 0 -0.02431399788147923 -0.031002911925370653 0 -0.024533427375396672 -0.02911989489508943 0 -0.023792695028862821 -0.030260271711032287 0 -0.024806404614446446 -0.030265819261164454 0 -0.024806404614446446 -0.030265819261164454 0 -0.025147438202478403 -0.030799720767542473 0 -0.02431399788147923 -0.031002911925370653 0 -0.032902661523552028 -0.021695978305707176 0 -0.033495952793728898 -0.02251596818731175 0 -0.034532784489138865 -0.021240983414947148 0 -0.024806404614446446 -0.030265819261164454 0 -0.026476702215870243 -0.029495241986992628 0 -0.025320174193577141 -0.031004015547378045 0 -0.026843787782392211 -0.028760261511770233 0 -0.026967541263346183 -0.026356669470785465 0 -0.028503265738639722 -0.024953038392758406 0 -0.028564328799091526 -0.024743057368652906 0 -0.028542606717492099 -0.024712187132661732 0 -0.029373531695174624 -0.025607759442028654 0 -0.027792035168664908 -0.020793696922840318 0 -0.029373531695174624 -0.025607759442028654 0 -0.026967541263346183 -0.026356669470785465 0 -0.024533427375396672 -0.02911989489508943 0 -0.024806404614446446 -0.030265819261164454 0 -0.026476702215870243 -0.029495241986992628 0 -0.0181057298811696 -0.019433559452013641 0 -0.021687194396834714 -0.022090782626335057 0 -0.020629159170837835 -0.028343161094465604 0 -0.018205536074417453 -0.027904156595845872 0 -0.021237642734343139 -0.030724712557487405 0 -0.017834772908819685 -0.011022036023042043 0 -0.02191492702816935 -0.012357336708050313 0 -0.019484628719914281 -0.01301872813271902 0 -0.022650675214189484 -0.029160347847917292 0 -0.020629159170837835 -0.028343161094465604 0 -0.021237642734343139 -0.030724712557487405 0 -0.022650675214189484 -0.029160347847917292 0 -0.022838984785517682 -0.030361525598173969 0 -0.021237642734343139 -0.030724712557487405 0 -0.020629159170837835 -0.028343161094465604 0 -0.021623789197175062 -0.027383322044622748 0 -0.019660172488597544 -0.026796680459899424 0 -0.022650675214189484 -0.029160347847917292 0 -0.020629159170837835 -0.028343161094465604 0 -0.021623789197175062 -0.027383322044622748 0 -0.020629159170837835 -0.028343161094465604 0 -0.019660172488597544 -0.026796680459899424 0 -0.018205536074417453 -0.027904156595845872 0 -0.019660172488597544 -0.026796680459899424 0 -0.019169474526888906 -0.025607519710356668 0 -0.018225020188699866 -0.026218501613210168 0 -0.019660172488597544 -0.026796680459899424 0 -0.019169474526888906 -0.025607519710356668 0 -0.020817053357015568 -0.025764129323398249 0 -0.021623789197175062 -0.027383322044622748 0 -0.019660172488597544 -0.026796680459899424 0 -0.020817053357015568 -0.025764129323398249 0 -0.022548466982349739 -0.026214757599534125 0 -0.021623789197175062 -0.027383322044622748 0 -0.020817053357015568 -0.025764129323398249 0 -0.02172707048815312 -0.024774994373837247 0 -0.022548466982349739 -0.026214757599534125 0 -0.020817053357015568 -0.025764129323398249 0 -0.02172707048815312 -0.024774994373837247 0 -0.020817053357015568 -0.025764129323398249 0 -0.020621141848870334 -0.024804003886124984 0 -0.019169474526888906 -0.025607519710356668 0 -0.020817053357015568 -0.025764129323398249 0 -0.020621141848870334 -0.024804003886124984 0 -0.019169474526888906 -0.025607519710356668 0 -0.020621141848870334 -0.024804003886124984 0 -0.019009277650888799 -0.024801894922501601 0 -0.019169474526888906 -0.025607519710356668 0 -0.019009277650888799 -0.024801894922501601 0 -0.017739877492887673 -0.025173195644552358 0 -0.017739877492887673 -0.025173195644552358 0 -0.01711990872650028 -0.025789619458303381 0 -0.018225020188699866 -0.026218501613210168 0 -0.019169474526888906 -0.025607519710356668 0 -0.017739877492887673 -0.025173195644552358 0 -0.018225020188699866 -0.026218501613210168 0 -0.014110017644379495 -0.012859043637850365 0 -0.015086723233366817 -0.017056832275841472 0 -0.01506133970119247 -0.013053663548718496 0 -0.017295215175266179 -0.025007072822409143 0 -0.017383880371122675 -0.025022027600633587 0 -0.017763332435335257 -0.024422467074344159 0 -0.01580894775048295 -0.019038083158925002 0 -0.016673642731737805 -0.020849994930828463 0 -0.017739877492887673 -0.025173195644552358 0 -0.017295215175266179 -0.025007072822409143 0 -0.017383880371122675 -0.025022027600633587 0 -0.016320689545447752 -0.018524246753856201 0 -0.01580894775048295 -0.019038083158925002 0 -0.017739877492887673 -0.025173195644552358 0 -0.01711990872650028 -0.025789619458303381 0 -0.017295215175266179 -0.025007072822409143 0 -0.015300935309872249 -0.010978708582203057 0 -0.014110017644379495 -0.012859043637850365 0 -0.01490037188755724 -0.010990510815340002 0 -0.014110017644379495 -0.012859043637850365 0 -0.014798986013979559 -0.011460834526245722 0 -0.01506133970119247 -0.013053663548718496 0 -0.014110017644379495 -0.012859043637850365 0 -0.014798986013979559 -0.011460834526245722 0 -0.01490037188755724 -0.010990510815340002 0 -0.014798986013979559 -0.011460834526245722 0 -0.01490037188755724 -0.010990510815340002 0 -0.014954188340965395 -0.010432375558397754 0 -0.015116433460660444 -0.010530661265448046 0 -0.014798986013979559 -0.011460834526245722 0 -0.014954188340965395 -0.010432375558397754 0 -0.015116433460660444 -0.010530661265448046 0 -0.014798986013979559 -0.011460834526245722 0 -0.015533319274298057 -0.011631953870732686 0 -0.015381179063951029 -0.010580544632755335 0 -0.014954188340965395 -0.010432375558397754 0 -0.015240044674519736 -0.010173004016837078 0 -0.01490037188755724 -0.010990510815340002 0 -0.015381179063951029 -0.010580544632755335 0 -0.014954188340965395 -0.010432375558397754 0 -0.01490037188755724 -0.010990510815340002 0 -0.015381179063951029 -0.010580544632755335 0 -0.015552786729242521 -0.010922001818942408 0 -0.014954188340965395 -0.010432375558397754 0 -0.014995844799654462 -0.0095369448782977907 0 -0.015240044674519736 -0.010173004016837078 0 -0.015116433460660444 -0.010530661265448046 0 -0.014954188340965395 -0.010432375558397754 0 -0.014995844799654462 -0.0095369448782977907 0 -0.016320689545447752 -0.018524246753856201 0 -0.0181057298811696 -0.019433559452013641 0 -0.01711990872650028 -0.025789619458303381 0 -0.018225020188699866 -0.026218501613210168 0 -0.018205536074417453 -0.027904156595845872 0 -0.015300935309872249 -0.010978708582203057 0 -0.017146847860229401 -0.011042570291119254 0 -0.017834772908819685 -0.011022036023042043 0 -0.019660172488597544 -0.026796680459899424 0 -0.018225020188699866 -0.026218501613210168 0 -0.018205536074417453 -0.027904156595845872 0 -0.015300935309872249 -0.010978708582203057 0 -0.017146847860229401 -0.011042570291119254 0 -0.01622733920291285 -0.011022469854114028 0 -0.015300935309872249 -0.010978708582203057 0 -0.01622733920291285 -0.011022469854114028 0 -0.015552786729242521 -0.010922001818942408 0 -0.015300935309872249 -0.010978708582203057 0 -0.01490037188755724 -0.010990510815340002 0 -0.015552786729242521 -0.010922001818942408 0 -0.01622733920291285 -0.011022469854114028 0 -0.015552786729242521 -0.010922001818942408 0 -0.015878114348819704 -0.01085669966478099 0 -0.015381179063951029 -0.010580544632755335 0 -0.015552786729242521 -0.010922001818942408 0 -0.015878114348819704 -0.01085669966478099 0 -0.01622733920291285 -0.011022469854114028 0 -0.015878114348819704 -0.01085669966478099 0 -0.01624064847309302 -0.01095778135028893 0 -0.017146847860229401 -0.011042570291119254 0 -0.01622733920291285 -0.011022469854114028 0 -0.01624064847309302 -0.01095778135028893 0 -0.017146847860229401 -0.011042570291119254 0 -0.01624064847309302 -0.01095778135028893 0 -0.015959966177110818 -0.010869137461702193 0 -0.017138066528906256 -0.010990711657840123 0 -0.017697373239337049 -0.011839072368024357 0 -0.017146847860229401 -0.011042570291119254 0 -0.017834772908819685 -0.011022036023042043 0 -0.019484628719914281 -0.01301872813271902 0 -0.01624064847309302 -0.01095778135028893 0 -0.015993488649550192 -0.010782182574187232 0 -0.015959966177110818 -0.010869137461702193 0 -0.015993488649550192 -0.010782182574187232 0 -0.015959966177110818 -0.010869137461702193 0 -0.015937978255720638 -0.01073929238776517 0 -0.01624064847309302 -0.01095778135028893 0 -0.015993488649550192 -0.010782182574187232 0 -0.015942397027848346 -0.010782274792107392 0 -0.015878114348819704 -0.01085669966478099 0 -0.015942397027848346 -0.010782274792107392 0 -0.015723847106142941 -0.01068642556697645 0 -0.015878114348819704 -0.01085669966478099 0 -0.01624064847309302 -0.01095778135028893 0 -0.015942397027848346 -0.010782274792107392 0 -0.015381179063951029 -0.010580544632755335 0 -0.015878114348819704 -0.01085669966478099 0 -0.015723847106142941 -0.01068642556697645 0 -0.015723847106142941 -0.01068642556697645 0 -0.015737168224901291 -0.0106617717114421 0 -0.015497669456982627 -0.010453937042564667 0 -0.015942397027848346 -0.010782274792107392 0 -0.015723847106142941 -0.01068642556697645 0 -0.015737168224901291 -0.0106617717114421 0 -0.015737168224901291 -0.0106617717114421 0 -0.015497669456982627 -0.010453937042564667 0 -0.015648421765633271 -0.010799865340181772 0 -0.015942397027848346 -0.010782274792107392 0 -0.015737168224901291 -0.0106617717114421 0 -0.015905828486222875 -0.010739619978500526 0 -0.015737168224901291 -0.0106617717114421 0 -0.015808738055578704 -0.01073031177401561 0 -0.015648421765633271 -0.010799865340181772 0 -0.015737168224901291 -0.0106617717114421 0 -0.015808738055578704 -0.01073031177401561 0 -0.015905828486222875 -0.010739619978500526 0 -0.015808738055578704 -0.01073031177401561 0 -0.015905828486222875 -0.010739619978500526 0 -0.015833236249230415 -0.010760715187436588 0 -0.015905828486222875 -0.010739619978500526 0 -0.015871944513083113 -0.01074756518358677 0 -0.015937978255720638 -0.01073929238776517 0 -0.015993488649550192 -0.010782182574187232 0 -0.015905828486222875 -0.010739619978500526 0 -0.015937978255720638 -0.01073929238776517 0 -0.015993488649550192 -0.010782182574187232 0 -0.015942397027848346 -0.010782274792107392 0 -0.015905828486222875 -0.010739619978500526 0 -0.014995844799654462 -0.0095369448782977907 0 -0.015240044674519736 -0.010173004016837078 0 -0.015118912850135035 -0.01022512544291517 0 -0.015240044674519736 -0.010173004016837078 0 -0.015497669456982627 -0.010453937042564667 0 -0.015118912850135035 -0.01022512544291517 0 -0.015381179063951029 -0.010580544632755335 0 -0.015723847106142941 -0.01068642556697645 0 -0.015497669456982627 -0.010453937042564667 0 -0.015381179063951029 -0.010580544632755335 0 -0.015240044674519736 -0.010173004016837078 0 -0.015497669456982627 -0.010453937042564667 0 -0.011381170626587769 -0.0028897695459257195 0 -0.01181151777937839 -0.00053726257764093101 0 -0.011444254409745173 0.00065373589699840927 0 -0.015497669456982627 -0.010453937042564667 0 -0.015118912850135035 -0.01022512544291517 0 -0.015648421765633271 -0.010799865340181772 0 -0.01356027845177653 -0.0066863158950524826 0 -0.01349459859167973 -0.0047782944119479269 0 -0.011381170626587769 -0.0028897695459257195 0 -0.01181151777937839 -0.00053726257764093101 0 -0.012810605055849758 -0.0016773987301486849 0 -0.012422283108853219 6.5036355917642261e-05 0 -0.01181151777937839 -0.00053726257764093101 0 -0.012810605055849758 -0.0016773987301486849 0 -0.012422283108853219 6.5036355917642261e-05 0 -0.01181151777937839 -0.00053726257764093101 0 -0.011953373920634903 0.0010040629067998566 0 -0.01181151777937839 -0.00053726257764093101 0 -0.011953373920634903 0.0010040629067998566 0 -0.011444254409745173 0.00065373589699840927 0 -0.012089900088281456 0.0016300285730907035 0 -0.011953373920634903 0.0010040629067998566 0 -0.011444254409745173 0.00065373589699840927 0 -0.012549685201238185 0.002126443701625509 0 -0.012161059679268817 0.0018741608175056941 0 -0.012089900088281456 0.0016300285730907035 0 -0.012161059679268817 0.0018741608175056941 0 -0.012089900088281456 0.0016300285730907035 0 -0.011953373920634903 0.0010040629067998566 0 -0.012209320561232504 0.0017981056681587878 0 -0.011953373920634903 0.0010040629067998566 0 -0.012494161074204636 0.0011321802043980349 0 -0.012161059679268817 0.0018741608175056941 0 -0.012209320561232504 0.0017981056681587878 0 -0.011953373920634903 0.0010040629067998566 0 -0.012209320561232504 0.0017981056681587878 0 -0.012494161074204636 0.0011321802043980349 0 -0.012408406400984517 0.001753569182187012 0 -0.012422283108853219 6.5036355917642261e-05 0 -0.011953373920634903 0.0010040629067998566 0 -0.012494161074204636 0.0011321802043980349 0 -0.015813879757913138 -0.010778816278010913 0 -0.015834696975560714 -0.010773060156827424 0 -0.015833236249230415 -0.010760715187436588 0 -0.015813879757913138 -0.010778816278010913 0 -0.015834696975560714 -0.010773060156827424 0 -0.015825971718097399 -0.010768617347152055 0 -0.015834696975560714 -0.010773060156827424 0 -0.015871944513083113 -0.01074756518358677 0 -0.015816528381719649 -0.010781390758341768 0 -0.015834696975560714 -0.010773060156827424 0 -0.015871944513083113 -0.01074756518358677 0 -0.015833236249230415 -0.010760715187436588 0 -0.015905828486222875 -0.010739619978500526 0 -0.015871944513083113 -0.01074756518358677 0 -0.015833236249230415 -0.010760715187436588 0 -0.015808738055578704 -0.01073031177401561 0 -0.015833236249230415 -0.010760715187436588 0 -0.015648421765633271 -0.010799865340181772 0 -0.015813879757913138 -0.010778816278010913 0 -0.015833236249230415 -0.010760715187436588 0 -0.015648421765633271 -0.010799865340181772 0 -0.015813879757913138 -0.010778816278010913 0 -0.015648421765633271 -0.010799865340181772 0 -0.01587026733806994 -0.01077376496615259 0 -0.01349459859167973 -0.0047782944119479269 0 -0.014584948085771101 -0.0067908779011050177 0 -0.011444254409745173 0.00065373589699840927 0 -0.012494614156865392 0.0019951901014203031 0 -0.012948280482292773 0.0023358310148822877 0 -0.012089900088281456 0.0016300285730907035 0 -0.011444254409745173 0.00065373589699840927 0 -0.012494614156865392 0.0019951901014203031 0 -0.012549685201238185 0.002126443701625509 0 -0.012089900088281456 0.0016300285730907035 0 -0.012494614156865392 0.0019951901014203031 0 -0.013018848709689338 0.0023015024584873665 0 -0.012494614156865392 0.0019951901014203031 0 -0.013088141893856667 0.0023313696305467171 0 -0.012494614156865392 0.0019951901014203031 0 -0.013088141893856667 0.0023313696305467171 0 -0.012948280482292773 0.0023358310148822877 0 -0.016385928600901021 -0.0094991718320260408 0 -0.014584948085771101 -0.0067908779011050177 0 -0.015834696975560714 -0.010773060156827424 0 -0.015825971718097399 -0.010768617347152055 0 -0.015816528381719649 -0.010781390758341768 0 -0.015825971718097399 -0.010768617347152055 0 -0.015656076537497277 -0.010758779184763683 0 -0.015816528381719649 -0.010781390758341768 0 -0.014584948085771101 -0.0067908779011050177 0 -0.016437992761278959 -0.01070105573004076 0 -0.013717962065373821 0.0025744424636252165 0 -0.014366791576593211 0.0028686002872846616 0 -0.012948280482292773 0.0023358310148822877 0 -0.013717962065373821 0.0025744424636252165 0 -0.013088141893856667 0.0023313696305467171 0 -0.012948280482292773 0.0023358310148822877 0 -0.014965974125104448 -0.0038870844785972121 0 -0.014584948085771101 -0.0067908779011050177 0 -0.015852722596712464 -0.01109301211052143 0 -0.014962263523552826 -0.010235165912542189 0 -0.015656076537497277 -0.010758779184763683 0 -0.015852722596712464 -0.01109301211052143 0 -0.015656076537497277 -0.010758779184763683 0 -0.01589751045145317 -0.010899988027214416 0 -0.015656076537497277 -0.010758779184763683 0 -0.01589751045145317 -0.010899988027214416 0 -0.015850870012105864 -0.010798521678026467 0 -0.016126176323803667 -0.011137742599765016 0 -0.01589751045145317 -0.010899988027214416 0 -0.016007499150427644 -0.010865390400283911 0 -0.016007499150427644 -0.010865390400283911 0 -0.015850870012105864 -0.010798521678026467 0 -0.015929728877306822 -0.010767729537415607 0 -0.01589751045145317 -0.010899988027214416 0 -0.016007499150427644 -0.010865390400283911 0 -0.015850870012105864 -0.010798521678026467 0 -0.015850870012105864 -0.010798521678026467 0 -0.015816528381719649 -0.010781390758341768 0 -0.015929728877306822 -0.010767729537415607 0 -0.015656076537497277 -0.010758779184763683 0 -0.015850870012105864 -0.010798521678026467 0 -0.015816528381719649 -0.010781390758341768 0 -0.015871944513083113 -0.01074756518358677 0 -0.015929728877306822 -0.010767729537415607 0 -0.015940361204302523 -0.01069227295129427 0 -0.015871944513083113 -0.01074756518358677 0 -0.015816528381719649 -0.010781390758341768 0 -0.015929728877306822 -0.010767729537415607 0 -0.015929728877306822 -0.010767729537415607 0 -0.016259214419847744 -0.010859250904009913 0 -0.015940361204302523 -0.01069227295129427 0 -0.023067816376479321 -0.017656945061868056 0 -0.023797631512798841 -0.01612250355123547 0 -0.021461150453030937 -0.015336332717796565 0 -0.019275913680583394 -0.01378958950248943 0 -0.018757717438245374 -0.013120050251762501 0 -0.016007499150427644 -0.010865390400283911 0 -0.015929728877306822 -0.010767729537415607 0 -0.016259214419847744 -0.010859250904009913 0 -0.016126176323803667 -0.011137742599765016 0 -0.016007499150427644 -0.010865390400283911 0 -0.016259214419847744 -0.010859250904009913 0 -0.022529243078887786 -0.017503642441720608 0 -0.02495147567084708 -0.018674076944308931 0 -0.024151388779146559 -0.019759983030337425 0 -0.023067816376479321 -0.017656945061868056 0 -0.024536791199240827 -0.017204935368763725 0 -0.026103269466200944 -0.019757077695862244 0 -0.026363641765667044 -0.017809895542241175 0 -0.024536791199240827 -0.017204935368763725 0 -0.026103269466200944 -0.019757077695862244 0 -0.024492446782344201 -0.021555697004119197 0 -0.024536791199240827 -0.017204935368763725 0 -0.029141034168972103 -0.019317103614041396 0 -0.027637409909448241 -0.019539728868302124 0 -0.02782826245229128 -0.018247453089040258 0 -0.027637409909448241 -0.019539728868302124 0 -0.026363641765667044 -0.017809895542241175 0 -0.02782826245229128 -0.018247453089040258 0 -0.026103269466200944 -0.019757077695862244 0 -0.027637409909448241 -0.019539728868302124 0 -0.026363641765667044 -0.017809895542241175 0 -0.026363641765667044 -0.017809895542241175 0 -0.02782826245229128 -0.018247453089040258 0 -0.02773572766156978 -0.016612923272709065 0 -0.029090854597383604 -0.01800049573925425 0 -0.02782826245229128 -0.018247453089040258 0 -0.02773572766156978 -0.016612923272709065 0 -0.026363641765667044 -0.017809895542241175 0 -0.026246280891129504 -0.015894194857157647 0 -0.025118297922928128 -0.01640750146957538 0 -0.026363641765667044 -0.017809895542241175 0 -0.02773572766156978 -0.016612923272709065 0 -0.026246280891129504 -0.015894194857157647 0 -0.026246280891129504 -0.015894194857157647 0 -0.024935975685406009 -0.015186164116958339 0 -0.026284443542198634 -0.014952348443334467 0 -0.026246280891129504 -0.015894194857157647 0 -0.027224706755347949 -0.014979045442695491 0 -0.026284443542198634 -0.014952348443334467 0 -0.02773572766156978 -0.016612923272709065 0 -0.026246280891129504 -0.015894194857157647 0 -0.027224706755347949 -0.014979045442695491 0 -0.0286530601081833 -0.015229009037586222 0 -0.02773572766156978 -0.016612923272709065 0 -0.027224706755347949 -0.014979045442695491 0 -0.023067816376479321 -0.017656945061868056 0 -0.024536791199240827 -0.017204935368763725 0 -0.023797631512798841 -0.01612250355123547 0 -0.025118297922928128 -0.01640750146957538 0 -0.024536791199240827 -0.017204935368763725 0 -0.023797631512798841 -0.01612250355123547 0 -0.026363641765667044 -0.017809895542241175 0 -0.025118297922928128 -0.01640750146957538 0 -0.024536791199240827 -0.017204935368763725 0 -0.025118297922928128 -0.01640750146957538 0 -0.023797631512798841 -0.01612250355123547 0 -0.024935975685406009 -0.015186164116958339 0 -0.026246280891129504 -0.015894194857157647 0 -0.025118297922928128 -0.01640750146957538 0 -0.024935975685406009 -0.015186164116958339 0 -0.023797631512798841 -0.01612250355123547 0 -0.024187250897984 -0.014986533104452013 0 -0.024935975685406009 -0.015186164116958339 0 -0.023797631512798841 -0.01612250355123547 0 -0.024187250897984 -0.014986533104452013 0 -0.023279778545862561 -0.014931195297587109 0 -0.024187250897984 -0.014986533104452013 0 -0.024087634084783111 -0.014431497541688104 0 -0.023279778545862561 -0.014931195297587109 0 -0.025364472465175009 -0.014481778733335714 0 -0.025117914875081793 -0.016376702898117493 0 -0.024935975685406009 -0.015186164116958339 0 -0.024771188262694577 -0.014551299038158577 0 -0.025100908491526189 -0.014319986052513453 0 -0.024187250897984 -0.014986533104452013 0 -0.024935975685406009 -0.015186164116958339 0 -0.024771188262694577 -0.014551299038158577 0 -0.024187250897984 -0.014986533104452013 0 -0.024771188262694577 -0.014551299038158577 0 -0.024087634084783111 -0.014431497541688104 0 -0.024771188262694577 -0.014551299038158577 0 -0.025069347286567532 -0.014020319491020746 0 -0.024087634084783111 -0.014431497541688104 0 -0.025773343969011975 -0.016787818869613707 0 -0.024857889974916551 -0.02011420131721562 0 -0.024771188262694577 -0.014551299038158577 0 -0.024923914981655651 -0.014217516592009198 0 -0.025100908491526189 -0.014319986052513453 0 -0.024857889974916551 -0.02011420131721562 0 -0.025117914875081793 -0.016376702898117493 0 -0.024087634084783111 -0.014431497541688104 0 -0.023155506888113152 -0.013654538580447993 0 -0.023279778545862561 -0.014931195297587109 0 -0.025069347286567532 -0.014020319491020746 0 -0.024087634084783111 -0.014431497541688104 0 -0.023155506888113152 -0.013654538580447993 0 -0.027224706755347949 -0.014979045442695491 0 -0.027777008545152013 -0.01404936476937803 0 -0.026721268877624479 -0.013684449386100849 0 -0.0286530601081833 -0.015229009037586222 0 -0.027224706755347949 -0.014979045442695491 0 -0.027777008545152013 -0.01404936476937803 0 -0.027224706755347949 -0.014979045442695491 0 -0.026284443542198634 -0.014952348443334467 0 -0.026721268877624479 -0.013684449386100849 0 -0.024935975685406009 -0.015186164116958339 0 -0.026721268877624479 -0.013684449386100849 0 -0.025865817056571927 -0.013139433937374925 0 -0.024935975685406009 -0.015186164116958339 0 -0.026284443542198634 -0.014952348443334467 0 -0.026721268877624479 -0.013684449386100849 0 -0.028910024222038869 -0.013493112372617086 0 -0.027777008545152013 -0.01404936476937803 0 -0.027531451171550505 -0.01287687595777371 0 -0.027777008545152013 -0.01404936476937803 0 -0.026721268877624479 -0.013684449386100849 0 -0.027531451171550505 -0.01287687595777371 0 -0.026860221935245732 -0.019667374474527398 0 -0.026457365379904445 -0.01941156487224301 0 -0.02548953662062476 -0.021918915901033197 0 -0.028910024222038869 -0.013493112372617086 0 -0.027531451171550505 -0.01287687595777371 0 -0.026933627801438643 -0.010730013541858454 0 -0.026721268877624479 -0.013684449386100849 0 -0.027531451171550505 -0.01287687595777371 0 -0.026933627801438643 -0.010730013541858454 0 -0.026860221935245732 -0.019667374474527398 0 -0.025691299770562712 -0.022219224440750498 0 -0.02548953662062476 -0.021918915901033197 0 -0.024857889974916551 -0.02011420131721562 0 -0.026967541263346183 -0.026356669470785465 0 -0.024216083382172942 -0.032646335121642923 0 -0.025147438202478403 -0.030799720767542473 0 -0.02431399788147923 -0.031002911925370653 0 -0.025117914875081793 -0.016376702898117493 0 -0.027792035168664908 -0.020793696922840318 0 -0.031390668569904086 -0.015235647911169126 0 -0.027792035168664908 -0.020793696922840318 0 -0.026721268877624479 -0.013684449386100849 0 -0.025865817056571927 -0.013139433937374925 0 -0.026933627801438643 -0.010730013541858454 0 -0.026967541263346183 -0.026356669470785465 0 -0.027792035168664908 -0.020793696922840318 0 -0.022838984785517682 -0.030361525598173969 0 -0.02366068876860378 -0.031252214851707684 0 -0.021237642734343139 -0.030724712557487405 0 -0.024857889974916551 -0.02011420131721562 0 -0.021687194396834714 -0.022090782626335057 0 -0.024216083382172942 -0.032646335121642923 0 -0.02366068876860378 -0.031252214851707684 0 -0.021237642734343139 -0.030724712557487405 0 -0.025069347286567532 -0.014020319491020746 0 -0.023155506888113152 -0.013654538580447993 0 -0.02191492702816935 -0.012357336708050313 0 -0.024216083382172942 -0.032646335121642923 0 -0.02366068876860378 -0.031252214851707684 0 -0.02431399788147923 -0.031002911925370653 0 -0.023792695028862821 -0.030260271711032287 0 -0.02366068876860378 -0.031252214851707684 0 -0.02431399788147923 -0.031002911925370653 0 -0.023155506888113152 -0.013654538580447993 0 -0.02191492702816935 -0.012357336708050313 0 -0.021461150453030937 -0.015336332717796565 0 -0.02191492702816935 -0.012357336708050313 0 -0.019484628719914281 -0.01301872813271902 0 -0.021461150453030937 -0.015336332717796565 0 -0.017697373239337049 -0.011839072368024357 0 -0.018757717438245374 -0.013120050251762501 0 -0.015959966177110818 -0.010869137461702193 0 -0.015937978255720638 -0.01073929238776517 0 -0.015940361204302523 -0.01069227295129427 0 -0.015871944513083113 -0.01074756518358677 0 -0.015937978255720638 -0.01073929238776517 0 -0.015940361204302523 -0.01069227295129427 0 -0.023797631512798841 -0.01612250355123547 0 -0.021461150453030937 -0.015336332717796565 0 -0.023279778545862561 -0.014931195297587109 0 -0.023155506888113152 -0.013654538580447993 0 -0.021461150453030937 -0.015336332717796565 0 -0.023279778545862561 -0.014931195297587109 0 -0.056408406909173273 -0.010569909296157455 0 -0.055809800399550837 -0.011784539932979031 0 -0.056518673557021316 -0.012846626442207305 0 -0.056408406909173273 -0.010569909296157455 0 -0.054998172154942543 -0.010688097278803346 0 -0.055809800399550837 -0.011784539932979031 0 -0.054998172154942543 -0.010688097278803346 0 -0.055809800399550837 -0.011784539932979031 0 -0.054999657400919263 -0.01355754398789609 0 -0.055809800399550837 -0.011784539932979031 0 -0.054999657400919263 -0.01355754398789609 0 -0.056518673557021316 -0.012846626442207305 0 -0.056518673557021316 -0.012846626442207305 0 -0.058080197299307121 -0.01314254577391414 0 -0.057769929518808445 -0.011006730651736209 0 -0.058080197299307121 -0.01314254577391414 0 -0.057769929518808445 -0.011006730651736209 0 -0.058860517441861292 -0.010977870865470057 0 -0.057769929518808445 -0.011006730651736209 0 -0.059020956939574792 -0.0085127377252576554 0 -0.058860517441861292 -0.010977870865470057 0 -0.056408406909173273 -0.010569909296157455 0 -0.056518673557021316 -0.012846626442207305 0 -0.057769929518808445 -0.011006730651736209 0 -0.056408406909173273 -0.010569909296157455 0 -0.057769929518808445 -0.011006730651736209 0 -0.057596953499649835 -0.0097511856568417432 0 -0.057596953499649835 -0.0097511856568417432 0 -0.05935485009327543 -0.0087792636903411443 0 -0.057355775244458021 -0.0079916281173640861 0 -0.057806412238838478 -0.01068744299054704 0 -0.058419050589511801 -0.0079762796533319382 0 -0.057769929518808445 -0.011006730651736209 0 -0.057596953499649835 -0.0097511856568417432 0 -0.05935485009327543 -0.0087792636903411443 0 -0.057769929518808445 -0.011006730651736209 0 -0.057410440449711837 -0.0072088683445217291 0 -0.059020956939574792 -0.0085127377252576554 0 -0.05935485009327543 -0.0087792636903411443 0 -0.058642768118666963 -0.0068452271933849788 0 -0.060302128594381631 -0.0058617092372180791 0 -0.058419050589511801 -0.0079762796533319382 0 -0.059193839750471343 -0.0051405550725398931 0 -0.05935485009327543 -0.0087792636903411443 0 -0.058642768118666963 -0.0068452271933849788 0 -0.057355775244458021 -0.0079916281173640861 0 -0.057355775244458021 -0.0079916281173640861 0 -0.05616821349002532 -0.0075241124424327861 0 -0.057314431949755607 -0.0056721851238908105 0 -0.057355775244458021 -0.0079916281173640861 0 -0.05616821349002532 -0.0075241124424327861 0 -0.056071021400952888 -0.0091728320669637407 0 -0.056408406909173273 -0.010569909296157455 0 -0.057596953499649835 -0.0097511856568417432 0 -0.056071021400952888 -0.0091728320669637407 0 -0.057596953499649835 -0.0097511856568417432 0 -0.057355775244458021 -0.0079916281173640861 0 -0.056071021400952888 -0.0091728320669637407 0 -0.054998172154942543 -0.010688097278803346 0 -0.056071021400952888 -0.0091728320669637407 0 -0.054919499832564382 -0.008627322928857142 0 -0.055000025519971532 -0.010686838634382315 0 -0.055333874797882536 -0.0084706061193716292 0 -0.055000003121123221 -0.010687501750551845 0 -0.054999978564208206 -0.007631971438857554 0 -0.055699826099547968 -0.0083851039195091941 0 -0.056408406909173273 -0.010569909296157455 0 -0.054998172154942543 -0.010688097278803346 0 -0.056071021400952888 -0.0091728320669637407 0 -0.055333874797882536 -0.0084706061193716292 0 -0.05584167381124034 -0.0060597681579818465 0 -0.05616821349002532 -0.0075241124424327861 0 -0.054919499832564382 -0.008627322928857142 0 -0.055376687210908167 -0.0061223367752349118 0 -0.054999978564208206 -0.007631971438857554 0 -0.055699826099547968 -0.0083851039195091941 0 -0.056267270816499182 -0.0060092141820066967 0 -0.05616821349002532 -0.0075241124424327861 0 -0.056071021400952888 -0.0091728320669637407 0 -0.054919499832564382 -0.008627322928857142 0 -0.054999978564208206 -0.007631971438857554 0 -0.056267270816499182 -0.0060092141820066967 0 -0.054999661142666793 -0.0045762957854722699 0 -0.05616821349002532 -0.0075241124424327861 0 -0.055376687210908167 -0.0061223367752349118 0 -0.057314431949755607 -0.0056721851238908105 0 -0.055376687210908167 -0.0061223367752349118 0 -0.056471368274547164 -0.0037190663759261318 0 -0.057314431949755607 -0.0056721851238908105 0 -0.056471368274547164 -0.0037190663759261318 0 -0.058301040816379025 -0.0029710176231159723 0 -0.057314431949755607 -0.0056721851238908105 0 -0.05584167381124034 -0.0060597681579818465 0 -0.056411946125964813 -0.003958713262478499 0 -0.056267270816499182 -0.0060092141820066967 0 -0.056471368274547164 -0.0037190663759261318 0 -0.054999661142666793 -0.0045762957854722699 0 -0.056471368274547164 -0.0037190663759261318 0 -0.056769799481793261 -0.0011833203884046104 0 -0.054999602023756075 -0.0015213329984491142 0 -0.056471368274547164 -0.0037190663759261318 0 -0.054999661142666793 -0.0045762957854722699 0 -0.054999602023756075 -0.0015213329984491142 0 -0.056471368274547164 -0.0037190663759261318 0 -0.056769799481793261 -0.0011833203884046104 0 -0.058301040816379025 -0.0029710176231159723 0 -0.057269185105980634 0.00082413864505162136 0 -0.056769799481793261 -0.0011833203884046104 0 -0.058279204559718419 -0.0010146138996325173 0 -0.054999753851267007 0.0015337913810699029 0 -0.056769799481793261 -0.0011833203884046104 0 -0.054999602023756075 -0.0015213329984491142 0 -0.059405952736655825 4.5022149833747145e-05 0 -0.059431206369590699 -0.0015092554672688191 0 -0.058279204559718419 -0.0010146138996325173 0 -0.056769799481793261 -0.0011833203884046104 0 -0.058279204559718419 -0.0010146138996325173 0 -0.058301040816379025 -0.0029710176231159723 0 -0.059431206369590699 -0.0015092554672688191 0 -0.058279204559718419 -0.0010146138996325173 0 -0.058301040816379025 -0.0029710176231159723 0 -0.059431206369590699 -0.0015092554672688191 0 -0.058301040816379025 -0.0029710176231159723 0 -0.060568866136690686 -0.0030468048890471408 0 -0.058999847229902334 -0.0045915391240812665 0 -0.060302128594381631 -0.0058617092372180791 0 -0.060568866136690686 -0.0030468048890471408 0 -0.058301040816379025 -0.0029710176231159723 0 -0.058999847229902334 -0.0045915391240812665 0 -0.060568866136690686 -0.0030468048890471408 0 -0.058301040816379025 -0.0029710176231159723 0 -0.058999847229902334 -0.0045915391240812665 0 -0.057314431949755607 -0.0056721851238908105 0 -0.058642768118666963 -0.0068452271933849788 0 -0.057355775244458021 -0.0079916281173640861 0 -0.057314431949755607 -0.0056721851238908105 0 -0.058642768118666963 -0.0068452271933849788 0 -0.058999847229902334 -0.0045915391240812665 0 -0.057314431949755607 -0.0056721851238908105 0 -0.058642768118666963 -0.0068452271933849788 0 -0.058999847229902334 -0.0045915391240812665 0 -0.060302128594381631 -0.0058617092372180791 0 -0.058124842034478312 -0.0043544590321058394 0 -0.059452850717393632 -0.0036804599630870806 0 -0.059615119861490373 -0.0054094448791109362 0 -0.059452850717393632 -0.0036804599630870806 0 -0.060496612926608087 -0.0036789999971036358 0 -0.059615119861490373 -0.0054094448791109362 0 -0.060496612926608087 -0.0036789999971036358 0 -0.0609858523546635 -0.0048045543339933685 0 -0.059615119861490373 -0.0054094448791109362 0 -0.059452850717393632 -0.0036804599630870806 0 -0.060183306994972152 -0.0026063311952802281 0 -0.060496612926608087 -0.0036789999971036358 0 -0.059452850717393632 -0.0036804599630870806 0 -0.058988401617772357 -0.0026456916371958325 0 -0.060183306994972152 -0.0026063311952802281 0 -0.058124842034478312 -0.0043544590321058394 0 -0.059452850717393632 -0.0036804599630870806 0 -0.058988401617772357 -0.0026456916371958325 0 -0.059193839750471343 -0.0051405550725398931 0 -0.059754562432225038 -0.0028940162623380711 0 -0.059431206369590699 -0.0015092554672688191 0 -0.060568866136690686 -0.0030468048890471408 0 -0.060136509430700952 -0.0010225153413772584 0 -0.059754562432225038 -0.0028940162623380711 0 -0.060114650092564788 -0.0012168978565763871 0 -0.058988401617772357 -0.0026456916371958325 0 -0.060183306994972152 -0.0026063311952802281 0 -0.060136509430700952 -0.0010225153413772584 0 -0.060183306994972152 -0.0026063311952802281 0 -0.060136509430700952 -0.0010225153413772584 0 -0.06059512755203867 -0.0015435227427860116 0 -0.061021858074180708 -0.00020425565243956375 0 -0.060136509430700952 -0.0010225153413772584 0 -0.06059512755203867 -0.0015435227427860116 0 -0.059405952736655825 4.5022149833747145e-05 0 -0.059431206369590699 -0.0015092554672688191 0 -0.060136509430700952 -0.0010225153413772584 0 -0.061021858074180708 -0.00020425565243956375 0 -0.06059512755203867 -0.0015435227427860116 0 -0.061332612198057912 -0.00077036032364030443 0 -0.06059512755203867 -0.0015435227427860116 0 -0.060440015150685977 -0.0032412515976305159 0 -0.061332612198057912 -0.00077036032364030443 0 -0.060183306994972152 -0.0026063311952802281 0 -0.06059512755203867 -0.0015435227427860116 0 -0.060440015150685977 -0.0032412515976305159 0 -0.060337834315528041 -0.003041188339855849 0 -0.059909793492928604 -0.0020888679959461492 0 -0.060440015150685977 -0.0032412515976305159 0 -0.060762568946886142 -0.0037614177715736483 0 -0.059720517940285406 -0.0036782259822679565 0 -0.060440015150685977 -0.0032412515976305159 0 -0.060496612926608087 -0.0036789999971036358 0 -0.060762568946886142 -0.0037614177715736483 0 -0.060183306994972152 -0.0026063311952802281 0 -0.060440015150685977 -0.0032412515976305159 0 -0.060496612926608087 -0.0036789999971036358 0 -0.060496612926608087 -0.0036789999971036358 0 -0.060762568946886142 -0.0037614177715736483 0 -0.0609858523546635 -0.0048045543339933685 0 -0.060762568946886142 -0.0037614177715736483 0 -0.061532261201302625 -0.0037226787040241481 0 -0.059439727796343732 -0.0034549636816363074 0 -0.060762568946886142 -0.0037614177715736483 0 -0.061532261201302625 -0.0037226787040241481 0 -0.0609858523546635 -0.0048045543339933685 0 -0.061532261201302625 -0.0037226787040241481 0 -0.061659195357288719 -0.006167595695489028 0 -0.0609858523546635 -0.0048045543339933685 0 -0.061532261201302625 -0.0037226787040241481 0 -0.061230665921420666 -0.00024626809206886198 0 -0.059608092789410087 -0.00063365793480817047 0 -0.061532261201302625 -0.0037226787040241481 0 -0.063696076917404254 -0.007618869588571768 0 -0.061659195357288719 -0.006167595695489028 0 -0.061830067927285667 -0.0045805400913771022 0 -0.062305038032651049 -0.0021484587594892603 0 -0.063696076917404254 -0.007618869588571768 0 -0.061659195357288719 -0.006167595695489028 0 -0.061673951142337806 -0.008532911733896106 0 -0.061659195357288719 -0.006167595695489028 0 -0.0609858523546635 -0.0048045543339933685 0 -0.060475114968783751 -0.0071034820803763865 0 -0.061659195357288719 -0.006167595695489028 0 -0.060475114968783751 -0.0071034820803763865 0 -0.061673951142337806 -0.008532911733896106 0 -0.0609858523546635 -0.0048045543339933685 0 -0.059615119861490373 -0.0054094448791109362 0 -0.060475114968783751 -0.0071034820803763865 0 -0.057410440449711837 -0.0072088683445217291 0 -0.058124842034478312 -0.0043544590321058394 0 -0.059615119861490373 -0.0054094448791109362 0 -0.057410440449711837 -0.0072088683445217291 0 -0.059615119861490373 -0.0054094448791109362 0 -0.059020956939574792 -0.0085127377252576554 0 -0.059020956939574792 -0.0085127377252576554 0 -0.060475114968783751 -0.0071034820803763865 0 -0.060262051752593811 -0.0100739388332959 0 -0.059615119861490373 -0.0054094448791109362 0 -0.059020956939574792 -0.0085127377252576554 0 -0.060475114968783751 -0.0071034820803763865 0 -0.060475114968783751 -0.0071034820803763865 0 -0.060262051752593811 -0.0100739388332959 0 -0.061673951142337806 -0.008532911733896106 0 -0.059020956939574792 -0.0085127377252576554 0 -0.060262051752593811 -0.0100739388332959 0 -0.058860517441861292 -0.010977870865470057 0 -0.058080197299307121 -0.01314254577391414 0 -0.058860517441861292 -0.010977870865470057 0 -0.059564021766092351 -0.012584640153450255 0 -0.060262051752593811 -0.0100739388332959 0 -0.058860517441861292 -0.010977870865470057 0 -0.059564021766092351 -0.012584640153450255 0 -0.060262051752593811 -0.0100739388332959 0 -0.060662103357370004 -0.011978133839424471 0 -0.061884855958742706 -0.01149894417620281 0 -0.060262051752593811 -0.0100739388332959 0 -0.059564021766092351 -0.012584640153450255 0 -0.060662103357370004 -0.011978133839424471 0 -0.059564021766092351 -0.012584640153450255 0 -0.060662103357370004 -0.011978133839424471 0 -0.06098626911723791 -0.013781829504274578 0 -0.060662103357370004 -0.011978133839424471 0 -0.061884855958742706 -0.01149894417620281 0 -0.06098626911723791 -0.013781829504274578 0 -0.061884855958742706 -0.01149894417620281 0 -0.062832133617093056 -0.013898759171769602 0 -0.06098626911723791 -0.013781829504274578 0 -0.061884855958742706 -0.01149894417620281 0 -0.065982783797562811 -0.010863050331690624 0 -0.062832133617093056 -0.013898759171769602 0 -0.063414544299091977 -0.010774757183675735 0 -0.061896895678150592 -0.013896776255677246 0 -0.061230665921420666 -0.00024626809206886198 0 -0.060881340764724491 0.0019030103998121434 0 -0.059788802454976517 0.00074129059109061463 0 -0.062305038032651049 -0.0021484587594892603 0 -0.061896895678150592 -0.013896776255677246 0 -0.063696076917404254 -0.007618869588571768 0 -0.064198799922356692 -0.010515606887680679 0 -0.061673951142337806 -0.008532911733896106 0 -0.060262051752593811 -0.0100739388332959 0 -0.061884855958742706 -0.01149894417620281 0 -0.061673951142337806 -0.008532911733896106 0 -0.061884855958742706 -0.01149894417620281 0 -0.064198799922356692 -0.010515606887680679 0 -0.061673951142337806 -0.008532911733896106 0 -0.060093918436977707 -0.015945609895066406 0 -0.057292556161465107 -0.0099749976726813301 0 -0.058426216075853035 0.000340795070385577 0 -0.055842774150958417 0.0019199408241514526 0 -0.056374972963653749 0.00045065713039058503 0 -0.056739258094564128 0.00283829826410173 0 -0.057292556161465107 -0.0099749976726813301 0 -0.05855909718237795 0.0015660031121508815 0 -0.058426216075853035 0.000340795070385577 0 -0.056722240529308458 0.0011394333394887275 0 -0.060881340764724491 0.0019030103998121434 0 -0.05855909718237795 0.0015660031121508815 0 -0.059788802454976517 0.00074129059109061463 0 -0.058426216075853035 0.000340795070385577 0 -0.059788802454976517 0.00074129059109061463 0 -0.059608092789410087 -0.00063365793480817047 0 -0.061230665921420666 -0.00024626809206886198 0 -0.059788802454976517 0.00074129059109061463 0 -0.059608092789410087 -0.00063365793480817047 0 -0.05855909718237795 0.0015660031121508815 0 -0.058426216075853035 0.000340795070385577 0 -0.059788802454976517 0.00074129059109061463 0 -0.064024582666509636 -0.032197686985646103 0 -0.061537337258007342 -0.032716375207303638 0 -0.062408926611425719 -0.030702224118161297 0 -0.061896895678150592 -0.013896776255677246 0 -0.060093918436977707 -0.015945609895066406 0 -0.061537337258007342 -0.032716375207303638 0 -0.061086239205048305 -0.031372844493248779 0 -0.062408926611425719 -0.030702224118161297 0 -0.061537337258007342 -0.032716375207303638 0 -0.059858320016677714 -0.031837582394871534 0 -0.058860652512312948 -0.033215131347633854 0 -0.061086239205048305 -0.031372844493248779 0 -0.060334030392170522 -0.030295932565998641 0 -0.062408926611425719 -0.030702224118161297 0 -0.061537337258007342 -0.032716375207303638 0 -0.061086239205048305 -0.031372844493248779 0 -0.059858320016677714 -0.031837582394871534 0 -0.061086239205048305 -0.031372844493248779 0 -0.059858320016677714 -0.031837582394871534 0 -0.060334030392170522 -0.030295932565998641 0 -0.059858320016677714 -0.031837582394871534 0 -0.058757037037615548 -0.031173799416807847 0 -0.060334030392170522 -0.030295932565998641 0 -0.059858320016677714 -0.031837582394871534 0 -0.058757037037615548 -0.031173799416807847 0 -0.058534149433389186 -0.032157563089369706 0 -0.058757037037615548 -0.031173799416807847 0 -0.057736404642324615 -0.031840236207375722 0 -0.058534149433389186 -0.032157563089369706 0 -0.058757037037615548 -0.031173799416807847 0 -0.057572617709630521 -0.030972022347093387 0 -0.057736404642324615 -0.031840236207375722 0 -0.058534149433389186 -0.032157563089369706 0 -0.057268745823783336 -0.032448084461637217 0 -0.058860652512312948 -0.033215131347633854 0 -0.057736404642324615 -0.031840236207375722 0 -0.058534149433389186 -0.032157563089369706 0 -0.057268745823783336 -0.032448084461637217 0 -0.055198812155446288 -0.029133379151258042 0 -0.05639894578374996 -0.024058242556533958 0 -0.059858320016677714 -0.031837582394871534 0 -0.058534149433389186 -0.032157563089369706 0 -0.058860652512312948 -0.033215131347633854 0 -0.053245604925752213 -0.018588909894461211 0 -0.051839865983145092 -0.019879124559807913 0 -0.050611695924069909 -0.017232175793465594 0 -0.05639894578374996 -0.024058242556533958 0 -0.052364201029313752 -0.024463454498552539 0 -0.056644864347503633 -0.031470033283210692 0 -0.057095553394234368 -0.032653147420788342 0 -0.054357639399774942 -0.031557565436152811 0 -0.056644864347503633 -0.031470033283210692 0 -0.054357639399774942 -0.031557565436152811 0 -0.056447997489218374 -0.030353426258628836 0 -0.057572617709630521 -0.030972022347093387 0 -0.057736404642324615 -0.031840236207375722 0 -0.056644864347503633 -0.031470033283210692 0 -0.057736404642324615 -0.031840236207375722 0 -0.056644864347503633 -0.031470033283210692 0 -0.057095553394234368 -0.032653147420788342 0 -0.056146264069170955 -0.014139927901940696 0 -0.055711452885344508 -0.01472658894029112 0 -0.056942826026062342 -0.014532233810204874 0 -0.053638975415724759 -0.012316147239943689 0 -0.054252475279418379 -0.011801941160130175 0 -0.05639894578374996 -0.024058242556533958 0 -0.054252475279418379 -0.011801941160130175 0 -0.053245604925752213 -0.018588909894461211 0 -0.051839865983145092 -0.019879124559807913 0 -0.052197559307945486 -0.019841183224642202 0 -0.050549440857171633 -0.0072662660319591744 0 -0.054085377873973411 -0.00048332796825833698 0 -0.053575066142418387 0.0015236229035597434 0 -0.053167882517792031 0.00094096317116370925 0 -0.054759126318690676 0.00049644056913798523 0 -0.051839865983145092 -0.019879124559807913 0 -0.052176229369231303 -0.019822522297601709 0 -0.051635704762030783 -0.020490309417726008 0 -0.054252475279418379 -0.011801941160130175 0 -0.050549440857171633 -0.0072662660319591744 0 -0.054252475279418379 -0.011801941160130175 0 -0.057292556161465107 -0.0099749976726813301 0 -0.053575066142418387 0.0015236229035597434 0 -0.055842774150958417 0.0019199408241514526 0 -0.054759126318690676 0.00049644056913798523 0 -0.05639894578374996 -0.024058242556533958 0 -0.057292556161465107 -0.0099749976726813301 0 -0.055842774150958417 0.0019199408241514526 0 -0.056374972963653749 0.00045065713039058503 0 -0.054759126318690676 0.00049644056913798523 0 -0.056374972963653749 0.00045065713039058503 0 -0.054759126318690676 0.00049644056913798523 0 -0.056499051038869666 -0.0009162384068562067 0 -0.054759126318690676 0.00049644056913798523 0 -0.054793449594666997 -0.00070993162082069706 0 -0.056499051038869666 -0.0009162384068562067 0 -0.054793449594666997 -0.00070993162082069706 0 -0.056499051038869666 -0.0009162384068562067 0 -0.054564136301521036 -0.0019148197579202824 0 -0.053084339027392347 0.0011413045294298863 0 -0.053482904136658328 -0.00056562105586486838 0 -0.051457063046582173 -0.0006739003415113915 0 -0.053084339027392347 0.0011413045294298863 0 -0.054759126318690676 0.00049644056913798523 0 -0.053482904136658328 -0.00056562105586486838 0 -0.054759126318690676 0.00049644056913798523 0 -0.054793449594666997 -0.00070993162082069706 0 -0.053482904136658328 -0.00056562105586486838 0 -0.054793449594666997 -0.00070993162082069706 0 -0.053482904136658328 -0.00056562105586486838 0 -0.054564136301521036 -0.0019148197579202824 0 -0.053482904136658328 -0.00056562105586486838 0 -0.054564136301521036 -0.0019148197579202824 0 -0.05232091777377388 -0.0021404811656572033 0 -0.054564136301521036 -0.0019148197579202824 0 -0.052774661516040121 -0.0037313404356677082 0 -0.05232091777377388 -0.0021404811656572033 0 -0.054564136301521036 -0.0019148197579202824 0 -0.056938333943450346 -0.0026366313363206193 0 -0.055059323109432873 -0.0032264993673490529 0 -0.056499051038869666 -0.0009162384068562067 0 -0.054564136301521036 -0.0019148197579202824 0 -0.056938333943450346 -0.0026366313363206193 0 -0.056938333943450346 -0.0026366313363206193 0 -0.058652663640222348 -0.0019503696642188578 0 -0.059439727796343732 -0.0034549636816363074 0 -0.056499051038869666 -0.0009162384068562067 0 -0.056938333943450346 -0.0026366313363206193 0 -0.058652663640222348 -0.0019503696642188578 0 -0.058426216075853035 0.000340795070385577 0 -0.056499051038869666 -0.0009162384068562067 0 -0.058652663640222348 -0.0019503696642188578 0 -0.058426216075853035 0.000340795070385577 0 -0.056374972963653749 0.00045065713039058503 0 -0.056499051038869666 -0.0009162384068562067 0 -0.058426216075853035 0.000340795070385577 0 -0.059608092789410087 -0.00063365793480817047 0 -0.058652663640222348 -0.0019503696642188578 0 -0.061532261201302625 -0.0037226787040241481 0 -0.059608092789410087 -0.00063365793480817047 0 -0.058652663640222348 -0.0019503696642188578 0 -0.061532261201302625 -0.0037226787040241481 0 -0.058652663640222348 -0.0019503696642188578 0 -0.059439727796343732 -0.0034549636816363074 0 -0.059439727796343732 -0.0034549636816363074 0 -0.057646601845152627 -0.0036485335386500419 0 -0.059720517940285406 -0.0036782259822679565 0 -0.060762568946886142 -0.0037614177715736483 0 -0.059439727796343732 -0.0034549636816363074 0 -0.059720517940285406 -0.0036782259822679565 0 -0.056938333943450346 -0.0026366313363206193 0 -0.059439727796343732 -0.0034549636816363074 0 -0.057646601845152627 -0.0036485335386500419 0 -0.056938333943450346 -0.0026366313363206193 0 -0.057646601845152627 -0.0036485335386500419 0 -0.055059323109432873 -0.0032264993673490529 0 -0.057646601845152627 -0.0036485335386500419 0 -0.058406939283105398 -0.0041455403466963119 0 -0.055185570386591602 -0.004375183033178868 0 -0.057646601845152627 -0.0036485335386500419 0 -0.059720517940285406 -0.0036782259822679565 0 -0.058406939283105398 -0.0041455403466963119 0 -0.060440015150685977 -0.0032412515976305159 0 -0.059720517940285406 -0.0036782259822679565 0 -0.058406939283105398 -0.0041455403466963119 0 -0.060440015150685977 -0.0032412515976305159 0 -0.058406939283105398 -0.0041455403466963119 0 -0.058454375071133484 -0.0034131725295379126 0 -0.05816170340102772 -0.0041479338632956489 0 -0.055989424977072252 -0.0045255926982966863 0 -0.058406939283105398 -0.0041455403466963119 0 -0.058089907722139567 -0.0030480514000581168 0 -0.057676046640401546 -0.0024369681722411266 0 -0.057596093918259851 -0.0026713253613014644 0 -0.058089907722139567 -0.0030480514000581168 0 -0.057676046640401546 -0.0024369681722411266 0 -0.058406939283105398 -0.0041455403466963119 0 -0.058089907722139567 -0.0030480514000581168 0 -0.058454375071133484 -0.0034131725295379126 0 -0.053403640982048375 -0.0037796832400540594 0 -0.055989424977072252 -0.0045255926982966863 0 -0.055402865463352699 -0.0015483252309158105 0 -0.056561631885448334 -0.0023503159805275189 0 -0.057676046640401546 -0.0024369681722411266 0 -0.051317832981741009 -0.0060779013276593434 0 -0.054390208380608339 -0.0067331527758754438 0 -0.051710907662121497 -0.0061387129995817448 0 -0.058406939283105398 -0.0041455403466963119 0 -0.054390208380608339 -0.0067331527758754438 0 -0.055185570386591602 -0.004375183033178868 0 -0.054390208380608339 -0.0067331527758754438 0 -0.052695634437612937 -0.005229994976565018 0 -0.055185570386591602 -0.004375183033178868 0 -0.054390208380608339 -0.0067331527758754438 0 -0.052695634437612937 -0.005229994976565018 0 -0.051710907662121497 -0.0061387129995817448 0 -0.052695634437612937 -0.005229994976565018 0 -0.055185570386591602 -0.004375183033178868 0 -0.052774661516040121 -0.0037313404356677082 0 -0.052695634437612937 -0.005229994976565018 0 -0.052774661516040121 -0.0037313404356677082 0 -0.051291935280180737 -0.0049189964851124911 0 -0.055185570386591602 -0.004375183033178868 0 -0.055059323109432873 -0.0032264993673490529 0 -0.052774661516040121 -0.0037313404356677082 0 -0.057646601845152627 -0.0036485335386500419 0 -0.055185570386591602 -0.004375183033178868 0 -0.055059323109432873 -0.0032264993673490529 0 -0.054564136301521036 -0.0019148197579202824 0 -0.055059323109432873 -0.0032264993673490529 0 -0.052774661516040121 -0.0037313404356677082 0 -0.052774661516040121 -0.0037313404356677082 0 -0.051195058522388537 -0.003816877892725677 0 -0.05232091777377388 -0.0021404811656572033 0 -0.051195058522388537 -0.003816877892725677 0 -0.049439282098585849 -0.0021483024446032053 0 -0.05232091777377388 -0.0021404811656572033 0 -0.051195058522388537 -0.003816877892725677 0 -0.04870143540265702 -0.0060842624882927023 0 -0.051291935280180737 -0.0049189964851124911 0 -0.052774661516040121 -0.0037313404356677082 0 -0.051195058522388537 -0.003816877892725677 0 -0.051291935280180737 -0.0049189964851124911 0 -0.041559319862093151 -0.011065737582978045 0 -0.043394683369644256 -0.0093910894621650753 0 -0.042703702038490783 -0.010238122548248577 0 -0.045448706656544366 -0.0068334847761795303 0 -0.043544068640050872 -0.0092082450140350287 0 -0.049439282098585849 -0.0021483024446032053 0 -0.04870143540265702 -0.0060842624882927023 0 -0.043394683369644256 -0.0093910894621650753 0 -0.041559319862093151 -0.011065737582978045 0 -0.042703702038490783 -0.010238122548248577 0 -0.04222642014473818 -0.010771859582318058 0 -0.051195058522388537 -0.003816877892725677 0 -0.049439282098585849 -0.0021483024446032053 0 -0.04870143540265702 -0.0060842624882927023 0 -0.04870143540265702 -0.0060842624882927023 0 -0.049592507806016761 -0.0053224642750816752 0 -0.050059235623183811 -0.0055284513745665282 0 -0.04870143540265702 -0.0060842624882927023 0 -0.049592507806016761 -0.0053224642750816752 0 -0.050289485168770846 -0.0055350224313350325 0 -0.04870143540265702 -0.0060842624882927023 0 -0.042522587268265466 -0.012076597108413278 0 -0.043394683369644256 -0.0093910894621650753 0 -0.048497426493659082 -0.0064194252987941356 0 -0.046323043455720456 -0.0086664200781094124 0 -0.052695634437612937 -0.005229994976565018 0 -0.051291935280180737 -0.0049189964851124911 0 -0.050289485168770846 -0.0055350224313350325 0 -0.04870143540265702 -0.0060842624882927023 0 -0.051291935280180737 -0.0049189964851124911 0 -0.050289485168770846 -0.0055350224313350325 0 -0.050289485168770846 -0.0055350224313350325 0 -0.051710907662121497 -0.0061387129995817448 0 -0.051736067150906347 -0.0059051634841189174 0 -0.052695634437612937 -0.005229994976565018 0 -0.050289485168770846 -0.0055350224313350325 0 -0.051710907662121497 -0.0061387129995817448 0 -0.050289485168770846 -0.0055350224313350325 0 -0.049360963335637026 -0.0041445793700456259 0 -0.048426307549528154 -0.0027127624201156789 0 -0.050289485168770846 -0.0055350224313350325 0 -0.049583553392297461 -0.0047308035402766164 0 -0.049360963335637026 -0.0041445793700456259 0 -0.050274766557125837 -0.0052495375933938925 0 -0.050112525217443235 -0.0041521138540110067 0 -0.049592507806016761 -0.0053224642750816752 0 -0.050289485168770846 -0.0055350224313350325 0 -0.049583553392297461 -0.0047308035402766164 0 -0.049592507806016761 -0.0053224642750816752 0 -0.049583553392297461 -0.0047308035402766164 0 -0.050037334438410165 -0.0049191360658117954 0 -0.049583553392297461 -0.0047308035402766164 0 -0.049360963335637026 -0.0041445793700456259 0 -0.049605765968734152 -0.0041263946839248068 0 -0.049583553392297461 -0.0047308035402766164 0 -0.049605765968734152 -0.0041263946839248068 0 -0.049920622052118627 -0.0045097081627775513 0 -0.049360963335637026 -0.0041445793700456259 0 -0.049605765968734152 -0.0041263946839248068 0 -0.049292271023087919 -0.0034189180590818566 0 -0.049360963335637026 -0.0041445793700456259 0 -0.049292271023087919 -0.0034189180590818566 0 -0.048426307549528154 -0.0027127624201156789 0 -0.049292271023087919 -0.0034189180590818566 0 -0.048248818418621615 -0.002314922798476129 0 -0.048426307549528154 -0.0027127624201156789 0 -0.051317832981741009 -0.0060779013276593434 0 -0.051710907662121497 -0.0061387129995817448 0 -0.051736067150906347 -0.0059051634841189174 0 -0.052144769007819107 -0.0036257245798598241 0 -0.050736741343121963 -0.0030238096852321784 0 -0.050790455622018921 -0.0040658699150849954 0 -0.044562898049484365 -0.0015542571963708424 0 -0.044037504091933015 0.00016328737311277196 0 -0.045973842862190806 -0.00048626923113389377 0 -0.044782451616107784 -0.0033960411754754773 0 -0.048771919780007576 -0.0019316938015751905 0 -0.048072441792926232 -0.0020738100734430764 0 -0.048771919780007576 -0.0019316938015751905 0 -0.046984504063450033 -0.0018820939979462342 0 -0.048248818418621615 -0.002314922798476129 0 -0.045973842862190806 -0.00048626923113389377 0 -0.049292271023087919 -0.0034189180590818566 0 -0.048248818418621615 -0.002314922798476129 0 -0.050736741343121963 -0.0030238096852321784 0 -0.049292271023087919 -0.0034189180590818566 0 -0.050736741343121963 -0.0030238096852321784 0 -0.050103616014784809 -0.0040602911490025028 0 -0.050736741343121963 -0.0030238096852321784 0 -0.050790455622018921 -0.0040658699150849954 0 -0.050103616014784809 -0.0040602911490025028 0 -0.050790455622018921 -0.0040658699150849954 0 -0.050288549506569254 -0.0044919371033291669 0 -0.050672837922110796 -0.004771989090616182 0 -0.050790455622018921 -0.0040658699150849954 0 -0.050288549506569254 -0.0044919371033291669 0 -0.050103616014784809 -0.0040602911490025028 0 -0.049605765968734152 -0.0041263946839248068 0 -0.049292271023087919 -0.0034189180590818566 0 -0.050103616014784809 -0.0040602911490025028 0 -0.050288549506569254 -0.0044919371033291669 0 -0.050103616014784809 -0.0040602911490025028 0 -0.049920622052118627 -0.0045097081627775513 0 -0.049605765968734152 -0.0041263946839248068 0 -0.050103616014784809 -0.0040602911490025028 0 -0.049920622052118627 -0.0045097081627775513 0 -0.050037334438410165 -0.0049191360658117954 0 -0.050672837922110796 -0.004771989090616182 0 -0.050059235623183811 -0.0055284513745665282 0 -0.049583553392297461 -0.0047308035402766164 0 -0.049920622052118627 -0.0045097081627775513 0 -0.050037334438410165 -0.0049191360658117954 0 -0.050288549506569254 -0.0044919371033291669 0 -0.049920622052118627 -0.0045097081627775513 0 -0.050037334438410165 -0.0049191360658117954 0 -0.050790455622018921 -0.0040658699150849954 0 -0.050672837922110796 -0.004771989090616182 0 -0.051034144556029892 -0.0047137879541660817 0 -0.050288549506569254 -0.0044919371033291669 0 -0.050037334438410165 -0.0049191360658117954 0 -0.050672837922110796 -0.004771989090616182 0 -0.050672837922110796 -0.004771989090616182 0 -0.050933814731276436 -0.004737486555438852 0 -0.050059235623183811 -0.0055284513745665282 0 -0.04141645003689251 -0.0096763724728857886 0 -0.046483841299450837 -0.0072642974971420752 0 -0.052144769007819107 -0.0036257245798598241 0 -0.050790455622018921 -0.0040658699150849954 0 -0.051034144556029892 -0.0047137879541660817 0 -0.040753942645009082 -0.012427454343478779 0 -0.041529575193582739 -0.012393109556908187 0 -0.041183579753494494 -0.01211904004254599 0 -0.043001325919584645 -0.0067514439213799647 0 -0.043620382025233329 -0.0082489613406195126 0 -0.045641290119898655 -0.0063610720946183016 0 -0.048549465799179667 -0.0066743910699223101 0 -0.046483841299450837 -0.0072642974971420752 0 -0.044782451616107784 -0.0033960411754754773 0 -0.046483841299450837 -0.0072642974971420752 0 -0.040753942645009082 -0.012427454343478779 0 -0.040863102262650629 -0.012023483684179034 0 -0.041183579753494494 -0.01211904004254599 0 -0.040863102262650629 -0.012023483684179034 0 -0.041202784683567875 -0.011836123243900586 0 -0.041183579753494494 -0.01211904004254599 0 -0.040907620803889252 -0.011705188271321632 0 -0.040863102262650629 -0.012023483684179034 0 -0.041202784683567875 -0.011836123243900586 0 -0.041202784683567875 -0.011836123243900586 0 -0.041183579753494494 -0.01211904004254599 0 -0.04166112698728875 -0.011837470254585617 0 -0.041529575193582739 -0.012393109556908187 0 -0.041183579753494494 -0.01211904004254599 0 -0.04166112698728875 -0.011837470254585617 0 -0.04166112698728875 -0.011837470254585617 0 -0.041305157888923166 -0.011442415748491034 0 -0.041725844102388512 -0.011120306309586431 0 -0.041202784683567875 -0.011836123243900586 0 -0.04166112698728875 -0.011837470254585617 0 -0.041305157888923166 -0.011442415748491034 0 -0.040907620803889252 -0.011705188271321632 0 -0.041305157888923166 -0.011442415748491034 0 -0.041061016101048897 -0.011421294153487051 0 -0.040907620803889252 -0.011705188271321632 0 -0.041202784683567875 -0.011836123243900586 0 -0.041305157888923166 -0.011442415748491034 0 -0.049592507806016761 -0.0053224642750816752 0 -0.050037334438410165 -0.0049191360658117954 0 -0.050059235623183811 -0.0055284513745665282 0 -0.041529575193582739 -0.012393109556908187 0 -0.04166112698728875 -0.011837470254585617 0 -0.042522587268265466 -0.012076597108413278 0 -0.046483841299450837 -0.0072642974971420752 0 -0.046323043455720456 -0.0086664200781094124 0 -0.04166112698728875 -0.011837470254585617 0 -0.041725844102388512 -0.011120306309586431 0 -0.042092341748864899 -0.011013793358308325 0 -0.04166112698728875 -0.011837470254585617 0 -0.042522587268265466 -0.012076597108413278 0 -0.042092341748864899 -0.011013793358308325 0 -0.041725844102388512 -0.011120306309586431 0 -0.042092341748864899 -0.011013793358308325 0 -0.042382481360135102 -0.010410094933707165 0 -0.042522587268265466 -0.012076597108413278 0 -0.042092341748864899 -0.011013793358308325 0 -0.043394683369644256 -0.0093910894621650753 0 -0.042092341748864899 -0.011013793358308325 0 -0.043394683369644256 -0.0093910894621650753 0 -0.042382481360135102 -0.010410094933707165 0 -0.043394683369644256 -0.0093910894621650753 0 -0.042703702038490783 -0.010238122548248577 0 -0.042382481360135102 -0.010410094933707165 0 -0.042703702038490783 -0.010238122548248577 0 -0.042382481360135102 -0.010410094933707165 0 -0.042103103844144354 -0.010761546865711897 0 -0.042382481360135102 -0.010410094933707165 0 -0.041941955809236049 -0.010781694287200995 0 -0.042103103844144354 -0.010761546865711897 0 -0.041725844102388512 -0.011120306309586431 0 -0.042382481360135102 -0.010410094933707165 0 -0.041941955809236049 -0.010781694287200995 0 -0.041941955809236049 -0.010781694287200995 0 -0.042103103844144354 -0.010761546865711897 0 -0.041496616369261767 -0.011066617690403374 0 -0.042103103844144354 -0.010761546865711897 0 -0.04222642014473818 -0.010771859582318058 0 -0.041985121010739666 -0.011052824028861735 0 -0.042703702038490783 -0.010238122548248577 0 -0.042103103844144354 -0.010761546865711897 0 -0.04222642014473818 -0.010771859582318058 0 -0.041305157888923166 -0.011442415748491034 0 -0.041061016101048897 -0.011421294153487051 0 -0.041496616369261767 -0.011066617690403374 0 -0.040901555758368742 -0.011392369501848227 0 -0.041061016101048897 -0.011421294153487051 0 -0.041496616369261767 -0.011066617690403374 0 -0.041305157888923166 -0.011442415748491034 0 -0.041725844102388512 -0.011120306309586431 0 -0.041496616369261767 -0.011066617690403374 0 -0.041725844102388512 -0.011120306309586431 0 -0.041941955809236049 -0.010781694287200995 0 -0.041496616369261767 -0.011066617690403374 0 -0.041496616369261767 -0.011066617690403374 0 -0.041128951160148544 -0.011256182590912977 0 -0.041462010986123336 -0.011118143397290484 0 -0.042103103844144354 -0.010761546865711897 0 -0.041496616369261767 -0.011066617690403374 0 -0.041462010986123336 -0.011118143397290484 0 -0.040901555758368742 -0.011392369501848227 0 -0.041496616369261767 -0.011066617690403374 0 -0.041128951160148544 -0.011256182590912977 0 -0.041128951160148544 -0.011256182590912977 0 -0.041462010986123336 -0.011118143397290484 0 -0.040973770086299058 -0.011314432305065581 0 -0.041462010986123336 -0.011118143397290484 0 -0.041150433010981223 -0.011288298334198586 0 -0.041682550642253624 -0.011126001688933644 0 -0.041462010986123336 -0.011118143397290484 0 -0.041150433010981223 -0.011288298334198586 0 -0.040973770086299058 -0.011314432305065581 0 -0.04079345547252481 -0.011379273194792703 0 -0.041150433010981223 -0.011288298334198586 0 -0.040973770086299058 -0.011314432305065581 0 -0.04079345547252481 -0.011379273194792703 0 -0.041150433010981223 -0.011288298334198586 0 -0.040750452460156107 -0.011380705523212787 0 -0.041150433010981223 -0.011288298334198586 0 -0.041091456757445383 -0.011278658900678473 0 -0.040750452460156107 -0.011380705523212787 0 -0.041150433010981223 -0.011288298334198586 0 -0.041091456757445383 -0.011278658900678473 0 -0.041476203955776343 -0.011255162184850464 0 -0.041091456757445383 -0.011278658900678473 0 -0.040750452460156107 -0.011380705523212787 0 -0.040689927132276649 -0.011358318027556685 0 -0.041476203955776343 -0.011255162184850464 0 -0.041736695480510039 -0.011236567173095409 0 -0.04145820950639794 -0.011131341524620558 0 -0.041091456757445383 -0.011278658900678473 0 -0.041476203955776343 -0.011255162184850464 0 -0.04145820950639794 -0.011131341524620558 0 -0.041476203955776343 -0.011255162184850464 0 -0.041744387291828354 -0.011211259350609726 0 -0.041736695480510039 -0.011236567173095409 0 -0.041744387291828354 -0.011211259350609726 0 -0.041682550642253624 -0.011126001688933644 0 -0.041985121010739666 -0.011052824028861735 0 -0.041150433010981223 -0.011288298334198586 0 -0.041476203955776343 -0.011255162184850464 0 -0.041682550642253624 -0.011126001688933644 0 -0.041476203955776343 -0.011255162184850464 0 -0.041744387291828354 -0.011211259350609726 0 -0.041682550642253624 -0.011126001688933644 0 -0.042103103844144354 -0.010761546865711897 0 -0.041462010986123336 -0.011118143397290484 0 -0.041682550642253624 -0.011126001688933644 0 -0.042103103844144354 -0.010761546865711897 0 -0.041682550642253624 -0.011126001688933644 0 -0.041985121010739666 -0.011052824028861735 0 -0.041559319862093151 -0.011065737582978045 0 -0.041985121010739666 -0.011052824028861735 0 -0.041769870698736299 -0.011239552166793858 0 -0.041559319862093151 -0.011065737582978045 0 -0.04222642014473818 -0.010771859582318058 0 -0.041985121010739666 -0.011052824028861735 0 -0.041559319862093151 -0.011065737582978045 0 -0.041769870698736299 -0.011239552166793858 0 -0.042119309772590249 -0.01130727711782141 0 -0.041744387291828354 -0.011211259350609726 0 -0.041985121010739666 -0.011052824028861735 0 -0.041769870698736299 -0.011239552166793858 0 -0.049439282098585849 -0.0021483024446032053 0 -0.05232091777377388 -0.0021404811656572033 0 -0.051457063046582173 -0.0006739003415113915 0 -0.053482904136658328 -0.00056562105586486838 0 -0.05232091777377388 -0.0021404811656572033 0 -0.051457063046582173 -0.0006739003415113915 0 -0.045448706656544366 -0.0068334847761795303 0 -0.046622837347023424 -0.0057196496024794798 0 -0.042777507169150068 -0.010989300111282047 0 -0.042128140156835046 -0.011122417166915316 0 -0.042119309772590249 -0.01130727711782141 0 -0.050549440857171633 -0.0072662660319591744 0 -0.046622837347023424 -0.0057196496024794798 0 -0.042128140156835046 -0.011122417166915316 0 -0.042119309772590249 -0.01130727711782141 0 -0.041736695480510039 -0.011236567173095409 0 -0.041769870698736299 -0.011239552166793858 0 -0.042119309772590249 -0.01130727711782141 0 -0.041736695480510039 -0.011236567173095409 0 -0.041744387291828354 -0.011211259350609726 0 -0.041769870698736299 -0.011239552166793858 0 -0.041736695480510039 -0.011236567173095409 0 -0.042128140156835046 -0.011122417166915316 0 -0.041736695480510039 -0.011236567173095409 0 -0.042005465864062362 -0.010887370070416329 0 -0.041736695480510039 -0.011236567173095409 0 -0.042005465864062362 -0.010887370070416329 0 -0.04145820950639794 -0.011131341524620558 0 -0.051839865983145092 -0.019879124559807913 0 -0.051635704762030783 -0.020490309417726008 0 -0.048240110166528245 -0.019383213800444613 0 -0.042777507169150068 -0.010989300111282047 0 -0.042128140156835046 -0.011122417166915316 0 -0.042005465864062362 -0.010887370070416329 0 -0.050549440857171633 -0.0072662660319591744 0 -0.04472132166007934 -0.016035507742301988 0 -0.051839865983145092 -0.019879124559807913 0 -0.048240110166528245 -0.019383213800444613 0 -0.050611695924069909 -0.017232175793465594 0 -0.048240110166528245 -0.019383213800444613 0 -0.050611695924069909 -0.017232175793465594 0 -0.047525423710195955 -0.017541096200224461 0 -0.050611695924069909 -0.017232175793465594 0 -0.047525423710195955 -0.017541096200224461 0 -0.047970606403727814 -0.015876254430113694 0 -0.048240110166528245 -0.019383213800444613 0 -0.047525423710195955 -0.017541096200224461 0 -0.044966871806225855 -0.018218770881787357 0 -0.047525423710195955 -0.017541096200224461 0 -0.044966871806225855 -0.018218770881787357 0 -0.046182948602647218 -0.016342938560602795 0 -0.04472132166007934 -0.016035507742301988 0 -0.043167345860861107 -0.014470380337463484 0 -0.044966871806225855 -0.018218770881787357 0 -0.044114453764656149 -0.016726821217207765 0 -0.046182948602647218 -0.016342938560602795 0 -0.041667172491566255 -0.01687696029562907 0 -0.044966871806225855 -0.018218770881787357 0 -0.044114453764656149 -0.016726821217207765 0 -0.040226124010847839 -0.011186689568764717 0 -0.041216089639529434 -0.010875143981013512 0 -0.04068596501000224 -0.011248218693068824 0 -0.040988143876807895 -0.01406508499230553 0 -0.043167345860861107 -0.014470380337463484 0 -0.041216089639529434 -0.010875143981013512 0 -0.041082442775567704 -0.011173865446385224 0 -0.04068596501000224 -0.011248218693068824 0 -0.041082442775567704 -0.011173865446385224 0 -0.04068596501000224 -0.011248218693068824 0 -0.040689927132276649 -0.011358318027556685 0 -0.041091456757445383 -0.011278658900678473 0 -0.041082442775567704 -0.011173865446385224 0 -0.040689927132276649 -0.011358318027556685 0 -0.041091456757445383 -0.011278658900678473 0 -0.041082442775567704 -0.011173865446385224 0 -0.04145820950639794 -0.011131341524620558 0 -0.042005465864062362 -0.010887370070416329 0 -0.041216089639529434 -0.010875143981013512 0 -0.04145820950639794 -0.011131341524620558 0 -0.041216089639529434 -0.010875143981013512 0 -0.041082442775567704 -0.011173865446385224 0 -0.04145820950639794 -0.011131341524620558 0 -0.046897310857377215 -0.030210733531495001 0 -0.048123436278727408 -0.027795237601371987 0 -0.044788256395102435 -0.027741734932460516 0 -0.048123436278727408 -0.027795237601371987 0 -0.049529254717970629 -0.026509647841516736 0 -0.046308082611240114 -0.02542816607751186 0 -0.048123436278727408 -0.027795237601371987 0 -0.044788256395102435 -0.027741734932460516 0 -0.046308082611240114 -0.02542816607751186 0 -0.039613420703340431 -0.026566652773033987 0 -0.038271147473469901 -0.02838062989231574 0 -0.042770319606547189 -0.028150021342053806 0 -0.039613420703340431 -0.026566652773033987 0 -0.046897310857377215 -0.030210733531495001 0 -0.044788256395102435 -0.027741734932460516 0 -0.039863365631410762 -0.027415150913081283 0 -0.045713359484988003 -0.026020945516533431 0 -0.044529047491376234 -0.027465427632206826 0 -0.042769473588452116 -0.024996959491087996 0 -0.039613420703340431 -0.026566652773033987 0 -0.044788256395102435 -0.027741734932460516 0 -0.041325746666804893 -0.024328313264900467 0 -0.039884692470899458 -0.018068992085007958 0 -0.045713359484988003 -0.026020945516533431 0 -0.039884692470899458 -0.018068992085007958 0 -0.043972299884133648 -0.01559013452629991 0 -0.041632224302641817 -0.015112690402296966 0 -0.045500856798378821 -0.014702379467684821 0 -0.043911754181541147 -0.015743149204979358 0 -0.041667172491566255 -0.01687696029562907 0 -0.044114453764656149 -0.016726821217207765 0 -0.043696498644451159 -0.015447794731923946 0 -0.045713359484988003 -0.026020945516533431 0 -0.049824694979555266 -0.022868421121415437 0 -0.045500856798378821 -0.014702379467684821 0 -0.043911754181541147 -0.015743149204979358 0 -0.046182948602647218 -0.016342938560602795 0 -0.045500856798378821 -0.014702379467684821 0 -0.046182948602647218 -0.016342938560602795 0 -0.047970606403727814 -0.015876254430113694 0 -0.044114453764656149 -0.016726821217207765 0 -0.043696498644451159 -0.015447794731923946 0 -0.046182948602647218 -0.016342938560602795 0 -0.043972299884133648 -0.01559013452629991 0 -0.045871185481304581 -0.016244966160601455 0 -0.047525423710195955 -0.017541096200224461 0 -0.046182948602647218 -0.016342938560602795 0 -0.047970606403727814 -0.015876254430113694 0 -0.049109289435785207 -0.029071819992697583 0 -0.051582013458042801 -0.030390884988120394 0 -0.05239270392598689 -0.028913040190481663 0 -0.051582013458042801 -0.030390884988120394 0 -0.053253240095876342 -0.030100915414392124 0 -0.05239270392598689 -0.028913040190481663 0 -0.054357639399774942 -0.031557565436152811 0 -0.051582013458042801 -0.030390884988120394 0 -0.053253240095876342 -0.030100915414392124 0 -0.052364201029313752 -0.024463454498552539 0 -0.049824694979555266 -0.022868421121415437 0 -0.054357639399774942 -0.031557565436152811 0 -0.053253240095876342 -0.030100915414392124 0 -0.054727902492851199 -0.029519072348311613 0 -0.053253240095876342 -0.030100915414392124 0 -0.054727902492851199 -0.029519072348311613 0 -0.05239270392598689 -0.028913040190481663 0 -0.054727902492851199 -0.029519072348311613 0 -0.05239270392598689 -0.028913040190481663 0 -0.055417593545667755 -0.027496279210029284 0 -0.05239270392598689 -0.028913040190481663 0 -0.052689236204125571 -0.025887815421175041 0 -0.055417593545667755 -0.027496279210029284 0 -0.046897310857377215 -0.030210733531495001 0 -0.048123436278727408 -0.027795237601371987 0 -0.05239270392598689 -0.028913040190481663 0 -0.048123436278727408 -0.027795237601371987 0 -0.05239270392598689 -0.028913040190481663 0 -0.049529254717970629 -0.026509647841516736 0 -0.05239270392598689 -0.028913040190481663 0 -0.049529254717970629 -0.026509647841516736 0 -0.052689236204125571 -0.025887815421175041 0 -0.045713359484988003 -0.026020945516533431 0 -0.052947273677335455 -0.029702606715178367 0 -0.049267511907606379 -0.024026725831751816 0 -0.052689236204125571 -0.025887815421175041 0 -0.052600614726188245 -0.023232006653522836 0 -0.049529254717970629 -0.026509647841516736 0 -0.049267511907606379 -0.024026725831751816 0 -0.052689236204125571 -0.025887815421175041 0 -0.052689236204125571 -0.025887815421175041 0 -0.057239195264787546 -0.025052717420724315 0 -0.055417593545667755 -0.027496279210029284 0 -0.052689236204125571 -0.025887815421175041 0 -0.052600614726188245 -0.023232006653522836 0 -0.057239195264787546 -0.025052717420724315 0 -0.053997086705380323 -0.020804284335610646 0 -0.052600614726188245 -0.023232006653522836 0 -0.050012607016730444 -0.020557437597729537 0 -0.053997086705380323 -0.020804284335610646 0 -0.052600614726188245 -0.023232006653522836 0 -0.057239195264787546 -0.025052717420724315 0 -0.049267511907606379 -0.024026725831751816 0 -0.052600614726188245 -0.023232006653522836 0 -0.050012607016730444 -0.020557437597729537 0 -0.049267511907606379 -0.024026725831751816 0 -0.04674228446902752 -0.021862421408587834 0 -0.050012607016730444 -0.020557437597729537 0 -0.04674228446902752 -0.021862421408587834 0 -0.046308082611240114 -0.02542816607751186 0 -0.044644123774275832 -0.022911553580283153 0 -0.049267511907606379 -0.024026725831751816 0 -0.04674228446902752 -0.021862421408587834 0 -0.046308082611240114 -0.02542816607751186 0 -0.049529254717970629 -0.026509647841516736 0 -0.049267511907606379 -0.024026725831751816 0 -0.046308082611240114 -0.02542816607751186 0 -0.044788256395102435 -0.027741734932460516 0 -0.046308082611240114 -0.02542816607751186 0 -0.044014608836640864 -0.02522024825935313 0 -0.046308082611240114 -0.02542816607751186 0 -0.044014608836640864 -0.02522024825935313 0 -0.044644123774275832 -0.022911553580283153 0 -0.042681569884049426 -0.02283936111835163 0 -0.044014608836640864 -0.02522024825935313 0 -0.044644123774275832 -0.022911553580283153 0 -0.039029515822341397 -0.021702053760783269 0 -0.038698235337668085 -0.023855690533969885 0 -0.041325746666804893 -0.024328313264900467 0 -0.039942649812669817 -0.022696950867363272 0 -0.042769473588452116 -0.024996959491087996 0 -0.04674228446902752 -0.021862421408587834 0 -0.044644123774275832 -0.022911553580283153 0 -0.043445391145139269 -0.019214104443948315 0 -0.042681569884049426 -0.02283936111835163 0 -0.044644123774275832 -0.022911553580283153 0 -0.043445391145139269 -0.019214104443948315 0 -0.04674228446902752 -0.021862421408587834 0 -0.043445391145139269 -0.019214104443948315 0 -0.04698391695330869 -0.017558046668381407 0 -0.04674228446902752 -0.021862421408587834 0 -0.04698391695330869 -0.017558046668381407 0 -0.050012607016730444 -0.020557437597729537 0 -0.04698391695330869 -0.017558046668381407 0 -0.0459300415924331 -0.014313571944024866 0 -0.048011206122989349 -0.014369828930483931 0 -0.04698391695330869 -0.017558046668381407 0 -0.048011206122989349 -0.014369828930483931 0 -0.05082449098384715 -0.017410344913466731 0 -0.043445391145139269 -0.019214104443948315 0 -0.04698391695330869 -0.017558046668381407 0 -0.044237391089434121 -0.015754388474182757 0 -0.039448300548234692 -0.019863521443546202 0 -0.039807251773811086 -0.02130989858405893 0 -0.040041474998204457 -0.019880657277486502 0 -0.041663556435792441 -0.020410887672376508 0 -0.042323165685441089 -0.017101569910437101 0 -0.04698391695330869 -0.017558046668381407 0 -0.044237391089434121 -0.015754388474182757 0 -0.0459300415924331 -0.014313571944024866 0 -0.044237391089434121 -0.015754388474182757 0 -0.0459300415924331 -0.014313571944024866 0 -0.044903370148367656 -0.012597986063004907 0 -0.039448300548234692 -0.019863521443546202 0 -0.040041474998204457 -0.019880657277486502 0 -0.040285913413158576 -0.018481653355438596 0 -0.042323165685441089 -0.017101569910437101 0 -0.040522292601584901 -0.019155507112842016 0 -0.038009936885612335 -0.022046385927321686 0 -0.040522292601584901 -0.019155507112842016 0 -0.051343987902187978 -0.017571654377996446 0 -0.044620659513593348 -0.01994311019811653 0 -0.0459300415924331 -0.014313571944024866 0 -0.048011206122989349 -0.014369828930483931 0 -0.045544509693814524 -0.011532034354677981 0 -0.053947673624276229 -0.021729813680921251 0 -0.05220909446621564 -0.019705601726220559 0 -0.055600154899857514 -0.020239920124936264 0 -0.05220909446621564 -0.019705601726220559 0 -0.055600154899857514 -0.020239920124936264 0 -0.052804458524770094 -0.018702988858504875 0 -0.054811345868954482 -0.023597911713265408 0 -0.048896713206176536 -0.025867065032066278 0 -0.037370816328152569 -0.022806211937382675 0 -0.037308367482860476 -0.022801442709558639 0 -0.037065611661382433 -0.02250488852714248 0 -0.036866058160776344 -0.023132740944377592 0 -0.037091866571736999 -0.022900460207493003 0 -0.037270551088634814 -0.022980154225415717 0 -0.0459300415924331 -0.014313571944024866 0 -0.045544509693814524 -0.011532034354677981 0 -0.044903370148367656 -0.012597986063004907 0 -0.044620659513593348 -0.01994311019811653 0 -0.048896713206176536 -0.025867065032066278 0 -0.037075319585357404 -0.022741116474900059 0 -0.037308367482860476 -0.022801442709558639 0 -0.037091866571736999 -0.022900460207493003 0 -0.037075319585357404 -0.022741116474900059 0 -0.037308367482860476 -0.022801442709558639 0 -0.037065611661382433 -0.02250488852714248 0 -0.037308367482860476 -0.022801442709558639 0 -0.037091866571736999 -0.022900460207493003 0 -0.037270551088634814 -0.022980154225415717 0 -0.037370816328152569 -0.022806211937382675 0 -0.037308367482860476 -0.022801442709558639 0 -0.03731835507753075 -0.022843758440742202 0 -0.044620659513593348 -0.01994311019811653 0 -0.040522292601584901 -0.019155507112842016 0 -0.038904606280122676 -0.022637561862284408 0 -0.040522292601584901 -0.019155507112842016 0 -0.05496491027247602 -0.027593953656976693 0 -0.053436385010960964 -0.027945325768369247 0 -0.053296784043816471 -0.026729606403689172 0 -0.056453651621933741 -0.029494563762447003 0 -0.053117296399764743 -0.028895160356519459 0 -0.05496491027247602 -0.027593953656976693 0 -0.053436385010960964 -0.027945325768369247 0 -0.055743157846872927 -0.029148643326839172 0 -0.053436385010960964 -0.027945325768369247 0 -0.053296784043816471 -0.026729606403689172 0 -0.051098842611028428 -0.026730042533928314 0 -0.053947673624276229 -0.021729813680921251 0 -0.055600154899857514 -0.020239920124936264 0 -0.056579922030731943 -0.022310875754268593 0 -0.054811345868954482 -0.023597911713265408 0 -0.057703413381405437 -0.026106103112563478 0 -0.055600154899857514 -0.020239920124936264 0 -0.056579922030731943 -0.022310875754268593 0 -0.05807161656046049 -0.021757783625005956 0 -0.056579922030731943 -0.022310875754268593 0 -0.057748689449017773 -0.023200953631553115 0 -0.05807161656046049 -0.021757783625005956 0 -0.056579922030731943 -0.022310875754268593 0 -0.057142826911846467 -0.023554097339457632 0 -0.057748689449017773 -0.023200953631553115 0 -0.056579922030731943 -0.022310875754268593 0 -0.057142826911846467 -0.023554097339457632 0 -0.055722327523818137 -0.023560376418827602 0 -0.053947673624276229 -0.021729813680921251 0 -0.056579922030731943 -0.022310875754268593 0 -0.055722327523818137 -0.023560376418827602 0 -0.051343987902187978 -0.017571654377996446 0 -0.053262603486512516 -0.020515961169713444 0 -0.053997086705380323 -0.020804284335610646 0 -0.05082449098384715 -0.017410344913466731 0 -0.050012607016730444 -0.020557437597729537 0 -0.04698391695330869 -0.017558046668381407 0 -0.05082449098384715 -0.017410344913466731 0 -0.050012607016730444 -0.020557437597729537 0 -0.057274347612250601 -0.024584536836357692 0 -0.057142826911846467 -0.023554097339457632 0 -0.058102763813180483 -0.023986140970211213 0 -0.057274347612250601 -0.024584536836357692 0 -0.057142826911846467 -0.023554097339457632 0 -0.055722327523818137 -0.023560376418827602 0 -0.05559034628597679 -0.02275695858507016 0 -0.053262603486512516 -0.020515961169713444 0 -0.058522426863263637 -0.024175765563216958 0 -0.058102763813180483 -0.023986140970211213 0 -0.057878962592613506 -0.02447000532150195 0 -0.057274347612250601 -0.024584536836357692 0 -0.058102763813180483 -0.023986140970211213 0 -0.057878962592613506 -0.02447000532150195 0 -0.058522426863263637 -0.024175765563216958 0 -0.058622866853860936 -0.024076639574513604 0 -0.058102763813180483 -0.023986140970211213 0 -0.058762259436378181 -0.024286019429183039 0 -0.058622866853860936 -0.024076639574513604 0 -0.058102763813180483 -0.023986140970211213 0 -0.058883214141795918 -0.024097405413780394 0 -0.059185435569352053 -0.02412119715491624 0 -0.058622866853860936 -0.024076639574513604 0 -0.058546871667038911 -0.025003615944652065 0 -0.058401636285455499 -0.025150650669865396 0 -0.058622866853860936 -0.024076639574513604 0 -0.060114269553265862 -0.02306154585838547 0 -0.059043620076672229 -0.024031762918838045 0 -0.060114269553265862 -0.02306154585838547 0 -0.05999387788343484 -0.023989487838151614 0 -0.059043620076672229 -0.024031762918838045 0 -0.058522426863263637 -0.024175765563216958 0 -0.058622866853860936 -0.024076639574513604 0 -0.059043620076672229 -0.024031762918838045 0 -0.058762259436378181 -0.024286019429183039 0 -0.058622866853860936 -0.024076639574513604 0 -0.058546871667038911 -0.025003615944652065 0 -0.058546871667038911 -0.025003615944652065 0 -0.058430617159980602 -0.025447890100931975 0 -0.058401636285455499 -0.025150650669865396 0 -0.058546871667038911 -0.025003615944652065 0 -0.058564960365101212 -0.025933929800470597 0 -0.058430617159980602 -0.025447890100931975 0 -0.058762259436378181 -0.024286019429183039 0 -0.058546871667038911 -0.025003615944652065 0 -0.058990020305784256 -0.025583465587771945 0 -0.058546871667038911 -0.025003615944652065 0 -0.058724612971953138 -0.025715530918147871 0 -0.058990020305784256 -0.025583465587771945 0 -0.058546871667038911 -0.025003615944652065 0 -0.058724612971953138 -0.025715530918147871 0 -0.058564960365101212 -0.025933929800470597 0 -0.058724612971953138 -0.025715530918147871 0 -0.058990020305784256 -0.025583465587771945 0 -0.058813872590006006 -0.026354023652843145 0 -0.058724612971953138 -0.025715530918147871 0 -0.058564960365101212 -0.025933929800470597 0 -0.058813872590006006 -0.026354023652843145 0 -0.058564960365101212 -0.025933929800470597 0 -0.058813872590006006 -0.026354023652843145 0 -0.058583598991420599 -0.026667262618207257 0 -0.058564960365101212 -0.025933929800470597 0 -0.058444887882227438 -0.026236998826922795 0 -0.058430617159980602 -0.025447890100931975 0 -0.058564960365101212 -0.025933929800470597 0 -0.058583598991420599 -0.026667262618207257 0 -0.058444887882227438 -0.026236998826922795 0 -0.058762259436378181 -0.024286019429183039 0 -0.058990020305784256 -0.025583465587771945 0 -0.060183201151959929 -0.027121983198211897 0 -0.059041973868739384 -0.02372590878442718 0 -0.057703413381405437 -0.026106103112563478 0 -0.058762259436378181 -0.024286019429183039 0 -0.057748689449017773 -0.023200953631553115 0 -0.05807161656046049 -0.021757783625005956 0 -0.057142826911846467 -0.023554097339457632 0 -0.058102763813180483 -0.023986140970211213 0 -0.057748689449017773 -0.023200953631553115 0 -0.058762259436378181 -0.024286019429183039 0 -0.058102763813180483 -0.023986140970211213 0 -0.057748689449017773 -0.023200953631553115 0 -0.058990020305784256 -0.025583465587771945 0 -0.059462571210614268 -0.026741630472473084 0 -0.058813872590006006 -0.026354023652843145 0 -0.056453651621933741 -0.029494563762447003 0 -0.057703413381405437 -0.026106103112563478 0 -0.06044283447715091 -0.028963350082368087 0 -0.059717251942589485 -0.027037314340099438 0 -0.059044332150836369 -0.028177906073914391 0 -0.057703413381405437 -0.026106103112563478 0 -0.059152948124549964 -0.026805290181643203 0 -0.059717251942589485 -0.027037314340099438 0 -0.058864696698017985 -0.027427343205744456 0 -0.059044332150836369 -0.028177906073914391 0 -0.059717251942589485 -0.027037314340099438 0 -0.059462571210614268 -0.026741630472473084 0 -0.058864696698017985 -0.027427343205744456 0 -0.058990020305784256 -0.025583465587771945 0 -0.060183201151959929 -0.027121983198211897 0 -0.059462571210614268 -0.026741630472473084 0 -0.059462571210614268 -0.026741630472473084 0 -0.058813872590006006 -0.026354023652843145 0 -0.058864696698017985 -0.027427343205744456 0 -0.058583598991420599 -0.026667262618207257 0 -0.058864696698017985 -0.027427343205744456 0 -0.058413038277733594 -0.02728380570338575 0 -0.058813872590006006 -0.026354023652843145 0 -0.058583598991420599 -0.026667262618207257 0 -0.058864696698017985 -0.027427343205744456 0 -0.058864696698017985 -0.027427343205744456 0 -0.058561975600079599 -0.028237611350677209 0 -0.058413038277733594 -0.02728380570338575 0 -0.058583598991420599 -0.026667262618207257 0 -0.058413038277733594 -0.02728380570338575 0 -0.058444887882227438 -0.026236998826922795 0 -0.058561975600079599 -0.028237611350677209 0 -0.058315085186719108 -0.028147589677808591 0 -0.058413038277733594 -0.02728380570338575 0 -0.058561975600079599 -0.028237611350677209 0 -0.058315085186719108 -0.028147589677808591 0 -0.058273150031781289 -0.028989493911587626 0 -0.058561975600079599 -0.028237611350677209 0 -0.058461771196388977 -0.029069128610118695 0 -0.058273150031781289 -0.028989493911587626 0 -0.0586935954023231 -0.028978064525719178 0 -0.058461771196388977 -0.029069128610118695 0 -0.059044332150836369 -0.028177906073914391 0 -0.056453651621933741 -0.029494563762447003 0 -0.059482173211973924 -0.028881994950318363 0 -0.058561975600079599 -0.028237611350677209 0 -0.058461771196388977 -0.029069128610118695 0 -0.059044332150836369 -0.028177906073914391 0 -0.058864696698017985 -0.027427343205744456 0 -0.058561975600079599 -0.028237611350677209 0 -0.059044332150836369 -0.028177906073914391 0 -0.058300569569382961 -0.027687633484651409 0 -0.058307752492923644 -0.027850518262498944 0 -0.058220656669532682 -0.028796852461361606 0 -0.058300569569382961 -0.027687633484651409 0 -0.058375868842689249 -0.026717680172617393 0 -0.058307752492923644 -0.027850518262498944 0 -0.058300569569382961 -0.027687633484651409 0 -0.058315085186719108 -0.028147589677808591 0 -0.058413038277733594 -0.02728380570338575 0 -0.058300569569382961 -0.027687633484651409 0 -0.058315085186719108 -0.028147589677808591 0 -0.058204023694213063 -0.028831094143222984 0 -0.058300569569382961 -0.027687633484651409 0 -0.058413038277733594 -0.02728380570338575 0 -0.058367934396516503 -0.026543647568044934 0 -0.058413038277733594 -0.02728380570338575 0 -0.058367934396516503 -0.026543647568044934 0 -0.058444887882227438 -0.026236998826922795 0 -0.058367934396516503 -0.026543647568044934 0 -0.058375868842689249 -0.026717680172617393 0 -0.058402597219921061 -0.026087760370301055 0 -0.058300569569382961 -0.027687633484651409 0 -0.058367934396516503 -0.026543647568044934 0 -0.058375868842689249 -0.026717680172617393 0 -0.058464565830598968 -0.025578740277604897 0 -0.059085678642232985 -0.024798913923753808 0 -0.059739927767356489 -0.024003671207138377 0 -0.058656748832071934 -0.025471478239760186 0 -0.05922870576899554 -0.024891010217493979 0 -0.058375868842689249 -0.026717680172617393 0 -0.058402597219921061 -0.026087760370301055 0 -0.058514980607173764 -0.026063586242288037 0 -0.058402597219921061 -0.026087760370301055 0 -0.058464565830598968 -0.025578740277604897 0 -0.058556232589626368 -0.025790631782814037 0 -0.058367934396516503 -0.026543647568044934 0 -0.058402597219921061 -0.026087760370301055 0 -0.058464565830598968 -0.025578740277604897 0 -0.058444887882227438 -0.026236998826922795 0 -0.058464565830598968 -0.025578740277604897 0 -0.058430617159980602 -0.025447890100931975 0 -0.058367934396516503 -0.026543647568044934 0 -0.058444887882227438 -0.026236998826922795 0 -0.058464565830598968 -0.025578740277604897 0 -0.058464565830598968 -0.025578740277604897 0 -0.058430617159980602 -0.025447890100931975 0 -0.058401636285455499 -0.025150650669865396 0 -0.060114269553265862 -0.02306154585838547 0 -0.06285073773000692 -0.022925034527952394 0 -0.061367730140834277 -0.023715703031349674 0 -0.058464565830598968 -0.025578740277604897 0 -0.058401636285455499 -0.025150650669865396 0 -0.059085678642232985 -0.024798913923753808 0 -0.059185435569352053 -0.02412119715491624 0 -0.062073082496557665 -0.023440790556720378 0 -0.060114269553265862 -0.02306154585838547 0 -0.061367730140834277 -0.023715703031349674 0 -0.05999387788343484 -0.023989487838151614 0 -0.058401636285455499 -0.025150650669865396 0 -0.059085678642232985 -0.024798913923753808 0 -0.05927361167568327 -0.025229855291948888 0 -0.059085678642232985 -0.024798913923753808 0 -0.059468432501025653 -0.024459511466895966 0 -0.059739927767356489 -0.024003671207138377 0 -0.060056747882085017 -0.024440397259703317 0 -0.062073082496557665 -0.023440790556720378 0 -0.06285073773000692 -0.022925034527952394 0 -0.062319607780707331 -0.023816111062527096 0 -0.062942042796969785 -0.024385086007180926 0 -0.062073082496557665 -0.023440790556720378 0 -0.065034311623678134 -0.022223458034663499 0 -0.06285073773000692 -0.022925034527952394 0 -0.062942042796969785 -0.024385086007180926 0 -0.063910076526601356 -0.025373202959711148 0 -0.06285073773000692 -0.022925034527952394 0 -0.062319607780707331 -0.023816111062527096 0 -0.061367730140834277 -0.023715703031349674 0 -0.062319607780707331 -0.023816111062527096 0 -0.062043607834187997 -0.024479331628592022 0 -0.061367730140834277 -0.023715703031349674 0 -0.062319607780707331 -0.023816111062527096 0 -0.062043607834187997 -0.024479331628592022 0 -0.062942042796969785 -0.024385086007180926 0 -0.062043607834187997 -0.024479331628592022 0 -0.062854668532212721 -0.024876350659451665 0 -0.062384208241103106 -0.025196341964243741 0 -0.062043607834187997 -0.024479331628592022 0 -0.062942042796969785 -0.024385086007180926 0 -0.062854668532212721 -0.024876350659451665 0 -0.062942042796969785 -0.024385086007180926 0 -0.063478165680161597 -0.025002799652099388 0 -0.063910076526601356 -0.025373202959711148 0 -0.062942042796969785 -0.024385086007180926 0 -0.062854668532212721 -0.024876350659451665 0 -0.063478165680161597 -0.025002799652099388 0 -0.063478165680161597 -0.025002799652099388 0 -0.063242378145768913 -0.025221707394046937 0 -0.064277679959873824 -0.0248497321967493 0 -0.063242378145768913 -0.025221707394046937 0 -0.063389711098549864 -0.025632107980736465 0 -0.064277679959873824 -0.0248497321967493 0 -0.063242378145768913 -0.025221707394046937 0 -0.062588431435562072 -0.026041607580868861 0 -0.063389711098549864 -0.025632107980736465 0 -0.062854668532212721 -0.024876350659451665 0 -0.063478165680161597 -0.025002799652099388 0 -0.063242378145768913 -0.025221707394046937 0 -0.062854668532212721 -0.024876350659451665 0 -0.063242378145768913 -0.025221707394046937 0 -0.062384208241103106 -0.025196341964243741 0 -0.063242378145768913 -0.025221707394046937 0 -0.062384208241103106 -0.025196341964243741 0 -0.062588431435562072 -0.026041607580868861 0 -0.062384208241103106 -0.025196341964243741 0 -0.062588431435562072 -0.026041607580868861 0 -0.061207085124092349 -0.02543283089211594 0 -0.062043607834187997 -0.024479331628592022 0 -0.062384208241103106 -0.025196341964243741 0 -0.061207085124092349 -0.02543283089211594 0 -0.063605592930784466 -0.026393318642147435 0 -0.063389711098549864 -0.025632107980736465 0 -0.064277679959873824 -0.0248497321967493 0 -0.062588431435562072 -0.026041607580868861 0 -0.063605592930784466 -0.026393318642147435 0 -0.062666027080091211 -0.027444007892656809 0 -0.062588431435562072 -0.026041607580868861 0 -0.063605592930784466 -0.026393318642147435 0 -0.063389711098549864 -0.025632107980736465 0 -0.061207085124092349 -0.02543283089211594 0 -0.059636880903869691 -0.026055038272895844 0 -0.061287131038434181 -0.027091647240790637 0 -0.062588431435562072 -0.026041607580868861 0 -0.061207085124092349 -0.02543283089211594 0 -0.061287131038434181 -0.027091647240790637 0 -0.061207085124092349 -0.02543283089211594 0 -0.059769211798738828 -0.024742402583733464 0 -0.059636880903869691 -0.026055038272895844 0 -0.060912210292232462 -0.024455404004834404 0 -0.05999387788343484 -0.023989487838151614 0 -0.059769211798738828 -0.024742402583733464 0 -0.061207085124092349 -0.02543283089211594 0 -0.060912210292232462 -0.024455404004834404 0 -0.059769211798738828 -0.024742402583733464 0 -0.062043607834187997 -0.024479331628592022 0 -0.061207085124092349 -0.02543283089211594 0 -0.060912210292232462 -0.024455404004834404 0 -0.060912210292232462 -0.024455404004834404 0 -0.061367730140834277 -0.023715703031349674 0 -0.05999387788343484 -0.023989487838151614 0 -0.062043607834187997 -0.024479331628592022 0 -0.060912210292232462 -0.024455404004834404 0 -0.061367730140834277 -0.023715703031349674 0 -0.05999387788343484 -0.023989487838151614 0 -0.059043620076672229 -0.024031762918838045 0 -0.059769211798738828 -0.024742402583733464 0 -0.058522426863263637 -0.024175765563216958 0 -0.059043620076672229 -0.024031762918838045 0 -0.058354705947691231 -0.024661351422034121 0 -0.059043620076672229 -0.024031762918838045 0 -0.058354705947691231 -0.024661351422034121 0 -0.059769211798738828 -0.024742402583733464 0 -0.058354705947691231 -0.024661351422034121 0 -0.057878962592613506 -0.02447000532150195 0 -0.057239195264787546 -0.025052717420724315 0 -0.057274347612250601 -0.024584536836357692 0 -0.057878962592613506 -0.02447000532150195 0 -0.057239195264787546 -0.025052717420724315 0 -0.05559034628597679 -0.02275695858507016 0 -0.05717962578356011 -0.0248870738628559 0 -0.058522426863263637 -0.024175765563216958 0 -0.058354705947691231 -0.024661351422034121 0 -0.057878962592613506 -0.02447000532150195 0 -0.058354705947691231 -0.024661351422034121 0 -0.057239195264787546 -0.025052717420724315 0 -0.057989481405776089 -0.026550947293421612 0 -0.057239195264787546 -0.025052717420724315 0 -0.057989481405776089 -0.026550947293421612 0 -0.055417593545667755 -0.027496279210029284 0 -0.058354705947691231 -0.024661351422034121 0 -0.057989481405776089 -0.026550947293421612 0 -0.059636880903869691 -0.026055038272895844 0 -0.058354705947691231 -0.024661351422034121 0 -0.059769211798738828 -0.024742402583733464 0 -0.059636880903869691 -0.026055038272895844 0 -0.057989481405776089 -0.026550947293421612 0 -0.059636880903869691 -0.026055038272895844 0 -0.059532669047344527 -0.02827017350690425 0 -0.057989481405776089 -0.026550947293421612 0 -0.059532669047344527 -0.02827017350690425 0 -0.057113402599901941 -0.028749792912736962 0 -0.057989481405776089 -0.026550947293421612 0 -0.055417593545667755 -0.027496279210029284 0 -0.057113402599901941 -0.028749792912736962 0 -0.054727902492851199 -0.029519072348311613 0 -0.055417593545667755 -0.027496279210029284 0 -0.057113402599901941 -0.028749792912736962 0 -0.054727902492851199 -0.029519072348311613 0 -0.057113402599901941 -0.028749792912736962 0 -0.056447997489218374 -0.030353426258628836 0 -0.057113402599901941 -0.028749792912736962 0 -0.056447997489218374 -0.030353426258628836 0 -0.058310980877229829 -0.029958717934581502 0 -0.057572617709630521 -0.030972022347093387 0 -0.056644864347503633 -0.031470033283210692 0 -0.056447997489218374 -0.030353426258628836 0 -0.057572617709630521 -0.030972022347093387 0 -0.056447997489218374 -0.030353426258628836 0 -0.058310980877229829 -0.029958717934581502 0 -0.054357639399774942 -0.031557565436152811 0 -0.054727902492851199 -0.029519072348311613 0 -0.056447997489218374 -0.030353426258628836 0 -0.059532669047344527 -0.02827017350690425 0 -0.058310980877229829 -0.029958717934581502 0 -0.060334030392170522 -0.030295932565998641 0 -0.059532669047344527 -0.02827017350690425 0 -0.057113402599901941 -0.028749792912736962 0 -0.058310980877229829 -0.029958717934581502 0 -0.058757037037615548 -0.031173799416807847 0 -0.057572617709630521 -0.030972022347093387 0 -0.058310980877229829 -0.029958717934581502 0 -0.058757037037615548 -0.031173799416807847 0 -0.058310980877229829 -0.029958717934581502 0 -0.060334030392170522 -0.030295932565998641 0 -0.059532669047344527 -0.02827017350690425 0 -0.060334030392170522 -0.030295932565998641 0 -0.061866481273649798 -0.02883337531345994 0 -0.060334030392170522 -0.030295932565998641 0 -0.062408926611425719 -0.030702224118161297 0 -0.061866481273649798 -0.02883337531345994 0 -0.064024582666509636 -0.032197686985646103 0 -0.062408926611425719 -0.030702224118161297 0 -0.064017775588635251 -0.028943147066492349 0 -0.062408926611425719 -0.030702224118161297 0 -0.061866481273649798 -0.02883337531345994 0 -0.064017775588635251 -0.028943147066492349 0 -0.061866481273649798 -0.02883337531345994 0 -0.062666027080091211 -0.027444007892656809 0 -0.061287131038434181 -0.027091647240790637 0 -0.063605592930784466 -0.026393318642147435 0 -0.062666027080091211 -0.027444007892656809 0 -0.064017775588635251 -0.028943147066492349 0 -0.061866481273649798 -0.02883337531345994 0 -0.062666027080091211 -0.027444007892656809 0 -0.064017775588635251 -0.028943147066492349 0 -0.062588431435562072 -0.026041607580868861 0 -0.062666027080091211 -0.027444007892656809 0 -0.061287131038434181 -0.027091647240790637 0 -0.059636880903869691 -0.026055038272895844 0 -0.059532669047344527 -0.02827017350690425 0 -0.061287131038434181 -0.027091647240790637 0 -0.059532669047344527 -0.02827017350690425 0 -0.061866481273649798 -0.02883337531345994 0 -0.061287131038434181 -0.027091647240790637 0 -0.062242274669322764 -0.015987241042721846 0 -0.064391729637505501 -0.016542771816870319 0 -0.062832133617093056 -0.013898759171769602 0 -0.062242274669322764 -0.015987241042721846 0 -0.064391729637505501 -0.016542771816870319 0 -0.063060872039052099 -0.017496578242830976 0 -0.062242274669322764 -0.015987241042721846 0 -0.0619052972846484 -0.017700909284093229 0 -0.063060872039052099 -0.017496578242830976 0 -0.063605592930784466 -0.026393318642147435 0 -0.064017775588635251 -0.028943147066492349 0 -0.064277679959873824 -0.0248497321967493 0 -0.063322863758910081 -0.019531015846535712 0 -0.066031604530602306 -0.016889221664104382 0 -0.064277679959873824 -0.0248497321967493 0 -0.065381849942411391 -0.024714846358010752 0 -0.064298133755329306 -0.023820758572036124 0 -0.065982783797562811 -0.010863050331690624 0 -0.066031604530602306 -0.016889221664104382 0 -0.062832133617093056 -0.013898759171769602 0 -0.061896895678150592 -0.013896776255677246 0 -0.065381849942411391 -0.024714846358010752 0 -0.063322863758910081 -0.019531015846535712 0 -0.066031604530602306 -0.016889221664104382 0 -0.062832133617093056 -0.013898759171769602 0 -0.063852902419144209 -0.018123689493416108 0 -0.062870871591765867 -0.014331320109791731 0 -0.062242274669322764 -0.015987241042721846 0 -0.062832133617093056 -0.013898759171769602 0 -0.06098626911723791 -0.013781829504274578 0 -0.059564021766092351 -0.012584640153450255 0 -0.06098626911723791 -0.013781829504274578 0 -0.059174140311923161 -0.014927966528307258 0 -0.06098626911723791 -0.013781829504274578 0 -0.059174140311923161 -0.014927966528307258 0 -0.060484109491732316 -0.016911712087184772 0 -0.058080197299307121 -0.01314254577391414 0 -0.059564021766092351 -0.012584640153450255 0 -0.059174140311923161 -0.014927966528307258 0 -0.059174140311923161 -0.014927966528307258 0 -0.060484109491732316 -0.016911712087184772 0 -0.058818899006106595 -0.017519455038207885 0 -0.062242274669322764 -0.015987241042721846 0 -0.060484109491732316 -0.016911712087184772 0 -0.0619052972846484 -0.017700909284093229 0 -0.062242274669322764 -0.015987241042721846 0 -0.06098626911723791 -0.013781829504274578 0 -0.060484109491732316 -0.016911712087184772 0 -0.060484109491732316 -0.016911712087184772 0 -0.0619052972846484 -0.017700909284093229 0 -0.061079935738918498 -0.019351648683688709 0 -0.060484109491732316 -0.016911712087184772 0 -0.061079935738918498 -0.019351648683688709 0 -0.05987918854048669 -0.01904302214419434 0 -0.0619052972846484 -0.017700909284093229 0 -0.061079935738918498 -0.019351648683688709 0 -0.062746115607829583 -0.018844345949014907 0 -0.060484109491732316 -0.016911712087184772 0 -0.05987918854048669 -0.01904302214419434 0 -0.058818899006106595 -0.017519455038207885 0 -0.05987918854048669 -0.01904302214419434 0 -0.060394414773342557 -0.020968935127601143 0 -0.058477881288104508 -0.020256266344661218 0 -0.061079935738918498 -0.019351648683688709 0 -0.05987918854048669 -0.01904302214419434 0 -0.060394414773342557 -0.020968935127601143 0 -0.059233367125034624 -0.023053374184439611 0 -0.058808205115221737 -0.022661360859937644 0 -0.058477881288104508 -0.020256266344661218 0 -0.059695407529583244 -0.021981418397319284 0 -0.058387495080555157 -0.020470460847591444 0 -0.061079935738918498 -0.019351648683688709 0 -0.061203400440849487 -0.021478869264625614 0 -0.062469040612783945 -0.020044966724856048 0 -0.061079935738918498 -0.019351648683688709 0 -0.060394414773342557 -0.020968935127601143 0 -0.061203400440849487 -0.021478869264625614 0 -0.061203400440849487 -0.021478869264625614 0 -0.06322488299429449 -0.020747163901567417 0 -0.062469040612783945 -0.020044966724856048 0 -0.061072909263336611 -0.021735057430910094 0 -0.062449317783509838 -0.022599433910222701 0 -0.061203400440849487 -0.021478869264625614 0 -0.06322488299429449 -0.020747163901567417 0 -0.064087048449273043 -0.021809590618930241 0 -0.06322488299429449 -0.020747163901567417 0 -0.06431493234479628 -0.020692045574376778 0 -0.064087048449273043 -0.021809590618930241 0 -0.06322488299429449 -0.020747163901567417 0 -0.063913877471713884 -0.019811625539735606 0 -0.06431493234479628 -0.020692045574376778 0 -0.06322488299429449 -0.020747163901567417 0 -0.063913877471713884 -0.019811625539735606 0 -0.062469040612783945 -0.020044966724856048 0 -0.061079935738918498 -0.019351648683688709 0 -0.062469040612783945 -0.020044966724856048 0 -0.062746115607829583 -0.018844345949014907 0 -0.063913877471713884 -0.019811625539735606 0 -0.062746115607829583 -0.018844345949014907 0 -0.064298226931443631 -0.018527204858386909 0 -0.063913877471713884 -0.019811625539735606 0 -0.062469040612783945 -0.020044966724856048 0 -0.062746115607829583 -0.018844345949014907 0 -0.062746115607829583 -0.018844345949014907 0 -0.063060872039052099 -0.017496578242830976 0 -0.064298226931443631 -0.018527204858386909 0 -0.0619052972846484 -0.017700909284093229 0 -0.062746115607829583 -0.018844345949014907 0 -0.063060872039052099 -0.017496578242830976 0 -0.064391729637505501 -0.016542771816870319 0 -0.064298226931443631 -0.018527204858386909 0 -0.065621905164379921 -0.019401907056026665 0 -0.063322863758910081 -0.019531015846535712 0 -0.064277679959873824 -0.0248497321967493 0 -0.063910076526601356 -0.025373202959711148 0 -0.063852902419144209 -0.018123689493416108 0 -0.065034311623678134 -0.022223458034663499 0 -0.064391729637505501 -0.016542771816870319 0 -0.063060872039052099 -0.017496578242830976 0 -0.064298226931443631 -0.018527204858386909 0 -0.063913877471713884 -0.019811625539735606 0 -0.064298226931443631 -0.018527204858386909 0 -0.064659131505139231 -0.019440881466241247 0 -0.064298226931443631 -0.018527204858386909 0 -0.064659131505139231 -0.019440881466241247 0 -0.065621905164379921 -0.019401907056026665 0 -0.064659131505139231 -0.019440881466241247 0 -0.065621905164379921 -0.019401907056026665 0 -0.064811988086090733 -0.020019646070535978 0 -0.063478165680161597 -0.025002799652099388 0 -0.064277679959873824 -0.0248497321967493 0 -0.063910076526601356 -0.025373202959711148 0 -0.066688010757342361 -0.022228160491790407 0 -0.065220906502498913 -0.020874807741069919 0 -0.064087048449273043 -0.021809590618930241 0 -0.065621905164379921 -0.019401907056026665 0 -0.064811988086090733 -0.020019646070535978 0 -0.065220906502498913 -0.020874807741069919 0 -0.066688010757342361 -0.022228160491790407 0 -0.065621905164379921 -0.019401907056026665 0 -0.065220906502498913 -0.020874807741069919 0 -0.063913877471713884 -0.019811625539735606 0 -0.064659131505139231 -0.019440881466241247 0 -0.064811988086090733 -0.020019646070535978 0 -0.064811988086090733 -0.020019646070535978 0 -0.06431493234479628 -0.020692045574376778 0 -0.065220906502498913 -0.020874807741069919 0 -0.063913877471713884 -0.019811625539735606 0 -0.064811988086090733 -0.020019646070535978 0 -0.06431493234479628 -0.020692045574376778 0 -0.06431493234479628 -0.020692045574376778 0 -0.065220906502498913 -0.020874807741069919 0 -0.064087048449273043 -0.021809590618930241 0 -0.05922870576899554 -0.024891010217493979 0 -0.060053451545656604 -0.023728453158266376 0 -0.058556232589626368 -0.025790631782814037 0 -0.058897568627941342 -0.024762771328524648 0 -0.058656791893676001 -0.025531795111644814 0 -0.060721544911344384 -0.023548005284832786 0 -0.059739927767356489 -0.024003671207138377 0 -0.061235415599093089 -0.022729312380726965 0 -0.059468432501025653 -0.024459511466895966 0 -0.060721544911344384 -0.023548005284832786 0 -0.059739927767356489 -0.024003671207138377 0 -0.062073082496557665 -0.023440790556720378 0 -0.062449317783509838 -0.022599433910222701 0 -0.061203400440849487 -0.021478869264625614 0 -0.060721544911344384 -0.023548005284832786 0 -0.061235415599093089 -0.022729312380726965 0 -0.058897568627941342 -0.024762771328524648 0 -0.058656791893676001 -0.025531795111644814 0 -0.058613179002576142 -0.025138871752601214 0 -0.058656791893676001 -0.025531795111644814 0 -0.058553483979391176 -0.02601945322486697 0 -0.058613179002576142 -0.025138871752601214 0 -0.058556232589626368 -0.025790631782814037 0 -0.058656791893676001 -0.025531795111644814 0 -0.058514980607173764 -0.026063586242288037 0 -0.058402597219921061 -0.026087760370301055 0 -0.058556232589626368 -0.025790631782814037 0 -0.058514980607173764 -0.026063586242288037 0 -0.058656791893676001 -0.025531795111644814 0 -0.058553483979391176 -0.02601945322486697 0 -0.058514980607173764 -0.026063586242288037 0 -0.058375868842689249 -0.026717680172617393 0 -0.058514980607173764 -0.026063586242288037 0 -0.058425700474445078 -0.026849383588706675 0 -0.058375868842689249 -0.026717680172617393 0 -0.058425700474445078 -0.026849383588706675 0 -0.058307752492923644 -0.027850518262498944 0 -0.058553483979391176 -0.02601945322486697 0 -0.058514980607173764 -0.026063586242288037 0 -0.058425700474445078 -0.026849383588706675 0 -0.058553483979391176 -0.02601945322486697 0 -0.058425700474445078 -0.026849383588706675 0 -0.058246833999596036 -0.027294345755863137 0 -0.058553483979391176 -0.02601945322486697 0 -0.058246833999596036 -0.027294345755863137 0 -0.058613179002576142 -0.025138871752601214 0 -0.058246833999596036 -0.027294345755863137 0 -0.057859270792752542 -0.028590745122998813 0 -0.058191774150285487 -0.028715593810087994 0 -0.058425700474445078 -0.026849383588706675 0 -0.058246833999596036 -0.027294345755863137 0 -0.058307752492923644 -0.027850518262498944 0 -0.058246833999596036 -0.027294345755863137 0 -0.058307752492923644 -0.027850518262498944 0 -0.058191774150285487 -0.028715593810087994 0 -0.059440696797924374 -0.025290316772408505 0 -0.058631666335261193 -0.02543738877476328 0 -0.059195737725650434 -0.027236958957999439 0 -0.05824824787589334 -0.026350183437303921 0 -0.057900475372630239 -0.02799167528890625 0 -0.058246833999596036 -0.027294345755863137 0 -0.057041590915520773 -0.027344407762828132 0 -0.057859270792752542 -0.028590745122998813 0 -0.05824824787589334 -0.026350183437303921 0 -0.058608821463561313 -0.025255587685110752 0 -0.058246833999596036 -0.027294345755863137 0 -0.057041590915520773 -0.027344407762828132 0 -0.058613179002576142 -0.025138871752601214 0 -0.059440696797924374 -0.025290316772408505 0 -0.059014558950298918 -0.024127658758081486 0 -0.058631666335261193 -0.02543738877476328 0 -0.059440696797924374 -0.025290316772408505 0 -0.059014558950298918 -0.024127658758081486 0 -0.058613179002576142 -0.025138871752601214 0 -0.059014558950298918 -0.024127658758081486 0 -0.058613179002576142 -0.025138871752601214 0 -0.059019218813434873 -0.024201619576853739 0 -0.060394414773342557 -0.020968935127601143 0 -0.061203400440849487 -0.021478869264625614 0 -0.061235415599093089 -0.022729312380726965 0 -0.059695407529583244 -0.021981418397319284 0 -0.060053451545656604 -0.023728453158266376 0 -0.059233367125034624 -0.023053374184439611 0 -0.058897568627941342 -0.024762771328524648 0 -0.059019218813434873 -0.024201619576853739 0 -0.058897568627941342 -0.024762771328524648 0 -0.058613179002576142 -0.025138871752601214 0 -0.059019218813434873 -0.024201619576853739 0 -0.059233367125034624 -0.023053374184439611 0 -0.059019218813434873 -0.024201619576853739 0 -0.058808205115221737 -0.022661360859937644 0 -0.059014558950298918 -0.024127658758081486 0 -0.059019218813434873 -0.024201619576853739 0 -0.058808205115221737 -0.022661360859937644 0 -0.059014558950298918 -0.024127658758081486 0 -0.058808205115221737 -0.022661360859937644 0 -0.057943008067262929 -0.022538940859376008 0 -0.058808205115221737 -0.022661360859937644 0 -0.057943008067262929 -0.022538940859376008 0 -0.058477881288104508 -0.020256266344661218 0 -0.057943008067262929 -0.022538940859376008 0 -0.057638487100984966 -0.024144001689633307 0 -0.056765768133289062 -0.02115178068951731 0 -0.059014558950298918 -0.024127658758081486 0 -0.057943008067262929 -0.022538940859376008 0 -0.057638487100984966 -0.024144001689633307 0 -0.059014558950298918 -0.024127658758081486 0 -0.057638487100984966 -0.024144001689633307 0 -0.058631666335261193 -0.02543738877476328 0 -0.057638487100984966 -0.024144001689633307 0 -0.058631666335261193 -0.02543738877476328 0 -0.057521618990635931 -0.02670447579141649 0 -0.058631666335261193 -0.02543738877476328 0 -0.057521618990635931 -0.02670447579141649 0 -0.059195737725650434 -0.027236958957999439 0 -0.056305056370170616 -0.025827016301407837 0 -0.054999553931066945 -0.025039237027637318 0 -0.054999499620771261 -0.027909994883970148 0 -0.057521618990635931 -0.02670447579141649 0 -0.056305056370170616 -0.025827016301407837 0 -0.056348373442095347 -0.02850601551034895 0 -0.057638487100984966 -0.024144001689633307 0 -0.057521618990635931 -0.02670447579141649 0 -0.056305056370170616 -0.025827016301407837 0 -0.057638487100984966 -0.024144001689633307 0 -0.056305056370170616 -0.025827016301407837 0 -0.056199135535283391 -0.023677786447477575 0 -0.056305056370170616 -0.025827016301407837 0 -0.054999553931066945 -0.025039237027637318 0 -0.056199135535283391 -0.023677786447477575 0 -0.054999553931066945 -0.025039237027637318 0 -0.056199135535283391 -0.023677786447477575 0 -0.054999555594569038 -0.0221693674207292 0 -0.057638487100984966 -0.024144001689633307 0 -0.056199135535283391 -0.023677786447477575 0 -0.056765768133289062 -0.02115178068951731 0 -0.056199135535283391 -0.023677786447477575 0 -0.056765768133289062 -0.02115178068951731 0 -0.054999555594569038 -0.0221693674207292 0 -0.056765768133289062 -0.02115178068951731 0 -0.054999555594569038 -0.0221693674207292 0 -0.054999265905153416 -0.019298922361980841 0 -0.054999265905153416 -0.019298922361980841 0 -0.056293964463977088 -0.017704011841785175 0 -0.054999205335472763 -0.016428326496602929 0 -0.056765768133289062 -0.02115178068951731 0 -0.056293964463977088 -0.017704011841785175 0 -0.05750976271813469 -0.018503975799811917 0 -0.056765768133289062 -0.02115178068951731 0 -0.054999265905153416 -0.019298922361980841 0 -0.056293964463977088 -0.017704011841785175 0 -0.056765768133289062 -0.02115178068951731 0 -0.058477881288104508 -0.020256266344661218 0 -0.05750976271813469 -0.018503975799811917 0 -0.057943008067262929 -0.022538940859376008 0 -0.056765768133289062 -0.02115178068951731 0 -0.058477881288104508 -0.020256266344661218 0 -0.058477881288104508 -0.020256266344661218 0 -0.058818899006106595 -0.017519455038207885 0 -0.05750976271813469 -0.018503975799811917 0 -0.05987918854048669 -0.01904302214419434 0 -0.058477881288104508 -0.020256266344661218 0 -0.058818899006106595 -0.017519455038207885 0 -0.058818899006106595 -0.017519455038207885 0 -0.05750976271813469 -0.018503975799811917 0 -0.057492514529209324 -0.015663867380705167 0 -0.056293964463977088 -0.017704011841785175 0 -0.05750976271813469 -0.018503975799811917 0 -0.057492514529209324 -0.015663867380705167 0 -0.059174140311923161 -0.014927966528307258 0 -0.058818899006106595 -0.017519455038207885 0 -0.057492514529209324 -0.015663867380705167 0 -0.058080197299307121 -0.01314254577391414 0 -0.059174140311923161 -0.014927966528307258 0 -0.057492514529209324 -0.015663867380705167 0 -0.056518673557021316 -0.012846626442207305 0 -0.058080197299307121 -0.01314254577391414 0 -0.057492514529209324 -0.015663867380705167 0 -0.056518673557021316 -0.012846626442207305 0 -0.057492514529209324 -0.015663867380705167 0 -0.056122990399951118 -0.015300562211298793 0 -0.054999657400919263 -0.01355754398789609 0 -0.056122990399951118 -0.015300562211298793 0 -0.054999205335472763 -0.016428326496602929 0 -0.054999657400919263 -0.01355754398789609 0 -0.056518673557021316 -0.012846626442207305 0 -0.056122990399951118 -0.015300562211298793 0 -0.056293964463977088 -0.017704011841785175 0 -0.056122990399951118 -0.015300562211298793 0 -0.054999205335472763 -0.016428326496602929 0 -0.056293964463977088 -0.017704011841785175 0 -0.057492514529209324 -0.015663867380705167 0 -0.056122990399951118 -0.015300562211298793 0 -0.056772446117018788 -0.037614309350330478 0 -0.056329710551623433 -0.040208184624038898 0 -0.057472224067103256 -0.038889174928351283 0 -0.056772446117018788 -0.037614309350330478 0 -0.054999499762554339 -0.03942821138621292 0 -0.056329710551623433 -0.040208184624038898 0 -0.056772446117018788 -0.037614309350330478 0 -0.054999499762554339 -0.03942821138621292 0 -0.055868211508986611 -0.037281998514778932 0 -0.054999499762554339 -0.03942821138621292 0 -0.056329710551623433 -0.040208184624038898 0 -0.054999517649892984 -0.04251054848748774 0 -0.056329710551623433 -0.040208184624038898 0 -0.057472224067103256 -0.038889174928351283 0 -0.057463761053847963 -0.041017146743772236 0 -0.057472224067103256 -0.038889174928351283 0 -0.058792543173402476 -0.040253385533095119 0 -0.057463761053847963 -0.041017146743772236 0 -0.057472224067103256 -0.038889174928351283 0 -0.058792543173402476 -0.040253385533095119 0 -0.058355646953227411 -0.037199234436913517 0 -0.056772446117018788 -0.037614309350330478 0 -0.057472224067103256 -0.038889174928351283 0 -0.057584157143466083 -0.036756666441886424 0 -0.057472224067103256 -0.038889174928351283 0 -0.058355646953227411 -0.037199234436913517 0 -0.057584157143466083 -0.036756666441886424 0 -0.056772446117018788 -0.037614309350330478 0 -0.057584157143466083 -0.036756666441886424 0 -0.057250218938592917 -0.036109188911357483 0 -0.057584157143466083 -0.036756666441886424 0 -0.057717128216194624 -0.035688919909220941 0 -0.057972558638667314 -0.036104426720503235 0 -0.057584157143466083 -0.036756666441886424 0 -0.057717128216194624 -0.035688919909220941 0 -0.057250218938592917 -0.036109188911357483 0 -0.058355646953227411 -0.037199234436913517 0 -0.057972558638667314 -0.036104426720503235 0 -0.058345708069672951 -0.034911723428229464 0 -0.058355646953227411 -0.037199234436913517 0 -0.058345708069672951 -0.034911723428229464 0 -0.058429252527223037 -0.034713889835796125 0 -0.058355646953227411 -0.037199234436913517 0 -0.057584157143466083 -0.036756666441886424 0 -0.057972558638667314 -0.036104426720503235 0 -0.057717128216194624 -0.035688919909220941 0 -0.057972558638667314 -0.036104426720503235 0 -0.058345708069672951 -0.034911723428229464 0 -0.058345708069672951 -0.034911723428229464 0 -0.058276521301109281 -0.034976930636349109 0 -0.058429252527223037 -0.034713889835796125 0 -0.057533725327124509 -0.032855568594729552 0 -0.056212204335669695 -0.032097138329408005 0 -0.058429252527223037 -0.034713889835796125 0 -0.057316479451502124 -0.03353124632151136 0 -0.058401195188607542 -0.034683249697847952 0 -0.058301756332088353 -0.035066909719787251 0 -0.057847201355190003 -0.035167214499815747 0 -0.057533725327124509 -0.032855568594729552 0 -0.056847265419323813 -0.032044321760191126 0 -0.056212204335669695 -0.032097138329408005 0 -0.056847265419323813 -0.032044321760191126 0 -0.056212204335669695 -0.032097138329408005 0 -0.056590908590686537 -0.031665435994126856 0 -0.057533725327124509 -0.032855568594729552 0 -0.057108032173930214 -0.031691185031192004 0 -0.057874702824751524 -0.031637665451303067 0 -0.057533725327124509 -0.032855568594729552 0 -0.056847265419323813 -0.032044321760191126 0 -0.057108032173930214 -0.031691185031192004 0 -0.058345708069672951 -0.034911723428229464 0 -0.0580458806962144 -0.035102440059698418 0 -0.058276521301109281 -0.034976930636349109 0 -0.057717128216194624 -0.035688919909220941 0 -0.058345708069672951 -0.034911723428229464 0 -0.057585196439570871 -0.035471860294162404 0 -0.057717128216194624 -0.035688919909220941 0 -0.057250218938592917 -0.036109188911357483 0 -0.057585196439570871 -0.035471860294162404 0 -0.057250218938592917 -0.036109188911357483 0 -0.057585196439570871 -0.035471860294162404 0 -0.05700561373417265 -0.035611225539531194 0 -0.05700561373417265 -0.035611225539531194 0 -0.056486063623284608 -0.036219500195957016 0 -0.056586416868900986 -0.034558968180247514 0 -0.057847201355190003 -0.035167214499815747 0 -0.056631611582300616 -0.034370628509422851 0 -0.057585196439570871 -0.035471860294162404 0 -0.05700561373417265 -0.035611225539531194 0 -0.056586416868900986 -0.034558968180247514 0 -0.056772446117018788 -0.037614309350330478 0 -0.057250218938592917 -0.036109188911357483 0 -0.056486063623284608 -0.036219500195957016 0 -0.057250218938592917 -0.036109188911357483 0 -0.05700561373417265 -0.035611225539531194 0 -0.056486063623284608 -0.036219500195957016 0 -0.056772446117018788 -0.037614309350330478 0 -0.056486063623284608 -0.036219500195957016 0 -0.055868211508986611 -0.037281998514778932 0 -0.054999499762554339 -0.03942821138621292 0 -0.054999650425464681 -0.036346341267362609 0 -0.055868211508986611 -0.037281998514778932 0 -0.056486063623284608 -0.036219500195957016 0 -0.054999650425464681 -0.036346341267362609 0 -0.055868211508986611 -0.037281998514778932 0 -0.054999650425464681 -0.036346341267362609 0 -0.05499980665090249 -0.03326520607173937 0 -0.056586416868900986 -0.034558968180247514 0 -0.056486063623284608 -0.036219500195957016 0 -0.054999650425464681 -0.036346341267362609 0 -0.056586416868900986 -0.034558968180247514 0 -0.054999806548089752 -0.033264219319651504 0 -0.056759867892817582 -0.034190180278498732 0 -0.057084679871376283 -0.033031087757328485 0 -0.05500031882615572 -0.033264605602810624 0 -0.056631611582300616 -0.034370628509422851 0 -0.056297263415212198 -0.031149196102308527 0 -0.056142584342929257 -0.031142019878922629 0 -0.056364105346026677 -0.031415358638429133 0 -0.0580458806962144 -0.035102440059698418 0 -0.056759867892817582 -0.034190180278498732 0 -0.057084679871376283 -0.033031087757328485 0 -0.056297263415212198 -0.031149196102308527 0 -0.056142584342929257 -0.031142019878922629 0 -0.056291152288486114 -0.030295901049421401 0 -0.056532865690612354 -0.032101468479481782 0 -0.055000220672551017 -0.030780229279563934 0 -0.056142584342929257 -0.031142019878922629 0 -0.056291152288486114 -0.030295901049421401 0 -0.054999568820494199 -0.030777472107758594 0 -0.054999806548089752 -0.033264219319651504 0 -0.057084679871376283 -0.033031087757328485 0 -0.055000047629087945 -0.030780462120589967 0 -0.056291152288486114 -0.030295901049421401 0 -0.054999568820494199 -0.030777472107758594 0 -0.056348373442095347 -0.02850601551034895 0 -0.056291152288486114 -0.030295901049421401 0 -0.056348373442095347 -0.02850601551034895 0 -0.058066984530361361 -0.029521586494001779 0 -0.056305056370170616 -0.025827016301407837 0 -0.056348373442095347 -0.02850601551034895 0 -0.054999499620771261 -0.027909994883970148 0 -0.054999568820494199 -0.030777472107758594 0 -0.056348373442095347 -0.02850601551034895 0 -0.054999499620771261 -0.027909994883970148 0 -0.056666600778294038 -0.028740894958589353 0 -0.056341439299531587 -0.030024205050409924 0 -0.057426193637057484 -0.029371694702497609 0 -0.057521618990635931 -0.02670447579141649 0 -0.059195737725650434 -0.027236958957999439 0 -0.058066984530361361 -0.029521586494001779 0 -0.057900475372630239 -0.02799167528890625 0 -0.057189459368222895 -0.029742008328574921 0 -0.057521618990635931 -0.02670447579141649 0 -0.056348373442095347 -0.02850601551034895 0 -0.058066984530361361 -0.029521586494001779 0 -0.057292950117690061 -0.031200410369550312 0 -0.056700898870690304 -0.031017272461366936 0 -0.05753227169144156 -0.030491523176616214 0 -0.056341439299531587 -0.030024205050409924 0 -0.056700898870690304 -0.031017272461366936 0 -0.05753227169144156 -0.030491523176616214 0 -0.056378305768016564 -0.031023116056465867 0 -0.057189459368222895 -0.029742008328574921 0 -0.056297263415212198 -0.031149196102308527 0 -0.056291152288486114 -0.030295901049421401 0 -0.058066984530361361 -0.029521586494001779 0 -0.056297263415212198 -0.031149196102308527 0 -0.056341439299531587 -0.030024205050409924 0 -0.056700898870690304 -0.031017272461366936 0 -0.0580458806962144 -0.035102440059698418 0 -0.058276521301109281 -0.034976930636349109 0 -0.057084679871376283 -0.033031087757328485 0 -0.057316479451502124 -0.03353124632151136 0 -0.056532865690612354 -0.032101468479481782 0 -0.056212204335669695 -0.032097138329408005 0 -0.056142584342929257 -0.031142019878922629 0 -0.056364105346026677 -0.031415358638429133 0 -0.056297263415212198 -0.031149196102308527 0 -0.056364105346026677 -0.031415358638429133 0 -0.056700898870690304 -0.031017272461366936 0 -0.056364105346026677 -0.031415358638429133 0 -0.056700898870690304 -0.031017272461366936 0 -0.056590908590686537 -0.031665435994126856 0 -0.056212204335669695 -0.032097138329408005 0 -0.056364105346026677 -0.031415358638429133 0 -0.056590908590686537 -0.031665435994126856 0 -0.057292950117690061 -0.031200410369550312 0 -0.056700898870690304 -0.031017272461366936 0 -0.057108032173930214 -0.031691185031192004 0 -0.056700898870690304 -0.031017272461366936 0 -0.056590908590686537 -0.031665435994126856 0 -0.057108032173930214 -0.031691185031192004 0 -0.056847265419323813 -0.032044321760191126 0 -0.056590908590686537 -0.031665435994126856 0 -0.057108032173930214 -0.031691185031192004 0 -0.057874702824751524 -0.031637665451303067 0 -0.058525501951222691 -0.030787756460510827 0 -0.05753227169144156 -0.030491523176616214 0 -0.057292950117690061 -0.031200410369550312 0 -0.057108032173930214 -0.031691185031192004 0 -0.057874702824751524 -0.031637665451303067 0 -0.057292950117690061 -0.031200410369550312 0 -0.057874702824751524 -0.031637665451303067 0 -0.05753227169144156 -0.030491523176616214 0 -0.058525501951222691 -0.030787756460510827 0 -0.059087345671614624 -0.032189905835911532 0 -0.058631065457637584 -0.032076197425325498 0 -0.057874702824751524 -0.031637665451303067 0 -0.058525501951222691 -0.030787756460510827 0 -0.058631065457637584 -0.032076197425325498 0 -0.058525501951222691 -0.030787756460510827 0 -0.05753227169144156 -0.030491523176616214 0 -0.058146638956719864 -0.029731653249551192 0 -0.056341439299531587 -0.030024205050409924 0 -0.05753227169144156 -0.030491523176616214 0 -0.057426193637057484 -0.029371694702497609 0 -0.057041590915520773 -0.027344407762828132 0 -0.056666600778294038 -0.028740894958589353 0 -0.057426193637057484 -0.029371694702497609 0 -0.057041590915520773 -0.027344407762828132 0 -0.057426193637057484 -0.029371694702497609 0 -0.057859270792752542 -0.028590745122998813 0 -0.05753227169144156 -0.030491523176616214 0 -0.057426193637057484 -0.029371694702497609 0 -0.058146638956719864 -0.029731653249551192 0 -0.057426193637057484 -0.029371694702497609 0 -0.057859270792752542 -0.028590745122998813 0 -0.058146638956719864 -0.029731653249551192 0 -0.058307752492923644 -0.027850518262498944 0 -0.058191774150285487 -0.028715593810087994 0 -0.058220656669532682 -0.028796852461361606 0 -0.058191774150285487 -0.028715593810087994 0 -0.058211933267414487 -0.029665762666398452 0 -0.058220656669532682 -0.028796852461361606 0 -0.057859270792752542 -0.028590745122998813 0 -0.058191774150285487 -0.028715593810087994 0 -0.058146638956719864 -0.029731653249551192 0 -0.058191774150285487 -0.028715593810087994 0 -0.058146638956719864 -0.029731653249551192 0 -0.058211933267414487 -0.029665762666398452 0 -0.058211933267414487 -0.029665762666398452 0 -0.058296181543150756 -0.030185986818281 0 -0.057988807111921045 -0.030133516045451194 0 -0.058146638956719864 -0.029731653249551192 0 -0.058211933267414487 -0.029665762666398452 0 -0.058296181543150756 -0.030185986818281 0 -0.058525501951222691 -0.030787756460510827 0 -0.058146638956719864 -0.029731653249551192 0 -0.058296181543150756 -0.030185986818281 0 -0.058476866385283134 -0.030788408579822155 0 -0.058755634803820941 -0.0310580610233392 0 -0.058525501951222691 -0.030787756460510827 0 -0.059394347597232881 -0.03220894321462428 0 -0.059087345671614624 -0.032189905835911532 0 -0.058525501951222691 -0.030787756460510827 0 -0.058296181543150756 -0.030185986818281 0 -0.058276813638377369 -0.029981147017714958 0 -0.058296181543150756 -0.030185986818281 0 -0.058276813638377369 -0.029981147017714958 0 -0.057988807111921045 -0.030133516045451194 0 -0.058755634803820941 -0.0310580610233392 0 -0.058183067455266337 -0.030936494639501655 0 -0.059394347597232881 -0.03220894321462428 0 -0.059308453739247341 -0.032311666887261163 0 -0.058568141600620571 -0.032288261194987067 0 -0.059308453739247341 -0.032311666887261163 0 -0.058957158426423496 -0.03157761053021247 0 -0.058568141600620571 -0.032288261194987067 0 -0.059308453739247341 -0.032311666887261163 0 -0.058957158426423496 -0.03157761053021247 0 -0.059321902210627706 -0.03276885270391694 0 -0.059308453739247341 -0.032311666887261163 0 -0.059321902210627706 -0.03276885270391694 0 -0.059062186133526554 -0.032730000763658326 0 -0.059394347597232881 -0.03220894321462428 0 -0.059308453739247341 -0.032311666887261163 0 -0.059087345671614624 -0.032189905835911532 0 -0.059308453739247341 -0.032311666887261163 0 -0.059087345671614624 -0.032189905835911532 0 -0.059062186133526554 -0.032730000763658326 0 -0.058631065457637584 -0.032076197425325498 0 -0.059062186133526554 -0.032730000763658326 0 -0.058508199151376686 -0.032944495263815342 0 -0.059087345671614624 -0.032189905835911532 0 -0.058631065457637584 -0.032076197425325498 0 -0.059062186133526554 -0.032730000763658326 0 -0.057533725327124509 -0.032855568594729552 0 -0.058508199151376686 -0.032944495263815342 0 -0.058429252527223037 -0.034713889835796125 0 -0.057874702824751524 -0.031637665451303067 0 -0.058631065457637584 -0.032076197425325498 0 -0.058508199151376686 -0.032944495263815342 0 -0.057533725327124509 -0.032855568594729552 0 -0.057874702824751524 -0.031637665451303067 0 -0.058508199151376686 -0.032944495263815342 0 -0.058508199151376686 -0.032944495263815342 0 -0.058429252527223037 -0.034713889835796125 0 -0.058933560700363187 -0.03360298813826762 0 -0.058429252527223037 -0.034713889835796125 0 -0.058933560700363187 -0.03360298813826762 0 -0.059042840596129083 -0.034184537786640143 0 -0.059062186133526554 -0.032730000763658326 0 -0.058508199151376686 -0.032944495263815342 0 -0.058933560700363187 -0.03360298813826762 0 -0.059321902210627706 -0.03276885270391694 0 -0.059062186133526554 -0.032730000763658326 0 -0.058933560700363187 -0.03360298813826762 0 -0.05912929787153276 -0.036869125052922704 0 -0.059256248249632756 -0.036592825106983438 0 -0.059321902210627706 -0.03276885270391694 0 -0.058933560700363187 -0.03360298813826762 0 -0.059042840596129083 -0.034184537786640143 0 -0.058174363831120318 -0.037072846374712497 0 -0.05912929787153276 -0.036869125052922704 0 -0.058355646953227411 -0.037199234436913517 0 -0.058429252527223037 -0.034713889835796125 0 -0.059042840596129083 -0.034184537786640143 0 -0.058792543173402476 -0.040253385533095119 0 -0.059726337898279795 -0.03959129470539937 0 -0.0596285725825383 -0.040725168518552582 0 -0.058792543173402476 -0.040253385533095119 0 -0.058355646953227411 -0.037199234436913517 0 -0.059726337898279795 -0.03959129470539937 0 -0.059726337898279795 -0.03959129470539937 0 -0.059485570931758089 -0.041116682213458898 0 -0.0596285725825383 -0.040725168518552582 0 -0.059485570931758089 -0.041116682213458898 0 -0.059215517000515902 -0.041241101437576477 0 -0.0596285725825383 -0.040725168518552582 0 -0.059485570931758089 -0.041116682213458898 0 -0.058417624648263132 -0.042071256903464062 0 -0.059215517000515902 -0.041241101437576477 0 -0.059256248249632756 -0.036592825106983438 0 -0.058414972577627053 -0.035726970620276917 0 -0.058417624648263132 -0.042071256903464062 0 -0.058282360176176613 -0.041574576030664688 0 -0.059215517000515902 -0.041241101437576477 0 -0.058957158426423496 -0.03157761053021247 0 -0.05936052694252425 -0.032073735836639021 0 -0.058643293587522967 -0.030063350263309162 0 -0.058957158426423496 -0.03157761053021247 0 -0.059321902210627706 -0.03276885270391694 0 -0.05936052694252425 -0.032073735836639021 0 -0.059321902210627706 -0.03276885270391694 0 -0.059042840596129083 -0.034184537786640143 0 -0.05936052694252425 -0.032073735836639021 0 -0.057752183619761414 -0.030182314062644378 0 -0.05676877509259088 -0.02810544771254438 0 -0.056291656452792008 -0.029309388999481222 0 -0.057752183619761414 -0.030182314062644378 0 -0.056291656452792008 -0.029309388999481222 0 -0.056790253644318507 -0.031294176814907759 0 -0.058957158426423496 -0.03157761053021247 0 -0.057752183619761414 -0.030182314062644378 0 -0.058643293587522967 -0.030063350263309162 0 -0.058414972577627053 -0.035726970620276917 0 -0.058314416140749593 -0.033355703049670581 0 -0.058417624648263132 -0.042071256903464062 0 -0.057728607032454429 -0.042354999320047479 0 -0.058282360176176613 -0.041574576030664688 0 -0.057752183619761414 -0.030182314062644378 0 -0.058643293587522967 -0.030063350263309162 0 -0.05789826586756866 -0.029121369904382317 0 -0.057728607032454429 -0.042354999320047479 0 -0.057558029619432849 -0.041867124650198893 0 -0.058282360176176613 -0.041574576030664688 0 -0.058314416140749593 -0.033355703049670581 0 -0.056272732040948653 -0.03538516950197091 0 -0.057752183619761414 -0.030182314062644378 0 -0.05789826586756866 -0.029121369904382317 0 -0.05676877509259088 -0.02810544771254438 0 -0.057728607032454429 -0.042354999320047479 0 -0.05696965922050462 -0.041944709786160543 0 -0.057558029619432849 -0.041867124650198893 0 -0.057728607032454429 -0.042354999320047479 0 -0.05583346997260108 -0.042533173606249135 0 -0.05696965922050462 -0.041944709786160543 0 -0.059135701419372216 -0.028796256115532666 0 -0.057737921337827056 -0.028442008385877293 0 -0.056682634043039214 -0.027655852025166475 0 -0.058314416140749593 -0.033355703049670581 0 -0.057086438807637363 -0.028551380650263636 0 -0.057737921337827056 -0.028442008385877293 0 -0.056682634043039214 -0.027655852025166475 0 -0.05520170905071093 -0.027789241566742333 0 -0.05676877509259088 -0.02810544771254438 0 -0.055413409644996879 -0.028202336047116146 0 -0.054537750181843925 -0.026812570500145565 0 -0.057086438807637363 -0.028551380650263636 0 -0.054881729245855375 -0.027298575605772341 0 -0.05676877509259088 -0.02810544771254438 0 -0.055413409644996879 -0.028202336047116146 0 -0.056291656452792008 -0.029309388999481222 0 -0.055413409644996879 -0.028202336047116146 0 -0.054537750181843925 -0.026812570500145565 0 -0.05388107232970072 -0.027657784849630471 0 -0.055413409644996879 -0.028202336047116146 0 -0.054972860780725358 -0.028814930681616481 0 -0.05388107232970072 -0.027657784849630471 0 -0.055413409644996879 -0.028202336047116146 0 -0.054972860780725358 -0.028814930681616481 0 -0.056291656452792008 -0.029309388999481222 0 -0.055172179571105651 -0.029014892324211845 0 -0.056787014005123461 -0.030154317296605393 0 -0.054972860780725358 -0.028814930681616481 0 -0.056733380205470613 -0.029085625484165944 0 -0.055522834272306226 -0.029663834956437846 0 -0.054972860780725358 -0.028814930681616481 0 -0.056291656452792008 -0.029309388999481222 0 -0.056790253644318507 -0.031294176814907759 0 -0.054972860780725358 -0.028814930681616481 0 -0.055522834272306226 -0.029663834956437846 0 -0.053857732321861869 -0.028992079998676912 0 -0.055522834272306226 -0.029663834956437846 0 -0.054173901400381322 -0.030623827515678034 0 -0.053857732321861869 -0.028992079998676912 0 -0.056733380205470613 -0.029085625484165944 0 -0.055522834272306226 -0.029663834956437846 0 -0.057150044485745649 -0.030038011873774129 0 -0.056733380205470613 -0.029085625484165944 0 -0.057839179066842224 -0.029640205954399219 0 -0.057150044485745649 -0.030038011873774129 0 -0.056787014005123461 -0.030154317296605393 0 -0.058183067455266337 -0.030936494639501655 0 -0.056790253644318507 -0.031294176814907759 0 -0.058134608680013682 -0.03136227906408158 0 -0.058568141600620571 -0.032288261194987067 0 -0.057752183619761414 -0.030182314062644378 0 -0.056790253644318507 -0.031294176814907759 0 -0.058134608680013682 -0.03136227906408158 0 -0.058957158426423496 -0.03157761053021247 0 -0.057752183619761414 -0.030182314062644378 0 -0.058134608680013682 -0.03136227906408158 0 -0.058957158426423496 -0.03157761053021247 0 -0.058134608680013682 -0.03136227906408158 0 -0.058568141600620571 -0.032288261194987067 0 -0.058276813638377369 -0.029981147017714958 0 -0.057839179066842224 -0.029640205954399219 0 -0.057988807111921045 -0.030133516045451194 0 -0.057839179066842224 -0.029640205954399219 0 -0.057150044485745649 -0.030038011873774129 0 -0.057988807111921045 -0.030133516045451194 0 -0.057150044485745649 -0.030038011873774129 0 -0.057662452729684031 -0.030277448273015331 0 -0.057988807111921045 -0.030133516045451194 0 -0.057662452729684031 -0.030277448273015331 0 -0.057988807111921045 -0.030133516045451194 0 -0.058045451507902912 -0.029677451175115357 0 -0.058211933267414487 -0.029665762666398452 0 -0.057988807111921045 -0.030133516045451194 0 -0.058045451507902912 -0.029677451175115357 0 -0.058211933267414487 -0.029665762666398452 0 -0.058045451507902912 -0.029677451175115357 0 -0.058220656669532682 -0.028796852461361606 0 -0.058045451507902912 -0.029677451175115357 0 -0.058040608036444383 -0.029619840502494884 0 -0.058204023694213063 -0.028831094143222984 0 -0.057662452729684031 -0.030277448273015331 0 -0.058045451507902912 -0.029677451175115357 0 -0.058040608036444383 -0.029619840502494884 0 -0.058315085186719108 -0.028147589677808591 0 -0.058204023694213063 -0.028831094143222984 0 -0.058273150031781289 -0.028989493911587626 0 -0.058040608036444383 -0.029619840502494884 0 -0.058204023694213063 -0.028831094143222984 0 -0.058273150031781289 -0.028989493911587626 0 -0.058300569569382961 -0.027687633484651409 0 -0.058204023694213063 -0.028831094143222984 0 -0.058220656669532682 -0.028796852461361606 0 -0.058045451507902912 -0.029677451175115357 0 -0.058204023694213063 -0.028831094143222984 0 -0.058220656669532682 -0.028796852461361606 0 -0.0586935954023231 -0.028978064525719178 0 -0.058461771196388977 -0.029069128610118695 0 -0.058060762103155375 -0.029731420052632008 0 -0.058461771196388977 -0.029069128610118695 0 -0.058060762103155375 -0.029731420052632008 0 -0.058050161511457442 -0.029735851236298679 0 -0.058461771196388977 -0.029069128610118695 0 -0.058273150031781289 -0.028989493911587626 0 -0.058050161511457442 -0.029735851236298679 0 -0.058040608036444383 -0.029619840502494884 0 -0.058273150031781289 -0.028989493911587626 0 -0.058050161511457442 -0.029735851236298679 0 -0.057662452729684031 -0.030277448273015331 0 -0.058040608036444383 -0.029619840502494884 0 -0.057861494525308477 -0.030165489621782875 0 -0.058040608036444383 -0.029619840502494884 0 -0.058050161511457442 -0.029735851236298679 0 -0.057861494525308477 -0.030165489621782875 0 -0.058050161511457442 -0.029735851236298679 0 -0.057407114372227459 -0.030567097027500056 0 -0.057861494525308477 -0.030165489621782875 0 -0.058060762103155375 -0.029731420052632008 0 -0.058050161511457442 -0.029735851236298679 0 -0.057407114372227459 -0.030567097027500056 0 -0.057407114372227459 -0.030567097027500056 0 -0.057861494525308477 -0.030165489621782875 0 -0.057738000868355399 -0.030380536602578785 0 -0.057407114372227459 -0.030567097027500056 0 -0.057738000868355399 -0.030380536602578785 0 -0.056679098141743045 -0.030898714811052382 0 -0.057662452729684031 -0.030277448273015331 0 -0.057861494525308477 -0.030165489621782875 0 -0.057738000868355399 -0.030380536602578785 0 -0.057515114077042157 -0.030361000112953833 0 -0.05683959602236658 -0.030481068623467656 0 -0.055522834272306226 -0.029663834956437846 0 -0.057150044485745649 -0.030038011873774129 0 -0.05602753016833488 -0.030737282468374833 0 -0.057150044485745649 -0.030038011873774129 0 -0.057662452729684031 -0.030277448273015331 0 -0.05602753016833488 -0.030737282468374833 0 -0.055522834272306226 -0.029663834956437846 0 -0.05602753016833488 -0.030737282468374833 0 -0.054173901400381322 -0.030623827515678034 0 -0.05683959602236658 -0.030481068623467656 0 -0.055291722931842681 -0.030093582397942999 0 -0.057738000868355399 -0.030380536602578785 0 -0.056583588745644266 -0.029590034576531789 0 -0.056679098141743045 -0.030898714811052382 0 -0.056583588745644266 -0.029590034576531789 0 -0.056679098141743045 -0.030898714811052382 0 -0.054282948609264352 -0.030417119557221234 0 -0.056679098141743045 -0.030898714811052382 0 -0.054282948609264352 -0.030417119557221234 0 -0.055066222199208745 -0.031911695175605048 0 -0.054282948609264352 -0.030417119557221234 0 -0.052202470206104933 -0.031810861950165671 0 -0.050705008656799569 -0.030613513877147756 0 -0.054282948609264352 -0.030417119557221234 0 -0.052202470206104933 -0.031810861950165671 0 -0.055066222199208745 -0.031911695175605048 0 -0.052202470206104933 -0.031810861950165671 0 -0.052021342401191883 -0.034221332144829204 0 -0.048661867349592922 -0.033000115354607097 0 -0.052021342401191883 -0.034221332144829204 0 -0.055066222199208745 -0.031911695175605048 0 -0.05299517017463156 -0.036276608218049969 0 -0.052202470206104933 -0.031810861950165671 0 -0.052021342401191883 -0.034221332144829204 0 -0.055066222199208745 -0.031911695175605048 0 -0.053295888849273859 -0.034136948533059992 0 -0.053518328949256976 -0.033651274098141379 0 -0.054924476762458742 -0.03214510491718129 0 -0.053518328949256976 -0.033651274098141379 0 -0.055066222199208745 -0.031911695175605048 0 -0.056414470522356187 -0.031220027257062532 0 -0.056567627691825717 -0.031044710709722513 0 -0.052021342401191883 -0.034221332144829204 0 -0.05265932748956649 -0.035678801351898881 0 -0.049886304947079421 -0.035603364202961361 0 -0.057407114372227459 -0.030567097027500056 0 -0.056679098141743045 -0.030898714811052382 0 -0.056567627691825717 -0.031044710709722513 0 -0.056679098141743045 -0.030898714811052382 0 -0.055066222199208745 -0.031911695175605048 0 -0.056567627691825717 -0.031044710709722513 0 -0.057407114372227459 -0.030567097027500056 0 -0.056567627691825717 -0.031044710709722513 0 -0.057679630646026991 -0.030185485026096356 0 -0.058060762103155375 -0.029731420052632008 0 -0.057407114372227459 -0.030567097027500056 0 -0.057679630646026991 -0.030185485026096356 0 -0.05321435205490848 -0.03194810111295332 0 -0.053216261674925401 -0.03181939084468606 0 -0.053169841217854674 -0.031804773364888697 0 -0.053518328949256976 -0.033651274098141379 0 -0.055415571938519169 -0.030698015215628791 0 -0.05321435205490848 -0.03194810111295332 0 -0.053216261674925401 -0.03181939084468606 0 -0.053266060509422661 -0.03180755354024619 0 -0.056414470522356187 -0.031220027257062532 0 -0.056567627691825717 -0.031044710709722513 0 -0.057679630646026991 -0.030185485026096356 0 -0.053117296399764743 -0.028895160356519459 0 -0.049127043111122384 -0.033792418070459053 0 -0.053216261674925401 -0.03181939084468606 0 -0.053206313610614418 -0.031737189122420705 0 -0.053169841217854674 -0.031804773364888697 0 -0.053216261674925401 -0.03181939084468606 0 -0.053206313610614418 -0.031737189122420705 0 -0.053266060509422661 -0.03180755354024619 0 -0.0586935954023231 -0.028978064525719178 0 -0.058060762103155375 -0.029731420052632008 0 -0.057679630646026991 -0.030185485026096356 0 -0.056453651621933741 -0.029494563762447003 0 -0.055415571938519169 -0.030698015215628791 0 -0.053165337038432396 -0.031663954125644739 0 -0.053206313610614418 -0.031737189122420705 0 -0.053169841217854674 -0.031804773364888697 0 -0.043166187966987873 -0.026226579992369142 0 -0.043315484567957557 -0.026653177840125143 0 -0.043402648555915947 -0.026631529137515868 0 -0.044620659513593348 -0.01994311019811653 0 -0.038077048907778778 -0.030809358518564606 0 -0.043166187966987873 -0.026226579992369142 0 -0.043315484567957557 -0.026653177840125143 0 -0.043048499271404063 -0.026451800546931862 0 -0.037584797905366847 -0.037094817772190862 0 -0.038379550562509766 -0.03690403958444341 0 -0.037580928259805427 -0.036825948753099379 0 -0.043343171030285531 -0.031518321028757762 0 -0.045894153197601914 -0.032905666362652346 0 -0.046176314157046879 -0.030769220866066441 0 -0.04013538727353106 -0.032365056219346537 0 -0.045223939743631411 -0.036749529467168078 0 -0.037584797905366847 -0.037094817772190862 0 -0.037580928259805427 -0.036825948753099379 0 -0.037394312975611771 -0.036937187619631363 0 -0.04013538727353106 -0.032365056219346537 0 -0.03932669573730696 -0.0337011079199874 0 -0.04013538727353106 -0.032365056219346537 0 -0.038077048907778778 -0.030809358518564606 0 -0.037622963875825803 -0.037024015780252467 0 -0.037394312975611771 -0.036937187619631363 0 -0.037452977510248391 -0.037080168965768656 0 -0.04013538727353106 -0.032365056219346537 0 -0.048896713206176536 -0.025867065032066278 0 -0.048896713206176536 -0.025867065032066278 0 -0.049127043111122384 -0.033792418070459053 0 -0.053296784043816471 -0.026729606403689172 0 -0.051098842611028428 -0.026730042533928314 0 -0.051609947905454034 -0.025871889633378223 0 -0.045894153197601914 -0.032905666362652346 0 -0.046917418022233974 -0.031169518485330183 0 -0.046176314157046879 -0.030769220866066441 0 -0.048773214631869961 -0.041732269976192553 0 -0.048464874160879232 -0.042716255672557303 0 -0.047336620412207056 -0.042091352597612666 0 -0.046553676997831889 -0.037757101127419403 0 -0.045223939743631411 -0.036749529467168078 0 -0.049127043111122384 -0.033792418070459053 0 -0.045223939743631411 -0.036749529467168078 0 -0.048773214631869961 -0.041732269976192553 0 -0.047347522075041483 -0.040468317955425701 0 -0.048847622653615613 -0.038167716650582495 0 -0.05265932748956649 -0.035678801351898881 0 -0.048773214631869961 -0.041732269976192553 0 -0.048847622653615613 -0.038167716650582495 0 -0.05265932748956649 -0.035678801351898881 0 -0.048773214631869961 -0.041732269976192553 0 -0.048464874160879232 -0.042716255672557303 0 -0.053518328949256976 -0.033651274098141379 0 -0.049127043111122384 -0.033792418070459053 0 -0.048773214631869961 -0.041732269976192553 0 -0.047354512992826635 -0.042149769058867428 0 -0.047347522075041483 -0.040468317955425701 0 -0.048847622653615613 -0.038167716650582495 0 -0.046869826497912485 -0.038988386686024647 0 -0.047152083254344709 -0.03622409863532939 0 -0.047347522075041483 -0.040468317955425701 0 -0.048847622653615613 -0.038167716650582495 0 -0.046869826497912485 -0.038988386686024647 0 -0.045223939743631411 -0.036749529467168078 0 -0.03997080241554999 -0.038089061088989781 0 -0.038379550562509766 -0.03690403958444341 0 -0.037499207398683683 -0.036565707422007265 0 -0.037580928259805427 -0.036825948753099379 0 -0.046869826497912485 -0.038988386686024647 0 -0.044426435975995084 -0.036763636087482149 0 -0.047152083254344709 -0.03622409863532939 0 -0.046869826497912485 -0.038988386686024647 0 -0.042769067029152466 -0.039847831500199521 0 -0.044426435975995084 -0.036763636087482149 0 -0.047354512992826635 -0.042149769058867428 0 -0.047347522075041483 -0.040468317955425701 0 -0.042769067029152466 -0.039847831500199521 0 -0.047347522075041483 -0.040468317955425701 0 -0.046869826497912485 -0.038988386686024647 0 -0.042769067029152466 -0.039847831500199521 0 -0.037499207398683683 -0.036565707422007265 0 -0.037580928259805427 -0.036825948753099379 0 -0.037284948490876359 -0.036637889626462507 0 -0.042769067029152466 -0.039847831500199521 0 -0.044426435975995084 -0.036763636087482149 0 -0.041338799827489663 -0.035888975074607518 0 -0.043598830912107769 -0.033159436248553206 0 -0.047152083254344709 -0.03622409863532939 0 -0.048661867349592922 -0.033000115354607097 0 -0.044426435975995084 -0.036763636087482149 0 -0.043598830912107769 -0.033159436248553206 0 -0.041338799827489663 -0.035888975074607518 0 -0.044426435975995084 -0.036763636087482149 0 -0.043598830912107769 -0.033159436248553206 0 -0.047152083254344709 -0.03622409863532939 0 -0.05265932748956649 -0.035678801351898881 0 -0.048847622653615613 -0.038167716650582495 0 -0.049886304947079421 -0.035603364202961361 0 -0.048847622653615613 -0.038167716650582495 0 -0.049886304947079421 -0.035603364202961361 0 -0.047152083254344709 -0.03622409863532939 0 -0.049886304947079421 -0.035603364202961361 0 -0.047152083254344709 -0.03622409863532939 0 -0.048661867349592922 -0.033000115354607097 0 -0.052021342401191883 -0.034221332144829204 0 -0.049886304947079421 -0.035603364202961361 0 -0.048661867349592922 -0.033000115354607097 0 -0.048661867349592922 -0.033000115354607097 0 -0.050705008656799569 -0.030613513877147756 0 -0.04607425711306827 -0.030051930085365816 0 -0.052202470206104933 -0.031810861950165671 0 -0.048661867349592922 -0.033000115354607097 0 -0.050705008656799569 -0.030613513877147756 0 -0.043598830912107769 -0.033159436248553206 0 -0.04607425711306827 -0.030051930085365816 0 -0.040351601681806876 -0.030399440681037764 0 -0.043598830912107769 -0.033159436248553206 0 -0.048661867349592922 -0.033000115354607097 0 -0.04607425711306827 -0.030051930085365816 0 -0.04607425711306827 -0.030051930085365816 0 -0.0435132344419372 -0.027621870231868861 0 -0.047106282934881498 -0.0275349230953193 0 -0.0435132344419372 -0.027621870231868861 0 -0.047106282934881498 -0.0275349230953193 0 -0.044115303253062961 -0.02453451578847048 0 -0.047667681118106611 -0.02756755924428916 0 -0.051857252270228214 -0.028974064804275688 0 -0.04607425711306827 -0.030051930085365816 0 -0.047106282934881498 -0.0275349230953193 0 -0.052163247365668346 -0.027811801334875503 0 -0.050705008656799569 -0.030613513877147756 0 -0.04607425711306827 -0.030051930085365816 0 -0.052163247365668346 -0.027811801334875503 0 -0.056583588745644266 -0.029590034576531789 0 -0.054282948609264352 -0.030417119557221234 0 -0.052163247365668346 -0.027811801334875503 0 -0.054282948609264352 -0.030417119557221234 0 -0.050705008656799569 -0.030613513877147756 0 -0.052163247365668346 -0.027811801334875503 0 -0.055291722931842681 -0.030093582397942999 0 -0.051857252270228214 -0.028974064804275688 0 -0.054173901400381322 -0.030623827515678034 0 -0.051704933431073977 -0.03007013714224209 0 -0.053857732321861869 -0.028992079998676912 0 -0.053857732321861869 -0.028992079998676912 0 -0.052126702510444219 -0.027052184006034603 0 -0.053388118042862261 -0.027853800411812738 0 -0.054972860780725358 -0.028814930681616481 0 -0.053857732321861869 -0.028992079998676912 0 -0.053388118042862261 -0.027853800411812738 0 -0.047106282934881498 -0.0275349230953193 0 -0.051704933431073977 -0.03007013714224209 0 -0.052126702510444219 -0.027052184006034603 0 -0.051704933431073977 -0.03007013714224209 0 -0.053857732321861869 -0.028992079998676912 0 -0.052126702510444219 -0.027052184006034603 0 -0.052126702510444219 -0.027052184006034603 0 -0.052592405053021735 -0.027282286564016031 0 -0.052321921131252246 -0.027223778685830414 0 -0.052126702510444219 -0.027052184006034603 0 -0.053388118042862261 -0.027853800411812738 0 -0.052592405053021735 -0.027282286564016031 0 -0.051989929968064015 -0.026823478125845623 0 -0.050689714520113685 -0.0254874126788537 0 -0.054972860780725358 -0.028814930681616481 0 -0.053388118042862261 -0.027853800411812738 0 -0.05388107232970072 -0.027657784849630471 0 -0.053388118042862261 -0.027853800411812738 0 -0.05388107232970072 -0.027657784849630471 0 -0.052592405053021735 -0.027282286564016031 0 -0.054881729245855375 -0.027298575605772341 0 -0.052675473067402424 -0.026733745639990258 0 -0.054537750181843925 -0.026812570500145565 0 -0.05388107232970072 -0.027657784849630471 0 -0.052557300515788261 -0.026321653301224417 0 -0.05388107232970072 -0.027657784849630471 0 -0.052592405053021735 -0.027282286564016031 0 -0.052557300515788261 -0.026321653301224417 0 -0.052592405053021735 -0.027282286564016031 0 -0.051617549176255835 -0.026817123139646119 0 -0.052557300515788261 -0.026321653301224417 0 -0.052592405053021735 -0.027282286564016031 0 -0.052102758560390088 -0.026979869995181302 0 -0.052321921131252246 -0.027223778685830414 0 -0.052592405053021735 -0.027282286564016031 0 -0.051617549176255835 -0.026817123139646119 0 -0.050575620547332022 -0.027275667001920693 0 -0.053550426518125527 -0.027796647047350811 0 -0.049019889166030409 -0.02556045017800046 0 -0.049019889166030409 -0.02556045017800046 0 -0.050689714520113685 -0.0254874126788537 0 -0.051617549176255835 -0.026817123139646119 0 -0.050575620547332022 -0.027275667001920693 0 -0.050749468617965997 -0.026385312147392925 0 -0.046964537529924549 -0.02616215261545286 0 -0.044596783804333323 -0.025692648312149131 0 -0.044499252844242172 -0.023945582672053371 0 -0.049019889166030409 -0.02556045017800046 0 -0.043719299322791449 -0.023023190752809935 0 -0.049019889166030409 -0.02556045017800046 0 -0.047479956496200314 -0.025387124682685291 0 -0.046692591796319211 -0.021160879671448963 0 -0.044115303253062961 -0.02453451578847048 0 -0.043084381049957939 -0.020341168892938358 0 -0.046692591796319211 -0.021160879671448963 0 -0.046679774247309742 -0.023832405104437689 0 -0.044115303253062961 -0.02453451578847048 0 -0.047106282934881498 -0.0275349230953193 0 -0.046679774247309742 -0.023832405104437689 0 -0.044115303253062961 -0.02453451578847048 0 -0.047106282934881498 -0.0275349230953193 0 -0.046679774247309742 -0.023832405104437689 0 -0.049269571024654311 -0.023832906620244461 0 -0.047106282934881498 -0.0275349230953193 0 -0.052126702510444219 -0.027052184006034603 0 -0.049269571024654311 -0.023832906620244461 0 -0.046692591796319211 -0.021160879671448963 0 -0.046679774247309742 -0.023832405104437689 0 -0.049269571024654311 -0.023832906620244461 0 -0.050144242919997126 -0.024992114787313537 0 -0.050749468617965997 -0.026385312147392925 0 -0.052021776053733169 -0.025678405809299538 0 -0.04894729848512256 -0.040925766414914938 0 -0.04732519948230253 -0.041016634011720135 0 -0.050388812151841988 -0.041879727325364047 0 -0.04850302276474068 -0.037021201965380432 0 -0.051113677731744946 -0.033264849724316974 0 -0.048293765862154871 -0.040220646378397729 0 -0.04850302276474068 -0.037021201965380432 0 -0.04894729848512256 -0.040925766414914938 0 -0.047153159784549051 -0.041078237619291892 0 -0.047529452232436813 -0.039731028089538482 0 -0.04850302276474068 -0.037021201965380432 0 -0.045503099669654823 -0.040199519813967861 0 -0.047153159784549051 -0.041078237619291892 0 -0.046430498048320439 -0.039989954374976794 0 -0.045180289370509892 -0.040352227391826749 0 -0.050144242919997126 -0.024992114787313537 0 -0.050749468617965997 -0.026385312147392925 0 -0.049293431258878299 -0.026353926998732052 0 -0.050575620547332022 -0.027275667001920693 0 -0.050749468617965997 -0.026385312147392925 0 -0.049293431258878299 -0.026353926998732052 0 -0.051617549176255835 -0.026817123139646119 0 -0.050749468617965997 -0.026385312147392925 0 -0.052557300515788261 -0.026321653301224417 0 -0.050901229440793658 -0.026406135233004824 0 -0.052675473067402424 -0.026733745639990258 0 -0.052795006560391038 -0.027104601487202354 0 -0.054256098976368489 -0.026599678423845249 0 -0.052021776053733169 -0.025678405809299538 0 -0.050749468617965997 -0.026385312147392925 0 -0.052795006560391038 -0.027104601487202354 0 -0.052021776053733169 -0.025678405809299538 0 -0.053771940699560157 -0.034503358876191104 0 -0.051113677731744946 -0.033264849724316974 0 -0.05520170905071093 -0.027789241566742333 0 -0.052795006560391038 -0.027104601487202354 0 -0.054256098976368489 -0.026599678423845249 0 -0.053344487344044275 -0.042395095067494414 0 -0.052188799175300296 -0.041066152892849275 0 -0.050388812151841988 -0.041879727325364047 0 -0.053344487344044275 -0.042395095067494414 0 -0.052188799175300296 -0.041066152892849275 0 -0.053818927146359358 -0.040948462095569273 0 -0.052188799175300296 -0.041066152892849275 0 -0.052520158290888165 -0.039865456729561995 0 -0.053818927146359358 -0.040948462095569273 0 -0.052188799175300296 -0.041066152892849275 0 -0.050388812151841988 -0.041879727325364047 0 -0.050717430077250374 -0.040194180900329252 0 -0.052188799175300296 -0.041066152892849275 0 -0.050717430077250374 -0.040194180900329252 0 -0.052520158290888165 -0.039865456729561995 0 -0.04894729848512256 -0.040925766414914938 0 -0.050388812151841988 -0.041879727325364047 0 -0.050717430077250374 -0.040194180900329252 0 -0.050717430077250374 -0.040194180900329252 0 -0.050784468801640288 -0.038753744804813493 0 -0.052520158290888165 -0.039865456729561995 0 -0.050717430077250374 -0.040194180900329252 0 -0.050784468801640288 -0.038753744804813493 0 -0.048974395431163435 -0.038909839656905226 0 -0.052520158290888165 -0.039865456729561995 0 -0.054118958099213958 -0.039447626163503301 0 -0.053818927146359358 -0.040948462095569273 0 -0.050784468801640288 -0.038753744804813493 0 -0.052520158290888165 -0.039865456729561995 0 -0.052523962901970075 -0.037625699951052596 0 -0.052520158290888165 -0.039865456729561995 0 -0.052523962901970075 -0.037625699951052596 0 -0.054118958099213958 -0.039447626163503301 0 -0.048732071433352724 -0.047595310305302438 0 -0.041573659359956903 -0.049714617496058128 0 -0.04309306337175902 -0.058085980207063008 0 -0.042550168277222571 -0.057844954124746578 0 -0.043004340057065951 -0.057885708997474819 0 -0.050784468801640288 -0.038753744804813493 0 -0.052523962901970075 -0.037625699951052596 0 -0.049038249870308442 -0.037080598522591865 0 -0.041573659359956903 -0.049714617496058128 0 -0.050230285116743531 -0.04084434591708553 0 -0.049038249870308442 -0.037080598522591865 0 -0.047793307097792483 -0.037464097334903392 0 -0.048974395431163435 -0.038909839656905226 0 -0.047793307097792483 -0.037464097334903392 0 -0.048974395431163435 -0.038909839656905226 0 -0.047446232013144705 -0.038570624348791653 0 -0.050784468801640288 -0.038753744804813493 0 -0.049038249870308442 -0.037080598522591865 0 -0.048974395431163435 -0.038909839656905226 0 -0.04894729848512256 -0.040925766414914938 0 -0.048974395431163435 -0.038909839656905226 0 -0.047529452232436813 -0.039731028089538482 0 -0.04894729848512256 -0.040925766414914938 0 -0.050717430077250374 -0.040194180900329252 0 -0.048974395431163435 -0.038909839656905226 0 -0.048974395431163435 -0.038909839656905226 0 -0.047529452232436813 -0.039731028089538482 0 -0.047446232013144705 -0.038570624348791653 0 -0.046430498048320439 -0.039989954374976794 0 -0.046125598497110176 -0.039015846882138841 0 -0.045180289370509892 -0.040352227391826749 0 -0.046430498048320439 -0.039989954374976794 0 -0.047529452232436813 -0.039731028089538482 0 -0.046125598497110176 -0.039015846882138841 0 -0.047153159784549051 -0.041078237619291892 0 -0.046430498048320439 -0.039989954374976794 0 -0.047529452232436813 -0.039731028089538482 0 -0.047529452232436813 -0.039731028089538482 0 -0.047446232013144705 -0.038570624348791653 0 -0.046125598497110176 -0.039015846882138841 0 -0.047446232013144705 -0.038570624348791653 0 -0.046125598497110176 -0.039015846882138841 0 -0.046571786595922544 -0.037952956604549788 0 -0.041573659359956903 -0.049714617496058128 0 -0.037890293218509098 -0.049100038115769497 0 -0.048893879284736513 -0.037153417750706456 0 -0.047793307097792483 -0.037464097334903392 0 -0.04636816154646254 -0.036832704537444513 0 -0.046125598497110176 -0.039015846882138841 0 -0.046571786595922544 -0.037952956604549788 0 -0.045106410002201537 -0.037892897077068638 0 -0.047793307097792483 -0.037464097334903392 0 -0.047446232013144705 -0.038570624348791653 0 -0.046571786595922544 -0.037952956604549788 0 -0.047793307097792483 -0.037464097334903392 0 -0.046571786595922544 -0.037952956604549788 0 -0.04636816154646254 -0.036832704537444513 0 -0.046571786595922544 -0.037952956604549788 0 -0.04636816154646254 -0.036832704537444513 0 -0.045106410002201537 -0.037892897077068638 0 -0.028408272613608811 -0.061409476404379187 0 -0.029358360644768121 -0.05991409385438845 0 -0.027099420741927064 -0.059158321765565035 0 -0.030468154045921802 -0.061694040801358221 0 -0.028408272613608811 -0.061409476404379187 0 -0.029358360644768121 -0.05991409385438845 0 -0.030468154045921802 -0.061694040801358221 0 -0.029358360644768121 -0.05991409385438845 0 -0.03118782190977696 -0.060161318959115792 0 -0.029358360644768121 -0.05991409385438845 0 -0.030615792626514239 -0.058606151746540658 0 -0.028855690124348736 -0.058294777802144378 0 -0.029358360644768121 -0.05991409385438845 0 -0.030615792626514239 -0.058606151746540658 0 -0.03118782190977696 -0.060161318959115792 0 -0.029358360644768121 -0.05991409385438845 0 -0.028855690124348736 -0.058294777802144378 0 -0.027099420741927064 -0.059158321765565035 0 -0.028855690124348736 -0.058294777802144378 0 -0.027591197089074308 -0.056918914916225499 0 -0.027099420741927064 -0.059158321765565035 0 -0.028855690124348736 -0.058294777802144378 0 -0.027591197089074308 -0.056918914916225499 0 -0.029716346985230659 -0.056813644836682241 0 -0.030615792626514239 -0.058606151746540658 0 -0.028855690124348736 -0.058294777802144378 0 -0.029716346985230659 -0.056813644836682241 0 -0.030615792626514239 -0.058606151746540658 0 -0.029716346985230659 -0.056813644836682241 0 -0.031932902778708409 -0.057086114472645694 0 -0.029716346985230659 -0.056813644836682241 0 -0.028225884679542946 -0.054999948549544604 0 -0.031141619928288618 -0.054999958689590539 0 -0.029716346985230659 -0.056813644836682241 0 -0.031141619928288618 -0.054999958689590539 0 -0.031932902778708409 -0.057086114472645694 0 -0.027591197089074308 -0.056918914916225499 0 -0.029716346985230659 -0.056813644836682241 0 -0.028225884679542946 -0.054999948549544604 0 -0.034057333631717798 -0.054999920967827035 0 -0.031141619928288618 -0.054999958689590539 0 -0.031932902778708409 -0.057086114472645694 0 -0.031932902778708409 -0.057086114472645694 0 -0.034082083738685168 -0.058032676271881078 0 -0.032718549924217973 -0.059194456280216266 0 -0.034057333631717798 -0.054999920967827035 0 -0.031932902778708409 -0.057086114472645694 0 -0.034082083738685168 -0.058032676271881078 0 -0.034082083738685168 -0.058032676271881078 0 -0.032718549924217973 -0.059194456280216266 0 -0.035609592495263867 -0.06030183413239263 0 -0.030615792626514239 -0.058606151746540658 0 -0.031932902778708409 -0.057086114472645694 0 -0.032718549924217973 -0.059194456280216266 0 -0.030615792626514239 -0.058606151746540658 0 -0.032718549924217973 -0.059194456280216266 0 -0.03118782190977696 -0.060161318959115792 0 -0.030468154045921802 -0.061694040801358221 0 -0.03118782190977696 -0.060161318959115792 0 -0.032980654675969008 -0.061005810371790314 0 -0.041573659359956903 -0.049714617496058128 0 -0.036601805659564793 -0.060876852655509434 0 -0.032718549924217973 -0.059194456280216266 0 -0.03118782190977696 -0.060161318959115792 0 -0.032980654675969008 -0.061005810371790314 0 -0.036601805659564793 -0.060876852655509434 0 -0.039903325629800611 -0.058854123463099088 0 -0.04309306337175902 -0.058085980207063008 0 -0.043004340057065951 -0.057885708997474819 0 -0.043484299845697558 -0.05783898277347875 0 -0.032718549924217973 -0.059194456280216266 0 -0.032980654675969008 -0.061005810371790314 0 -0.035609592495263867 -0.06030183413239263 0 -0.043484299845697558 -0.05783898277347875 0 -0.043906187258219508 -0.058000947592078113 0 -0.04367432744962263 -0.058288747666478638 0 -0.043484299845697558 -0.05783898277347875 0 -0.043906187258219508 -0.058000947592078113 0 -0.044030911397813614 -0.057696443380015096 0 -0.043906187258219508 -0.058000947592078113 0 -0.044153715225542609 -0.058203637819201494 0 -0.04367432744962263 -0.058288747666478638 0 -0.035609592495263867 -0.06030183413239263 0 -0.038124794280023876 -0.058651069197206092 0 -0.036196256807212376 -0.058157370288358171 0 -0.039903325629800611 -0.058854123463099088 0 -0.041540349158487762 -0.058601067053077591 0 -0.035609592495263867 -0.06030183413239263 0 -0.038124794280023876 -0.058651069197206092 0 -0.039098562583125947 -0.059585467029512784 0 -0.034082083738685168 -0.058032676271881078 0 -0.035609592495263867 -0.06030183413239263 0 -0.036196256807212376 -0.058157370288358171 0 -0.034082083738685168 -0.058032676271881078 0 -0.0357766083226327 -0.056755288302586818 0 -0.036196256807212376 -0.058157370288358171 0 -0.038124794280023876 -0.058651069197206092 0 -0.036196256807212376 -0.058157370288358171 0 -0.037469562158944113 -0.057199840392524147 0 -0.038124794280023876 -0.058651069197206092 0 -0.037469562158944113 -0.057199840392524147 0 -0.038351136396604785 -0.057784711187240503 0 -0.0357766083226327 -0.056755288302586818 0 -0.036196256807212376 -0.058157370288358171 0 -0.037469562158944113 -0.057199840392524147 0 -0.0357766083226327 -0.056755288302586818 0 -0.037469562158944113 -0.057199840392524147 0 -0.03697325099589012 -0.05499989887096015 0 -0.037469562158944113 -0.057199840392524147 0 -0.03697325099589012 -0.05499989887096015 0 -0.038980670693478089 -0.056737530919665331 0 -0.034057333631717798 -0.054999920967827035 0 -0.0357766083226327 -0.056755288302586818 0 -0.03697325099589012 -0.05499989887096015 0 -0.034057333631717798 -0.054999920967827035 0 -0.034082083738685168 -0.058032676271881078 0 -0.0357766083226327 -0.056755288302586818 0 -0.03988896230249115 -0.055000011354876678 0 -0.040809104538927526 -0.056494245681953548 0 -0.038980670693478089 -0.056737530919665331 0 -0.03988896230249115 -0.055000011354876678 0 -0.040809104538927526 -0.056494245681953548 0 -0.042804575960772633 -0.054999871317974597 0 -0.03697325099589012 -0.05499989887096015 0 -0.03988896230249115 -0.055000011354876678 0 -0.038980670693478089 -0.056737530919665331 0 -0.038980670693478089 -0.056737530919665331 0 -0.03927243262154452 -0.057783032080290578 0 -0.040148185281067693 -0.057433841766630835 0 -0.038124794280023876 -0.058651069197206092 0 -0.03927243262154452 -0.057783032080290578 0 -0.040749264904142608 -0.05825754402006128 0 -0.038980670693478089 -0.056737530919665331 0 -0.038351136396604785 -0.057784711187240503 0 -0.03927243262154452 -0.057783032080290578 0 -0.037469562158944113 -0.057199840392524147 0 -0.038980670693478089 -0.056737530919665331 0 -0.038351136396604785 -0.057784711187240503 0 -0.038124794280023876 -0.058651069197206092 0 -0.038351136396604785 -0.057784711187240503 0 -0.03927243262154452 -0.057783032080290578 0 -0.040809104538927526 -0.056494245681953548 0 -0.038980670693478089 -0.056737530919665331 0 -0.040148185281067693 -0.057433841766630835 0 -0.03927243262154452 -0.057783032080290578 0 -0.040148185281067693 -0.057433841766630835 0 -0.040749264904142608 -0.05825754402006128 0 -0.040809104538927526 -0.056494245681953548 0 -0.040148185281067693 -0.057433841766630835 0 -0.04091595747876136 -0.057346137778570602 0 -0.040809104538927526 -0.056494245681953548 0 -0.04091595747876136 -0.057346137778570602 0 -0.041976711218732983 -0.057195168370443951 0 -0.04091595747876136 -0.057346137778570602 0 -0.040749264904142608 -0.05825754402006128 0 -0.041976711218732983 -0.057195168370443951 0 -0.040148185281067693 -0.057433841766630835 0 -0.04091595747876136 -0.057346137778570602 0 -0.040749264904142608 -0.05825754402006128 0 -0.044459942485888346 -0.057337947680174896 0 -0.044383374082903659 -0.057732835118998342 0 -0.044030911397813614 -0.057696443380015096 0 -0.04414495557272867 -0.057235284238637503 0 -0.044459942485888346 -0.057337947680174896 0 -0.039098562583125947 -0.059585467029512784 0 -0.044316090093746235 -0.057451474106018238 0 -0.041540349158487762 -0.058601067053077591 0 -0.044459942485888346 -0.057337947680174896 0 -0.044383374082903659 -0.057732835118998342 0 -0.044922921761454376 -0.057779860629274898 0 -0.044383374082903659 -0.057732835118998342 0 -0.044500745409647428 -0.058067675700182855 0 -0.044922921761454376 -0.057779860629274898 0 -0.044383374082903659 -0.057732835118998342 0 -0.044030911397813614 -0.057696443380015096 0 -0.044188237039108035 -0.057942442164568675 0 -0.03840208485695986 -0.058561502829498339 0 -0.042348712000909901 -0.057797312715534011 0 -0.038124794280023876 -0.058651069197206092 0 -0.04414495557272867 -0.057235284238637503 0 -0.039098562583125947 -0.059585467029512784 0 -0.043906187258219508 -0.058000947592078113 0 -0.044030911397813614 -0.057696443380015096 0 -0.044188237039108035 -0.057942442164568675 0 -0.044188237039108035 -0.057942442164568675 0 -0.044153715225542609 -0.058203637819201494 0 -0.044500745409647428 -0.058067675700182855 0 -0.043906187258219508 -0.058000947592078113 0 -0.044188237039108035 -0.057942442164568675 0 -0.044153715225542609 -0.058203637819201494 0 -0.044500745409647428 -0.058067675700182855 0 -0.044376357791126073 -0.058602294476861168 0 -0.045140776560794002 -0.058300648003540553 0 -0.044383374082903659 -0.057732835118998342 0 -0.044188237039108035 -0.057942442164568675 0 -0.044500745409647428 -0.058067675700182855 0 -0.051012156071896471 -0.048921652198857572 0 -0.05217258718283399 -0.049629414704141186 0 -0.058405996042612776 -0.040332594165307968 0 -0.057604061708261337 -0.039223620734887936 0 -0.059009923560428341 -0.040338567036372619 0 -0.058405996042612776 -0.040332594165307968 0 -0.057604061708261337 -0.039223620734887936 0 -0.057086397118804116 -0.040395429363896729 0 -0.057604061708261337 -0.039223620734887936 0 -0.055418396661677229 -0.038395031723796387 0 -0.057086397118804116 -0.040395429363896729 0 -0.051012156071896471 -0.048921652198857572 0 -0.049313486564458699 -0.048374204743641326 0 -0.044153715225542609 -0.058203637819201494 0 -0.044500745409647428 -0.058067675700182855 0 -0.044376357791126073 -0.058602294476861168 0 -0.044153715225542609 -0.058203637819201494 0 -0.044376357791126073 -0.058602294476861168 0 -0.04367432744962263 -0.058288747666478638 0 -0.052523962901970075 -0.037625699951052596 0 -0.055418396661677229 -0.038395031723796387 0 -0.054118958099213958 -0.039447626163503301 0 -0.04309306337175902 -0.058085980207063008 0 -0.043484299845697558 -0.05783898277347875 0 -0.04367432744962263 -0.058288747666478638 0 -0.048732071433352724 -0.047595310305302438 0 -0.049313486564458699 -0.048374204743641326 0 -0.055418396661677229 -0.038395031723796387 0 -0.054118958099213958 -0.039447626163503301 0 -0.055317051225340204 -0.04062072247226766 0 -0.055418396661677229 -0.038395031723796387 0 -0.055317051225340204 -0.04062072247226766 0 -0.057086397118804116 -0.040395429363896729 0 -0.055317051225340204 -0.04062072247226766 0 -0.056225144964875282 -0.041480089636068751 0 -0.057086397118804116 -0.040395429363896729 0 -0.055317051225340204 -0.04062072247226766 0 -0.054918983232244541 -0.041647533013373102 0 -0.056225144964875282 -0.041480089636068751 0 -0.054118958099213958 -0.039447626163503301 0 -0.055317051225340204 -0.04062072247226766 0 -0.053818927146359358 -0.040948462095569273 0 -0.055317051225340204 -0.04062072247226766 0 -0.053818927146359358 -0.040948462095569273 0 -0.054918983232244541 -0.041647533013373102 0 -0.056682634043039214 -0.027655852025166475 0 -0.05520170905071093 -0.027789241566742333 0 -0.054256098976368489 -0.026599678423845249 0 -0.053344487344044275 -0.042395095067494414 0 -0.053818927146359358 -0.040948462095569273 0 -0.054918983232244541 -0.041647533013373102 0 -0.05583346997260108 -0.042533173606249135 0 -0.053344487344044275 -0.042395095067494414 0 -0.054918983232244541 -0.041647533013373102 0 -0.056272732040948653 -0.03538516950197091 0 -0.053771940699560157 -0.034503358876191104 0 -0.05583346997260108 -0.042533173606249135 0 -0.054918983232244541 -0.041647533013373102 0 -0.056225144964875282 -0.041480089636068751 0 -0.05583346997260108 -0.042533173606249135 0 -0.056225144964875282 -0.041480089636068751 0 -0.05696965922050462 -0.041944709786160543 0 -0.056225144964875282 -0.041480089636068751 0 -0.05696965922050462 -0.041944709786160543 0 -0.05738507317078459 -0.041404958619159521 0 -0.05696965922050462 -0.041944709786160543 0 -0.05738507317078459 -0.041404958619159521 0 -0.057558029619432849 -0.041867124650198893 0 -0.058282360176176613 -0.041574576030664688 0 -0.058283051725050369 -0.040919885871057576 0 -0.058967750782008402 -0.041110852538305993 0 -0.05738507317078459 -0.041404958619159521 0 -0.058282360176176613 -0.041574576030664688 0 -0.058283051725050369 -0.040919885871057576 0 -0.05738507317078459 -0.041404958619159521 0 -0.057558029619432849 -0.041867124650198893 0 -0.058282360176176613 -0.041574576030664688 0 -0.058405996042612776 -0.040332594165307968 0 -0.058283051725050369 -0.040919885871057576 0 -0.057086397118804116 -0.040395429363896729 0 -0.056225144964875282 -0.041480089636068751 0 -0.05738507317078459 -0.041404958619159521 0 -0.057086397118804116 -0.040395429363896729 0 -0.05738507317078459 -0.041404958619159521 0 -0.058283051725050369 -0.040919885871057576 0 -0.057086397118804116 -0.040395429363896729 0 -0.059214048214387228 -0.040884498959093699 0 -0.059406266302990889 -0.041055189011725689 0 -0.059410233482959082 -0.041351740888351252 0 -0.059214048214387228 -0.040884498959093699 0 -0.058967750782008402 -0.041110852538305993 0 -0.059406266302990889 -0.041055189011725689 0 -0.058405996042612776 -0.040332594165307968 0 -0.058283051725050369 -0.040919885871057576 0 -0.059214048214387228 -0.040884498959093699 0 -0.058283051725050369 -0.040919885871057576 0 -0.059214048214387228 -0.040884498959093699 0 -0.058967750782008402 -0.041110852538305993 0 -0.058282360176176613 -0.041574576030664688 0 -0.059215517000515902 -0.041241101437576477 0 -0.058967750782008402 -0.041110852538305993 0 -0.059215517000515902 -0.041241101437576477 0 -0.058967750782008402 -0.041110852538305993 0 -0.059406266302990889 -0.041055189011725689 0 -0.059215517000515902 -0.041241101437576477 0 -0.059406266302990889 -0.041055189011725689 0 -0.0596285725825383 -0.040725168518552582 0 -0.059406266302990889 -0.041055189011725689 0 -0.0596285725825383 -0.040725168518552582 0 -0.059410233482959082 -0.041351740888351252 0 -0.0596285725825383 -0.040725168518552582 0 -0.059034581982235115 -0.041402347222941852 0 -0.059410233482959082 -0.041351740888351252 0 -0.058792543173402476 -0.040253385533095119 0 -0.0596285725825383 -0.040725168518552582 0 -0.059034581982235115 -0.041402347222941852 0 -0.059034581982235115 -0.041402347222941852 0 -0.059410233482959082 -0.041351740888351252 0 -0.058690018698345399 -0.042704915182314243 0 -0.059214048214387228 -0.040884498959093699 0 -0.059410233482959082 -0.041351740888351252 0 -0.059349368803687574 -0.041519277241427933 0 -0.052973225944987025 -0.050308082580380831 0 -0.05334813230906791 -0.050977283232052459 0 -0.059410233482959082 -0.041351740888351252 0 -0.059349368803687574 -0.041519277241427933 0 -0.058690018698345399 -0.042704915182314243 0 -0.046704861996426088 -0.059105251118349862 0 -0.047562849417239726 -0.058619818315614199 0 -0.048146252580099309 -0.059241759492348639 0 -0.046704861996426088 -0.059105251118349862 0 -0.047562849417239726 -0.058619818315614199 0 -0.046882953835468928 -0.05835758381174927 0 -0.046704861996426088 -0.059105251118349862 0 -0.046089392780489402 -0.058387484437312974 0 -0.046882953835468928 -0.05835758381174927 0 -0.052973225944987025 -0.050308082580380831 0 -0.05217258718283399 -0.049629414704141186 0 -0.046704861996426088 -0.059105251118349862 0 -0.045457882342182405 -0.05893413710080192 0 -0.046089392780489402 -0.058387484437312974 0 -0.059214048214387228 -0.040884498959093699 0 -0.059349368803687574 -0.041519277241427933 0 -0.059009923560428341 -0.040338567036372619 0 -0.058405996042612776 -0.040332594165307968 0 -0.059214048214387228 -0.040884498959093699 0 -0.059009923560428341 -0.040338567036372619 0 -0.045457882342182405 -0.05893413710080192 0 -0.045140776560794002 -0.058300648003540553 0 -0.046089392780489402 -0.058387484437312974 0 -0.044376357791126073 -0.058602294476861168 0 -0.045457882342182405 -0.05893413710080192 0 -0.045140776560794002 -0.058300648003540553 0 -0.045140776560794002 -0.058300648003540553 0 -0.0457420573809161 -0.057926544393974856 0 -0.044922921761454376 -0.057779860629274898 0 -0.044500745409647428 -0.058067675700182855 0 -0.045140776560794002 -0.058300648003540553 0 -0.044922921761454376 -0.057779860629274898 0 -0.045140776560794002 -0.058300648003540553 0 -0.046089392780489402 -0.058387484437312974 0 -0.0457420573809161 -0.057926544393974856 0 -0.046089392780489402 -0.058387484437312974 0 -0.0457420573809161 -0.057926544393974856 0 -0.046593602429903833 -0.057896552227725342 0 -0.0457420573809161 -0.057926544393974856 0 -0.045921114012054357 -0.057112631751834154 0 -0.046593602429903833 -0.057896552227725342 0 -0.044459942485888346 -0.057337947680174896 0 -0.044922921761454376 -0.057779860629274898 0 -0.045921114012054357 -0.057112631751834154 0 -0.0457420573809161 -0.057926544393974856 0 -0.044922921761454376 -0.057779860629274898 0 -0.045921114012054357 -0.057112631751834154 0 -0.04414495557272867 -0.057235284238637503 0 -0.044459942485888346 -0.057337947680174896 0 -0.045921114012054357 -0.057112631751834154 0 -0.040749264904142608 -0.05825754402006128 0 -0.041976711218732983 -0.057195168370443951 0 -0.043743260651886585 -0.057819960796061803 0 -0.041976711218732983 -0.057195168370443951 0 -0.043743260651886585 -0.057819960796061803 0 -0.042804575960772633 -0.054999871317974597 0 -0.042348712000909901 -0.057797312715534011 0 -0.044860759946694154 -0.057437568286437361 0 -0.042804575960772633 -0.054999871317974597 0 -0.044979391431811469 -0.056339930266555718 0 -0.045721000937649733 -0.054999757957716035 0 -0.043743260651886585 -0.057819960796061803 0 -0.042804575960772633 -0.054999871317974597 0 -0.044979391431811469 -0.056339930266555718 0 -0.040809104538927526 -0.056494245681953548 0 -0.041976711218732983 -0.057195168370443951 0 -0.042804575960772633 -0.054999871317974597 0 -0.045721000937649733 -0.054999757957716035 0 -0.046990421258216911 -0.05702054115645655 0 -0.048635649067723337 -0.054999877266978699 0 -0.044979391431811469 -0.056339930266555718 0 -0.045721000937649733 -0.054999757957716035 0 -0.046990421258216911 -0.05702054115645655 0 -0.044860759946694154 -0.057437568286437361 0 -0.04685278192688503 -0.057065766326816321 0 -0.043743260651886585 -0.057819960796061803 0 -0.044979391431811469 -0.056339930266555718 0 -0.046990421258216911 -0.05702054115645655 0 -0.045921114012054357 -0.057112631751834154 0 -0.046990421258216911 -0.05702054115645655 0 -0.046593602429903833 -0.057896552227725342 0 -0.046990421258216911 -0.05702054115645655 0 -0.046593602429903833 -0.057896552227725342 0 -0.048644671443194648 -0.057845576310518655 0 -0.046593602429903833 -0.057896552227725342 0 -0.048105953776621517 -0.059123910912073356 0 -0.048644671443194648 -0.057845576310518655 0 -0.046089392780489402 -0.058387484437312974 0 -0.046593602429903833 -0.057896552227725342 0 -0.046882953835468928 -0.05835758381174927 0 -0.046593602429903833 -0.057896552227725342 0 -0.046882953835468928 -0.05835758381174927 0 -0.047584540668442879 -0.057936209978055632 0 -0.046753144397986605 -0.05791994043610129 0 -0.047716415234500396 -0.058832300343717184 0 -0.047562849417239726 -0.058619818315614199 0 -0.046882953835468928 -0.05835758381174927 0 -0.047584540668442879 -0.057936209978055632 0 -0.047562849417239726 -0.058619818315614199 0 -0.047584540668442879 -0.057936209978055632 0 -0.048588982817563006 -0.058414766349264249 0 -0.047716415234500396 -0.058832300343717184 0 -0.051324851829238662 -0.055339726003774459 0 -0.048105953776621517 -0.059123910912073356 0 -0.049708872280241984 -0.05926640439327413 0 -0.049911256143875544 -0.060168558052955144 0 -0.048105953776621517 -0.059123910912073356 0 -0.049708872280241984 -0.05926640439327413 0 -0.049036876909460445 -0.058787601953505908 0 -0.047584540668442879 -0.057936209978055632 0 -0.048772070472915659 -0.058212656098385121 0 -0.048588982817563006 -0.058414766349264249 0 -0.049708872280241984 -0.05926640439327413 0 -0.049036876909460445 -0.058787601953505908 0 -0.050190476964683643 -0.058646500296574998 0 -0.058964494628234713 -0.04822332318651501 0 -0.057912529766124571 -0.049394083967040897 0 -0.057362634074371463 -0.048272238749412132 0 -0.051324851829238662 -0.055339726003774459 0 -0.054966474905315317 -0.053895797806211156 0 -0.049708872280241984 -0.05926640439327413 0 -0.049911256143875544 -0.060168558052955144 0 -0.051098715911787801 -0.058902557266788981 0 -0.049708872280241984 -0.05926640439327413 0 -0.051098715911787801 -0.058902557266788981 0 -0.050190476964683643 -0.058646500296574998 0 -0.05140120106401757 -0.059102692041966567 0 -0.050435348951354209 -0.058189345175842705 0 -0.051565235874229481 -0.05715420405324724 0 -0.050190476964683643 -0.058646500296574998 0 -0.050435348951354209 -0.058189345175842705 0 -0.048644671443194648 -0.057845576310518655 0 -0.05140120106401757 -0.059102692041966567 0 -0.050190476964683643 -0.058646500296574998 0 -0.050435348951354209 -0.058189345175842705 0 -0.054966474905315317 -0.053895797806211156 0 -0.05090200973196575 -0.056691817445437095 0 -0.050435348951354209 -0.058189345175842705 0 -0.048644671443194648 -0.057845576310518655 0 -0.049366952189708699 -0.056619064626746887 0 -0.048105953776621517 -0.059123910912073356 0 -0.049036876909460445 -0.058787601953505908 0 -0.048644671443194648 -0.057845576310518655 0 -0.049036876909460445 -0.058787601953505908 0 -0.050190476964683643 -0.058646500296574998 0 -0.048644671443194648 -0.057845576310518655 0 -0.046990421258216911 -0.05702054115645655 0 -0.048644671443194648 -0.057845576310518655 0 -0.049366952189708699 -0.056619064626746887 0 -0.04974674237017504 -0.056355247607528101 0 -0.048637499045738067 -0.055000996907611684 0 -0.05228918981506929 -0.055664576062240893 0 -0.04974674237017504 -0.056355247607528101 0 -0.051565235874229481 -0.05715420405324724 0 -0.05228918981506929 -0.055664576062240893 0 -0.050435348951354209 -0.058189345175842705 0 -0.04974674237017504 -0.056355247607528101 0 -0.051565235874229481 -0.05715420405324724 0 -0.050363058190439056 -0.058095247940707778 0 -0.049556665342832019 -0.056519064057159382 0 -0.046990421258216911 -0.05702054115645655 0 -0.049366952189708699 -0.056619064626746887 0 -0.048635649067723337 -0.054999877266978699 0 -0.049556665342832019 -0.056519064057159382 0 -0.048636370403513811 -0.055000180555308198 0 -0.048637499045738067 -0.055000996907611684 0 -0.055000274617875801 -0.054993954913070908 0 -0.05228918981506929 -0.055664576062240893 0 -0.054997723819410489 -0.053639414714537093 0 -0.055000274617875801 -0.054993954913070908 0 -0.05228918981506929 -0.055664576062240893 0 -0.051565235874229481 -0.05715420405324724 0 -0.05228918981506929 -0.055664576062240893 0 -0.053279195764977832 -0.057085049411682375 0 -0.054997723819410489 -0.053639414714537093 0 -0.05228918981506929 -0.055664576062240893 0 -0.053279195764977832 -0.057085049411682375 0 -0.055000005442684075 -0.053628854895257011 0 -0.054908661250298411 -0.054441366173929411 0 -0.054999997261231191 -0.053628500085009599 0 -0.056728935160306714 -0.051657720537341356 0 -0.054999961794274882 -0.051044143498112378 0 -0.056728935160306714 -0.051657720537341356 0 -0.056246879914474093 -0.050289479288421701 0 -0.054999961794274882 -0.051044143498112378 0 -0.056246879914474093 -0.050289479288421701 0 -0.054999961794274882 -0.051044143498112378 0 -0.0549999893215532 -0.048459839414690703 0 -0.054966474905315317 -0.053895797806211156 0 -0.054908661250298411 -0.054441366173929411 0 -0.05140120106401757 -0.059102692041966567 0 -0.051565235874229481 -0.05715420405324724 0 -0.053279195764977832 -0.057085049411682375 0 -0.058410628454662279 -0.049759717208334608 0 -0.056728935160306714 -0.051657720537341356 0 -0.056246879914474093 -0.050289479288421701 0 -0.054966474905315317 -0.053895797806211156 0 -0.056859711350619478 -0.04912813915146886 0 -0.058410628454662279 -0.049759717208334608 0 -0.056246879914474093 -0.050289479288421701 0 -0.056724653172800669 -0.04912853267026087 0 -0.057912529766124571 -0.049394083967040897 0 -0.056537708972986059 -0.048915475381989343 0 -0.057362634074371463 -0.048272238749412132 0 -0.056537708972986059 -0.048915475381989343 0 -0.057362634074371463 -0.048272238749412132 0 -0.056148913457191377 -0.047726438517396413 0 -0.056859711350619478 -0.04912813915146886 0 -0.055000241715422039 -0.04845981217026999 0 -0.056246879914474093 -0.050289479288421701 0 -0.056724653172800669 -0.04912853267026087 0 -0.0549999893215532 -0.048459839414690703 0 -0.056537708972986059 -0.048915475381989343 0 -0.054999831100033203 -0.048459327828223972 0 -0.056148913457191377 -0.047726438517396413 0 -0.054999831100033203 -0.048459327828223972 0 -0.056148913457191377 -0.047726438517396413 0 -0.054991572929846459 -0.045594057537622121 0 -0.056148913457191377 -0.047726438517396413 0 -0.054991572929846459 -0.045594057537622121 0 -0.057151041369729774 -0.047073435572332727 0 -0.053205030466926644 -0.052981117488751693 0 -0.053538576761388297 -0.051571811932573694 0 -0.053205030466926644 -0.052981117488751693 0 -0.054203718930512963 -0.052636743958856487 0 -0.052009644495571598 -0.059288627991450661 0 -0.050028844831908122 -0.059310528191508192 0 -0.050415303762899856 -0.05867979974798649 0 -0.05499150247815747 -0.045590671462530319 0 -0.057130652587338952 -0.043965568422184055 0 -0.05655916542285222 -0.042775058923895951 0 -0.050028844831908122 -0.059310528191508192 0 -0.050415303762899856 -0.05867979974798649 0 -0.049196898544978614 -0.058758811385909313 0 -0.058964494628234713 -0.04822332318651501 0 -0.057362634074371463 -0.048272238749412132 0 -0.057151041369729774 -0.047073435572332727 0 -0.057362634074371463 -0.048272238749412132 0 -0.056148913457191377 -0.047726438517396413 0 -0.057151041369729774 -0.047073435572332727 0 -0.048850042708425002 -0.058106356133509722 0 -0.050415303762899856 -0.05867979974798649 0 -0.049196898544978614 -0.058758811385909313 0 -0.051324851829238662 -0.055339726003774459 0 -0.054203718930512963 -0.052636743958856487 0 -0.048850042708425002 -0.058106356133509722 0 -0.049196898544978614 -0.058758811385909313 0 -0.048588982817563006 -0.058414766349264249 0 -0.047562849417239726 -0.058619818315614199 0 -0.048588982817563006 -0.058414766349264249 0 -0.048146252580099309 -0.059241759492348639 0 -0.049196898544978614 -0.058758811385909313 0 -0.048588982817563006 -0.058414766349264249 0 -0.048146252580099309 -0.059241759492348639 0 -0.051324851829238662 -0.055339726003774459 0 -0.049609175781116475 -0.057249691380520606 0 -0.053538576761388297 -0.051571811932573694 0 -0.05334813230906791 -0.050977283232052459 0 -0.050028844831908122 -0.059310528191508192 0 -0.049196898544978614 -0.058758811385909313 0 -0.048146252580099309 -0.059241759492348639 0 -0.057130652587338952 -0.043965568422184055 0 -0.058690018698345399 -0.042704915182314243 0 -0.058135015466106547 -0.042045530343056074 0 -0.058135015466106547 -0.042045530343056074 0 -0.057463761053847963 -0.041017146743772236 0 -0.05655916542285222 -0.042775058923895951 0 -0.059034581982235115 -0.041402347222941852 0 -0.058690018698345399 -0.042704915182314243 0 -0.058135015466106547 -0.042045530343056074 0 -0.058792543173402476 -0.040253385533095119 0 -0.059034581982235115 -0.041402347222941852 0 -0.058135015466106547 -0.042045530343056074 0 -0.058792543173402476 -0.040253385533095119 0 -0.058135015466106547 -0.042045530343056074 0 -0.057463761053847963 -0.041017146743772236 0 -0.056329710551623433 -0.040208184624038898 0 -0.057463761053847963 -0.041017146743772236 0 -0.05655916542285222 -0.042775058923895951 0 -0.056329710551623433 -0.040208184624038898 0 -0.054999517649892984 -0.04251054848748774 0 -0.05655916542285222 -0.042775058923895951 0 -0.05499150247815747 -0.045590671462530319 0 -0.054999517649892984 -0.04251054848748774 0 -0.05655916542285222 -0.042775058923895951 0 -0.057130652587338952 -0.043965568422184055 0 -0.058135015466106547 -0.042045530343056074 0 -0.05655916542285222 -0.042775058923895951 0 -0.018646212312361028 -0.025931018739277546 0 -0.018489526780622819 -0.025914291125364277 0 -0.018426151839259618 -0.02589868415262879 0 -0.018489526780622819 -0.025914291125364277 0 -0.018426151839259618 -0.02589868415262879 0 -0.018173517159843014 -0.025855394556362873 0 -0.018489526780622819 -0.025914291125364277 0 -0.018173517159843014 -0.025855394556362873 0 -0.018197700143592746 -0.025986330362347872 0 -0.018646212312361028 -0.025931018739277546 0 -0.018489526780622819 -0.025914291125364277 0 -0.019051671109139506 -0.026111399872647004 0 -0.018646212312361028 -0.025931018739277546 0 -0.019051671109139506 -0.026111399872647004 0 -0.019921003582674186 -0.026168052512561612 0 -0.019921003582674186 -0.026168052512561612 0 -0.019115883812762916 -0.025884285017276083 0 -0.020937792230020687 -0.026032149229519595 0 -0.018646212312361028 -0.025931018739277546 0 -0.019921003582674186 -0.026168052512561612 0 -0.019115883812762916 -0.025884285017276083 0 -0.019115883812762916 -0.025884285017276083 0 -0.018393307209821904 -0.02577639524631585 0 -0.017802028435686821 -0.026542892114868235 0 -0.018646212312361028 -0.025931018739277546 0 -0.019115883812762916 -0.025884285017276083 0 -0.017802028435686821 -0.026542892114868235 0 -0.019115883812762916 -0.025884285017276083 0 -0.02016879376637452 -0.025347889328195886 0 -0.020937792230020687 -0.026032149229519595 0 -0.019115883812762916 -0.025884285017276083 0 -0.02016879376637452 -0.025347889328195886 0 -0.018393307209821904 -0.02577639524631585 0 -0.02016879376637452 -0.025347889328195886 0 -0.019508617326442934 -0.02488505258990557 0 -0.021050847833469687 -0.024171376597556318 0 -0.02016879376637452 -0.025347889328195886 0 -0.019508617326442934 -0.02488505258990557 0 -0.018393307209821904 -0.02577639524631585 0 -0.019508617326442934 -0.02488505258990557 0 -0.018393307209821904 -0.02577639524631585 0 -0.017432802358691667 -0.02545300335694738 0 -0.018393307209821904 -0.02577639524631585 0 -0.01730894709000047 -0.026315705330645301 0 -0.017432802358691667 -0.02545300335694738 0 -0.017802028435686821 -0.026542892114868235 0 -0.017181330258310923 -0.027061186068256225 0 -0.01730894709000047 -0.026315705330645301 0 -0.018393307209821904 -0.02577639524631585 0 -0.017802028435686821 -0.026542892114868235 0 -0.01730894709000047 -0.026315705330645301 0 -0.018646212312361028 -0.025931018739277546 0 -0.017802028435686821 -0.026542892114868235 0 -0.018426151839259618 -0.02589868415262879 0 -0.017765375710302626 -0.026665707155810368 0 -0.017694508666471362 -0.027027090588203313 0 -0.017802028435686821 -0.026542892114868235 0 -0.016945588955653727 -0.028264843984674486 0 -0.01685126539328231 -0.027825757457027547 0 -0.017802028435686821 -0.026542892114868235 0 -0.01685126539328231 -0.027825757457027547 0 -0.017181330258310923 -0.027061186068256225 0 -0.01685126539328231 -0.027825757457027547 0 -0.016463515104297693 -0.028574239277097617 0 -0.016601384821120724 -0.028282306205287731 0 -0.01685126539328231 -0.027825757457027547 0 -0.016463515104297693 -0.028574239277097617 0 -0.016729436247371162 -0.02864390581312044 0 -0.016463515104297693 -0.028574239277097617 0 -0.016169527279758435 -0.02931514326812356 0 -0.016729436247371162 -0.02864390581312044 0 -0.016463515104297693 -0.028574239277097617 0 -0.016880909976307451 -0.02927184541063561 0 -0.016169527279758435 -0.02931514326812356 0 -0.016463515104297693 -0.028574239277097617 0 -0.016589384767915768 -0.028282767592250888 0 -0.016601384821120724 -0.028282306205287731 0 -0.016945588955653727 -0.028264843984674486 0 -0.01685126539328231 -0.027825757457027547 0 -0.016601384821120724 -0.028282306205287731 0 -0.016851778728809653 -0.028702903222716979 0 -0.016038535179209827 -0.030642190686623487 0 -0.017118835258397837 -0.029092928671763434 0 -0.016605712933267288 -0.028951439517233168 0 -0.017074795153335574 -0.02966636699160111 0 -0.017118835258397837 -0.029092928671763434 0 -0.016605712933267288 -0.028951439517233168 0 -0.01688240842219102 -0.028206968751237037 0 -0.017118835258397837 -0.029092928671763434 0 -0.017074795153335574 -0.02966636699160111 0 -0.017664384625090228 -0.029343152266699816 0 -0.016463515104297693 -0.028574239277097617 0 -0.016970118556866844 -0.028640730274775383 0 -0.016880909976307451 -0.02927184541063561 0 -0.016294472394487537 -0.028321546061976552 0 -0.016851778728809653 -0.028702903222716979 0 -0.016076927752417335 -0.028175530423297904 0 -0.016605712933267288 -0.028951439517233168 0 -0.01688240842219102 -0.028206968751237037 0 -0.016463515104297693 -0.028574239277097617 0 -0.016589384767915768 -0.028282767592250888 0 -0.016970118556866844 -0.028640730274775383 0 -0.01688240842219102 -0.028206968751237037 0 -0.017474241047300366 -0.027735615383736922 0 -0.017564986607636786 -0.028725723057205367 0 -0.017118835258397837 -0.029092928671763434 0 -0.01688240842219102 -0.028206968751237037 0 -0.017564986607636786 -0.028725723057205367 0 -0.01688240842219102 -0.028206968751237037 0 -0.017474241047300366 -0.027735615383736922 0 -0.017063652054566648 -0.027072109519354771 0 -0.01688240842219102 -0.028206968751237037 0 -0.016217191992230737 -0.027497201863979651 0 -0.017063652054566648 -0.027072109519354771 0 -0.016076927752417335 -0.028175530423297904 0 -0.01688240842219102 -0.028206968751237037 0 -0.016217191992230737 -0.027497201863979651 0 -0.01621448579914752 -0.02675125086037132 0 -0.017063652054566648 -0.027072109519354771 0 -0.017165430768420305 -0.026084564333607126 0 -0.016217191992230737 -0.027497201863979651 0 -0.01621448579914752 -0.02675125086037132 0 -0.017063652054566648 -0.027072109519354771 0 -0.017474241047300366 -0.027735615383736922 0 -0.017063652054566648 -0.027072109519354771 0 -0.017987662806641904 -0.026543248001398716 0 -0.017063652054566648 -0.027072109519354771 0 -0.017165430768420305 -0.026084564333607126 0 -0.017987662806641904 -0.026543248001398716 0 -0.016945588955653727 -0.028264843984674486 0 -0.016601384821120724 -0.028282306205287731 0 -0.016596983754412164 -0.028455275370434331 0 -0.018426151839259618 -0.02589868415262879 0 -0.017994718870800334 -0.025739469373267702 0 -0.018173517159843014 -0.025855394556362873 0 -0.017694508666471362 -0.027027090588203313 0 -0.016934486438276584 -0.027098392851125655 0 -0.016076927752417335 -0.028175530423297904 0 -0.016217191992230737 -0.027497201863979651 0 -0.015485753842037138 -0.027349215260425309 0 -0.016294472394487537 -0.028321546061976552 0 -0.016934486438276584 -0.027098392851125655 0 -0.016589384767915768 -0.028282767592250888 0 -0.016601384821120724 -0.028282306205287731 0 -0.016596983754412164 -0.028455275370434331 0 -0.017547356715415848 -0.025786900504821828 0 -0.017994718870800334 -0.025739469373267702 0 -0.017839760467095435 -0.025825012222025184 0 -0.017994718870800334 -0.025739469373267702 0 -0.017839760467095435 -0.025825012222025184 0 -0.017968820988650866 -0.025832957194041467 0 -0.016217191992230737 -0.027497201863979651 0 -0.01621448579914752 -0.02675125086037132 0 -0.015485753842037138 -0.027349215260425309 0 -0.016910683495020489 -0.026253631374192645 0 -0.016934486438276584 -0.027098392851125655 0 -0.017547356715415848 -0.025786900504821828 0 -0.017839760467095435 -0.025825012222025184 0 -0.017613347405587735 -0.02595424950779876 0 -0.017839760467095435 -0.025825012222025184 0 -0.017968820988650866 -0.025832957194041467 0 -0.017913860997721825 -0.02592736332940182 0 -0.017968820988650866 -0.025832957194041467 0 -0.018173517159843014 -0.025855394556362873 0 -0.017913860997721825 -0.02592736332940182 0 -0.017994718870800334 -0.025739469373267702 0 -0.017968820988650866 -0.025832957194041467 0 -0.018173517159843014 -0.025855394556362873 0 -0.018173517159843014 -0.025855394556362873 0 -0.018197700143592746 -0.025986330362347872 0 -0.017913860997721825 -0.02592736332940182 0 -0.018197700143592746 -0.025986330362347872 0 -0.017989913900745648 -0.026012118491055683 0 -0.018097563728395962 -0.02612655191768188 0 -0.017989913900745648 -0.026012118491055683 0 -0.017913860997721825 -0.02592736332940182 0 -0.017770139288089157 -0.026020959364259171 0 -0.017989913900745648 -0.026012118491055683 0 -0.017770139288089157 -0.026020959364259171 0 -0.018097563728395962 -0.02612655191768188 0 -0.018197700143592746 -0.025986330362347872 0 -0.017989913900745648 -0.026012118491055683 0 -0.017913860997721825 -0.02592736332940182 0 -0.017913860997721825 -0.02592736332940182 0 -0.017613347405587735 -0.02595424950779876 0 -0.017770139288089157 -0.026020959364259171 0 -0.017839760467095435 -0.025825012222025184 0 -0.017913860997721825 -0.02592736332940182 0 -0.017613347405587735 -0.02595424950779876 0 -0.017613347405587735 -0.02595424950779876 0 -0.017770139288089157 -0.026020959364259171 0 -0.017442336767451057 -0.025933176569455645 0 -0.017770139288089157 -0.026020959364259171 0 -0.017442336767451057 -0.025933176569455645 0 -0.01779083162560012 -0.026162771582144809 0 -0.017442336767451057 -0.025933176569455645 0 -0.01779083162560012 -0.026162771582144809 0 -0.017423348204929093 -0.025793052364949536 0 -0.017770139288089157 -0.026020959364259171 0 -0.01779083162560012 -0.026162771582144809 0 -0.018097563728395962 -0.02612655191768188 0 -0.01779083162560012 -0.026162771582144809 0 -0.018097563728395962 -0.02612655191768188 0 -0.018472706851972526 -0.026454508544126704 0 -0.017165430768420305 -0.026084564333607126 0 -0.017619307013975342 -0.025812610795544488 0 -0.017987662806641904 -0.026543248001398716 0 -0.017547356715415848 -0.025786900504821828 0 -0.017613347405587735 -0.02595424950779876 0 -0.017165430768420305 -0.026084564333607126 0 -0.017613347405587735 -0.02595424950779876 0 -0.017442336767451057 -0.025933176569455645 0 -0.017165430768420305 -0.026084564333607126 0 -0.016910683495020489 -0.026253631374192645 0 -0.017120446752138328 -0.026107797433115677 0 -0.017442336767451057 -0.025933176569455645 0 -0.017409361415033561 -0.025558654845197492 0 -0.017423348204929093 -0.025793052364949536 0 -0.017442336767451057 -0.025933176569455645 0 -0.017165430768420305 -0.026084564333607126 0 -0.017409361415033561 -0.025558654845197492 0 -0.017409361415033561 -0.025558654845197492 0 -0.017619307013975342 -0.025812610795544488 0 -0.017817008994002195 -0.025236809875756966 0 -0.017165430768420305 -0.026084564333607126 0 -0.017409361415033561 -0.025558654845197492 0 -0.017619307013975342 -0.025812610795544488 0 -0.017409361415033561 -0.025558654845197492 0 -0.017683600682963173 -0.024874045653705032 0 -0.017383880371122675 -0.025022027600633587 0 -0.017409361415033561 -0.025558654845197492 0 -0.017683600682963173 -0.024874045653705032 0 -0.017817008994002195 -0.025236809875756966 0 -0.017409361415033561 -0.025558654845197492 0 -0.017383880371122675 -0.025022027600633587 0 -0.017423348204929093 -0.025793052364949536 0 -0.017683600682963173 -0.024874045653705032 0 -0.017383880371122675 -0.025022027600633587 0 -0.017763332435335257 -0.024422467074344159 0 -0.01779083162560012 -0.026162771582144809 0 -0.017636496295066469 -0.026299877593286336 0 -0.018438095515022304 -0.027001629825065276 0 -0.017383880371122675 -0.025022027600633587 0 -0.017423348204929093 -0.025793052364949536 0 -0.017636496295066469 -0.026299877593286336 0 -0.01779083162560012 -0.026162771582144809 0 -0.017423348204929093 -0.025793052364949536 0 -0.017636496295066469 -0.026299877593286336 0 -0.017739877492887673 -0.025173195644552358 0 -0.017383880371122675 -0.025022027600633587 0 -0.018071942340234202 -0.024338916586446435 0 -0.017501746979564914 -0.025077558993586178 0 -0.017950499263136629 -0.025299764810312795 0 -0.019009277650888799 -0.024801894922501601 0 -0.018071942340234202 -0.024338916586446435 0 -0.02011839409173373 -0.024103492625522274 0 -0.017950499263136629 -0.025299764810312795 0 -0.019278402044179372 -0.025607602265007287 0 -0.019009277650888799 -0.024801894922501601 0 -0.017739877492887673 -0.025173195644552358 0 -0.018071942340234202 -0.024338916586446435 0 -0.020621141848870334 -0.024804003886124984 0 -0.019009277650888799 -0.024801894922501601 0 -0.02011839409173373 -0.024103492625522274 0 -0.020621141848870334 -0.024804003886124984 0 -0.02011839409173373 -0.024103492625522274 0 -0.021621014625614741 -0.025331673760986322 0 -0.019278402044179372 -0.025607602265007287 0 -0.020529550282832983 -0.026411831468418249 0 -0.02172707048815312 -0.024774994373837247 0 -0.020621141848870334 -0.024804003886124984 0 -0.021621014625614741 -0.025331673760986322 0 -0.018438095515022304 -0.027001629825065276 0 -0.019104513928974009 -0.026802922601506133 0 -0.019607536155775009 -0.027459013874699432 0 -0.01779083162560012 -0.026162771582144809 0 -0.018438095515022304 -0.027001629825065276 0 -0.018472706851972526 -0.026454508544126704 0 -0.018438095515022304 -0.027001629825065276 0 -0.019104513928974009 -0.026802922601506133 0 -0.018472706851972526 -0.026454508544126704 0 -0.018097563728395962 -0.02612655191768188 0 -0.018472706851972526 -0.026454508544126704 0 -0.018544810528534392 -0.026133384061488126 0 -0.018472706851972526 -0.026454508544126704 0 -0.019143085812368777 -0.026376125785433788 0 -0.018544810528534392 -0.026133384061488126 0 -0.019104513928974009 -0.026802922601506133 0 -0.018472706851972526 -0.026454508544126704 0 -0.019143085812368777 -0.026376125785433788 0 -0.018489526780622819 -0.025914291125364277 0 -0.019051671109139506 -0.026111399872647004 0 -0.018544810528534392 -0.026133384061488126 0 -0.019051671109139506 -0.026111399872647004 0 -0.019143085812368777 -0.026376125785433788 0 -0.018544810528534392 -0.026133384061488126 0 -0.018489526780622819 -0.025914291125364277 0 -0.018197700143592746 -0.025986330362347872 0 -0.018544810528534392 -0.026133384061488126 0 -0.018197700143592746 -0.025986330362347872 0 -0.018097563728395962 -0.02612655191768188 0 -0.018544810528534392 -0.026133384061488126 0 -0.019921003582674186 -0.026168052512561612 0 -0.02076847136983859 -0.026393862830738645 0 -0.019845272215268623 -0.02632951400609411 0 -0.019051671109139506 -0.026111399872647004 0 -0.019921003582674186 -0.026168052512561612 0 -0.019845272215268623 -0.02632951400609411 0 -0.019051671109139506 -0.026111399872647004 0 -0.019143085812368777 -0.026376125785433788 0 -0.019845272215268623 -0.02632951400609411 0 -0.019143085812368777 -0.026376125785433788 0 -0.019845272215268623 -0.02632951400609411 0 -0.020222914977868846 -0.026849534786693642 0 -0.019104513928974009 -0.026802922601506133 0 -0.019143085812368777 -0.026376125785433788 0 -0.020222914977868846 -0.026849534786693642 0 -0.02076847136983859 -0.026393862830738645 0 -0.019845272215268623 -0.02632951400609411 0 -0.020222914977868846 -0.026849534786693642 0 -0.02076847136983859 -0.026393862830738645 0 -0.020222914977868846 -0.026849534786693642 0 -0.021450168468368995 -0.027064325063261792 0 -0.021112490935357772 -0.027108176173057781 0 -0.020529550282832983 -0.026411831468418249 0 -0.020222914977868846 -0.026849534786693642 0 -0.021253781700651508 -0.027267500387480957 0 -0.021450168468368995 -0.027064325063261792 0 -0.020222914977868846 -0.026849534786693642 0 -0.021253781700651508 -0.027267500387480957 0 -0.019607536155775009 -0.027459013874699432 0 -0.019104513928974009 -0.026802922601506133 0 -0.020222914977868846 -0.026849534786693642 0 -0.019607536155775009 -0.027459013874699432 0 -0.021380098038720867 -0.026623952825696923 0 -0.02172707048815312 -0.024774994373837247 0 -0.021621014625614741 -0.025331673760986322 0 -0.021380098038720867 -0.026623952825696923 0 -0.021253781700651508 -0.027267500387480957 0 -0.021621014625614741 -0.025331673760986322 0 -0.021380098038720867 -0.026623952825696923 0 -0.021253781700651508 -0.027267500387480957 0 -0.022231564079402973 -0.028422166729289544 0 -0.024213460068943145 -0.024652843295541717 0 -0.026728083561237716 -0.025624555053823432 0 -0.021253781700651508 -0.027267500387480957 0 -0.022073363266322761 -0.027684706541862444 0 -0.022231564079402973 -0.028422166729289544 0 -0.021253781700651508 -0.027267500387480957 0 -0.022073363266322761 -0.027684706541862444 0 -0.021450168468368995 -0.027064325063261792 0 -0.022073363266322761 -0.027684706541862444 0 -0.021450168468368995 -0.027064325063261792 0 -0.022750507885814491 -0.027301107182320556 0 -0.022073363266322761 -0.027684706541862444 0 -0.023128899015435484 -0.028106857888451207 0 -0.022750507885814491 -0.027301107182320556 0 -0.022073363266322761 -0.027684706541862444 0 -0.023128899015435484 -0.028106857888451207 0 -0.022231564079402973 -0.028422166729289544 0 -0.031506491543754414 -0.023831200356194068 0 -0.031300979923892122 -0.022808035744916206 0 -0.031449202456582795 -0.024755547583374435 0 -0.023128899015435484 -0.028106857888451207 0 -0.022231564079402973 -0.028422166729289544 0 -0.024614103223761181 -0.02929849595931068 0 -0.026728083561237716 -0.025624555053823432 0 -0.027974554420940677 -0.026982571613905521 0 -0.031449202456582795 -0.024755547583374435 0 -0.030351946867731013 -0.026526971777714854 0 -0.030671520343914894 -0.025475067499570278 0 -0.024614103223761181 -0.02929849595931068 0 -0.025744741612699847 -0.028463341193224925 0 -0.027147841148719265 -0.029280861136322191 0 -0.027974554420940677 -0.026982571613905521 0 -0.028656623609652768 -0.027889477482618864 0 -0.024614103223761181 -0.02929849595931068 0 -0.025744741612699847 -0.028463341193224925 0 -0.024338721034782729 -0.027883775313422142 0 -0.025744741612699847 -0.028463341193224925 0 -0.024338721034782729 -0.027883775313422142 0 -0.025981751342159031 -0.027543002781377182 0 -0.025744741612699847 -0.028463341193224925 0 -0.025981751342159031 -0.027543002781377182 0 -0.026894209689053608 -0.028315263076722802 0 -0.023128899015435484 -0.028106857888451207 0 -0.024338721034782729 -0.027883775313422142 0 -0.022750507885814491 -0.027301107182320556 0 -0.023128899015435484 -0.028106857888451207 0 -0.024614103223761181 -0.02929849595931068 0 -0.024338721034782729 -0.027883775313422142 0 -0.024338721034782729 -0.027883775313422142 0 -0.023901405889723754 -0.02659756446343706 0 -0.022750507885814491 -0.027301107182320556 0 -0.024338721034782729 -0.027883775313422142 0 -0.023901405889723754 -0.02659756446343706 0 -0.025981751342159031 -0.027543002781377182 0 -0.025981751342159031 -0.027543002781377182 0 -0.025989174797733348 -0.026594206507213645 0 -0.027238991380042939 -0.027006460160850888 0 -0.023901405889723754 -0.02659756446343706 0 -0.025981751342159031 -0.027543002781377182 0 -0.025989174797733348 -0.026594206507213645 0 -0.025989174797733348 -0.026594206507213645 0 -0.027787998637189625 -0.026589531552232943 0 -0.024730174566163016 -0.02516741700263261 0 -0.023901405889723754 -0.02659756446343706 0 -0.022010767113696001 -0.025185747602212687 0 -0.024730174566163016 -0.02516741700263261 0 -0.023901405889723754 -0.02659756446343706 0 -0.025989174797733348 -0.026594206507213645 0 -0.024730174566163016 -0.02516741700263261 0 -0.023901405889723754 -0.02659756446343706 0 -0.022100060341680119 -0.026590135443445108 0 -0.022010767113696001 -0.025185747602212687 0 -0.02076847136983859 -0.026393862830738645 0 -0.022100060341680119 -0.026590135443445108 0 -0.022010767113696001 -0.025185747602212687 0 -0.02076847136983859 -0.026393862830738645 0 -0.021450168468368995 -0.027064325063261792 0 -0.022100060341680119 -0.026590135443445108 0 -0.023901405889723754 -0.02659756446343706 0 -0.022100060341680119 -0.026590135443445108 0 -0.022750507885814491 -0.027301107182320556 0 -0.021450168468368995 -0.027064325063261792 0 -0.022100060341680119 -0.026590135443445108 0 -0.022750507885814491 -0.027301107182320556 0 -0.042769067029152466 -0.039847831500199521 0 -0.037374218736677726 -0.036467471441364925 0 -0.041338799827489663 -0.035888975074607518 0 -0.03997080241554999 -0.038089061088989781 0 -0.037734270642671361 -0.036739666614136066 0 -0.037499207398683683 -0.036565707422007265 0 -0.037374218736677726 -0.036467471441364925 0 -0.037284948490876359 -0.036637889626462507 0 -0.037374218736677726 -0.036467471441364925 0 -0.036894816512600313 -0.036581379050031532 0 -0.036556047953660707 -0.036566838060420694 0 -0.037374218736677726 -0.036467471441364925 0 -0.036894816512600313 -0.036581379050031532 0 -0.037284948490876359 -0.036637889626462507 0 -0.036894816512600313 -0.036581379050031532 0 -0.036643838220754045 -0.036286502132531998 0 -0.036556047953660707 -0.036566838060420694 0 -0.037502432680143791 -0.037740846070073664 0 -0.038077048907778778 -0.030809358518564606 0 -0.037580928259805427 -0.036825948753099379 0 -0.037284948490876359 -0.036637889626462507 0 -0.037394312975611771 -0.036937187619631363 0 -0.036894816512600313 -0.036581379050031532 0 -0.037284948490876359 -0.036637889626462507 0 -0.037394312975611771 -0.036937187619631363 0 -0.036894816512600313 -0.036581379050031532 0 -0.037394312975611771 -0.036937187619631363 0 -0.037452977510248391 -0.037080168965768656 0 -0.036643838220754045 -0.036286502132531998 0 -0.036791971287806369 -0.035854489861723994 0 -0.036556047953660707 -0.036566838060420694 0 -0.036898259222803216 -0.022687177470596773 0 -0.037065611661382433 -0.02250488852714248 0 -0.03668237527300193 -0.022589531229330669 0 -0.037075319585357404 -0.022741116474900059 0 -0.036898259222803216 -0.022687177470596773 0 -0.037065611661382433 -0.02250488852714248 0 -0.036898259222803216 -0.022687177470596773 0 -0.036723687330873257 -0.022676383875291778 0 -0.03668237527300193 -0.022589531229330669 0 -0.038077048907778778 -0.030809358518564606 0 -0.03515336840540783 -0.028476697388106497 0 -0.034786009793386287 -0.025810889341239717 0 -0.03515336840540783 -0.028476697388106497 0 -0.036180572698845198 -0.036039827329216657 0 -0.036643838220754045 -0.036286502132531998 0 -0.036791971287806369 -0.035854489861723994 0 -0.036894816512600313 -0.036581379050031532 0 -0.036180572698845198 -0.036039827329216657 0 -0.036643838220754045 -0.036286502132531998 0 -0.028935207585189682 -0.028382584093866299 0 -0.029012158657064271 -0.028357964132340444 0 -0.029227285708155918 -0.027104948357005745 0 -0.03515336840540783 -0.028476697388106497 0 -0.032673574817910341 -0.024973459320258788 0 -0.036589578558754499 -0.022763033265836743 0 -0.036670144628763238 -0.022573471513315527 0 -0.036255924650507469 -0.022661774033880745 0 -0.036589578558754499 -0.022763033265836743 0 -0.036723687330873257 -0.022676383875291778 0 -0.036670144628763238 -0.022573471513315527 0 -0.028935207585189682 -0.028382584093866299 0 -0.029012158657064271 -0.028357964132340444 0 -0.029062310155290136 -0.028367814049613103 0 -0.036791971287806369 -0.035854489861723994 0 -0.036556047953660707 -0.036566838060420694 0 -0.035634057298156073 -0.03654615608328235 0 -0.03515336840540783 -0.028476697388106497 0 -0.032100681128417408 -0.03293305821171167 0 -0.037374218736677726 -0.036467471441364925 0 -0.036556047953660707 -0.036566838060420694 0 -0.036334372284379204 -0.035663368861007676 0 -0.036556047953660707 -0.036566838060420694 0 -0.035634057298156073 -0.03654615608328235 0 -0.036334372284379204 -0.035663368861007676 0 -0.029012158657064271 -0.028357964132340444 0 -0.029062310155290136 -0.028367814049613103 0 -0.028391965802204832 -0.028134961803992459 0 -0.029012158657064271 -0.028357964132340444 0 -0.027866093053838619 -0.028376959867667521 0 -0.027147841148719265 -0.029280861136322191 0 -0.029012158657064271 -0.028357964132340444 0 -0.028391965802204832 -0.028134961803992459 0 -0.027866093053838619 -0.028376959867667521 0 -0.028391965802204832 -0.028134961803992459 0 -0.027866093053838619 -0.028376959867667521 0 -0.027549714856057787 -0.027726526591088232 0 -0.029227285708155918 -0.027104948357005745 0 -0.030351946867731013 -0.026526971777714854 0 -0.030145788605899462 -0.025974001583862382 0 -0.029012158657064271 -0.028357964132340444 0 -0.029227285708155918 -0.027104948357005745 0 -0.030351946867731013 -0.026526971777714854 0 -0.028877729130346967 -0.028296195132282147 0 -0.028656623609652768 -0.027889477482618864 0 -0.030351946867731013 -0.026526971777714854 0 -0.030145788605899462 -0.025974001583862382 0 -0.030671520343914894 -0.025475067499570278 0 -0.025981751342159031 -0.027543002781377182 0 -0.026894209689053608 -0.028315263076722802 0 -0.027549714856057787 -0.027726526591088232 0 -0.025744741612699847 -0.028463341193224925 0 -0.027147841148719265 -0.029280861136322191 0 -0.026894209689053608 -0.028315263076722802 0 -0.027866093053838619 -0.028376959867667521 0 -0.027147841148719265 -0.029280861136322191 0 -0.026894209689053608 -0.028315263076722802 0 -0.027866093053838619 -0.028376959867667521 0 -0.026894209689053608 -0.028315263076722802 0 -0.027549714856057787 -0.027726526591088232 0 -0.025981751342159031 -0.027543002781377182 0 -0.027238991380042939 -0.027006460160850888 0 -0.027549714856057787 -0.027726526591088232 0 -0.025989174797733348 -0.026594206507213645 0 -0.027238991380042939 -0.027006460160850888 0 -0.027787998637189625 -0.026589531552232943 0 -0.027238991380042939 -0.027006460160850888 0 -0.027787998637189625 -0.026589531552232943 0 -0.028377101664048089 -0.026855491098262834 0 -0.027787998637189625 -0.026589531552232943 0 -0.028377101664048089 -0.026855491098262834 0 -0.028746259829171224 -0.026357179534309237 0 -0.030171046197003348 -0.029208662604255937 0 -0.028812089928578928 -0.026532074590771948 0 -0.029062310155290136 -0.028367814049613103 0 -0.028391965802204832 -0.028134961803992459 0 -0.028377101664048089 -0.026855491098262834 0 -0.028391965802204832 -0.028134961803992459 0 -0.027549714856057787 -0.027726526591088232 0 -0.028377101664048089 -0.026855491098262834 0 -0.027238991380042939 -0.027006460160850888 0 -0.027549714856057787 -0.027726526591088232 0 -0.028377101664048089 -0.026855491098262834 0 -0.035634057298156073 -0.03654615608328235 0 -0.03190380227495105 -0.032034226147860549 0 -0.035351601199557742 -0.033905235397328266 0 -0.032100681128417408 -0.03293305821171167 0 -0.030171046197003348 -0.029208662604255937 0 -0.035634057298156073 -0.03654615608328235 0 -0.036334372284379204 -0.035663368861007676 0 -0.035351601199557742 -0.033905235397328266 0 -0.036334372284379204 -0.035663368861007676 0 -0.035351601199557742 -0.033905235397328266 0 -0.037814344055975196 -0.033472144399124777 0 -0.03190380227495105 -0.032034226147860549 0 -0.035351601199557742 -0.033905235397328266 0 -0.034861515902859373 -0.030781676148483261 0 -0.034861515902859373 -0.030781676148483261 0 -0.037814344055975196 -0.033472144399124777 0 -0.036557192502439953 -0.027439616313963293 0 -0.03190380227495105 -0.032034226147860549 0 -0.034861515902859373 -0.030781676148483261 0 -0.03248676916421897 -0.02817909690985616 0 -0.035351601199557742 -0.033905235397328266 0 -0.034861515902859373 -0.030781676148483261 0 -0.037814344055975196 -0.033472144399124777 0 -0.043324453631155765 -0.033048247477166275 0 -0.038491463296221058 -0.029023489099329423 0 -0.043598830912107769 -0.033159436248553206 0 -0.037814344055975196 -0.033472144399124777 0 -0.036557192502439953 -0.027439616313963293 0 -0.043598830912107769 -0.033159436248553206 0 -0.037814344055975196 -0.033472144399124777 0 -0.041338799827489663 -0.035888975074607518 0 -0.037374218736677726 -0.036467471441364925 0 -0.037814344055975196 -0.033472144399124777 0 -0.041338799827489663 -0.035888975074607518 0 -0.037374218736677726 -0.036467471441364925 0 -0.036334372284379204 -0.035663368861007676 0 -0.037814344055975196 -0.033472144399124777 0 -0.040351601681806876 -0.030399440681037764 0 -0.035507504557127097 -0.027088431679973164 0 -0.039477828429790404 -0.02472960088473463 0 -0.0435132344419372 -0.027621870231868861 0 -0.040351601681806876 -0.030399440681037764 0 -0.039477828429790404 -0.02472960088473463 0 -0.04607425711306827 -0.030051930085365816 0 -0.0435132344419372 -0.027621870231868861 0 -0.040351601681806876 -0.030399440681037764 0 -0.034861515902859373 -0.030781676148483261 0 -0.036557192502439953 -0.027439616313963293 0 -0.03248676916421897 -0.02817909690985616 0 -0.036557192502439953 -0.027439616313963293 0 -0.03248676916421897 -0.02817909690985616 0 -0.030524302525148279 -0.023925154898863914 0 -0.038491463296221058 -0.029023489099329423 0 -0.033074005151473129 -0.025531772342840521 0 -0.030524302525148279 -0.023925154898863914 0 -0.028746259829171224 -0.026357179534309237 0 -0.028382863442876088 -0.024759861504747228 0 -0.03248676916421897 -0.02817909690985616 0 -0.030524302525148279 -0.023925154898863914 0 -0.028746259829171224 -0.026357179534309237 0 -0.03190380227495105 -0.032034226147860549 0 -0.03248676916421897 -0.02817909690985616 0 -0.028746259829171224 -0.026357179534309237 0 -0.027787998637189625 -0.026589531552232943 0 -0.028746259829171224 -0.026357179534309237 0 -0.027188192362611708 -0.026233105974531431 0 -0.027188192362611708 -0.026233105974531431 0 -0.027164873059256578 -0.024623773604641838 0 -0.028382863442876088 -0.024759861504747228 0 -0.028746259829171224 -0.026357179534309237 0 -0.027188192362611708 -0.026233105974531431 0 -0.028382863442876088 -0.024759861504747228 0 -0.027164873059256578 -0.024623773604641838 0 -0.028382863442876088 -0.024759861504747228 0 -0.02784693779621536 -0.023010460194101336 0 -0.030720202515770394 -0.023765031018063845 0 -0.033500738235188593 -0.022454123521266443 0 -0.031669461569652418 -0.021170014240925808 0 -0.030720202515770394 -0.023765031018063845 0 -0.033500738235188593 -0.022454123521266443 0 -0.035148443069157632 -0.024140353310307557 0 -0.033500738235188593 -0.022454123521266443 0 -0.035475367247664598 -0.020768529317840498 0 -0.031669461569652418 -0.021170014240925808 0 -0.033500738235188593 -0.022454123521266443 0 -0.036828627754431548 -0.022686669770349787 0 -0.035475367247664598 -0.020768529317840498 0 -0.033500738235188593 -0.022454123521266443 0 -0.035148443069157632 -0.024140353310307557 0 -0.036828627754431548 -0.022686669770349787 0 -0.030524302525148279 -0.023925154898863914 0 -0.028382863442876088 -0.024759861504747228 0 -0.02784693779621536 -0.023010460194101336 0 -0.033074005151473129 -0.025531772342840521 0 -0.029291568864487701 -0.023305791217443576 0 -0.035507504557127097 -0.027088431679973164 0 -0.030720202515770394 -0.023765031018063845 0 -0.035148443069157632 -0.024140353310307557 0 -0.035507504557127097 -0.027088431679973164 0 -0.035148443069157632 -0.024140353310307557 0 -0.039477828429790404 -0.02472960088473463 0 -0.035148443069157632 -0.024140353310307557 0 -0.039477828429790404 -0.02472960088473463 0 -0.036828627754431548 -0.022686669770349787 0 -0.039348589044409472 -0.023838793866142998 0 -0.038939381138360984 -0.022020140773335573 0 -0.039477828429790404 -0.02472960088473463 0 -0.036828627754431548 -0.022686669770349787 0 -0.038552160864545888 -0.021214270878122825 0 -0.038939381138360984 -0.022020140773335573 0 -0.03396398475039579 -0.021226386842870665 0 -0.036828627754431548 -0.022686669770349787 0 -0.038552160864545888 -0.021214270878122825 0 -0.035475367247664598 -0.020768529317840498 0 -0.042273990843423939 -0.025204294193047289 0 -0.044596783804333323 -0.025692648312149131 0 -0.044499252844242172 -0.023945582672053371 0 -0.039477828429790404 -0.02472960088473463 0 -0.039226382687922286 -0.019564618178212815 0 -0.043084381049957939 -0.020341168892938358 0 -0.038939381138360984 -0.022020140773335573 0 -0.043719299322791449 -0.023023190752809935 0 -0.044115303253062961 -0.02453451578847048 0 -0.039477828429790404 -0.02472960088473463 0 -0.043084381049957939 -0.020341168892938358 0 -0.0435132344419372 -0.027621870231868861 0 -0.044115303253062961 -0.02453451578847048 0 -0.039477828429790404 -0.02472960088473463 0 -0.023149202370315296 -0.025805003156920057 0 -0.020937792230020687 -0.026032149229519595 0 -0.022700388359981467 -0.024637248541012523 0 -0.023149202370315296 -0.025805003156920057 0 -0.020937792230020687 -0.026032149229519595 0 -0.022120010210739498 -0.027441304119020318 0 -0.020139035065778521 -0.026182026227916901 0 -0.022119514362473894 -0.026302390006034404 0 -0.019921003582674186 -0.026168052512561612 0 -0.02076847136983859 -0.026393862830738645 0 -0.022010767113696001 -0.025185747602212687 0 -0.019921003582674186 -0.026168052512561612 0 -0.020937792230020687 -0.026032149229519595 0 -0.022120010210739498 -0.027441304119020318 0 -0.023149202370315296 -0.025805003156920057 0 -0.022120010210739498 -0.027441304119020318 0 -0.024590020880677153 -0.026232000040281409 0 -0.022119514362473894 -0.026302390006034404 0 -0.025032570874775024 -0.026371699144605291 0 -0.025405100036777747 -0.027544909249011401 0 -0.026073285832268197 -0.025782522104270868 0 -0.024590020880677153 -0.026232000040281409 0 -0.022120010210739498 -0.027441304119020318 0 -0.025405100036777747 -0.027544909249011401 0 -0.024590020880677153 -0.026232000040281409 0 -0.027787998637189625 -0.026589531552232943 0 -0.027188192362611708 -0.026233105974531431 0 -0.025405100036777747 -0.027544909249011401 0 -0.027188192362611708 -0.026233105974531431 0 -0.025405100036777747 -0.027544909249011401 0 -0.026073285832268197 -0.025782522104270868 0 -0.027531848606963703 -0.026566757508475265 0 -0.025032570874775024 -0.026371699144605291 0 -0.027164873059256578 -0.024623773604641838 0 -0.026073285832268197 -0.025782522104270868 0 -0.025381915010112988 -0.024869089002949936 0 -0.027188192362611708 -0.026233105974531431 0 -0.027164873059256578 -0.024623773604641838 0 -0.026073285832268197 -0.025782522104270868 0 -0.023149202370315296 -0.025805003156920057 0 -0.024590020880677153 -0.026232000040281409 0 -0.025381915010112988 -0.024869089002949936 0 -0.026073285832268197 -0.025782522104270868 0 -0.024590020880677153 -0.026232000040281409 0 -0.025381915010112988 -0.024869089002949936 0 -0.025381915010112988 -0.024869089002949936 0 -0.024562687980903747 -0.023539084576724757 0 -0.022700388359981467 -0.024637248541012523 0 -0.025381915010112988 -0.024869089002949936 0 -0.026338433156938824 -0.023302372160316751 0 -0.024562687980903747 -0.023539084576724757 0 -0.027164873059256578 -0.024623773604641838 0 -0.025381915010112988 -0.024869089002949936 0 -0.026338433156938824 -0.023302372160316751 0 -0.027164873059256578 -0.024623773604641838 0 -0.02784693779621536 -0.023010460194101336 0 -0.026338433156938824 -0.023302372160316751 0 -0.026338433156938824 -0.023302372160316751 0 -0.025761541684442245 -0.022159927216001404 0 -0.026834413956589052 -0.021259118781851234 0 -0.029291568864487701 -0.023305791217443576 0 -0.026902458191685217 -0.021276337020014448 0 -0.02784693779621536 -0.023010460194101336 0 -0.026338433156938824 -0.023302372160316751 0 -0.026834413956589052 -0.021259118781851234 0 -0.024562687980903747 -0.023539084576724757 0 -0.025761541684442245 -0.022159927216001404 0 -0.022382569139654113 -0.022580645609999114 0 -0.026338433156938824 -0.023302372160316751 0 -0.024562687980903747 -0.023539084576724757 0 -0.025761541684442245 -0.022159927216001404 0 -0.022700388359981467 -0.024637248541012523 0 -0.021050847833469687 -0.024171376597556318 0 -0.022382569139654113 -0.022580645609999114 0 -0.024562687980903747 -0.023539084576724757 0 -0.022700388359981467 -0.024637248541012523 0 -0.022382569139654113 -0.022580645609999114 0 -0.023149202370315296 -0.025805003156920057 0 -0.025381915010112988 -0.024869089002949936 0 -0.022700388359981467 -0.024637248541012523 0 -0.02016879376637452 -0.025347889328195886 0 -0.020937792230020687 -0.026032149229519595 0 -0.022700388359981467 -0.024637248541012523 0 -0.02016879376637452 -0.025347889328195886 0 -0.022700388359981467 -0.024637248541012523 0 -0.021050847833469687 -0.024171376597556318 0 -0.021050847833469687 -0.024171376597556318 0 -0.022382569139654113 -0.022580645609999114 0 -0.020088839366798946 -0.023257063263153629 0 -0.024376388855237234 -0.020076577141069366 0 -0.024579543513826289 -0.021400444034128819 0 -0.023028433646661205 -0.020950712738156182 0 -0.023566022758196671 -0.022063645116321882 0 -0.02180102188773364 -0.021781950028396103 0 -0.024376388855237234 -0.020076577141069366 0 -0.022641818838727321 -0.01966900825668565 0 -0.023028433646661205 -0.020950712738156182 0 -0.024376388855237234 -0.020076577141069366 0 -0.025496840299248848 -0.020380486824547652 0 -0.026071662248760556 -0.019156092762346061 0 -0.024376388855237234 -0.020076577141069366 0 -0.024579543513826289 -0.021400444034128819 0 -0.025496840299248848 -0.020380486824547652 0 -0.024579543513826289 -0.021400444034128819 0 -0.025825056927046335 -0.021048676906854649 0 -0.025496840299248848 -0.020380486824547652 0 -0.025692063146441076 -0.022229169146628439 0 -0.023566022758196671 -0.022063645116321882 0 -0.025761541684442245 -0.022159927216001404 0 -0.024579543513826289 -0.021400444034128819 0 -0.025825056927046335 -0.021048676906854649 0 -0.025825056927046335 -0.021048676906854649 0 -0.026834413956589052 -0.021259118781851234 0 -0.027066700348542784 -0.019793941597335329 0 -0.025761541684442245 -0.022159927216001404 0 -0.025825056927046335 -0.021048676906854649 0 -0.026834413956589052 -0.021259118781851234 0 -0.026834413956589052 -0.021259118781851234 0 -0.028005795960342778 -0.020247801347153926 0 -0.029625980026392686 -0.020904135973895375 0 -0.030720202515770394 -0.023765031018063845 0 -0.026834413956589052 -0.021259118781851234 0 -0.029625980026392686 -0.020904135973895375 0 -0.026834413956589052 -0.021259118781851234 0 -0.027066700348542784 -0.019793941597335329 0 -0.028005795960342778 -0.020247801347153926 0 -0.027066700348542784 -0.019793941597335329 0 -0.028005795960342778 -0.020247801347153926 0 -0.028969750090033743 -0.01949509441633886 0 -0.027066700348542784 -0.019793941597335329 0 -0.027956189558863361 -0.018684005513614502 0 -0.028969750090033743 -0.01949509441633886 0 -0.027066700348542784 -0.019793941597335329 0 -0.025496840299248848 -0.020380486824547652 0 -0.026071662248760556 -0.019156092762346061 0 -0.025825056927046335 -0.021048676906854649 0 -0.027066700348542784 -0.019793941597335329 0 -0.025496840299248848 -0.020380486824547652 0 -0.026071662248760556 -0.019156092762346061 0 -0.027956189558863361 -0.018684005513614502 0 -0.026570292244041647 -0.018010457892415871 0 -0.027066700348542784 -0.019793941597335329 0 -0.026071662248760556 -0.019156092762346061 0 -0.027956189558863361 -0.018684005513614502 0 -0.027956189558863361 -0.018684005513614502 0 -0.026570292244041647 -0.018010457892415871 0 -0.027850426835084631 -0.017083687253239766 0 -0.026570292244041647 -0.018010457892415871 0 -0.025068795738025729 -0.01821039198321367 0 -0.025919476198625307 -0.016998580404043038 0 -0.026071662248760556 -0.019156092762346061 0 -0.026570292244041647 -0.018010457892415871 0 -0.025068795738025729 -0.01821039198321367 0 -0.025068795738025729 -0.01821039198321367 0 -0.023818562424218804 -0.018977872050579044 0 -0.024094825215750616 -0.017098179684423259 0 -0.023818562424218804 -0.018977872050579044 0 -0.024094825215750616 -0.017098179684423259 0 -0.022707454806562961 -0.01839613673681427 0 -0.024376388855237234 -0.020076577141069366 0 -0.023818562424218804 -0.018977872050579044 0 -0.022641818838727321 -0.01966900825668565 0 -0.024376388855237234 -0.020076577141069366 0 -0.026071662248760556 -0.019156092762346061 0 -0.025068795738025729 -0.01821039198321367 0 -0.024376388855237234 -0.020076577141069366 0 -0.025068795738025729 -0.01821039198321367 0 -0.023818562424218804 -0.018977872050579044 0 -0.046957882946168379 -0.04094507280155147 0 -0.04357386024772944 -0.041032723827930113 0 -0.045180289370509892 -0.040352227391826749 0 -0.050144242919997126 -0.024992114787313537 0 -0.047927734695962336 -0.025227091605931576 0 -0.047912299537063517 -0.025031636523734958 0 -0.050144242919997126 -0.024992114787313537 0 -0.049293431258878299 -0.026353926998732052 0 -0.047927734695962336 -0.025227091605931576 0 -0.04850302276474068 -0.037021201965380432 0 -0.042225534523151489 -0.029288865518540388 0 -0.042273990843423939 -0.025204294193047289 0 -0.044499252844242172 -0.023945582672053371 0 -0.042097166520232022 -0.021768655806899313 0 -0.047479956496200314 -0.025387124682685291 0 -0.040776306948475532 -0.024540460007253906 0 -0.038939381138360984 -0.022020140773335573 0 -0.040776306948475532 -0.024540460007253906 0 -0.034937949803703017 -0.022099721900665552 0 -0.033971959149659794 -0.02063059398623943 0 -0.034800077498060647 -0.019256442897299015 0 -0.034937949803703017 -0.022099721900665552 0 -0.033971959149659794 -0.02063059398623943 0 -0.033140494638871393 -0.02168849060810981 0 -0.033971959149659794 -0.02063059398623943 0 -0.033860902959560818 -0.019715104532927116 0 -0.033144872624698028 -0.020375107653386088 0 -0.033971959149659794 -0.02063059398623943 0 -0.033144872624698028 -0.020375107653386088 0 -0.033140494638871393 -0.02168849060810981 0 -0.031028060457167907 -0.019781297939619247 0 -0.030572305597326221 -0.01952069880113308 0 -0.029821994586876663 -0.019676408442044095 0 -0.033860902959560818 -0.019715104532927116 0 -0.034479784984612454 -0.018953528586875226 0 -0.03217890077124444 -0.018942317891084769 0 -0.03636823960607842 -0.02535553066096782 0 -0.030309150991895149 -0.019183784009874062 0 -0.033860902959560818 -0.019715104532927116 0 -0.034800077498060647 -0.019256442897299015 0 -0.034479784984612454 -0.018953528586875226 0 -0.033971959149659794 -0.02063059398623943 0 -0.033860902959560818 -0.019715104532927116 0 -0.034800077498060647 -0.019256442897299015 0 -0.034278516018355257 -0.027932689443821077 0 -0.033336414929654362 -0.027960454615154697 0 -0.036516654301890404 -0.030030617812934222 0 -0.040776306948475532 -0.024540460007253906 0 -0.03636823960607842 -0.02535553066096782 0 -0.03636823960607842 -0.02535553066096782 0 -0.042225534523151489 -0.029288865518540388 0 -0.041240948719135841 -0.026742974665159069 0 -0.041183801382944502 -0.026705283274462008 0 -0.04123594823761359 -0.026704223997051087 0 -0.040776306948475532 -0.024540460007253906 0 -0.042225534523151489 -0.029288865518540388 0 -0.03636823960607842 -0.02535553066096782 0 -0.02935668919314274 -0.028670352296664613 0 -0.031028060457167907 -0.019781297939619247 0 -0.030626237059717877 -0.019381083567145206 0 -0.030572305597326221 -0.01952069880113308 0 -0.02935668919314274 -0.028670352296664613 0 -0.029889273468751382 -0.0268537093891392 0 -0.030616459990945918 -0.019381858028376216 0 -0.029821994586876663 -0.019676408442044095 0 -0.029376024441453215 -0.019139894035937497 0 -0.030616459990945918 -0.019381858028376216 0 -0.030572305597326221 -0.01952069880113308 0 -0.029821994586876663 -0.019676408442044095 0 -0.03217890077124444 -0.018942317891084769 0 -0.033144872624698028 -0.020375107653386088 0 -0.03184610042635809 -0.020407536252973538 0 -0.033860902959560818 -0.019715104532927116 0 -0.03217890077124444 -0.018942317891084769 0 -0.033144872624698028 -0.020375107653386088 0 -0.033144872624698028 -0.020375107653386088 0 -0.033140494638871393 -0.02168849060810981 0 -0.03184610042635809 -0.020407536252973538 0 -0.03396398475039579 -0.021226386842870665 0 -0.032296149168609185 -0.021115452499110624 0 -0.033140494638871393 -0.02168849060810981 0 -0.03184610042635809 -0.020407536252973538 0 -0.031669461569652418 -0.021170014240925808 0 -0.030720202515770394 -0.023765031018063845 0 -0.031669461569652418 -0.021170014240925808 0 -0.029625980026392686 -0.020904135973895375 0 -0.03184610042635809 -0.020407536252973538 0 -0.031669461569652418 -0.021170014240925808 0 -0.029625980026392686 -0.020904135973895375 0 -0.03184610042635809 -0.020407536252973538 0 -0.029625980026392686 -0.020904135973895375 0 -0.028969750090033743 -0.01949509441633886 0 -0.029821994586876663 -0.019676408442044095 0 -0.028969750090033743 -0.01949509441633886 0 -0.029376024441453215 -0.019139894035937497 0 -0.03217890077124444 -0.018942317891084769 0 -0.03184610042635809 -0.020407536252973538 0 -0.028969750090033743 -0.01949509441633886 0 -0.028005795960342778 -0.020247801347153926 0 -0.029625980026392686 -0.020904135973895375 0 -0.028969750090033743 -0.01949509441633886 0 -0.030309150991895149 -0.019183784009874062 0 -0.029466622089658931 -0.019452005523525578 0 -0.027956189558863361 -0.018684005513614502 0 -0.028969750090033743 -0.01949509441633886 0 -0.029376024441453215 -0.019139894035937497 0 -0.027956189558863361 -0.018684005513614502 0 -0.029376024441453215 -0.019139894035937497 0 -0.029401292272687059 -0.01825175588142932 0 -0.027292651532938784 -0.026259546816557611 0 -0.019447211445807945 -0.039031096399250294 0 -0.024666119650527712 -0.037680690033291428 0 -0.024491987856663122 -0.036921759336833594 0 -0.02353132182485795 -0.036829932304331479 0 -0.027956189558863361 -0.018684005513614502 0 -0.029401292272687059 -0.01825175588142932 0 -0.027850426835084631 -0.017083687253239766 0 -0.025241301463306599 -0.037919557831578549 0 -0.025291900462764211 -0.038047153226130219 0 -0.025470032038076709 -0.038247899176283004 0 -0.024666119650527712 -0.037680690033291428 0 -0.025241301463306599 -0.037919557831578549 0 -0.024491987856663122 -0.036921759336833594 0 -0.025291900462764211 -0.038047153226130219 0 -0.025317670583651086 -0.038177566033458364 0 -0.025470032038076709 -0.038247899176283004 0 -0.025343322980727809 -0.034423881542632914 0 -0.022012965749435332 -0.047502753426211998 0 -0.02935668919314274 -0.028670352296664613 0 -0.027292651532938784 -0.026259546816557611 0 -0.02549565248927417 -0.038181888529854907 0 -0.024666119650527712 -0.037680690033291428 0 -0.025241301463306599 -0.037919557831578549 0 -0.030616459990945918 -0.019381858028376216 0 -0.029376024441453215 -0.019139894035937497 0 -0.029401292272687059 -0.01825175588142932 0 -0.042225534523151489 -0.029288865518540388 0 -0.032464782249310091 -0.038676118911820476 0 -0.02935668919314274 -0.028670352296664613 0 -0.032464782249310091 -0.038676118911820476 0 -0.04357386024772944 -0.041032723827930113 0 -0.043317580591135545 -0.037969212411884931 0 -0.04464820982376691 -0.03926049851727112 0 -0.033336414929654362 -0.027960454615154697 0 -0.036516654301890404 -0.030030617812934222 0 -0.033793180541026306 -0.037587126373933612 0 -0.02549565248927417 -0.038181888529854907 0 -0.025241301463306599 -0.037919557831578549 0 -0.025315587723802855 -0.037973769653575074 0 -0.025241301463306599 -0.037919557831578549 0 -0.025291900462764211 -0.038047153226130219 0 -0.025315587723802855 -0.037973769653575074 0 -0.025299004897446069 -0.038111445131164184 0 -0.025299124183314529 -0.038133808826093046 0 -0.025317670583651086 -0.038177566033458364 0 -0.025291900462764211 -0.038047153226130219 0 -0.025299004897446069 -0.038111445131164184 0 -0.025317670583651086 -0.038177566033458364 0 -0.032464782249310091 -0.038676118911820476 0 -0.030505519634507487 -0.049826320729295104 0 -0.025299004897446069 -0.038111445131164184 0 -0.025345030269131655 -0.038127811644910511 0 -0.025299124183314529 -0.038133808826093046 0 -0.025291900462764211 -0.038047153226130219 0 -0.025299004897446069 -0.038111445131164184 0 -0.025315587723802855 -0.037973769653575074 0 -0.029713761543638285 -0.037988289464474627 0 -0.032464782249310091 -0.038676118911820476 0 -0.043317580591135545 -0.037969212411884931 0 -0.045106410002201537 -0.037892897077068638 0 -0.04464820982376691 -0.03926049851727112 0 -0.037890293218509098 -0.049100038115769497 0 -0.030505519634507487 -0.049826320729295104 0 -0.04636816154646254 -0.036832704537444513 0 -0.045106410002201537 -0.037892897077068638 0 -0.043752898591312955 -0.036655062437425785 0 -0.043317580591135545 -0.037969212411884931 0 -0.045106410002201537 -0.037892897077068638 0 -0.043752898591312955 -0.036655062437425785 0 -0.046125598497110176 -0.039015846882138841 0 -0.045106410002201537 -0.037892897077068638 0 -0.04464820982376691 -0.03926049851727112 0 -0.04357386024772944 -0.041032723827930113 0 -0.04464820982376691 -0.03926049851727112 0 -0.045180289370509892 -0.040352227391826749 0 -0.046125598497110176 -0.039015846882138841 0 -0.04464820982376691 -0.03926049851727112 0 -0.045180289370509892 -0.040352227391826749 0 -0.026587943168859166 -0.059140791358453057 0 -0.025080072481776555 -0.058655753659503013 0 -0.025769908690857879 -0.057345364058178083 0 -0.025926310049113634 -0.061616074295749931 0 -0.030505519634507487 -0.049826320729295104 0 -0.028408272613608811 -0.061409476404379187 0 -0.027099420741927064 -0.059158321765565035 0 -0.026487872003456661 -0.061153084530580437 0 -0.030505519634507487 -0.049826320729295104 0 -0.024186260774149575 -0.049617180368983244 0 -0.025756019305521915 -0.061292016466483627 0 -0.024813282497483515 -0.059966086974188051 0 -0.02400510728158092 -0.061189027948364567 0 -0.026587943168859166 -0.059140791358453057 0 -0.025756019305521915 -0.061292016466483627 0 -0.024813282497483515 -0.059966086974188051 0 -0.026587943168859166 -0.059140791358453057 0 -0.024813282497483515 -0.059966086974188051 0 -0.025080072481776555 -0.058655753659503013 0 -0.025080072481776555 -0.058655753659503013 0 -0.023957678579208334 -0.059283976238785036 0 -0.024270020297601242 -0.056945267382898894 0 -0.024813282497483515 -0.059966086974188051 0 -0.025080072481776555 -0.058655753659503013 0 -0.023957678579208334 -0.059283976238785036 0 -0.023083088049212587 -0.058863990849646955 0 -0.023957678579208334 -0.059283976238785036 0 -0.024270020297601242 -0.056945267382898894 0 -0.023083088049212587 -0.058863990849646955 0 -0.022483974059407507 -0.059190225394180708 0 -0.022204223348534551 -0.058243555741401332 0 -0.023083088049212587 -0.058863990849646955 0 -0.022204223348534551 -0.058243555741401332 0 -0.022766238422416811 -0.057719760174973961 0 -0.022483974059407507 -0.059190225394180708 0 -0.023079587215674279 -0.059517104192944037 0 -0.022442688761454617 -0.060034157065025712 0 -0.023083088049212587 -0.058863990849646955 0 -0.022483974059407507 -0.059190225394180708 0 -0.023079587215674279 -0.059517104192944037 0 -0.023079587215674279 -0.059517104192944037 0 -0.023957678579208334 -0.059283976238785036 0 -0.023422179486622754 -0.060233318060023862 0 -0.023083088049212587 -0.058863990849646955 0 -0.023079587215674279 -0.059517104192944037 0 -0.023957678579208334 -0.059283976238785036 0 -0.024186260774149575 -0.049617180368983244 0 -0.022012965749435332 -0.047502753426211998 0 -0.024813282497483515 -0.059966086974188051 0 -0.023422179486622754 -0.060233318060023862 0 -0.02400510728158092 -0.061189027948364567 0 -0.023422179486622754 -0.060233318060023862 0 -0.02400510728158092 -0.061189027948364567 0 -0.022180172443166307 -0.06108634827389655 0 -0.024813282497483515 -0.059966086974188051 0 -0.023957678579208334 -0.059283976238785036 0 -0.023422179486622754 -0.060233318060023862 0 -0.023079587215674279 -0.059517104192944037 0 -0.023422179486622754 -0.060233318060023862 0 -0.022442688761454617 -0.060034157065025712 0 -0.023422179486622754 -0.060233318060023862 0 -0.022442688761454617 -0.060034157065025712 0 -0.022180172443166307 -0.06108634827389655 0 -0.022442688761454617 -0.060034157065025712 0 -0.022180172443166307 -0.06108634827389655 0 -0.020185219726087906 -0.058344164063424984 0 -0.022012965749435332 -0.047502753426211998 0 -0.016916602936930415 -0.057384779341967139 0 -0.013979047058718873 -0.05207731728740219 0 -0.014619397473695778 -0.052165755289318633 0 -0.014552080415424043 -0.052559809784347662 0 -0.022012965749435332 -0.047502753426211998 0 -0.019447211445807945 -0.039031096399250294 0 -0.013979047058718873 -0.05207731728740219 0 -0.014552080415424043 -0.052559809784347662 0 -0.014512039743084968 -0.053251322953974271 0 -0.022263884342081975 -0.059019644987841312 0 -0.020619769949812131 -0.057649751238883808 0 -0.022483974059407507 -0.059190225394180708 0 -0.022204223348534551 -0.058243555741401332 0 -0.020522509637219501 -0.057737016710720755 0 -0.022483974059407507 -0.059190225394180708 0 -0.022442688761454617 -0.060034157065025712 0 -0.020185219726087906 -0.058344164063424984 0 -0.022483974059407507 -0.059190225394180708 0 -0.020185219726087906 -0.058344164063424984 0 -0.020351756703643711 -0.057254983473497792 0 -0.022204223348534551 -0.058243555741401332 0 -0.022002474581850621 -0.057642927958921689 0 -0.020522509637219501 -0.057737016710720755 0 -0.022002474581850621 -0.057642927958921689 0 -0.021331879453937823 -0.05697333964543283 0 -0.020522509637219501 -0.057737016710720755 0 -0.022204223348534551 -0.058243555741401332 0 -0.022002474581850621 -0.057642927958921689 0 -0.022766238422416811 -0.057719760174973961 0 -0.022002474581850621 -0.057642927958921689 0 -0.021331879453937823 -0.05697333964543283 0 -0.022402924043557721 -0.056826567902310575 0 -0.021331879453937823 -0.05697333964543283 0 -0.021376553883508408 -0.056189406218875547 0 -0.022402924043557721 -0.056826567902310575 0 -0.021331879453937823 -0.05697333964543283 0 -0.020522509637219501 -0.057737016710720755 0 -0.020327890674332331 -0.05645859420606919 0 -0.021376553883508408 -0.056189406218875547 0 -0.022600225417320288 -0.054999970048615794 0 -0.019890451126411364 -0.054999934571161771 0 -0.021331879453937823 -0.05697333964543283 0 -0.021376553883508408 -0.056189406218875547 0 -0.020327890674332331 -0.05645859420606919 0 -0.021376553883508408 -0.056189406218875547 0 -0.022600225417320288 -0.054999970048615794 0 -0.022402924043557721 -0.056826567902310575 0 -0.022600225417320288 -0.054999970048615794 0 -0.024120566204484554 -0.057013619828664514 0 -0.025309873749200251 -0.054999964046836609 0 -0.022600225417320288 -0.054999970048615794 0 -0.022402924043557721 -0.056826567902310575 0 -0.024120566204484554 -0.057013619828664514 0 -0.022402924043557721 -0.056826567902310575 0 -0.022766238422416811 -0.057719760174973961 0 -0.024120566204484554 -0.057013619828664514 0 -0.023179638427476904 -0.058729265247662539 0 -0.024175777711704035 -0.057001634434327444 0 -0.023083088049212587 -0.058863990849646955 0 -0.022766238422416811 -0.057719760174973961 0 -0.024120566204484554 -0.057013619828664514 0 -0.022002474581850621 -0.057642927958921689 0 -0.022402924043557721 -0.056826567902310575 0 -0.022766238422416811 -0.057719760174973961 0 -0.025080072481776555 -0.058655753659503013 0 -0.024270020297601242 -0.056945267382898894 0 -0.025769908690857879 -0.057345364058178083 0 -0.024270020297601242 -0.056945267382898894 0 -0.025769908690857879 -0.057345364058178083 0 -0.025310183529286118 -0.054999861212980873 0 -0.024175777711704035 -0.057001634434327444 0 -0.025309787894261193 -0.055000398137769219 0 -0.027591197089074308 -0.056918914916225499 0 -0.025769908690857879 -0.057345364058178083 0 -0.025310183529286118 -0.054999861212980873 0 -0.027591197089074308 -0.056918914916225499 0 -0.028225884679542946 -0.054999948549544604 0 -0.025310183529286118 -0.054999861212980873 0 -0.027591197089074308 -0.056918914916225499 0 -0.026587943168859166 -0.059140791358453057 0 -0.025769908690857879 -0.057345364058178083 0 -0.02792806792911837 -0.056029817390388738 0 -0.025926310049113634 -0.061616074295749931 0 -0.016076774892088839 -0.051904155534061552 0 -0.015329814257014891 -0.051863679858851833 0 -0.015537296401518522 -0.053158146452411514 0 -0.016076774892088839 -0.051904155534061552 0 -0.015537296401518522 -0.053158146452411514 0 -0.016107529168044098 -0.053647611126270103 0 -0.016076774892088839 -0.051904155534061552 0 -0.016671777652147508 -0.051358872516399139 0 -0.016107529168044098 -0.053647611126270103 0 -0.016671777652147508 -0.051358872516399139 0 -0.016107529168044098 -0.053647611126270103 0 -0.016522208380175069 -0.050371412789073811 0 -0.016076774892088839 -0.051904155534061552 0 -0.016671777652147508 -0.051358872516399139 0 -0.016644186843701777 -0.051240906992759475 0 -0.016671777652147508 -0.051358872516399139 0 -0.016644186843701777 -0.051240906992759475 0 -0.01572701966401055 -0.05070019750731164 0 -0.025068795738025729 -0.01821039198321367 0 -0.024094825215750616 -0.017098179684423259 0 -0.025919476198625307 -0.016998580404043038 0 -0.020363375731940126 -0.034179447203647906 0 -0.020799178450175673 -0.03348932527901588 0 -0.016076774892088839 -0.051904155534061552 0 -0.016644186843701777 -0.051240906992759475 0 -0.015348336549667992 -0.050931885985045347 0 -0.015348336549667992 -0.050931885985045347 0 -0.013280190228764067 -0.050541506388894618 0 -0.014352695639390197 -0.051729871181234253 0 -0.026570292244041647 -0.018010457892415871 0 -0.025919476198625307 -0.016998580404043038 0 -0.027850426835084631 -0.017083687253239766 0 -0.016076774892088839 -0.051904155534061552 0 -0.015348336549667992 -0.050931885985045347 0 -0.015329814257014891 -0.051863679858851833 0 -0.015348336549667992 -0.050931885985045347 0 -0.015329814257014891 -0.051863679858851833 0 -0.014352695639390197 -0.051729871181234253 0 -0.020799178450175673 -0.03348932527901588 0 -0.019447211445807945 -0.039031096399250294 0 -0.019447211445807945 -0.039031096399250294 0 -0.015284753622417921 -0.052875723524025899 0 -0.014619397473695778 -0.052165755289318633 0 -0.014552080415424043 -0.052559809784347662 0 -0.015159914487590137 -0.052753427751082126 0 -0.014552080415424043 -0.052559809784347662 0 -0.014512039743084968 -0.053251322953974271 0 -0.015159914487590137 -0.052753427751082126 0 -0.014512039743084968 -0.053251322953974271 0 -0.015159914487590137 -0.052753427751082126 0 -0.015240364704327715 -0.053477831372540363 0 -0.015329814257014891 -0.051863679858851833 0 -0.014352695639390197 -0.051729871181234253 0 -0.015537296401518522 -0.053158146452411514 0 -0.015284753622417921 -0.052875723524025899 0 -0.015285715286639984 -0.052860515791385447 0 -0.015159914487590137 -0.052753427751082126 0 -0.015537296401518522 -0.053158146452411514 0 -0.015240364704327715 -0.053477831372540363 0 -0.015537296401518522 -0.053158146452411514 0 -0.015610883991186476 -0.053941839889321871 0 -0.015848935298386633 -0.053849319242104239 0 -0.015537296401518522 -0.053158146452411514 0 -0.015610883991186476 -0.053941839889321871 0 -0.015240364704327715 -0.053477831372540363 0 -0.015610883991186476 -0.053941839889321871 0 -0.015240364704327715 -0.053477831372540363 0 -0.015561680411501107 -0.054711451944486976 0 -0.015610883991186476 -0.053941839889321871 0 -0.015561680411501107 -0.054711451944486976 0 -0.0161354224578527 -0.054600243742710476 0 -0.015610883991186476 -0.053941839889321871 0 -0.0161354224578527 -0.054600243742710476 0 -0.015848935298386633 -0.053849319242104239 0 -0.014512039743084968 -0.053251322953974271 0 -0.015240364704327715 -0.053477831372540363 0 -0.015561680411501107 -0.054711451944486976 0 -0.020619769949812131 -0.057649751238883808 0 -0.017504653533484866 -0.055071065332939297 0 -0.016916602936930415 -0.057384779341967139 0 -0.017504653533484866 -0.055071065332939297 0 -0.020522509637219501 -0.057737016710720755 0 -0.020327890674332331 -0.05645859420606919 0 -0.018464505546609007 -0.056086252441948925 0 -0.020185219726087906 -0.058344164063424984 0 -0.020351756703643711 -0.057254983473497792 0 -0.018058095357161751 -0.055290239040115444 0 -0.020327890674332331 -0.05645859420606919 0 -0.019890451126411364 -0.054999934571161771 0 -0.018464505546609007 -0.056086252441948925 0 -0.021376553883508408 -0.056189406218875547 0 -0.020327890674332331 -0.05645859420606919 0 -0.019890451126411364 -0.054999934571161771 0 -0.019890451126411364 -0.054999934571161771 0 -0.018332004166208671 -0.055901006139005234 0 -0.017180521922069189 -0.055000002890144714 0 -0.015561680411501107 -0.054711451944486976 0 -0.0171752737868404 -0.054999799873739534 0 -0.0161354224578527 -0.054600243742710476 0 -0.017504653533484866 -0.055071065332939297 0 -0.017619028351328031 -0.055224220716603933 0 -0.019890451126411364 -0.054999934571161771 0 -0.018464505546609007 -0.056086252441948925 0 -0.018332004166208671 -0.055901006139005234 0 -0.017504653533484866 -0.055071065332939297 0 -0.017180180900986917 -0.054999952900570644 0 -0.018461906329212054 -0.056088025662638076 0 -0.018332004166208671 -0.055901006139005234 0 -0.017180521922069189 -0.055000002890144714 0 -0.0171752737868404 -0.054999799873739534 0 -0.0161354224578527 -0.054600243742710476 0 -0.015441406986759419 -0.055189660210166629 0 -0.0171752737868404 -0.054999799873739534 0 -0.015441406986759419 -0.055189660210166629 0 -0.014432223680870326 -0.05499867907218095 0 -0.0161354224578527 -0.054600243742710476 0 -0.016107529168044098 -0.053647611126270103 0 -0.015441406986759419 -0.055189660210166629 0 -0.015537296401518522 -0.053158146452411514 0 -0.016107529168044098 -0.053647611126270103 0 -0.015848935298386633 -0.053849319242104239 0 -0.0161354224578527 -0.054600243742710476 0 -0.016107529168044098 -0.053647611126270103 0 -0.015848935298386633 -0.053849319242104239 0 -0.016107529168044098 -0.053647611126270103 0 -0.014446598481001027 -0.056325031503521542 0 -0.015441406986759419 -0.055189660210166629 0 -0.014446598481001027 -0.056325031503521542 0 -0.015441406986759419 -0.055189660210166629 0 -0.013206622143730799 -0.055745255259777714 0 -0.015674988422254638 -0.053551902208683375 0 -0.015179832306117132 -0.053300676232665843 0 -0.015441406986759419 -0.055189660210166629 0 -0.014432223680870326 -0.05499867907218095 0 -0.013206622143730799 -0.055745255259777714 0 -0.014432223680870326 -0.05499867907218095 0 -0.013206622143730799 -0.055745255259777714 0 -0.011679494426490248 -0.054999590704581151 0 -0.010742385516198678 -0.056029916248789044 0 -0.011679494426490248 -0.054999590704581151 0 -0.0089298182651802865 -0.054999666638287571 0 -0.013206622143730799 -0.055745255259777714 0 -0.010742385516198678 -0.056029916248789044 0 -0.011679494426490248 -0.054999590704581151 0 -0.010742385516198678 -0.056029916248789044 0 -0.01189181553225941 -0.0571135320241387 0 -0.0096277859650057227 -0.057128424022563941 0 -0.013251343707161339 -0.052739282030030879 0 -0.011599121538534343 -0.051273809362352513 0 -0.013206622143730799 -0.055745255259777714 0 -0.010742385516198678 -0.056029916248789044 0 -0.01189181553225941 -0.0571135320241387 0 -0.014446598481001027 -0.056325031503521542 0 -0.013206622143730799 -0.055745255259777714 0 -0.01189181553225941 -0.0571135320241387 0 -0.015179832306117132 -0.053300676232665843 0 -0.013251343707161339 -0.052739282030030879 0 -0.0089288428073943139 -0.054999911821937517 0 -0.0068379941847390964 -0.057331592539065612 0 -0.0061958402636421005 -0.05499994407995306 0 -0.0089288428073943139 -0.054999911821937517 0 -0.0093188645906034789 -0.057484925491517666 0 -0.0068379941847390964 -0.057331592539065612 0 -0.0089291340685710603 -0.05500847037490831 0 -0.011599121538534343 -0.051273809362352513 0 -0.010742385516198678 -0.056029916248789044 0 -0.0089298182651802865 -0.054999666638287571 0 -0.0096277859650057227 -0.057128424022563941 0 -0.011599121538534343 -0.051273809362352513 0 -0.01239486897243312 -0.046821480736627501 0 -0.016558210179645396 -0.037970392257763164 0 -0.01753200683668011 -0.035122906060712451 0 -0.017809200100358517 -0.036905248940231151 0 -0.016558210179645396 -0.037970392257763164 0 -0.016497429612243656 -0.03677541080602216 0 -0.01753200683668011 -0.035122906060712451 0 -0.015003839277763166 -0.048357349250704756 0 -0.012832907666275394 -0.046746185569513543 0 -0.013364058607599944 -0.049296965913563418 0 -0.011599121538534343 -0.051273809362352513 0 -0.018081815554384057 -0.032765730537296651 0 -0.018081815554384057 -0.032765730537296651 0 -0.01661987125386221 -0.035784929929536274 0 -0.014785518402434439 -0.034440580877228892 0 -0.01753200683668011 -0.035122906060712451 0 -0.016052576321111081 -0.032548046084304741 0 -0.01753200683668011 -0.035122906060712451 0 -0.016052576321111081 -0.032548046084304741 0 -0.01759503594162011 -0.03221377081895202 0 -0.016522208380175069 -0.050371412789073811 0 -0.015003839277763166 -0.048357349250704756 0 -0.01572701966401055 -0.05070019750731164 0 -0.016671777652147508 -0.051358872516399139 0 -0.016522208380175069 -0.050371412789073811 0 -0.01572701966401055 -0.05070019750731164 0 -0.015003839277763166 -0.048357349250704756 0 -0.013364058607599944 -0.049296965913563418 0 -0.01572701966401055 -0.05070019750731164 0 -0.021023406715650152 -0.0172493613035869 0 -0.022476272055832653 -0.017212215075578012 0 -0.021267201111632959 -0.018796931497898149 0 -0.018081815554384057 -0.032765730537296651 0 -0.018986289291901895 -0.033956761266102781 0 -0.024094825215750616 -0.017098179684423259 0 -0.022476272055832653 -0.017212215075578012 0 -0.022707454806562961 -0.01839613673681427 0 -0.020363375731940126 -0.034179447203647906 0 -0.018986289291901895 -0.033956761266102781 0 -0.023818562424218804 -0.018977872050579044 0 -0.022707454806562961 -0.01839613673681427 0 -0.022641818838727321 -0.01966900825668565 0 -0.022641818838727321 -0.01966900825668565 0 -0.021267201111632959 -0.018796931497898149 0 -0.021499428913883348 -0.020528759354397162 0 -0.022707454806562961 -0.01839613673681427 0 -0.022641818838727321 -0.01966900825668565 0 -0.021267201111632959 -0.018796931497898149 0 -0.018018934121781183 -0.02330531072065831 0 -0.017812715647842547 -0.02493827053329039 0 -0.022476272055832653 -0.017212215075578012 0 -0.022707454806562961 -0.01839613673681427 0 -0.021267201111632959 -0.018796931497898149 0 -0.016052576321111081 -0.032548046084304741 0 -0.014783865002601341 -0.030979167202131768 0 -0.016817137478153547 -0.030161719851584456 0 -0.018081815554384057 -0.032765730537296651 0 -0.018018934121781183 -0.02330531072065831 0 -0.014785518402434439 -0.034440580877228892 0 -0.016052576321111081 -0.032548046084304741 0 -0.014783865002601341 -0.030979167202131768 0 -0.016052576321111081 -0.032548046084304741 0 -0.016817137478153547 -0.030161719851584456 0 -0.01759503594162011 -0.03221377081895202 0 -0.014783865002601341 -0.030979167202131768 0 -0.015870244208249566 -0.029309551522643411 0 -0.015433799897077823 -0.02778237784710395 0 -0.014783865002601341 -0.030979167202131768 0 -0.016817137478153547 -0.030161719851584456 0 -0.015870244208249566 -0.029309551522643411 0 -0.015870244208249566 -0.029309551522643411 0 -0.016027165671043085 -0.027932940597568907 0 -0.015433799897077823 -0.02778237784710395 0 -0.016817137478153547 -0.030161719851584456 0 -0.015870244208249566 -0.029309551522643411 0 -0.016834341731667198 -0.028084079644658227 0 -0.015870244208249566 -0.029309551522643411 0 -0.016027165671043085 -0.027932940597568907 0 -0.016834341731667198 -0.028084079644658227 0 -0.016027165671043085 -0.027932940597568907 0 -0.016834341731667198 -0.028084079644658227 0 -0.016826507255917361 -0.026731175297039184 0 -0.016834341731667198 -0.028084079644658227 0 -0.017085807800255259 -0.027948651049334611 0 -0.017265008468262556 -0.028536584593247507 0 -0.016817137478153547 -0.030161719851584456 0 -0.016834341731667198 -0.028084079644658227 0 -0.017265008468262556 -0.028536584593247507 0 -0.016834341731667198 -0.028084079644658227 0 -0.017085807800255259 -0.027948651049334611 0 -0.017181330258310923 -0.027061186068256225 0 -0.01685126539328231 -0.027825757457027547 0 -0.017085807800255259 -0.027948651049334611 0 -0.017181330258310923 -0.027061186068256225 0 -0.016834341731667198 -0.028084079644658227 0 -0.017181330258310923 -0.027061186068256225 0 -0.016826507255917361 -0.026731175297039184 0 -0.017181330258310923 -0.027061186068256225 0 -0.016826507255917361 -0.026731175297039184 0 -0.01730894709000047 -0.026315705330645301 0 -0.016826507255917361 -0.026731175297039184 0 -0.01730894709000047 -0.026315705330645301 0 -0.017432802358691667 -0.02545300335694738 0 -0.017432802358691667 -0.02545300335694738 0 -0.020088839366798946 -0.023257063263153629 0 -0.017038023709963893 -0.023083719696531366 0 -0.016826507255917361 -0.026731175297039184 0 -0.017432802358691667 -0.02545300335694738 0 -0.015896068926190419 -0.027657572227981469 0 -0.017206454151221091 -0.025716760672490943 0 -0.017812715647842547 -0.02493827053329039 0 -0.019508617326442934 -0.02488505258990557 0 -0.017432802358691667 -0.02545300335694738 0 -0.020088839366798946 -0.023257063263153629 0 -0.019508617326442934 -0.02488505258990557 0 -0.021050847833469687 -0.024171376597556318 0 -0.020088839366798946 -0.023257063263153629 0 -0.022641818838727321 -0.01966900825668565 0 -0.023028433646661205 -0.020950712738156182 0 -0.021499428913883348 -0.020528759354397162 0 -0.02180102188773364 -0.021781950028396103 0 -0.017812715647842547 -0.02493827053329039 0 -0.016027165671043085 -0.027932940597568907 0 -0.016826507255917361 -0.026731175297039184 0 -0.015896068926190419 -0.027657572227981469 0 -0.016954271279738867 -0.025577513728937334 0 -0.017812715647842547 -0.02493827053329039 0 -0.013236361653804927 -0.029802733825040378 0 -0.015627798124962799 -0.029159438961033925 0 -0.014398543192168619 -0.028423127433323831 0 -0.013236361653804927 -0.029802733825040378 0 -0.011745343668806614 -0.02963124944410566 0 -0.01036511206752999 -0.031422280481812698 0 -0.011745343668806614 -0.02963124944410566 0 -0.01053797983506167 -0.028944523494984716 0 -0.01036511206752999 -0.031422280481812698 0 -0.013236361653804927 -0.029802733825040378 0 -0.011745343668806614 -0.02963124944410566 0 -0.012890593476681792 -0.028063093168923924 0 -0.013236361653804927 -0.029802733825040378 0 -0.011951497777913071 -0.031829919567570364 0 -0.01036511206752999 -0.031422280481812698 0 -0.016038535179209827 -0.030642190686623487 0 -0.011154715405163381 -0.030973062037973297 0 -0.016038535179209827 -0.030642190686623487 0 -0.015209352495545825 -0.03001730225619334 0 -0.013236361653804927 -0.029802733825040378 0 -0.014222274742150516 -0.030913434035593955 0 -0.015627798124962799 -0.029159438961033925 0 -0.016970118556866844 -0.028640730274775383 0 -0.017464839807258596 -0.029336931667103858 0 -0.016880909976307451 -0.02927184541063561 0 -0.013236361653804927 -0.029802733825040378 0 -0.011951497777913071 -0.031829919567570364 0 -0.014222274742150516 -0.030913434035593955 0 -0.015209352495545825 -0.03001730225619334 0 -0.015970540559761052 -0.029615360685846571 0 -0.016169527279758435 -0.02931514326812356 0 -0.016729436247371162 -0.02864390581312044 0 -0.015627798124962799 -0.029159438961033925 0 -0.014222274742150516 -0.030913434035593955 0 -0.016169527279758435 -0.02931514326812356 0 -0.015627798124962799 -0.029159438961033925 0 -0.016729436247371162 -0.02864390581312044 0 -0.017265008468262556 -0.028536584593247507 0 -0.015627798124962799 -0.029159438961033925 0 -0.01685126539328231 -0.027825757457027547 0 -0.017085807800255259 -0.027948651049334611 0 -0.016729436247371162 -0.02864390581312044 0 -0.017085807800255259 -0.027948651049334611 0 -0.016729436247371162 -0.02864390581312044 0 -0.017265008468262556 -0.028536584593247507 0 -0.017280401618416187 -0.028703729800094436 0 -0.017240138363229636 -0.029302152908096908 0 -0.017265008468262556 -0.028536584593247507 0 -0.015627798124962799 -0.029159438961033925 0 -0.015583509451292258 -0.027771574383739867 0 -0.015627798124962799 -0.029159438961033925 0 -0.015583509451292258 -0.027771574383739867 0 -0.014398543192168619 -0.028423127433323831 0 -0.015583509451292258 -0.027771574383739867 0 -0.014069358803486517 -0.027586990499038372 0 -0.014398543192168619 -0.028423127433323831 0 -0.016817137478153547 -0.030161719851584456 0 -0.018940376217523331 -0.030735655301267824 0 -0.01759503594162011 -0.03221377081895202 0 -0.016817137478153547 -0.030161719851584456 0 -0.017265008468262556 -0.028536584593247507 0 -0.018940376217523331 -0.030735655301267824 0 -0.018940376217523331 -0.030735655301267824 0 -0.01759503594162011 -0.03221377081895202 0 -0.019766410098656206 -0.033385254099110251 0 -0.015583509451292258 -0.027771574383739867 0 -0.014069358803486517 -0.027586990499038372 0 -0.013914168578210179 -0.026910800252246975 0 -0.017240138363229636 -0.029302152908096908 0 -0.016876486182103002 -0.030276789512896665 0 -0.012851522452609426 -0.02698448764215167 0 -0.014069358803486517 -0.027586990499038372 0 -0.013914168578210179 -0.026910800252246975 0 -0.012851522452609426 -0.02698448764215167 0 -0.014069358803486517 -0.027586990499038372 0 -0.012890593476681792 -0.028063093168923924 0 -0.013236361653804927 -0.029802733825040378 0 -0.012890593476681792 -0.028063093168923924 0 -0.014398543192168619 -0.028423127433323831 0 -0.014069358803486517 -0.027586990499038372 0 -0.012890593476681792 -0.028063093168923924 0 -0.014398543192168619 -0.028423127433323831 0 -0.012890593476681792 -0.028063093168923924 0 -0.011563524354549645 -0.027494637709591423 0 -0.01053797983506167 -0.028944523494984716 0 -0.011745343668806614 -0.02963124944410566 0 -0.012890593476681792 -0.028063093168923924 0 -0.01053797983506167 -0.028944523494984716 0 -0.012851522452609426 -0.02698448764215167 0 -0.012890593476681792 -0.028063093168923924 0 -0.011563524354549645 -0.027494637709591423 0 -0.012851522452609426 -0.02698448764215167 0 -0.011563524354549645 -0.027494637709591423 0 -0.011841381595039193 -0.026962218046935545 0 -0.012851522452609426 -0.02698448764215167 0 -0.011841381595039193 -0.026962218046935545 0 -0.012344698322156285 -0.026838367925895008 0 -0.012851522452609426 -0.02698448764215167 0 -0.013028137151846787 -0.026990529631631809 0 -0.012344698322156285 -0.026838367925895008 0 -0.016202367116818186 -0.03032286488801746 0 -0.016876486182103002 -0.030276789512896665 0 -0.012851522452609426 -0.02698448764215167 0 -0.013028137151846787 -0.026990529631631809 0 -0.013914168578210179 -0.026910800252246975 0 -0.016202367116818186 -0.03032286488801746 0 -0.011230337060325135 -0.037146551282832639 0 -0.013028137151846787 -0.026990529631631809 0 -0.012344698322156285 -0.026838367925895008 0 -0.012793332584373415 -0.027099012021377874 0 -0.012344698322156285 -0.026838367925895008 0 -0.012793332584373415 -0.027099012021377874 0 -0.012034811160269221 -0.026728879627661167 0 -0.01753200683668011 -0.035122906060712451 0 -0.019766410098656206 -0.033385254099110251 0 -0.018802563138382525 -0.035343714800612734 0 -0.01753200683668011 -0.035122906060712451 0 -0.01759503594162011 -0.03221377081895202 0 -0.019766410098656206 -0.033385254099110251 0 -0.019521379490610443 -0.03485202568796783 0 -0.019766410098656206 -0.033385254099110251 0 -0.018802563138382525 -0.035343714800612734 0 -0.019521379490610443 -0.03485202568796783 0 -0.018802563138382525 -0.035343714800612734 0 -0.018987906148201852 -0.035975993262641892 0 -0.01753200683668011 -0.035122906060712451 0 -0.018802563138382525 -0.035343714800612734 0 -0.017809200100358517 -0.036905248940231151 0 -0.018802563138382525 -0.035343714800612734 0 -0.017809200100358517 -0.036905248940231151 0 -0.018987906148201852 -0.035975993262641892 0 -0.01239486897243312 -0.046821480736627501 0 -0.012040036546492891 -0.046490852872549025 0 -0.0043011918005205771 -0.057149377569732651 0 -0.0034625228763090045 -0.054999939547642748 0 -0.0061958402636421005 -0.05499994407995306 0 -0.0068379941847390964 -0.057331592539065612 0 -0.0043011918005205771 -0.057149377569732651 0 -0.0061958402636421005 -0.05499994407995306 0 -0.0080575202112099197 -0.047596338983379345 0 0.0001792678877492674 -0.053525145206787327 0 -0.011230337060325135 -0.037146551282832639 0 -0.0030300510178712077 -0.03719859291186281 0 -0.0077074795280160594 -0.042697560866940952 0 -0.0081350942716565521 -0.043580144144182688 0 -0.0030104698046790916 -0.044771334163325405 0 -0.012040036546492891 -0.046490852872549025 0 -0.0080575202112099197 -0.047596338983379345 0 -0.019521379490610443 -0.03485202568796783 0 -0.018987906148201852 -0.035975993262641892 0 -0.019328104366682301 -0.035213308162192619 0 -0.018987906148201852 -0.035975993262641892 0 -0.019345077138936333 -0.035292383889989419 0 -0.019328104366682301 -0.035213308162192619 0 -0.0080575202112099197 -0.047596338983379345 0 -0.011230337060325135 -0.037146551282832639 0 -0.0034625228763090045 -0.054999939547642748 0 -0.0017601562752394685 -0.056951095347339026 0 -0.00072935034699265447 -0.054999939108624288 0 -0.0043011918005205771 -0.057149377569732651 0 -0.0034625228763090045 -0.054999939547642748 0 -0.0017601562752394685 -0.056951095347339026 0 -0.0016194406725276761 -0.056801429971521183 0 -0.00016626260316670807 -0.055878829619547141 0 -0.00072894214431901084 -0.054999895157772052 0 -0.0016194406725276761 -0.056801429971521183 0 -0.00016626260316670807 -0.055878829619547141 0 0.00086113009919074523 -0.056663943138033863 0 -0.0080575202112099197 -0.047596338983379345 0 -0.0007304222747438106 -0.055007056178102115 0 -0.00016626260316670807 -0.055878829619547141 0 -0.00072894214431901084 -0.054999895157772052 0 0.00087009845433016889 -0.054999948815503998 0 0.0008705875044736622 -0.055003090804747683 0 0.0001792678877492674 -0.053525145206787327 0 0.00087036248114978393 -0.054999981515225858 0 0.0010124579856686199 -0.056748880428189284 0 0.0022348801692160399 -0.055809519909547758 0 -0.00016626260316670807 -0.055878829619547141 0 0.00087009845433016889 -0.054999948815503998 0 0.00086113009919074523 -0.056663943138033863 0 -0.0077074795280160594 -0.042697560866940952 0 -0.0031393562959795692 -0.042374738516479632 0 -0.0030104698046790916 -0.044771334163325405 0 0.0035217435242494949 -0.055481254248444342 0 0.0035561322766734646 -0.056185360533623344 0 0.0041977076142273488 -0.055871616364811146 0 0.0001792678877492674 -0.053525145206787327 0 -0.0030300510178712077 -0.03719859291186281 0 0.0041977076142273488 -0.055871616364811146 0 0.0052487910138876792 -0.05612121380162606 0 0.004763101044852289 -0.056512492621324406 0 0.0041977076142273488 -0.055871616364811146 0 0.0047981942865829687 -0.055561647903203851 0 0.0052487910138876792 -0.05612121380162606 0 0.0035217435242494949 -0.055481254248444342 0 0.0041977076142273488 -0.055871616364811146 0 0.0047981942865829687 -0.055561647903203851 0 0.0035561322766734646 -0.056185360533623344 0 0.0041977076142273488 -0.055871616364811146 0 0.004763101044852289 -0.056512492621324406 0 0.0001792678877492674 -0.053525145206787327 0 0.0045072200498157289 -0.056185987875906625 0 0.0010124579856686199 -0.056748880428189284 0 0.0034065379775678902 -0.056486167175721962 0 0.0022348801692160399 -0.055809519909547758 0 0.00087036248114978393 -0.054999981515225858 0 0.0022348801692160399 -0.055809519909547758 0 0.0036275644947384032 -0.054999735801249255 0 0.0034065379775678902 -0.056486167175721962 0 0.0022348801692160399 -0.055809519909547758 0 0.0036275644947384032 -0.054999735801249255 0 0.0034065379775678902 -0.056486167175721962 0 0.0036275644947384032 -0.054999735801249255 0 0.0058405632573001274 -0.055850742774343626 0 0.0045072200498157289 -0.056185987875906625 0 0.0054979633766255153 -0.055857550973728812 0 0.0071085776823886365 -0.055037475670064583 0 0.0096816934106612428 -0.055049462586550267 0 0.0063826001508722223 -0.05499988740615136 0 0.0058405632573001274 -0.055850742774343626 0 0.0063540907653131069 -0.056409627050356514 0 0.0036275644947384032 -0.054999735801249255 0 0.0063826001508722223 -0.05499988740615136 0 0.0058405632573001274 -0.055850742774343626 0 0.0058405632573001274 -0.055850742774343626 0 0.0058018124662322082 -0.056247785760264492 0 0.0062757238303622993 -0.056412794928575503 0 0.0058405632573001274 -0.055850742774343626 0 0.0063540907653131069 -0.056409627050356514 0 0.0062757238303622993 -0.056412794928575503 0 0.0058405632573001274 -0.055850742774343626 0 0.0058018124662322082 -0.056247785760264492 0 0.0052487910138876792 -0.05612121380162606 0 0.0058018124662322082 -0.056247785760264492 0 0.0052487910138876792 -0.05612121380162606 0 0.0058007692892507309 -0.05670090268260309 0 0.0058018124662322082 -0.056247785760264492 0 0.0061075973901005354 -0.056541036607716789 0 0.0062757238303622993 -0.056412794928575503 0 0.0047981942865829687 -0.055561647903203851 0 0.0058405632573001274 -0.055850742774343626 0 0.0052487910138876792 -0.05612121380162606 0 0.0066850929120199649 -0.043671441348613345 0 0.0052017279171674485 -0.0435896435633953 0 0.0060011157252856714 -0.033801256467164524 0 0.0025044479196664115 -0.033118347210733055 0 0.0035657571205683913 -0.029661375280201848 0 0.0081627436833912274 -0.03068485948612466 0 0.0060011157252856714 -0.033801256467164524 0 0.0035657571205683913 -0.029661375280201848 0 0.0052487910138876792 -0.05612121380162606 0 0.0058007692892507309 -0.05670090268260309 0 0.004763101044852289 -0.056512492621324406 0 0.0081627436833912274 -0.03068485948612466 0 0.013067756934563165 -0.031881586659214665 0 0.011219323346704231 -0.03389050010357831 0 0.0061075973901005354 -0.056541036607716789 0 0.0058007692892507309 -0.05670090268260309 0 0.0064757603472844726 -0.056699908324148195 0 0.0066850929120199649 -0.043671441348613345 0 0.010328130509247151 -0.043413419561102597 0 0.0058018124662322082 -0.056247785760264492 0 0.0061075973901005354 -0.056541036607716789 0 0.0058007692892507309 -0.05670090268260309 0 0.0081627436833912274 -0.03068485948612466 0 0.0091180275457352373 -0.035196584119620282 0 0.0060011157252856714 -0.033801256467164524 0 0.0081627436833912274 -0.03068485948612466 0 0.0091180275457352373 -0.035196584119620282 0 0.011219323346704231 -0.03389050010357831 0 0.0091180275457352373 -0.035196584119620282 0 0.011219323346704231 -0.03389050010357831 0 0.011884600024749401 -0.036660880671605237 0 0.0060011157252856714 -0.033801256467164524 0 0.0025044479196664115 -0.033118347210733055 0 0.0037004246178423236 -0.035535333468795012 0 0.0091180275457352373 -0.035196584119620282 0 0.0060011157252856714 -0.033801256467164524 0 0.0068334282787719317 -0.037058061404668177 0 0.0060011157252856714 -0.033801256467164524 0 0.0037004246178423236 -0.035535333468795012 0 0.0068334282787719317 -0.037058061404668177 0 0.0025044479196664115 -0.033118347210733055 0 0.0013373771395390431 -0.035604901447959393 0 0.0037004246178423236 -0.035535333468795012 0 0.0025044479196664115 -0.033118347210733055 0 -0.00047254739308494223 -0.033628898838362981 0 0.0011075733316775454 -0.031080985211767814 0 0.0025044479196664115 -0.033118347210733055 0 -0.00047254739308494223 -0.033628898838362981 0 0.0013373771395390431 -0.035604901447959393 0 -0.011841381595039193 -0.026962218046935545 0 -0.012344698322156285 -0.026838367925895008 0 -0.011615182290586185 -0.026839787377777719 0 -0.011841381595039193 -0.026962218046935545 0 -0.011615182290586185 -0.026839787377777719 0 -0.011211438591931872 -0.027130396780476303 0 -0.012344698322156285 -0.026838367925895008 0 -0.012034811160269221 -0.026728879627661167 0 -0.011615182290586185 -0.026839787377777719 0 -0.00074958747633133334 -0.028774633433572092 0 -0.00047254739308494223 -0.033628898838362981 0 0.0011075733316775454 -0.031080985211767814 0 -0.0030300510178712077 -0.03719859291186281 0 -0.0063324518641847674 -0.028233140247195577 0 0.0025044479196664115 -0.033118347210733055 0 0.0035657571205683913 -0.029661375280201848 0 0.0011075733316775454 -0.031080985211767814 0 -0.00074958747633133334 -0.028774633433572092 0 0.0035657571205683913 -0.029661375280201848 0 0.0011075733316775454 -0.031080985211767814 0 -0.0030300510178712077 -0.03719859291186281 0 0.0052017279171674485 -0.0435896435633953 0 0.01546210415264759 -0.052576358322937847 0 0.015648379497099286 -0.051253344850263879 0 0.014890064318687972 -0.053436273830812779 0 0.01546210415264759 -0.052576358322937847 0 0.015648379497099286 -0.051253344850263879 0 0.016896901726027397 -0.050663758892738234 0 0.01546210415264759 -0.052576358322937847 0 0.013421485654592714 -0.054997832686316757 0 0.017674103966523677 -0.05283176567985344 0 0.01546210415264759 -0.052576358322937847 0 0.013421485654592714 -0.054997832686316757 0 0.014890064318687972 -0.053436273830812779 0 0.013413025894539264 -0.055000457353260208 0 0.011071059370304998 -0.054999346312564985 0 0.010772064262296377 -0.055960238447434078 0 0.013413434173487246 -0.055000035742500633 0 0.01460236027743239 -0.054360682613785231 0 0.017674103966523677 -0.05283176567985344 0 0.016896901726027397 -0.050663758892738234 0 0.018533228638671254 -0.050735764331161101 0 0.01546210415264759 -0.052576358322937847 0 0.017674103966523677 -0.05283176567985344 0 0.016896901726027397 -0.050663758892738234 0 0.01460236027743239 -0.054360682613785231 0 0.012553553514262877 -0.053735663908829015 0 0.017674103966523677 -0.05283176567985344 0 0.018533228638671254 -0.050735764331161101 0 0.020078497336837062 -0.051198608369286629 0 0.018533228638671254 -0.050735764331161101 0 0.020078497336837062 -0.051198608369286629 0 0.019414752017430505 -0.049349500263784873 0 0.010772064262296377 -0.055960238447434078 0 0.0087276909348832331 -0.054999750200388109 0 0.0089217450548404569 -0.056678938947645245 0 0.011071059370304998 -0.054999346312564985 0 0.010772064262296377 -0.055960238447434078 0 0.0087276909348832331 -0.054999750200388109 0 0.0071085776823886365 -0.055037475670064583 0 0.012553553514262877 -0.053735663908829015 0 0.0063849785440566447 -0.054999766228535196 0 0.0087276909348832331 -0.054999750200388109 0 0.0089217450548404569 -0.056678938947645245 0 0.0091225071985848033 -0.054491437024267321 0 0.0092671339891604726 -0.054655088423496839 0 0.0092860113388620064 -0.054645446995837434 0 0.0096816934106612428 -0.055049462586550267 0 0.009103339885412837 -0.055325114589298792 0 0.0096816934106612428 -0.055049462586550267 0 0.012553553514262877 -0.053735663908829015 0 0.0096816934106612428 -0.055049462586550267 0 0.010328130509247151 -0.043413419561102597 0 0.0063241122386582223 -0.056385203936310045 0 0.0062757238303622993 -0.056412794928575503 0 0.0064757603472844726 -0.056699908324148195 0 0.020078497336837062 -0.051198608369286629 0 0.020284855727566876 -0.048265645869851791 0 0.019414752017430505 -0.049349500263784873 0 0.012742208529324207 -0.053187692167376434 0 0.0092780330012422769 -0.044948568463172786 0 0.011752951939711941 -0.045523981065141418 0 0.01392395284402792 -0.052587958836011854 0 0.012742208529324207 -0.053187692167376434 0 0.011752951939711941 -0.045523981065141418 0 0.012553553514262877 -0.053735663908829015 0 0.013916212393274143 -0.044092423999276924 0 0.0061075973901005354 -0.056541036607716789 0 0.0062757238303622993 -0.056412794928575503 0 0.0064757603472844726 -0.056699908324148195 0 0.013916212393274143 -0.044092423999276924 0 0.010328130509247151 -0.043413419561102597 0 0.011219323346704231 -0.03389050010357831 0 0.014064783274067731 -0.035204063417050874 0 0.011884600024749401 -0.036660880671605237 0 0.013067756934563165 -0.031881586659214665 0 0.011219323346704231 -0.03389050010357831 0 0.014064783274067731 -0.035204063417050874 0 0.014429335698108062 -0.032451393858716343 0 0.013092763018808014 -0.032172646658445749 0 0.014064783274067731 -0.035204063417050874 0 0.010328130509247151 -0.043413419561102597 0 0.012192113318760581 -0.032570638358265291 0 0.014429335698108062 -0.032451393858716343 0 0.014064783274067731 -0.035204063417050874 0 0.016083514780887292 -0.036003373192193308 0 0.020284855727566876 -0.048265645869851791 0 0.019512648247841598 -0.046956566759338986 0 0.019713221816587596 -0.045298830189045979 0 0.013916212393274143 -0.044092423999276924 0 0.017437601843840477 -0.040465207411655796 0 0.020284855727566876 -0.048265645869851791 0 0.019512648247841598 -0.046956566759338986 0 0.019119648061818515 -0.048291519914272517 0 0.014064783274067731 -0.035204063417050874 0 0.016083514780887292 -0.036003373192193308 0 0.014243515290895051 -0.038380017685317069 0 0.019512648247841598 -0.046956566759338986 0 0.019713221816587596 -0.045298830189045979 0 0.018751340736181035 -0.046193221227008294 0 0.019713221816587596 -0.045298830189045979 0 0.018751340736181035 -0.046193221227008294 0 0.017404604386180366 -0.04514529143751355 0 0.018751340736181035 -0.046193221227008294 0 0.018322710256648434 -0.047285376746390058 0 0.017404604386180366 -0.04514529143751355 0 0.019512648247841598 -0.046956566759338986 0 0.018322710256648434 -0.047285376746390058 0 0.019119648061818515 -0.048291519914272517 0 0.019512648247841598 -0.046956566759338986 0 0.018751340736181035 -0.046193221227008294 0 0.018322710256648434 -0.047285376746390058 0 0.019119648061818515 -0.048291519914272517 0 0.019414752017430505 -0.049349500263784873 0 0.018235869817445634 -0.049090027906600102 0 0.018322710256648434 -0.047285376746390058 0 0.019119648061818515 -0.048291519914272517 0 0.018235869817445634 -0.049090027906600102 0 0.020284855727566876 -0.048265645869851791 0 0.019119648061818515 -0.048291519914272517 0 0.019414752017430505 -0.049349500263784873 0 0.018533228638671254 -0.050735764331161101 0 0.019414752017430505 -0.049349500263784873 0 0.018235869817445634 -0.049090027906600102 0 0.016896901726027397 -0.050663758892738234 0 0.017249298299272429 -0.048104220626121665 0 0.016454647789498591 -0.049103557128553861 0 0.016896901726027397 -0.050663758892738234 0 0.018533228638671254 -0.050735764331161101 0 0.018235869817445634 -0.049090027906600102 0 0.016896901726027397 -0.050663758892738234 0 0.018235869817445634 -0.049090027906600102 0 0.017249298299272429 -0.048104220626121665 0 0.018322710256648434 -0.047285376746390058 0 0.018235869817445634 -0.049090027906600102 0 0.017249298299272429 -0.048104220626121665 0 0.018322710256648434 -0.047285376746390058 0 0.017249298299272429 -0.048104220626121665 0 0.017404604386180366 -0.04514529143751355 0 0.017404604386180366 -0.04514529143751355 0 0.016714865948860593 -0.046564327521556634 0 0.016794458225222405 -0.043864906601043183 0 0.017249298299272429 -0.048104220626121665 0 0.017404604386180366 -0.04514529143751355 0 0.016714865948860593 -0.046564327521556634 0 0.016714865948860593 -0.046564327521556634 0 0.016794458225222405 -0.043864906601043183 0 0.016424976560470834 -0.045717961407044844 0 0.016714865948860593 -0.046564327521556634 0 0.015792214232517417 -0.048908478095042923 0 0.016424976560470834 -0.045717961407044844 0 0.015648379497099286 -0.051253344850263879 0 0.016896901726027397 -0.050663758892738234 0 0.016454647789498591 -0.049103557128553861 0 0.016714865948860593 -0.046564327521556634 0 0.016454647789498591 -0.049103557128553861 0 0.015792214232517417 -0.048908478095042923 0 0.017249298299272429 -0.048104220626121665 0 0.016714865948860593 -0.046564327521556634 0 0.016454647789498591 -0.049103557128553861 0 0.015648379497099286 -0.051253344850263879 0 0.016454647789498591 -0.049103557128553861 0 0.015792214232517417 -0.048908478095042923 0 0.016625567740729794 -0.042659047691624492 0 0.016794458225222405 -0.043864906601043183 0 0.016424976560470834 -0.045717961407044844 0 0.017993458477413776 -0.042573965572381071 0 0.016523151660984971 -0.045289790976540741 0 0.017404604386180366 -0.04514529143751355 0 0.016794458225222405 -0.043864906601043183 0 0.017376393139697854 -0.041553703883529636 0 0.016794458225222405 -0.043864906601043183 0 0.016841210543410052 -0.042417377435950941 0 0.017376393139697854 -0.041553703883529636 0 0.016841210543410052 -0.042417377435950941 0 0.017376393139697854 -0.041553703883529636 0 0.015977401361367018 -0.042878177434426137 0 0.016625567740729794 -0.042659047691624492 0 0.016841210543410052 -0.042417377435950941 0 0.016849138291586439 -0.043917845840705315 0 0.016625567740729794 -0.042659047691624492 0 0.016794458225222405 -0.043864906601043183 0 0.016841210543410052 -0.042417377435950941 0 0.015033807020616172 -0.042206659562985416 0 0.017376393139697854 -0.041553703883529636 0 0.015977401361367018 -0.042878177434426137 0 0.015033807020616172 -0.042206659562985416 0 0.017376393139697854 -0.041553703883529636 0 0.014073940677874134 -0.040933162236260208 0 0.019713221816587596 -0.045298830189045979 0 0.017404604386180366 -0.04514529143751355 0 0.017376393139697854 -0.041553703883529636 0 0.017437601843840477 -0.040465207411655796 0 0.017641311466001605 -0.041435838851200411 0 0.016083514780887292 -0.036003373192193308 0 0.017376393139697854 -0.041553703883529636 0 0.014243515290895051 -0.038380017685317069 0 0.017376393139697854 -0.041553703883529636 0 0.014243515290895051 -0.038380017685317069 0 0.014073940677874134 -0.040933162236260208 0 0.014243515290895051 -0.038380017685317069 0 0.012366128355111587 -0.039111124220612976 0 0.014073940677874134 -0.040933162236260208 0 0.014243515290895051 -0.038380017685317069 0 0.011884600024749401 -0.036660880671605237 0 0.012366128355111587 -0.039111124220612976 0 0.014064783274067731 -0.035204063417050874 0 0.014243515290895051 -0.038380017685317069 0 0.011884600024749401 -0.036660880671605237 0 0.011884600024749401 -0.036660880671605237 0 0.012366128355111587 -0.039111124220612976 0 0.0099868506183508864 -0.037713687228776271 0 0.012366128355111587 -0.039111124220612976 0 0.012246989883982137 -0.040831707594685435 0 0.010592081935340156 -0.039834869258196855 0 0.012366128355111587 -0.039111124220612976 0 0.012246989883982137 -0.040831707594685435 0 0.014073940677874134 -0.040933162236260208 0 0.012246989883982137 -0.040831707594685435 0 0.014073940677874134 -0.040933162236260208 0 0.013136140138460355 -0.042336209451421344 0 0.015033807020616172 -0.042206659562985416 0 0.014073940677874134 -0.040933162236260208 0 0.013136140138460355 -0.042336209451421344 0 0.012246989883982137 -0.040831707594685435 0 0.013136140138460355 -0.042336209451421344 0 0.010953450223860505 -0.041542726416417791 0 0.012441541064786982 -0.043942444848682462 0 0.014606832442451629 -0.044906394095753671 0 0.014272790408236275 -0.043291072043512902 0 0.013136140138460355 -0.042336209451421344 0 0.010953450223860505 -0.041542726416417791 0 0.011111967698736734 -0.043180817888420354 0 0.013136140138460355 -0.042336209451421344 0 0.012441541064786982 -0.043942444848682462 0 0.011111967698736734 -0.043180817888420354 0 0.013136140138460355 -0.042336209451421344 0 0.012441541064786982 -0.043942444848682462 0 0.014272790408236275 -0.043291072043512902 0 0.015033807020616172 -0.042206659562985416 0 0.013136140138460355 -0.042336209451421344 0 0.014272790408236275 -0.043291072043512902 0 0.012441541064786982 -0.043942444848682462 0 0.014606832442451629 -0.044906394095753671 0 0.011068226302557924 -0.044516865673314823 0 0.014788094029087115 -0.041421857489864121 0 0.013049044756729911 -0.041403187097140214 0 0.015436062680473785 -0.037832522033026832 0 0.014283405593275358 -0.038544600486120753 0 0.014438733188640369 -0.038904601342975687 0 0.014606832442451629 -0.044906394095753671 0 0.015977401361367018 -0.042878177434426137 0 0.016849138291586439 -0.043917845840705315 0 0.014606832442451629 -0.044906394095753671 0 0.014272790408236275 -0.043291072043512902 0 0.015977401361367018 -0.042878177434426137 0 0.015033807020616172 -0.042206659562985416 0 0.014272790408236275 -0.043291072043512902 0 0.015977401361367018 -0.042878177434426137 0 0.016841210543410052 -0.042417377435950941 0 0.015977401361367018 -0.042878177434426137 0 0.016849138291586439 -0.043917845840705315 0 0.015436062680473785 -0.037832522033026832 0 0.016090396131768454 -0.037688821398167094 0 0.016026796628767437 -0.038240475596195811 0 0.017157140786353661 -0.039723090672048537 0 0.016040404080057843 -0.037553374468394032 0 0.014788094029087115 -0.041421857489864121 0 0.017157140786353661 -0.039723090672048537 0 0.017414756228347632 -0.038354742382319465 0 0.017198640677026672 -0.037903068572970058 0 0.017357450990927167 -0.038075378909590674 0 0.017157140786353661 -0.039723090672048537 0 0.018168889367054915 -0.038706861893865206 0 0.017153979056349796 -0.03791471284146164 0 0.017414756228347632 -0.038354742382319465 0 0.017198640677026672 -0.037903068572970058 0 0.019083564326357123 -0.041694257127129 0 0.01852894871278216 -0.039016893391339701 0 0.017827746375755828 -0.040369897262577385 0 0.019083564326357123 -0.041694257127129 0 0.020254259264370304 -0.038642956561176708 0 0.01852894871278216 -0.039016893391339701 0 0.017993458477413776 -0.042573965572381071 0 0.017157140786353661 -0.039723090672048537 0 -0.0019209474837538266 -0.036739804225637024 0 -0.0023579265483077761 -0.038153531221289422 0 -0.0012416156854737684 -0.037489497178723893 0 0.0013683478727552901 -0.040915955646665933 0 0.0010701310347352407 -0.043177381699598186 0 -0.0012416156854737684 -0.037489497178723893 0 -6.7271736746020501e-05 -0.038184644780331539 0 0.0013311890672842502 -0.037213003620750695 0 -0.0012416156854737684 -0.037489497178723893 0 0.0014878541027153714 -0.038441917747814462 0 0.0013311890672842502 -0.037213003620750695 0 -0.0012416156854737684 -0.037489497178723893 0 0.0014878541027153714 -0.038441917747814462 0 0.0020946920369037166 -0.040249921357329174 0 0.0027196387235858179 -0.038235371868848504 0 0.0014878541027153714 -0.038441917747814462 0 0.0013311890672842502 -0.037213003620750695 0 0.0027196387235858179 -0.038235371868848504 0 0.0033091126448722167 -0.039553191603832624 0 0.0045349339669581001 -0.038999657287104292 0 0.0027196387235858179 -0.038235371868848504 0 0.0033091126448722167 -0.039553191603832624 0 0.0014878541027153714 -0.038441917747814462 0 0.0033091126448722167 -0.039553191603832624 0 0.0014878541027153714 -0.038441917747814462 0 0.0020946920369037166 -0.040249921357329174 0 0.0033091126448722167 -0.039553191603832624 0 0.0020946920369037166 -0.040249921357329174 0 0.0037181861774622437 -0.040928845003244618 0 0.0020946920369037166 -0.040249921357329174 0 0.0037181861774622437 -0.040928845003244618 0 0.0030923320441956386 -0.04239049792538796 0 0.0020946920369037166 -0.040249921357329174 0 0.0013683478727552901 -0.040915955646665933 0 0.0030923320441956386 -0.04239049792538796 0 -0.0012416156854737684 -0.037489497178723893 0 0.0020946920369037166 -0.040249921357329174 0 0.0013683478727552901 -0.040915955646665933 0 -0.01053797983506167 -0.028944523494984716 0 -0.0099796507275107145 -0.027454493825688119 0 -0.0069857830420877115 -0.031233623782112085 0 -0.0012416156854737684 -0.037489497178723893 0 -6.7271736746020501e-05 -0.038184644780331539 0 -0.0069857830420877115 -0.031233623782112085 0 -0.0052978186304112563 -0.033396836131992277 0 -0.0065152983187149295 -0.03175786623827289 0 -0.011563524354549645 -0.027494637709591423 0 -0.01053797983506167 -0.028944523494984716 0 -0.0099796507275107145 -0.027454493825688119 0 -0.0063324518641847674 -0.028233140247195577 0 -0.0052978186304112563 -0.033396836131992277 0 -0.011615182290586185 -0.026839787377777719 0 -0.0099796507275107145 -0.027454493825688119 0 -0.011211438591931872 -0.027130396780476303 0 -0.00047254739308494223 -0.033628898838362981 0 -6.7271736746020501e-05 -0.038184644780331539 0 0.0013373771395390431 -0.035604901447959393 0 -0.011563524354549645 -0.027494637709591423 0 -0.0099796507275107145 -0.027454493825688119 0 -0.011211438591931872 -0.027130396780476303 0 -0.011563524354549645 -0.027494637709591423 0 -0.011841381595039193 -0.026962218046935545 0 -0.011211438591931872 -0.027130396780476303 0 -6.7271736746020501e-05 -0.038184644780331539 0 0.0013373771395390431 -0.035604901447959393 0 0.0013311890672842502 -0.037213003620750695 0 0.0027196387235858179 -0.038235371868848504 0 0.0013311890672842502 -0.037213003620750695 0 0.0041837874521665564 -0.037557363866697453 0 0.0013311890672842502 -0.037213003620750695 0 0.0037004246178423236 -0.035535333468795012 0 0.0041837874521665564 -0.037557363866697453 0 0.0013373771395390431 -0.035604901447959393 0 0.0013311890672842502 -0.037213003620750695 0 0.0037004246178423236 -0.035535333468795012 0 0.0037004246178423236 -0.035535333468795012 0 0.0068334282787719317 -0.037058061404668177 0 0.0041837874521665564 -0.037557363866697453 0 0.0068334282787719317 -0.037058061404668177 0 0.0057814543581424229 -0.038448280146887157 0 0.0072814398254612963 -0.039216768320327541 0 0.0057814543581424229 -0.038448280146887157 0 0.0041837874521665564 -0.037557363866697453 0 0.0045349339669581001 -0.038999657287104292 0 0.0068334282787719317 -0.037058061404668177 0 0.0057814543581424229 -0.038448280146887157 0 0.0041837874521665564 -0.037557363866697453 0 0.0091180275457352373 -0.035196584119620282 0 0.011884600024749401 -0.036660880671605237 0 0.0099868506183508864 -0.037713687228776271 0 0.0091180275457352373 -0.035196584119620282 0 0.0068334282787719317 -0.037058061404668177 0 0.0099868506183508864 -0.037713687228776271 0 0.0068334282787719317 -0.037058061404668177 0 0.0099868506183508864 -0.037713687228776271 0 0.0087961874656307028 -0.038862820613143993 0 0.0068334282787719317 -0.037058061404668177 0 0.0087961874656307028 -0.038862820613143993 0 0.0072814398254612963 -0.039216768320327541 0 0.012366128355111587 -0.039111124220612976 0 0.0099868506183508864 -0.037713687228776271 0 0.010592081935340156 -0.039834869258196855 0 0.0099868506183508864 -0.037713687228776271 0 0.0087961874656307028 -0.038862820613143993 0 0.010592081935340156 -0.039834869258196855 0 0.010592081935340156 -0.039834869258196855 0 0.0090075515648067803 -0.040458658134501266 0 0.010953450223860505 -0.041542726416417791 0 0.012246989883982137 -0.040831707594685435 0 0.010592081935340156 -0.039834869258196855 0 0.010953450223860505 -0.041542726416417791 0 0.0087961874656307028 -0.038862820613143993 0 0.010592081935340156 -0.039834869258196855 0 0.0090075515648067803 -0.040458658134501266 0 0.0087961874656307028 -0.038862820613143993 0 0.0090075515648067803 -0.040458658134501266 0 0.0072814398254612963 -0.039216768320327541 0 0.0090075515648067803 -0.040458658134501266 0 0.010953450223860505 -0.041542726416417791 0 0.009077431788388917 -0.042243103222758933 0 0.0090075515648067803 -0.040458658134501266 0 0.0072212475917628237 -0.040800334661426428 0 0.009077431788388917 -0.042243103222758933 0 0.0045349339669581001 -0.038999657287104292 0 0.0059912452385257114 -0.03966554431695634 0 0.0051730906084003665 -0.04056196029247898 0 0.0033091126448722167 -0.039553191603832624 0 0.0045349339669581001 -0.038999657287104292 0 0.0051730906084003665 -0.04056196029247898 0 0.0027196387235858179 -0.038235371868848504 0 0.0041837874521665564 -0.037557363866697453 0 0.0045349339669581001 -0.038999657287104292 0 0.0057814543581424229 -0.038448280146887157 0 0.0045349339669581001 -0.038999657287104292 0 0.0059912452385257114 -0.03966554431695634 0 0.0090075515648067803 -0.040458658134501266 0 0.0072814398254612963 -0.039216768320327541 0 0.0072212475917628237 -0.040800334661426428 0 0.0057814543581424229 -0.038448280146887157 0 0.0072814398254612963 -0.039216768320327541 0 0.0059912452385257114 -0.03966554431695634 0 0.0072814398254612963 -0.039216768320327541 0 0.0059912452385257114 -0.03966554431695634 0 0.0072212475917628237 -0.040800334661426428 0 0.0059912452385257114 -0.03966554431695634 0 0.0072212475917628237 -0.040800334661426428 0 0.0051730906084003665 -0.04056196029247898 0 0.0072212475917628237 -0.040800334661426428 0 0.0051730906084003665 -0.04056196029247898 0 0.0066111873820401236 -0.042202417655845405 0 0.0072212475917628237 -0.040800334661426428 0 0.0066111873820401236 -0.042202417655845405 0 0.009077431788388917 -0.042243103222758933 0 0.0051730906084003665 -0.04056196029247898 0 0.0047719645754623567 -0.041939472158991659 0 0.0066111873820401236 -0.042202417655845405 0 0.0033091126448722167 -0.039553191603832624 0 0.0037181861774622437 -0.040928845003244618 0 0.0051730906084003665 -0.04056196029247898 0 0.0037181861774622437 -0.040928845003244618 0 0.0051730906084003665 -0.04056196029247898 0 0.0047719645754623567 -0.041939472158991659 0 0.0047719645754623567 -0.041939472158991659 0 0.0053167958340599409 -0.043558117994225994 0 0.0030923320441956386 -0.04239049792538796 0 0.0047719645754623567 -0.041939472158991659 0 0.0066111873820401236 -0.042202417655845405 0 0.0053167958340599409 -0.043558117994225994 0 0.0066111873820401236 -0.042202417655845405 0 0.0078136806297313295 -0.044045152639290354 0 0.0053167958340599409 -0.043558117994225994 0 0.0066111873820401236 -0.042202417655845405 0 0.0078136806297313295 -0.044045152639290354 0 0.009077431788388917 -0.042243103222758933 0 0.0078136806297313295 -0.044045152639290354 0 0.0053167958340599409 -0.043558117994225994 0 0.0066406312915057459 -0.046324572854392419 0 0.0053167958340599409 -0.043558117994225994 0 0.0066406312915057459 -0.046324572854392419 0 0.0035037881215975947 -0.044494329260754827 0 0.010953450223860505 -0.041542726416417791 0 0.011111967698736734 -0.043180817888420354 0 0.009077431788388917 -0.042243103222758933 0 0.011111967698736734 -0.043180817888420354 0 0.009077431788388917 -0.042243103222758933 0 0.0098022919385955948 -0.043549220246415228 0 0.0078136806297313295 -0.044045152639290354 0 0.009077431788388917 -0.042243103222758933 0 0.0098022919385955948 -0.043549220246415228 0 0.0078136806297313295 -0.044045152639290354 0 0.0098022919385955948 -0.043549220246415228 0 0.010961593374044429 -0.044599516899729109 0 0.011111967698736734 -0.043180817888420354 0 0.0098022919385955948 -0.043549220246415228 0 0.010961593374044429 -0.044599516899729109 0 0.012441541064786982 -0.043942444848682462 0 0.011111967698736734 -0.043180817888420354 0 0.010961593374044429 -0.044599516899729109 0 0.013049044756729911 -0.041403187097140214 0 0.013661566164728666 -0.040829413591631877 0 0.012129719309711075 -0.043074941851845967 0 0.011068226302557924 -0.044516865673314823 0 0.013447926695073274 -0.040718944281024412 0 0.010961593374044429 -0.044599516899729109 0 0.012129719309711075 -0.043074941851845967 0 0.013507159336390181 -0.042797108296674644 0 0.010009541920406694 -0.044648217228704976 0 0.011811573915745506 -0.044271950132271157 0 0.012441541064786982 -0.043942444848682462 0 0.010961593374044429 -0.044599516899729109 0 0.011068226302557924 -0.044516865673314823 0 0.010961593374044429 -0.044599516899729109 0 0.012129719309711075 -0.043074941851845967 0 0.011068226302557924 -0.044516865673314823 0 0.0078136806297313295 -0.044045152639290354 0 0.010961593374044429 -0.044599516899729109 0 0.0066406312915057459 -0.046324572854392419 0 0.013507159336390181 -0.042797108296674644 0 0.014890942419997614 -0.041906597949679124 0 0.014145559929223707 -0.040611076450409241 0 0.012129719309711075 -0.043074941851845967 0 0.013507159336390181 -0.042797108296674644 0 0.013447926695073274 -0.040718944281024412 0 0.013507159336390181 -0.042797108296674644 0 0.013447926695073274 -0.040718944281024412 0 0.014145559929223707 -0.040611076450409241 0 0.0066406312915057459 -0.046324572854392419 0 0.0025041730021449276 -0.046881009822214728 0 0.0035037881215975947 -0.044494329260754827 0 0.011811573915745506 -0.044271950132271157 0 -0.0033251319154622557 -0.036214043699285672 0 -0.0012416156854737684 -0.037489497178723893 0 -0.0068492902920577236 -0.031896683946467753 0 -0.0069857830420877115 -0.031233623782112085 0 -0.0033251319154622557 -0.036214043699285672 0 -0.0023579265483077761 -0.038153531221289422 0 -0.0055698865369785775 -0.033310530270146181 0 -0.0068492902920577236 -0.031896683946467753 0 -0.0069857830420877115 -0.031233623782112085 0 0.0025041730021449276 -0.046881009822214728 0 0.0035037881215975947 -0.044494329260754827 0 0.0010701310347352407 -0.043177381699598186 0 0.0013683478727552901 -0.040915955646665933 0 0.0010701310347352407 -0.043177381699598186 0 0.0030923320441956386 -0.04239049792538796 0 0.0053167958340599409 -0.043558117994225994 0 0.0035037881215975947 -0.044494329260754827 0 0.0030923320441956386 -0.04239049792538796 0 0.0035037881215975947 -0.044494329260754827 0 0.0010701310347352407 -0.043177381699598186 0 0.0030923320441956386 -0.04239049792538796 0 0.0037181861774622437 -0.040928845003244618 0 0.0047719645754623567 -0.041939472158991659 0 0.0030923320441956386 -0.04239049792538796 0 -0.01053797983506167 -0.028944523494984716 0 -0.0069857830420877115 -0.031233623782112085 0 -0.01036511206752999 -0.031422280481812698 0 -0.0055698865369785775 -0.033310530270146181 0 -0.0069857830420877115 -0.031233623782112085 0 -0.01036511206752999 -0.031422280481812698 0 -0.012194510257185315 -0.033911214951909539 0 -0.0055698865369785775 -0.033310530270146181 0 -0.01036511206752999 -0.031422280481812698 0 -0.016038535179209827 -0.030642190686623487 0 -0.0033251319154622557 -0.036214043699285672 0 -0.017074795153335574 -0.02966636699160111 0 -0.01814559615092342 -0.029846560857950882 0 -0.017664384625090228 -0.029343152266699816 0 -0.017664384625090228 -0.029343152266699816 0 -0.018472213276585492 -0.028639389782977066 0 -0.017564986607636786 -0.028725723057205367 0 -0.017118835258397837 -0.029092928671763434 0 -0.017664384625090228 -0.029343152266699816 0 -0.017564986607636786 -0.028725723057205367 0 0.014890942419997614 -0.041906597949679124 0 0.014649785378461974 -0.039271989991624817 0 0.014145559929223707 -0.040611076450409241 0 -0.0033251319154622557 -0.036214043699285672 0 -0.0016703381705952531 -0.033911328961907725 0 -0.01814559615092342 -0.029846560857950882 0 -0.017664384625090228 -0.029343152266699816 0 -0.018472213276585492 -0.028639389782977066 0 -0.017474241047300366 -0.027735615383736922 0 -0.018083277690244481 -0.02811506006843947 0 -0.017564986607636786 -0.028725723057205367 0 -0.018472213276585492 -0.028639389782977066 0 -0.018083277690244481 -0.02811506006843947 0 -0.017564986607636786 -0.028725723057205367 0 -0.017474241047300366 -0.027735615383736922 0 -0.018083277690244481 -0.02811506006843947 0 -0.01882199869164972 -0.02734905003332461 0 -0.017474241047300366 -0.027735615383736922 0 -0.01882199869164972 -0.02734905003332461 0 -0.017987662806641904 -0.026543248001398716 0 -0.0016703381705952531 -0.033911328961907725 0 -0.002093436156330107 -0.03298926971135821 0 -0.018472213276585492 -0.028639389782977066 0 -0.018083277690244481 -0.02811506006843947 0 -0.01882199869164972 -0.02734905003332461 0 0.014456643374492614 -0.038536518436941385 0 0.014177512321584838 -0.038426331971149509 0 0.014328498426662905 -0.038912897955038508 0 0.01471783292189905 -0.038681257490324965 0 0.014456643374492614 -0.038536518436941385 0 0.015133165796789527 -0.037565711037895078 0 0.01471783292189905 -0.038681257490324965 0 0.014456643374492614 -0.038536518436941385 0 0.014335937128269445 -0.039004699335748821 0 0.014649785378461974 -0.039271989991624817 0 0.01471783292189905 -0.038681257490324965 0 0.014335937128269445 -0.039004699335748821 0 0.014335937128269445 -0.039004699335748821 0 0.014328498426662905 -0.038912897955038508 0 0.014217334462393339 -0.039132801866650496 0 0.014456643374492614 -0.038536518436941385 0 0.014335937128269445 -0.039004699335748821 0 0.014328498426662905 -0.038912897955038508 0 0.014335937128269445 -0.039004699335748821 0 0.014217334462393339 -0.039132801866650496 0 0.014021508680693275 -0.039532476626564908 0 0.014649785378461974 -0.039271989991624817 0 0.014335937128269445 -0.039004699335748821 0 0.014021508680693275 -0.039532476626564908 0 0.014649785378461974 -0.039271989991624817 0 0.014021508680693275 -0.039532476626564908 0 0.014145559929223707 -0.040611076450409241 0 0.014021508680693275 -0.039532476626564908 0 0.013447926695073274 -0.040718944281024412 0 0.013937525677696216 -0.03945603411102068 0 0.014021508680693275 -0.039532476626564908 0 0.013447926695073274 -0.040718944281024412 0 0.014145559929223707 -0.040611076450409241 0 0.014217334462393339 -0.039132801866650496 0 0.014021508680693275 -0.039532476626564908 0 0.013937525677696216 -0.03945603411102068 0 0.014283405593275358 -0.038544600486120753 0 0.013447926695073274 -0.040718944281024412 0 0.013937525677696216 -0.03945603411102068 0 0.014217334462393339 -0.039132801866650496 0 0.013937525677696216 -0.03945603411102068 0 0.014438733188640369 -0.038904601342975687 0 0.014283405593275358 -0.038544600486120753 0 0.013937525677696216 -0.03945603411102068 0 0.014438733188640369 -0.038904601342975687 0 0.014217334462393339 -0.039132801866650496 0 0.014438733188640369 -0.038904601342975687 0 0.014893701866287259 -0.038697069171702743 0 0.015436062680473785 -0.037832522033026832 0 0.014438733188640369 -0.038904601342975687 0 0.014893701866287259 -0.038697069171702743 0 0.015436062680473785 -0.037832522033026832 0 0.014893701866287259 -0.038697069171702743 0 0.016026796628767437 -0.038240475596195811 0 0.015002779655358059 -0.03881569028465158 0 0.016026796628767437 -0.038240475596195811 0 0.016142184139866029 -0.038552933661473721 0 0.014893701866287259 -0.038697069171702743 0 0.015002779655358059 -0.03881569028465158 0 0.016026796628767437 -0.038240475596195811 0 0.014217334462393339 -0.039132801866650496 0 0.014893701866287259 -0.038697069171702743 0 0.015002779655358059 -0.03881569028465158 0 0.014328498426662905 -0.038912897955038508 0 0.014217334462393339 -0.039132801866650496 0 0.015002779655358059 -0.03881569028465158 0 0.017198640677026672 -0.037903068572970058 0 0.016142184139866029 -0.038552933661473721 0 0.018135547500542804 -0.037316292780766432 0 0.017153979056349796 -0.03791471284146164 0 0.017198640677026672 -0.037903068572970058 0 0.016026796628767437 -0.038240475596195811 0 0.017198640677026672 -0.037903068572970058 0 0.016026796628767437 -0.038240475596195811 0 0.016142184139866029 -0.038552933661473721 0 0.016142184139866029 -0.038552933661473721 0 0.016730212629866278 -0.039277251234520194 0 0.018135547500542804 -0.037316292780766432 0 0.018740217790785919 -0.036848779159840209 0 0.018195423572869497 -0.037366327534639462 0 0.016142184139866029 -0.038552933661473721 0 0.016730212629866278 -0.039277251234520194 0 0.015672232870086053 -0.039347699608528325 0 0.016730212629866278 -0.039277251234520194 0 0.015672232870086053 -0.039347699608528325 0 0.015772425608313091 -0.039537130420013999 0 0.020804206943674151 -0.034743383205817678 0 0.020037072441803597 -0.03270788140843886 0 0.019093070750508544 -0.034229208589512797 0 0.014328498426662905 -0.038912897955038508 0 0.015002779655358059 -0.03881569028465158 0 0.015053931121204622 -0.038963496708369086 0 0.016142184139866029 -0.038552933661473721 0 0.015053931121204622 -0.038963496708369086 0 0.015672232870086053 -0.039347699608528325 0 0.015002779655358059 -0.03881569028465158 0 0.016142184139866029 -0.038552933661473721 0 0.015053931121204622 -0.038963496708369086 0 0.015053931121204622 -0.038963496708369086 0 0.015672232870086053 -0.039347699608528325 0 0.015492807661273955 -0.039391725716958023 0 0.015113324088860916 -0.038634349712618372 0 0.014583345166427375 -0.03950777148677341 0 0.014328498426662905 -0.038912897955038508 0 0.015053931121204622 -0.038963496708369086 0 0.014066826081462968 -0.038614651591059909 0 0.014177512321584838 -0.038426331971149509 0 0.014328498426662905 -0.038912897955038508 0 0.014066826081462968 -0.038614651591059909 0 0.014066826081462968 -0.038614651591059909 0 0.013752192194932032 -0.037760100660748815 0 0.013613699080120313 -0.037590008971829458 0 0.014177512321584838 -0.038426331971149509 0 0.014066826081462968 -0.038614651591059909 0 0.013752192194932032 -0.037760100660748815 0 0.014583345166427375 -0.03950777148677341 0 0.015908946681420389 -0.035499895334798096 0 0.015492807661273955 -0.039391725716958023 0 0.015639421101973361 -0.039424622299054017 0 0.015772646637495575 -0.039383330852012892 0 0.015619377937292466 -0.036139088074452111 0 0.015908946681420389 -0.035499895334798096 0 0.015639421101973361 -0.039424622299054017 0 0.015772646637495575 -0.039383330852012892 0 0.015711233509722616 -0.039365794126899292 0 0.015639421101973361 -0.039424622299054017 0 0.015724919027937611 -0.039354258168776947 0 0.015772425608313091 -0.039537130420013999 0 0.015672232870086053 -0.039347699608528325 0 0.015492807661273955 -0.039391725716958023 0 0.015639421101973361 -0.039424622299054017 0 0.015672232870086053 -0.039347699608528325 0 0.015639421101973361 -0.039424622299054017 0 0.015772425608313091 -0.039537130420013999 0 0.019017508845361186 -0.036756906605786087 0 0.018397123080812559 -0.032056701768369458 0 0.022073018398170816 -0.032840940330603988 0 0.021694323308052276 -0.030835978806452169 0 0.023214002590764209 -0.031211113773605994 0 0.015724919027937611 -0.039354258168776947 0 0.015772425608313091 -0.039537130420013999 0 0.015741082195256415 -0.039109998705681645 0 0.018968651534280203 -0.02761446911100849 0 0.019018690416989607 -0.028144331103655083 0 0.01880907448455264 -0.027429290012028134 0 0.015908946681420389 -0.035499895334798096 0 0.018397123080812559 -0.032056701768369458 0 0.015772646637495575 -0.039383330852012892 0 0.015733364085052142 -0.039306141988518256 0 0.015741082195256415 -0.039109998705681645 0 0.019018690416989607 -0.028144331103655083 0 0.01880907448455264 -0.027429290012028134 0 0.018625992077667516 -0.027267617267940216 0 0.015724919027937611 -0.039354258168776947 0 0.015733364085052142 -0.039306141988518256 0 0.015741082195256415 -0.039109998705681645 0 0.018968651534280203 -0.02761446911100849 0 0.019018690416989607 -0.028144331103655083 0 0.019319809447513162 -0.026960175815615484 0 0.015772646637495575 -0.039383330852012892 0 0.015711233509722616 -0.039365794126899292 0 0.015733364085052142 -0.039306141988518256 0 0.015639421101973361 -0.039424622299054017 0 0.015724919027937611 -0.039354258168776947 0 0.015711233509722616 -0.039365794126899292 0 0.015724919027937611 -0.039354258168776947 0 0.015711233509722616 -0.039365794126899292 0 0.015733364085052142 -0.039306141988518256 0 0.020804206943674151 -0.034743383205817678 0 0.020037072441803597 -0.03270788140843886 0 0.022073018398170816 -0.032840940330603988 0 0.018740217790785919 -0.036848779159840209 0 0.019017508845361186 -0.036756906605786087 0 0.022073018398170816 -0.032840940330603988 0 0.020694561745608436 -0.0314962828323972 0 0.021694323308052276 -0.030835978806452169 0 0.020037072441803597 -0.03270788140843886 0 0.022073018398170816 -0.032840940330603988 0 0.020694561745608436 -0.0314962828323972 0 0.020694561745608436 -0.0314962828323972 0 0.021694323308052276 -0.030835978806452169 0 0.020479544750015267 -0.030201134713784366 0 0.021694323308052276 -0.030835978806452169 0 0.021358891382037035 -0.029614457805213962 0 0.020479544750015267 -0.030201134713784366 0 0.021694323308052276 -0.030835978806452169 0 0.021358891382037035 -0.029614457805213962 0 0.02248690166065959 -0.029850957113611323 0 0.020479544750015267 -0.030201134713784366 0 0.019725082660940793 -0.029460919904608224 0 0.020558213973476056 -0.028643074995404492 0 0.021358891382037035 -0.029614457805213962 0 0.020479544750015267 -0.030201134713784366 0 0.020558213973476056 -0.028643074995404492 0 0.018968651534280203 -0.02761446911100849 0 0.018997519768979048 -0.027252663592018871 0 0.019319809447513162 -0.026960175815615484 0 0.018860753555557462 -0.026964448528799027 0 0.018625992077667516 -0.027267617267940216 0 0.018793913996910147 -0.026794578486708194 0 0.018860753555557462 -0.026964448528799027 0 0.018844678461825536 -0.027195059260386491 0 0.018625992077667516 -0.027267617267940216 0 0.018999728152070457 -0.027023462758652108 0 0.018997519768979048 -0.027252663592018871 0 0.019319809447513162 -0.026960175815615484 0 0.018860753555557462 -0.026964448528799027 0 0.018999728152070457 -0.027023462758652108 0 0.018966657753881792 -0.026749297906120913 0 0.018999728152070457 -0.027023462758652108 0 0.018966657753881792 -0.026749297906120913 0 0.019319809447513162 -0.026960175815615484 0 0.018999728152070457 -0.027023462758652108 0 0.018997519768979048 -0.027252663592018871 0 0.018844678461825536 -0.027195059260386491 0 0.018860753555557462 -0.026964448528799027 0 0.018999728152070457 -0.027023462758652108 0 0.018844678461825536 -0.027195059260386491 0 0.018968651534280203 -0.02761446911100849 0 0.018997519768979048 -0.027252663592018871 0 0.01880907448455264 -0.027429290012028134 0 0.018997519768979048 -0.027252663592018871 0 0.01880907448455264 -0.027429290012028134 0 0.018844678461825536 -0.027195059260386491 0 0.01880907448455264 -0.027429290012028134 0 0.018744280653259792 -0.027291172540932059 0 0.018625992077667516 -0.027267617267940216 0 0.018744280653259792 -0.027291172540932059 0 0.018844678461825536 -0.027195059260386491 0 0.018625992077667516 -0.027267617267940216 0 0.01880907448455264 -0.027429290012028134 0 0.018744280653259792 -0.027291172540932059 0 0.018844678461825536 -0.027195059260386491 0 0.021694323308052276 -0.030835978806452169 0 0.023214002590764209 -0.031211113773605994 0 0.02248690166065959 -0.029850957113611323 0 0.018397123080812559 -0.032056701768369458 0 0.020768721348343996 -0.027846859791544172 0 0.018625992077667516 -0.027267617267940216 0 0.0187680261978483 -0.026423678200527618 0 0.018793913996910147 -0.026794578486708194 0 0.0187680261978483 -0.026423678200527618 0 0.018816585866257066 -0.026516086979932466 0 0.018793913996910147 -0.026794578486708194 0 0.018860753555557462 -0.026964448528799027 0 0.018793913996910147 -0.026794578486708194 0 0.018966657753881792 -0.026749297906120913 0 0.018816585866257066 -0.026516086979932466 0 0.018793913996910147 -0.026794578486708194 0 0.018966657753881792 -0.026749297906120913 0 0.018816585866257066 -0.026516086979932466 0 0.018966657753881792 -0.026749297906120913 0 0.019102560533871531 -0.026458158799576782 0 0.01868704204412738 -0.031055815672217237 0 0.0023585730368675859 -0.023182068298552617 0 0.019319809447513162 -0.026960175815615484 0 0.019102560533871531 -0.026458158799576782 0 0.019489169023751227 -0.026172832247072727 0 0.018966657753881792 -0.026749297906120913 0 0.019319809447513162 -0.026960175815615484 0 0.019102560533871531 -0.026458158799576782 0 0.013617226883824786 -0.034785167336460796 0 0.014019678369584331 -0.036853543421705763 0 0.014538813882697083 -0.036302944955333961 0 0.013617226883824786 -0.034785167336460796 0 0.015180776883474311 -0.034896496353113392 0 0.014538813882697083 -0.036302944955333961 0 0.015908946681420389 -0.035499895334798096 0 0.01868704204412738 -0.031055815672217237 0 -0.020444149426554006 -0.023065754277016404 0 -0.019309711435636423 -0.0231943020739163 0 -0.018604291778926297 -0.024985958227897717 0 0.013617226883824786 -0.034785167336460796 0 0.015180776883474311 -0.034896496353113392 0 0.01449875665896232 -0.031330318563871001 0 -0.020444149426554006 -0.023065754277016404 0 -0.019771136929965828 -0.018704186367597703 0 -0.020431449702528959 -0.017059381192149149 0 -0.020444149426554006 -0.023065754277016404 0 -0.019771136929965828 -0.018704186367597703 0 -0.018530735196678447 -0.019633698842386606 0 -0.020444149426554006 -0.023065754277016404 0 -0.019309711435636423 -0.0231943020739163 0 -0.018530735196678447 -0.019633698842386606 0 -0.0035076907622489913 -0.028835022723413071 0 0.0023585730368675859 -0.023182068298552617 0 -0.020444149426554006 -0.023065754277016404 0 -0.021811478516415708 -0.015154758769599668 0 -0.020431449702528959 -0.017059381192149149 0 -0.019309711435636423 -0.0231943020739163 0 -0.017763332435335257 -0.024422467074344159 0 -0.01807855653220378 -0.024467372830250259 0 -0.019309711435636423 -0.0231943020739163 0 -0.018530735196678447 -0.019633698842386606 0 -0.015086723233366817 -0.017056832275841472 0 -0.019771136929965828 -0.018704186367597703 0 -0.018530735196678447 -0.019633698842386606 0 -0.017966071694243545 -0.016219146814523976 0 -0.018530735196678447 -0.019633698842386606 0 -0.015086723233366817 -0.017056832275841472 0 -0.017966071694243545 -0.016219146814523976 0 -0.019332919585138539 -0.02316207347489644 0 -0.016673642731737805 -0.020849994930828463 0 -0.017683600682963173 -0.024874045653705032 0 -0.017763332435335257 -0.024422467074344159 0 -0.01807855653220378 -0.024467372830250259 0 -0.01807855653220378 -0.024467372830250259 0 -0.018604291778926297 -0.024985958227897717 0 -0.017817008994002195 -0.025236809875756966 0 -0.017683600682963173 -0.024874045653705032 0 -0.01807855653220378 -0.024467372830250259 0 -0.017817008994002195 -0.025236809875756966 0 -0.019309711435636423 -0.0231943020739163 0 -0.01807855653220378 -0.024467372830250259 0 -0.018604291778926297 -0.024985958227897717 0 -0.018604291778926297 -0.024985958227897717 0 -0.018187527461782829 -0.025727056220505893 0 -0.019281713050017326 -0.026105995591817074 0 -0.018604291778926297 -0.024985958227897717 0 -0.018187527461782829 -0.025727056220505893 0 -0.017817008994002195 -0.025236809875756966 0 -0.017619307013975342 -0.025812610795544488 0 -0.018187527461782829 -0.025727056220505893 0 -0.017817008994002195 -0.025236809875756966 0 -0.017619307013975342 -0.025812610795544488 0 -0.018187527461782829 -0.025727056220505893 0 -0.017987662806641904 -0.026543248001398716 0 -0.01882199869164972 -0.02734905003332461 0 -0.017987662806641904 -0.026543248001398716 0 -0.019281713050017326 -0.026105995591817074 0 -0.018187527461782829 -0.025727056220505893 0 -0.017987662806641904 -0.026543248001398716 0 -0.019281713050017326 -0.026105995591817074 0 -0.002093436156330107 -0.03298926971135821 0 -0.0019775933429838836 -0.031791772800077847 0 0.014456643374492614 -0.038536518436941385 0 0.015133165796789527 -0.037565711037895078 0 0.014370405446315494 -0.037858660697645492 0 0.015133165796789527 -0.037565711037895078 0 0.014370405446315494 -0.037858660697645492 0 0.014480264356029331 -0.037133280438170525 0 0.014456643374492614 -0.038536518436941385 0 0.014177512321584838 -0.038426331971149509 0 0.014370405446315494 -0.037858660697645492 0 0.014177512321584838 -0.038426331971149509 0 0.013752192194932032 -0.037760100660748815 0 0.014370405446315494 -0.037858660697645492 0 0.013752192194932032 -0.037760100660748815 0 0.014370405446315494 -0.037858660697645492 0 0.014019678369584331 -0.036853543421705763 0 0.013424012308899887 -0.03741318696667903 0 0.013617226883824786 -0.034785167336460796 0 0.014019678369584331 -0.036853543421705763 0 0.014370405446315494 -0.037858660697645492 0 0.014480264356029331 -0.037133280438170525 0 0.014019678369584331 -0.036853543421705763 0 0.013752192194932032 -0.037760100660748815 0 0.013424012308899887 -0.03741318696667903 0 0.014019678369584331 -0.036853543421705763 0 0.014480264356029331 -0.037133280438170525 0 0.014019678369584331 -0.036853543421705763 0 0.014538813882697083 -0.036302944955333961 0 -0.020444149426554006 -0.023065754277016404 0 -0.018604291778926297 -0.024985958227897717 0 -0.019281713050017326 -0.026105995591817074 0 0.015180776883474311 -0.034896496353113392 0 0.015133165796789527 -0.037565711037895078 0 0.014538813882697083 -0.036302944955333961 0 -0.0035076907622489913 -0.028835022723413071 0 -0.0019775933429838836 -0.031791772800077847 0 0.015133165796789527 -0.037565711037895078 0 0.014480264356029331 -0.037133280438170525 0 0.014538813882697083 -0.036302944955333961 0 0.016747903071286784 -0.032270345157128677 0 0.016707834037641867 -0.032367278762608871 0 0.016552549090008025 -0.031022796258398797 0 0.016747903071286784 -0.032270345157128677 0 0.016552549090008025 -0.031022796258398797 0 0.017112874552431177 -0.0305377582094357 0 0.016747903071286784 -0.032270345157128677 0 0.017112874552431177 -0.0305377582094357 0 0.01781038399160188 -0.031188349597140543 0 0.016747903071286784 -0.032270345157128677 0 0.016918138312423333 -0.033907049383489291 0 0.015322414492764455 -0.034548606807575426 0 0.01670938949199887 -0.032459883157726931 0 0.016465089078620123 -0.03400902325100328 0 0.016747903071286784 -0.032270345157128677 0 0.016707834037641867 -0.032367278762608871 0 0.017574232729309556 -0.033375257761878364 0 0.016707834037641867 -0.032367278762608871 0 0.017574232729309556 -0.033375257761878364 0 0.016954946181089722 -0.033209726969279853 0 0.016707834037641867 -0.032367278762608871 0 0.016100845121555282 -0.032502937140611712 0 0.016954946181089722 -0.033209726969279853 0 0.016100845121555282 -0.032502937140611712 0 0.016954946181089722 -0.033209726969279853 0 0.01662428846974159 -0.033185179601901052 0 0.016037707333901165 -0.0315813316150797 0 0.016100845121555282 -0.032502937140611712 0 0.0147908441012784 -0.031683947399536345 0 0.016707834037641867 -0.032367278762608871 0 0.016037707333901165 -0.0315813316150797 0 0.016100845121555282 -0.032502937140611712 0 0.016707834037641867 -0.032367278762608871 0 0.016037707333901165 -0.0315813316150797 0 0.016552549090008025 -0.031022796258398797 0 0.016037707333901165 -0.0315813316150797 0 0.016552549090008025 -0.031022796258398797 0 0.015384691656352492 -0.030190083267789419 0 0.016037707333901165 -0.0315813316150797 0 0.015384691656352492 -0.030190083267789419 0 0.0147908441012784 -0.031683947399536345 0 0.017549241391647392 -0.026437195850326261 0 0.017784738672543696 -0.026967879078715111 0 0.017163268319018151 -0.02751428869641143 0 0.017549241391647392 -0.026437195850326261 0 0.016732243513707865 -0.028506397175099688 0 0.017163268319018151 -0.02751428869641143 0 0.015925064865739382 -0.027701661146424691 0 0.017025205427259327 -0.028541201499626811 0 0.016552549090008025 -0.031022796258398797 0 0.015384691656352492 -0.030190083267789419 0 0.016732243513707865 -0.028506397175099688 0 0.016732243513707865 -0.028506397175099688 0 0.017112874552431177 -0.0305377582094357 0 0.01761548881370226 -0.029304234968084646 0 0.016552549090008025 -0.031022796258398797 0 0.016732243513707865 -0.028506397175099688 0 0.017112874552431177 -0.0305377582094357 0 0.017112874552431177 -0.0305377582094357 0 0.01761548881370226 -0.029304234968084646 0 0.01781038399160188 -0.031188349597140543 0 0.01761548881370226 -0.029304234968084646 0 0.018142079215287047 -0.029762487312460641 0 0.018333132771318577 -0.028917776450822164 0 0.01761548881370226 -0.029304234968084646 0 0.018142079215287047 -0.029762487312460641 0 0.01781038399160188 -0.031188349597140543 0 0.018142079215287047 -0.029762487312460641 0 0.018872801746418498 -0.029716654134077598 0 0.018333132771318577 -0.028917776450822164 0 0.018142079215287047 -0.029762487312460641 0 0.01781038399160188 -0.031188349597140543 0 0.018872801746418498 -0.029716654134077598 0 0.01781038399160188 -0.031188349597140543 0 0.018872801746418498 -0.029716654134077598 0 0.019377915361726818 -0.031017606398367592 0 0.020479544750015267 -0.030201134713784366 0 0.019725082660940793 -0.029460919904608224 0 0.019377915361726818 -0.031017606398367592 0 0.019725082660940793 -0.029460919904608224 0 0.018872801746418498 -0.029716654134077598 0 0.019377915361726818 -0.031017606398367592 0 0.020694561745608436 -0.0314962828323972 0 0.020479544750015267 -0.030201134713784366 0 0.019377915361726818 -0.031017606398367592 0 0.01781038399160188 -0.031188349597140543 0 0.019377915361726818 -0.031017606398367592 0 0.018458207717288923 -0.032813758396029923 0 0.020037072441803597 -0.03270788140843886 0 0.020694561745608436 -0.0314962828323972 0 0.019377915361726818 -0.031017606398367592 0 0.020037072441803597 -0.03270788140843886 0 0.019377915361726818 -0.031017606398367592 0 0.018458207717288923 -0.032813758396029923 0 0.020037072441803597 -0.03270788140843886 0 0.018458207717288923 -0.032813758396029923 0 0.019093070750508544 -0.034229208589512797 0 0.01781038399160188 -0.031188349597140543 0 0.018458207717288923 -0.032813758396029923 0 0.016918138312423333 -0.033907049383489291 0 0.016747903071286784 -0.032270345157128677 0 0.01781038399160188 -0.031188349597140543 0 0.016918138312423333 -0.033907049383489291 0 0.018458207717288923 -0.032813758396029923 0 0.016918138312423333 -0.033907049383489291 0 0.01776927374127827 -0.034975220441650724 0 0.016918138312423333 -0.033907049383489291 0 0.016698354173618962 -0.03559924157100449 0 0.01776927374127827 -0.034975220441650724 0 0.016698354173618962 -0.03559924157100449 0 0.01776927374127827 -0.034975220441650724 0 0.017112874099023224 -0.03657101033638064 0 0.016918138312423333 -0.033907049383489291 0 0.016698354173618962 -0.03559924157100449 0 0.015554750172118567 -0.03603381967993189 0 0.018458207717288923 -0.032813758396029923 0 0.019093070750508544 -0.034229208589512797 0 0.01776927374127827 -0.034975220441650724 0 0.01776927374127827 -0.034975220441650724 0 0.018135547500542804 -0.037316292780766432 0 0.017112874099023224 -0.03657101033638064 0 0.019093070750508544 -0.034229208589512797 0 0.01776927374127827 -0.034975220441650724 0 0.018135547500542804 -0.037316292780766432 0 0.020804206943674151 -0.034743383205817678 0 0.019093070750508544 -0.034229208589512797 0 0.018135547500542804 -0.037316292780766432 0 0.018135547500542804 -0.037316292780766432 0 0.017112874099023224 -0.03657101033638064 0 0.016831191069142503 -0.037773834589163002 0 0.017198640677026672 -0.037903068572970058 0 0.018135547500542804 -0.037316292780766432 0 0.017357450990927167 -0.038075378909590674 0 0.018135547500542804 -0.037316292780766432 0 0.016831191069142503 -0.037773834589163002 0 0.017357450990927167 -0.038075378909590674 0 0.016148027521697628 -0.036709374291620869 0 0.014752697404897477 -0.036495163567339069 0 0.015554750172118567 -0.03603381967993189 0 0.016698354173618962 -0.03559924157100449 0 0.016148027521697628 -0.036709374291620869 0 0.015554750172118567 -0.03603381967993189 0 0.017112874099023224 -0.03657101033638064 0 0.016831191069142503 -0.037773834589163002 0 0.016148027521697628 -0.036709374291620869 0 0.016698354173618962 -0.03559924157100449 0 0.017112874099023224 -0.03657101033638064 0 0.016148027521697628 -0.036709374291620869 0 0.016831191069142503 -0.037773834589163002 0 0.016148027521697628 -0.036709374291620869 0 0.015655440619391385 -0.03784198141220136 0 0.016148027521697628 -0.036709374291620869 0 0.014752697404897477 -0.036495163567339069 0 0.015655440619391385 -0.03784198141220136 0 0.014752697404897477 -0.036495163567339069 0 0.015576849892398948 -0.035459982986046523 0 0.015439919785091162 -0.033796215877384177 0 0.014752697404897477 -0.036495163567339069 0 0.015576849892398948 -0.035459982986046523 0 0.015288974036376008 -0.036312350398440059 0 0.017707864843373056 -0.034454463797330429 0 0.017572793087813468 -0.034561545773203972 0 0.016905730295593027 -0.034480273911111907 0 0.015576849892398948 -0.035459982986046523 0 0.015288974036376008 -0.036312350398440059 0 0.016905730295593027 -0.034480273911111907 0 0.016515747366498253 -0.035261359018794694 0 0.016876057086467257 -0.034440650136142004 0 0.014752697404897477 -0.036495163567339069 0 0.015288974036376008 -0.036312350398440059 0 0.015554750172118567 -0.03603381967993189 0 0.017707864843373056 -0.034454463797330429 0 0.017574232729309556 -0.033375257761878364 0 0.017442034816007836 -0.033942122209169701 0 0.016515747366498253 -0.035261359018794694 0 0.016465089078620123 -0.03400902325100328 0 0.015288974036376008 -0.036312350398440059 0 0.015554750172118567 -0.03603381967993189 0 0.015322414492764455 -0.034548606807575426 0 0.016918138312423333 -0.033907049383489291 0 0.015554750172118567 -0.03603381967993189 0 0.015322414492764455 -0.034548606807575426 0 0.016954946181089722 -0.033209726969279853 0 0.017317035479819914 -0.03390144611241603 0 0.01662428846974159 -0.033185179601901052 0 0.016954946181089722 -0.033209726969279853 0 0.017442034816007836 -0.033942122209169701 0 0.017317035479819914 -0.03390144611241603 0 0.017574232729309556 -0.033375257761878364 0 0.016954946181089722 -0.033209726969279853 0 0.017442034816007836 -0.033942122209169701 0 0.017317035479819914 -0.03390144611241603 0 0.017771860457424127 -0.034530453522035716 0 0.017819608550353253 -0.034411065174124539 0 0.017442034816007836 -0.033942122209169701 0 0.017317035479819914 -0.03390144611241603 0 0.017771860457424127 -0.034530453522035716 0 0.017771860457424127 -0.034530453522035716 0 0.018459143754614257 -0.034644469114163426 0 0.018461483978815356 -0.03446754306124146 0 0.017771860457424127 -0.034530453522035716 0 0.018459143754614257 -0.034644469114163426 0 0.017819608550353253 -0.034411065174124539 0 0.017707864843373056 -0.034454463797330429 0 0.017442034816007836 -0.033942122209169701 0 0.017771860457424127 -0.034530453522035716 0 0.017707864843373056 -0.034454463797330429 0 0.017771860457424127 -0.034530453522035716 0 0.017572793087813468 -0.034561545773203972 0 0.017771860457424127 -0.034530453522035716 0 0.017572793087813468 -0.034561545773203972 0 0.018461483978815356 -0.03446754306124146 0 0.017572793087813468 -0.034561545773203972 0 0.018461483978815356 -0.03446754306124146 0 0.017806351144602786 -0.034150729427533208 0 0.017572793087813468 -0.034561545773203972 0 0.017806351144602786 -0.034150729427533208 0 0.016905730295593027 -0.034480273911111907 0 0.018459143754614257 -0.034644469114163426 0 0.018461483978815356 -0.03446754306124146 0 0.019410604771913777 -0.034345777026435313 0 0.018461483978815356 -0.03446754306124146 0 0.019410604771913777 -0.034345777026435313 0 0.019637584586674237 -0.033701233357217447 0 0.018461483978815356 -0.03446754306124146 0 0.019637584586674237 -0.033701233357217447 0 0.018615920533094649 -0.033090378116183088 0 0.019410604771913777 -0.034345777026435313 0 0.019637584586674237 -0.033701233357217447 0 0.022304041853618825 -0.033055293153375041 0 0.018461483978815356 -0.03446754306124146 0 0.018615920533094649 -0.033090378116183088 0 0.017806351144602786 -0.034150729427533208 0 0.018615920533094649 -0.033090378116183088 0 0.019776434400388468 -0.032834149760212053 0 0.018927817021740758 -0.031369824945358102 0 0.019637584586674237 -0.033701233357217447 0 0.018615920533094649 -0.033090378116183088 0 0.019776434400388468 -0.032834149760212053 0 0.019776434400388468 -0.032834149760212053 0 0.018927817021740758 -0.031369824945358102 0 0.022304041853618825 -0.033055293153375041 0 0.019637584586674237 -0.033701233357217447 0 0.019776434400388468 -0.032834149760212053 0 0.022304041853618825 -0.033055293153375041 0 0.018615920533094649 -0.033090378116183088 0 0.018927817021740758 -0.031369824945358102 0 0.01784862681779157 -0.031942495701400495 0 0.01784862681779157 -0.031942495701400495 0 0.016682289605096799 -0.03195254968482919 0 0.017653209197759565 -0.030935575789984224 0 0.018927817021740758 -0.031369824945358102 0 0.01784862681779157 -0.031942495701400495 0 0.017653209197759565 -0.030935575789984224 0 0.01784862681779157 -0.031942495701400495 0 0.017382702219109817 -0.03308652444365584 0 0.016682289605096799 -0.03195254968482919 0 0.018615920533094649 -0.033090378116183088 0 0.01784862681779157 -0.031942495701400495 0 0.017382702219109817 -0.03308652444365584 0 0.018615920533094649 -0.033090378116183088 0 0.017382702219109817 -0.03308652444365584 0 0.017806351144602786 -0.034150729427533208 0 0.017382702219109817 -0.03308652444365584 0 0.017806351144602786 -0.034150729427533208 0 0.016905730295593027 -0.034480273911111907 0 0.017382702219109817 -0.03308652444365584 0 0.016905730295593027 -0.034480273911111907 0 0.015439919785091162 -0.033796215877384177 0 0.017382702219109817 -0.03308652444365584 0 0.015439919785091162 -0.033796215877384177 0 0.016682289605096799 -0.03195254968482919 0 0.015576849892398948 -0.035459982986046523 0 0.016905730295593027 -0.034480273911111907 0 0.015439919785091162 -0.033796215877384177 0 0.014631907546684135 -0.03637513742426271 0 0.014465160682647528 -0.036119421100696041 0 0.014752697404897477 -0.036495163567339069 0 0.013102768019652251 -0.038535277080338777 0 0.014425798860900519 -0.038792936117970848 0 0.013102768019652251 -0.038535277080338777 0 0.014425798860900519 -0.038792936117970848 0 0.013258231040714158 -0.039668776048436674 0 0.013979769595477016 -0.040328129728238425 0 0.013258231040714158 -0.039668776048436674 0 0.012857758005135816 -0.040754393852253698 0 0.014425798860900519 -0.038792936117970848 0 0.013979769595477016 -0.040328129728238425 0 0.013258231040714158 -0.039668776048436674 0 0.014465160682647528 -0.036119421100696041 0 0.013974138765062625 -0.035935443657967879 0 0.013258231040714158 -0.039668776048436674 0 0.012560816593827439 -0.039853873958303643 0 0.012857758005135816 -0.040754393852253698 0 0.013102768019652251 -0.038535277080338777 0 0.013258231040714158 -0.039668776048436674 0 0.012560816593827439 -0.039853873958303643 0 0.012857758005135816 -0.040754393852253698 0 0.013621111091789675 -0.041538193140206688 0 0.012614445374565346 -0.041708662113217151 0 0.013979769595477016 -0.040328129728238425 0 0.013621111091789675 -0.041538193140206688 0 0.014288417049949877 -0.041578571885012357 0 0.013979769595477016 -0.040328129728238425 0 0.012857758005135816 -0.040754393852253698 0 0.013621111091789675 -0.041538193140206688 0 0.012838052207875098 -0.040342638868005355 0 0.019893528324342703 -0.048523538619834661 0 0.013621111091789675 -0.041538193140206688 0 0.014288417049949877 -0.041578571885012357 0 0.014180428202246128 -0.042723875930302663 0 0.013621111091789675 -0.041538193140206688 0 0.012931149322600886 -0.042969968031193358 0 0.013632385804457236 -0.042871276006667548 0 0.013621111091789675 -0.041538193140206688 0 0.014180428202246128 -0.042723875930302663 0 0.013632385804457236 -0.042871276006667548 0 0.013621111091789675 -0.041538193140206688 0 0.012614445374565346 -0.041708662113217151 0 0.013191414322005508 -0.042430309412858427 0 0.021763648188940558 -0.044637724973975494 0 0.019893528324342703 -0.048523538619834661 0 0.030944326600546829 -0.04768560128825975 0 0.028628885594014594 -0.049039881172669317 0 0.029398359463901097 -0.0510294074807578 0 0.030944326600546829 -0.04768560128825975 0 0.029169570321313301 -0.047197260833637254 0 0.028628885594014594 -0.049039881172669317 0 0.021763648188940558 -0.044637724973975494 0 0.024330110901468281 -0.040300935038900178 0 0.030944326600546829 -0.04768560128825975 0 0.029169570321313301 -0.047197260833637254 0 0.02919643123108694 -0.045060928498987657 0 0.029169570321313301 -0.047197260833637254 0 0.02757136604610589 -0.047308176528448313 0 0.02919643123108694 -0.045060928498987657 0 0.029169570321313301 -0.047197260833637254 0 0.028628885594014594 -0.049039881172669317 0 0.02757136604610589 -0.047308176528448313 0 0.040319750612750255 -0.043412021724257933 0 0.039783458474747367 -0.042710634294920377 0 0.038835048511068865 -0.043552695826877083 0 0.040319750612750255 -0.043412021724257933 0 0.040464522604616165 -0.042882324833573265 0 0.04022134375580709 -0.046592167322564035 0 0.040153745675326834 -0.043098216162543813 0 0.040205289383757503 -0.042893372325027809 0 0.04052318556308062 -0.042216994355940653 0 0.039783458474747367 -0.042710634294920377 0 0.040273979936735579 -0.043080795554477247 0 0.040205289383757503 -0.042893372325027809 0 0.035784157266276519 -0.044350670114442402 0 0.036402173430766321 -0.043680333561409733 0 0.037161151693082248 -0.043279908440132055 0 0.035784157266276519 -0.044350670114442402 0 0.040319750612750255 -0.043412021724257933 0 0.039783458474747367 -0.042710634294920377 0 0.040273979936735579 -0.043080795554477247 0 0.039488343755368492 -0.041031042640949304 0 0.039659173060090501 -0.042034376160797034 0 0.038913042506988807 -0.041439616953180845 0 0.040205289383757503 -0.042893372325027809 0 0.039659173060090501 -0.042034376160797034 0 0.04052318556308062 -0.042216994355940653 0 0.039488343755368492 -0.041031042640949304 0 0.039659173060090501 -0.042034376160797034 0 0.04052318556308062 -0.042216994355940653 0 0.039783458474747367 -0.042710634294920377 0 0.040205289383757503 -0.042893372325027809 0 0.039659173060090501 -0.042034376160797034 0 0.029766325251728894 -0.035996890230244293 0 0.024330110901468281 -0.040300935038900178 0 0.039783458474747367 -0.042710634294920377 0 0.039659173060090501 -0.042034376160797034 0 0.039089175119571995 -0.042228170021278398 0 0.013974138765062625 -0.035935443657967879 0 0.024330110901468281 -0.040300935038900178 0 0.012857758005135816 -0.040754393852253698 0 0.012614445374565346 -0.041708662113217151 0 0.012108561281122955 -0.040787463901728847 0 0.012560816593827439 -0.039853873958303643 0 0.012857758005135816 -0.040754393852253698 0 0.012108561281122955 -0.040787463901728847 0 0.035784157266276519 -0.044350670114442402 0 0.024330110901468281 -0.040300935038900178 0 0.017827746375755828 -0.040369897262577385 0 0.017077323178939615 -0.039274862999909406 0 0.016608491831743 -0.041649432943937879 0 0.017077323178939615 -0.039274862999909406 0 0.016316957998299311 -0.039966065346465268 0 0.016608491831743 -0.041649432943937879 0 0.018168889367054915 -0.038706861893865206 0 0.017033261064000649 -0.039138947682994585 0 0.01852894871278216 -0.039016893391339701 0 0.017827746375755828 -0.040369897262577385 0 0.017077323178939615 -0.039274862999909406 0 0.017077323178939615 -0.039274862999909406 0 0.017357450990927167 -0.038075378909590674 0 0.016892837833382423 -0.038639112035896157 0 0.017414756228347632 -0.038354742382319465 0 0.017077323178939615 -0.039274862999909406 0 0.017357450990927167 -0.038075378909590674 0 0.016831191069142503 -0.037773834589163002 0 0.017357450990927167 -0.038075378909590674 0 0.016892837833382423 -0.038639112035896157 0 0.016831191069142503 -0.037773834589163002 0 0.016892837833382423 -0.038639112035896157 0 0.016219252406148008 -0.039223790183236705 0 0.016892837833382423 -0.038639112035896157 0 0.016219252406148008 -0.039223790183236705 0 0.016316957998299311 -0.039966065346465268 0 0.016219252406148008 -0.039223790183236705 0 0.016316957998299311 -0.039966065346465268 0 0.015650904914829053 -0.040049786593755195 0 0.017077323178939615 -0.039274862999909406 0 0.016892837833382423 -0.038639112035896157 0 0.016316957998299311 -0.039966065346465268 0 0.016316957998299311 -0.039966065346465268 0 0.015650904914829053 -0.040049786593755195 0 0.01565644040185862 -0.041070760398893895 0 0.015650904914829053 -0.040049786593755195 0 0.015136561814009207 -0.039618227691457272 0 0.015138285639743888 -0.040980953390779187 0 0.015650904914829053 -0.040049786593755195 0 0.015884187066871277 -0.038709502899391623 0 0.015136561814009207 -0.039618227691457272 0 0.016219252406148008 -0.039223790183236705 0 0.015650904914829053 -0.040049786593755195 0 0.015884187066871277 -0.038709502899391623 0 0.015884187066871277 -0.038709502899391623 0 0.015655440619391385 -0.03784198141220136 0 0.015136561814009207 -0.039618227691457272 0 0.016831191069142503 -0.037773834589163002 0 0.015884187066871277 -0.038709502899391623 0 0.015655440619391385 -0.03784198141220136 0 0.016831191069142503 -0.037773834589163002 0 0.016219252406148008 -0.039223790183236705 0 0.015884187066871277 -0.038709502899391623 0 0.014425798860900519 -0.038792936117970848 0 0.015655440619391385 -0.03784198141220136 0 0.015136561814009207 -0.039618227691457272 0 0.014752697404897477 -0.036495163567339069 0 0.014425798860900519 -0.038792936117970848 0 0.015655440619391385 -0.03784198141220136 0 0.013979769595477016 -0.040328129728238425 0 0.015136561814009207 -0.039618227691457272 0 0.014641709507644467 -0.040800496499986294 0 0.014425798860900519 -0.038792936117970848 0 0.013979769595477016 -0.040328129728238425 0 0.015136561814009207 -0.039618227691457272 0 0.015136561814009207 -0.039618227691457272 0 0.014641709507644467 -0.040800496499986294 0 0.015138285639743888 -0.040980953390779187 0 0.013979769595477016 -0.040328129728238425 0 0.014641709507644467 -0.040800496499986294 0 0.014288417049949877 -0.041578571885012357 0 0.014641709507644467 -0.040800496499986294 0 0.014781755407486814 -0.041826771339100621 0 0.015138285639743888 -0.040980953390779187 0 0.014641709507644467 -0.040800496499986294 0 0.014781755407486814 -0.041826771339100621 0 0.014288417049949877 -0.041578571885012357 0 0.014288417049949877 -0.041578571885012357 0 0.014588381867948001 -0.042307229156230995 0 0.014180428202246128 -0.042723875930302663 0 0.014588381867948001 -0.042307229156230995 0 0.014733818399569602 -0.04282792983639104 0 0.014180428202246128 -0.042723875930302663 0 0.014588381867948001 -0.042307229156230995 0 0.014887031838269869 -0.042586415351893024 0 0.014733818399569602 -0.04282792983639104 0 0.014781755407486814 -0.041826771339100621 0 0.014588381867948001 -0.042307229156230995 0 0.014887031838269869 -0.042586415351893024 0 0.014781755407486814 -0.041826771339100621 0 0.014288417049949877 -0.041578571885012357 0 0.014588381867948001 -0.042307229156230995 0 0.014781755407486814 -0.041826771339100621 0 0.014887031838269869 -0.042586415351893024 0 0.015142306046597023 -0.04227496487495816 0 0.014887031838269869 -0.042586415351893024 0 0.015055583218454483 -0.042997753603389595 0 0.014979985457755503 -0.042901591287815906 0 0.014887031838269869 -0.042586415351893024 0 0.014979985457755503 -0.042901591287815906 0 0.014733818399569602 -0.04282792983639104 0 0.015055583218454483 -0.042997753603389595 0 0.015048134038057536 -0.043788436679748841 0 0.015065919755885655 -0.042962385795577811 0 0.014887031838269869 -0.042586415351893024 0 0.015055583218454483 -0.042997753603389595 0 0.015142306046597023 -0.04227496487495816 0 0.015142306046597023 -0.04227496487495816 0 0.015138285639743888 -0.040980953390779187 0 0.01565644040185862 -0.041070760398893895 0 0.014781755407486814 -0.041826771339100621 0 0.015142306046597023 -0.04227496487495816 0 0.015138285639743888 -0.040980953390779187 0 0.015650904914829053 -0.040049786593755195 0 0.015138285639743888 -0.040980953390779187 0 0.01565644040185862 -0.041070760398893895 0 0.016316957998299311 -0.039966065346465268 0 0.01565644040185862 -0.041070760398893895 0 0.016608491831743 -0.041649432943937879 0 0.01565644040185862 -0.041070760398893895 0 0.015546799811671719 -0.042197764825856 0 0.016608491831743 -0.041649432943937879 0 0.015142306046597023 -0.04227496487495816 0 0.01565644040185862 -0.041070760398893895 0 0.015546799811671719 -0.042197764825856 0 0.015546799811671719 -0.042197764825856 0 0.015048134038057536 -0.043788436679748841 0 0.016608491831743 -0.041649432943937879 0 0.015055583218454483 -0.042997753603389595 0 0.015142306046597023 -0.04227496487495816 0 0.015048134038057536 -0.043788436679748841 0 0.015142306046597023 -0.04227496487495816 0 0.015546799811671719 -0.042197764825856 0 0.015048134038057536 -0.043788436679748841 0 0.015048134038057536 -0.043788436679748841 0 0.016608491831743 -0.041649432943937879 0 0.016424976560470834 -0.045717961407044844 0 0.019083564326357123 -0.041694257127129 0 0.016608491831743 -0.041649432943937879 0 0.016424976560470834 -0.045717961407044844 0 0.019083564326357123 -0.041694257127129 0 0.017827746375755828 -0.040369897262577385 0 0.016608491831743 -0.041649432943937879 0 0.015792214232517417 -0.048908478095042923 0 0.01477811642882961 -0.050547519596426518 0 0.015187157829383742 -0.051529853698144015 0 0.015792214232517417 -0.048908478095042923 0 0.014787678966592758 -0.047612442422657567 0 0.01477811642882961 -0.050547519596426518 0 0.015048134038057536 -0.043788436679748841 0 0.016424976560470834 -0.045717961407044844 0 0.014787678966592758 -0.047612442422657567 0 0.015792214232517417 -0.048908478095042923 0 0.016424976560470834 -0.045717961407044844 0 0.014787678966592758 -0.047612442422657567 0 0.015048134038057536 -0.043788436679748841 0 0.014787678966592758 -0.047612442422657567 0 0.013929696170792304 -0.046462695905558869 0 0.01502170777293574 -0.043795466044274832 0 0.013689760635006097 -0.044831233499576191 0 0.015048134038057536 -0.043788436679748841 0 0.013929696170792304 -0.046462695905558869 0 0.012379744696375695 -0.046570144961131342 0 0.014787678966592758 -0.047612442422657567 0 0.013929696170792304 -0.046462695905558869 0 0.013409752586991458 -0.047691781465498927 0 0.014787678966592758 -0.047612442422657567 0 0.01477811642882961 -0.050547519596426518 0 0.013468639530425647 -0.049454244189194814 0 0.014787678966592758 -0.047612442422657567 0 0.013409752586991458 -0.047691781465498927 0 0.013468639530425647 -0.049454244189194814 0 0.01477811642882961 -0.050547519596426518 0 0.013468639530425647 -0.049454244189194814 0 0.013646327053163961 -0.051232591396532176 0 0.012116832953005021 -0.050149278282800587 0 0.013468639530425647 -0.049454244189194814 0 0.013646327053163961 -0.051232591396532176 0 0.012116832953005021 -0.050149278282800587 0 0.012261437454151817 -0.048536235839258778 0 0.010780437894878737 -0.048553805049537789 0 0.012116832953005021 -0.050149278282800587 0 0.012261437454151817 -0.048536235839258778 0 0.013468639530425647 -0.049454244189194814 0 0.013409752586991458 -0.047691781465498927 0 0.012261437454151817 -0.048536235839258778 0 0.013468639530425647 -0.049454244189194814 0 0.013929696170792304 -0.046462695905558869 0 0.013409752586991458 -0.047691781465498927 0 0.012379744696375695 -0.046570144961131342 0 0.013409752586991458 -0.047691781465498927 0 0.012261437454151817 -0.048536235839258778 0 0.012379744696375695 -0.046570144961131342 0 0.015055583218454483 -0.042997753603389595 0 0.015065919755885655 -0.042962385795577811 0 0.014979985457755503 -0.042901591287815906 0 0.014979985457755503 -0.042901591287815906 0 0.014942991172365359 -0.043104276775606278 0 0.014733818399569602 -0.04282792983639104 0 0.015065919755885655 -0.042962385795577811 0 0.014979985457755503 -0.042901591287815906 0 0.014942991172365359 -0.043104276775606278 0 0.012261437454151817 -0.048536235839258778 0 0.012379744696375695 -0.046570144961131342 0 0.010780437894878737 -0.048553805049537789 0 0.015065919755885655 -0.042962385795577811 0 0.014942991172365359 -0.043104276775606278 0 0.014782417018432527 -0.043528466317241672 0 0.013689760635006097 -0.044831233499576191 0 0.014433938142743501 -0.046834594181151511 0 0.014942991172365359 -0.043104276775606278 0 0.014527426069223422 -0.043150232888549682 0 0.014643920271158869 -0.043663272001956278 0 0.01564054736303825 -0.04312665414979875 0 0.014433938142743501 -0.046834594181151511 0 0.014527426069223422 -0.043150232888549682 0 0.014733818399569602 -0.04282792983639104 0 0.014180428202246128 -0.042723875930302663 0 0.014942991172365359 -0.043104276775606278 0 0.014527426069223422 -0.043150232888549682 0 0.014733818399569602 -0.04282792983639104 0 0.014527426069223422 -0.043150232888549682 0 0.014180428202246128 -0.042723875930302663 0 0.013999462862211572 -0.043460676624561427 0 0.014527426069223422 -0.043150232888549682 0 0.014643920271158869 -0.043663272001956278 0 0.013999462862211572 -0.043460676624561427 0 0.014433938142743501 -0.046834594181151511 0 0.017709882247309069 -0.053374175858158297 0 0.014643920271158869 -0.043663272001956278 0 0.013999462862211572 -0.043460676624561427 0 0.014069438828843961 -0.044245868217224163 0 0.012116832953005021 -0.050149278282800587 0 0.010780437894878737 -0.048553805049537789 0 0.0094834527410851532 -0.05015801359625404 0 0.014433938142743501 -0.046834594181151511 0 0.017074140426167825 -0.054122716193807915 0 0.016829135204034826 -0.049702111870846305 0 0.015363835908754168 -0.05138560135369858 0 0.015111210727442252 -0.051090592986117608 0 0.017074140426167825 -0.054122716193807915 0 0.017709882247309069 -0.053374175858158297 0 0.020471927389091451 -0.058698234258346603 0 0.020553570850897158 -0.056372273056472209 0 0.018871273334386696 -0.056858704933097387 0 0.017074140426167825 -0.054122716193807915 0 0.015328895094455168 -0.054618553818387379 0 0.012116832953005021 -0.050149278282800587 0 0.0094834527410851532 -0.05015801359625404 0 0.012260840625776396 -0.052803314703935365 0 0.019493113727651296 -0.05499997243522093 0 0.020553570850897158 -0.056372273056472209 0 0.02175408355642024 -0.054999971237810037 0 0.019493113727651296 -0.05499997243522093 0 0.020553570850897158 -0.056372273056472209 0 0.018871273334386696 -0.056858704933097387 0 0.019493113727651296 -0.05499997243522093 0 0.017232171344631311 -0.054999990331288551 0 0.018871273334386696 -0.056858704933097387 0 0.017231466793344939 -0.054999975919682552 0 0.015328895094455168 -0.054618553818387379 0 0.017222185010788045 -0.054999521181433052 0 0.012260840625776396 -0.052803314703935365 0 0.015363322552527488 -0.053416370467993225 0 0.012260840625776396 -0.052803314703935365 0 0.013646327053163961 -0.051232591396532176 0 0.015363322552527488 -0.053416370467993225 0 0.012116832953005021 -0.050149278282800587 0 0.012260840625776396 -0.052803314703935365 0 0.013646327053163961 -0.051232591396532176 0 0.01477811642882961 -0.050547519596426518 0 0.013646327053163961 -0.051232591396532176 0 0.015363322552527488 -0.053416370467993225 0 0.01477811642882961 -0.050547519596426518 0 0.015363322552527488 -0.053416370467993225 0 0.015187157829383742 -0.051529853698144015 0 0.017222185010788045 -0.054999521181433052 0 0.015363322552527488 -0.053416370467993225 0 0.015323229283071537 -0.054998334561267417 0 0.015363322552527488 -0.053416370467993225 0 0.015323229283071537 -0.054998334561267417 0 0.014890064318687972 -0.053436273830812779 0 0.013421485654592714 -0.054997832686316757 0 0.015323229283071537 -0.054998334561267417 0 0.014890064318687972 -0.053436273830812779 0 0.015363322552527488 -0.053416370467993225 0 0.014890064318687972 -0.053436273830812779 0 0.015187157829383742 -0.051529853698144015 0 0.015648379497099286 -0.051253344850263879 0 0.014890064318687972 -0.053436273830812779 0 0.015187157829383742 -0.051529853698144015 0 0.015648379497099286 -0.051253344850263879 0 0.015792214232517417 -0.048908478095042923 0 0.015187157829383742 -0.051529853698144015 0 0.028338353580294448 -0.05306644891962848 0 0.029892305680106274 -0.054176032919800873 0 0.029398359463901097 -0.0510294074807578 0 0.028338353580294448 -0.05306644891962848 0 0.029892305680106274 -0.054176032919800873 0 0.027390551620604376 -0.054845858985296453 0 0.028338353580294448 -0.05306644891962848 0 0.02629239036046787 -0.051930416243300768 0 0.027390551620604376 -0.054845858985296453 0 0.02629239036046787 -0.051930416243300768 0 0.027390551620604376 -0.054845858985296453 0 0.026740750972954544 -0.055398118626439272 0 0.035784157266276519 -0.044350670114442402 0 0.032997333980494738 -0.04951576009738632 0 0.028628885594014594 -0.049039881172669317 0 0.02629239036046787 -0.051930416243300768 0 0.029398359463901097 -0.0510294074807578 0 0.028628885594014594 -0.049039881172669317 0 0.02757136604610589 -0.047308176528448313 0 0.02629239036046787 -0.051930416243300768 0 0.028338353580294448 -0.05306644891962848 0 0.02629239036046787 -0.051930416243300768 0 0.029398359463901097 -0.0510294074807578 0 0.040319750612750255 -0.043412021724257933 0 0.04022134375580709 -0.046592167322564035 0 0.038835048511068865 -0.043552695826877083 0 0.029892305680106274 -0.054176032919800873 0 0.029398359463901097 -0.0510294074807578 0 0.032632227910255981 -0.050083143070870542 0 0.030944326600546829 -0.04768560128825975 0 0.029398359463901097 -0.0510294074807578 0 0.032632227910255981 -0.050083143070870542 0 0.012931149322600886 -0.042969968031193358 0 0.013999462862211572 -0.043460676624561427 0 0.014069438828843961 -0.044245868217224163 0 0.019893528324342703 -0.048523538619834661 0 0.017709882247309069 -0.053374175858158297 0 0.012931149322600886 -0.042969968031193358 0 0.013632385804457236 -0.042871276006667548 0 0.013999462862211572 -0.043460676624561427 0 0.014180428202246128 -0.042723875930302663 0 0.013632385804457236 -0.042871276006667548 0 0.013999462862211572 -0.043460676624561427 0 0.023297148168631609 -0.059363461542333948 0 0.022048917210968754 -0.058030472432121304 0 0.023128623335363859 -0.057992041463432682 0 0.028026593370923666 -0.056906454904388538 0 0.019893528324342703 -0.048523538619834661 0 0.024272042312882176 -0.057997344364926658 0 0.023297148168631609 -0.059363461542333948 0 0.023128623335363859 -0.057992041463432682 0 0.024272042312882176 -0.057997344364926658 0 0.023128623335363859 -0.057992041463432682 0 0.023649561036269865 -0.05761257330909117 0 0.024272042312882176 -0.057997344364926658 0 0.023649561036269865 -0.05761257330909117 0 0.024137896570443785 -0.056564473000470746 0 0.023128623335363859 -0.057992041463432682 0 0.023649561036269865 -0.05761257330909117 0 0.023462631471584571 -0.05690184553229518 0 0.023462631471584571 -0.05690184553229518 0 0.024137896570443785 -0.056564473000470746 0 0.022890922458419869 -0.056585331557980775 0 0.023649561036269865 -0.05761257330909117 0 0.023462631471584571 -0.05690184553229518 0 0.024137896570443785 -0.056564473000470746 0 0.02153143615085432 -0.058213651242524124 0 0.023462631471584571 -0.05690184553229518 0 0.022890922458419869 -0.056585331557980775 0 0.021386493417832046 -0.05804513888267767 0 0.02153143615085432 -0.058213651242524124 0 0.022890922458419869 -0.056585331557980775 0 0.017709882247309069 -0.053374175858158297 0 0.024361513846634968 -0.057991833873306073 0 0.020471927389091451 -0.058698234258346603 0 0.020553570850897158 -0.056372273056472209 0 0.022234297793434051 -0.056872481983335617 0 0.017074140426167825 -0.054122716193807915 0 0.02286144629571487 -0.057138302516351991 0 0.022048917210968754 -0.058030472432121304 0 0.023128623335363859 -0.057992041463432682 0 0.023462631471584571 -0.05690184553229518 0 0.020553570850897158 -0.056372273056472209 0 0.022234297793434051 -0.056872481983335617 0 0.02175408355642024 -0.054999971237810037 0 0.024137896570443785 -0.056564473000470746 0 0.022890922458419869 -0.056585331557980775 0 0.024018340079295531 -0.054999341756418588 0 0.02286144629571487 -0.057138302516351991 0 0.024014832951469993 -0.055000102882096238 0 0.022234297793434051 -0.056872481983335617 0 0.02175408355642024 -0.054999971237810037 0 0.024015089608794178 -0.055000004391106021 0 0.024137896570443785 -0.056564473000470746 0 0.024018340079295531 -0.054999341756418588 0 0.026233496262486083 -0.055877906737269195 0 0.024018340079295531 -0.054999341756418588 0 0.026233496262486083 -0.055877906737269195 0 0.026920653471445826 -0.05499972939644622 0 0.024272042312882176 -0.057997344364926658 0 0.024137896570443785 -0.056564473000470746 0 0.026233496262486083 -0.055877906737269195 0 0.029892305680106274 -0.054176032919800873 0 0.026233496262486083 -0.055877906737269195 0 0.027390551620604376 -0.054845858985296453 0 0.028026593370923666 -0.056906454904388538 0 0.026248351212210891 -0.055495927726916416 0 0.026233496262486083 -0.055877906737269195 0 0.027390551620604376 -0.054845858985296453 0 0.027050505263463274 -0.055621434464049234 0 0.027390551620604376 -0.054845858985296453 0 0.027050505263463274 -0.055621434464049234 0 0.026740750972954544 -0.055398118626439272 0 0.026233496262486083 -0.055877906737269195 0 0.027050505263463274 -0.055621434464049234 0 0.026920653471445826 -0.05499972939644622 0 0.027050505263463274 -0.055621434464049234 0 0.026920653471445826 -0.05499972939644622 0 0.027748160127464096 -0.055528494350491411 0 0.026920653471445826 -0.05499972939644622 0 0.027748160127464096 -0.055528494350491411 0 0.029979534906841823 -0.05535030912643054 0 0.026920653471445826 -0.05499972939644622 0 0.029832104938454056 -0.05499928976918686 0 0.029979534906841823 -0.05535030912643054 0 0.027748160127464096 -0.055528494350491411 0 0.029979534906841823 -0.05535030912643054 0 0.026740750972954544 -0.055398118626439272 0 0.030952363245622075 -0.055019210995560057 0 0.029832104938454056 -0.05499928976918686 0 0.031659479079871468 -0.054960389870366999 0 0.030952363245622075 -0.055019210995560057 0 0.029832104938454056 -0.05499928976918686 0 0.029979534906841823 -0.05535030912643054 0 0.030952363245622075 -0.055019210995560057 0 0.029979534906841823 -0.05535030912643054 0 0.03229013604439479 -0.054370865202876387 0 0.030952363245622075 -0.055019210995560057 0 0.03229013604439479 -0.054370865202876387 0 0.031659479079871468 -0.054960389870366999 0 0.03229013604439479 -0.054370865202876387 0 0.032437195870751313 -0.05387909073556521 0 0.031659479079871468 -0.054960389870366999 0 0.029979534906841823 -0.05535030912643054 0 0.03229013604439479 -0.054370865202876387 0 0.037402788223114047 -0.052357644606951199 0 0.03229013604439479 -0.054370865202876387 0 0.034199831690505868 -0.052030149428551567 0 0.032437195870751313 -0.05387909073556521 0 0.03229013604439479 -0.054370865202876387 0 0.034199831690505868 -0.052030149428551567 0 0.037402788223114047 -0.052357644606951199 0 0.034199831690505868 -0.052030149428551567 0 0.032996087721156253 -0.052266746550535995 0 0.032437195870751313 -0.05387909073556521 0 0.030484574555624505 -0.054962947646315194 0 0.032031308872935288 -0.05342353795980035 0 0.027050505263463274 -0.055621434464049234 0 0.027748160127464096 -0.055528494350491411 0 0.026740750972954544 -0.055398118626439272 0 0.034199831690505868 -0.052030149428551567 0 0.037402788223114047 -0.052357644606951199 0 0.037302963272506082 -0.048210837110046721 0 0.032997333980494738 -0.04951576009738632 0 0.032031308872935288 -0.05342353795980035 0 0.04022134375580709 -0.046592167322564035 0 0.037402788223114047 -0.052357644606951199 0 0.037302963272506082 -0.048210837110046721 0 0.034199831690505868 -0.052030149428551567 0 0.037302963272506082 -0.048210837110046721 0 0.034189360717952394 -0.049626645509369058 0 0.034199831690505868 -0.052030149428551567 0 0.034189360717952394 -0.049626645509369058 0 0.032996087721156253 -0.052266746550535995 0 0.037302963272506082 -0.048210837110046721 0 0.034189360717952394 -0.049626645509369058 0 0.036522738635153311 -0.044033636469216215 0 0.037302963272506082 -0.048210837110046721 0 0.036522738635153311 -0.044033636469216215 0 0.038835048511068865 -0.043552695826877083 0 0.04022134375580709 -0.046592167322564035 0 0.037302963272506082 -0.048210837110046721 0 0.038835048511068865 -0.043552695826877083 0 0.037948861254551589 -0.042201604404681056 0 0.037865258351972755 -0.04236918812372216 0 0.038084672678383773 -0.042399782233084007 0 0.037948861254551589 -0.042201604404681056 0 0.037666034584585194 -0.041957948945409211 0 0.038962934820184994 -0.040203860827582712 0 0.037948861254551589 -0.042201604404681056 0 0.037790610485346106 -0.042302837498478504 0 0.037666034584585194 -0.041957948945409211 0 0.036522738635153311 -0.044033636469216215 0 0.037865258351972755 -0.04236918812372216 0 0.038084672678383773 -0.042399782233084007 0 0.036474246984353753 -0.044439633069810934 0 0.034775032158965637 -0.046386315593937327 0 0.034189360717952394 -0.049626645509369058 0 0.036522738635153311 -0.044033636469216215 0 0.030873996655905594 -0.051956307641645896 0 0.034189360717952394 -0.049626645509369058 0 0.03246060935151502 -0.051888683338295334 0 0.030873996655905594 -0.051956307641645896 0 0.034189360717952394 -0.049626645509369058 0 0.03246060935151502 -0.051888683338295334 0 0.032996087721156253 -0.052266746550535995 0 0.03246060935151502 -0.051888683338295334 0 0.030873996655905594 -0.051956307641645896 0 0.032086447183326483 -0.053155179488661809 0 0.038084672678383773 -0.042399782233084007 0 0.035918530770795452 -0.044812071799238982 0 0.036361340955489728 -0.042676756009787785 0 0.037790610485346106 -0.042302837498478504 0 0.037557613239233525 -0.042353157859240431 0 0.037666034584585194 -0.041957948945409211 0 0.038084672678383773 -0.042399782233084007 0 0.037790610485346106 -0.042302837498478504 0 0.036361340955489728 -0.042676756009787785 0 0.037948861254551589 -0.042201604404681056 0 0.038084672678383773 -0.042399782233084007 0 0.037790610485346106 -0.042302837498478504 0 0.037290390818686257 -0.042654268344017018 0 0.039029600827397287 -0.044138897807058146 0 0.030873996655905594 -0.051956307641645896 0 0.032178641421190757 -0.054186893213970806 0 0.033530650624140901 -0.055098469318874584 0 0.034775032158965637 -0.046386315593937327 0 0.035260893210707529 -0.053714629108245281 0 0.030873996655905594 -0.051956307641645896 0 0.032178641421190757 -0.054186893213970806 0 0.032086447183326483 -0.053155179488661809 0 0.032996087721156253 -0.052266746550535995 0 0.032086447183326483 -0.053155179488661809 0 0.032437195870751313 -0.05387909073556521 0 0.03246060935151502 -0.051888683338295334 0 0.032996087721156253 -0.052266746550535995 0 0.032086447183326483 -0.053155179488661809 0 0.032178641421190757 -0.054186893213970806 0 0.032086447183326483 -0.053155179488661809 0 0.032064004402560457 -0.054286076069260586 0 0.032064004402560457 -0.054286076069260586 0 0.032437195870751313 -0.05387909073556521 0 0.031659479079871468 -0.054960389870366999 0 0.032086447183326483 -0.053155179488661809 0 0.032064004402560457 -0.054286076069260586 0 0.032437195870751313 -0.05387909073556521 0 0.032178641421190757 -0.054186893213970806 0 0.032064004402560457 -0.054286076069260586 0 0.032734129471903593 -0.054998777021490433 0 0.029832104938454056 -0.05499928976918686 0 0.031659479079871468 -0.054960389870366999 0 0.032734129471903593 -0.054998777021490433 0 0.032064004402560457 -0.054286076069260586 0 0.031659479079871468 -0.054960389870366999 0 0.032734129471903593 -0.054998777021490433 0 0.032178641421190757 -0.054186893213970806 0 0.032734129471903593 -0.054998777021490433 0 0.033530650624140901 -0.055098469318874584 0 0.032734129471903593 -0.054998777021490433 0 0.035636604169259144 -0.054998803589945369 0 0.033530650624140901 -0.055098469318874584 0 0.03564003312908328 -0.055002158794618221 0 0.035260893210707529 -0.053714629108245281 0 0.037794242845314935 -0.055002809653561149 0 0.035260893210707529 -0.053714629108245281 0 0.035641142597645566 -0.054999902720509752 0 0.037794603054464894 -0.055000042885524306 0 0.035268566678541016 -0.057004778138967045 0 0.037797110526255083 -0.055000399026936639 0 0.037941737678704276 -0.055938724503391907 0 0.037153284044164653 -0.05604512555064018 0 0.037941737678704276 -0.055938724503391907 0 0.037153284044164653 -0.05604512555064018 0 0.03815072476701474 -0.056794670318389751 0 0.037941737678704276 -0.055938724503391907 0 0.038808105295561786 -0.055896454427864832 0 0.03815072476701474 -0.056794670318389751 0 0.037153284044164653 -0.05604512555064018 0 0.03703802364282812 -0.056898940811972241 0 0.03815072476701474 -0.056794670318389751 0 0.035260893210707529 -0.053714629108245281 0 0.039029600827397287 -0.044138897807058146 0 0.040809581592030443 -0.056062610421576863 0 0.039141018075580826 -0.055000010395536592 0 0.041807158041459319 -0.054999917079021722 0 0.041318914024348508 -0.05624074430832858 0 0.039141098156405929 -0.054999796652356978 0 0.037797110526255083 -0.055000399026936639 0 0.037941737678704276 -0.055938724503391907 0 0.038808105295561786 -0.055896454427864832 0 0.040742035008148818 -0.055322437478879827 0 0.039139989764964467 -0.054998765914531698 0 0.038808105295561786 -0.055896454427864832 0 0.037797110526255083 -0.055000399026936639 0 0.039139989764964467 -0.054998765914531698 0 0.038808105295561786 -0.055896454427864832 0 0.042419958365219342 -0.045398771528786706 0 0.040228375236283975 -0.046055207675776748 0 0.038808105295561786 -0.055896454427864832 0 0.040080706989939659 -0.056717537722969918 0 0.03815072476701474 -0.056794670318389751 0 0.042419958365219342 -0.045398771528786706 0 0.044796860750960212 -0.046041485453324912 0 0.040742035008148818 -0.055322437478879827 0 0.040080706989939659 -0.056717537722969918 0 0.0425538011292243 -0.056116723166298815 0 0.040742035008148818 -0.055322437478879827 0 0.038808105295561786 -0.055896454427864832 0 0.040080706989939659 -0.056717537722969918 0 0.044632948432002009 -0.034396767410612948 0 0.044679200453342498 -0.036506775205936939 0 0.046157043889095056 -0.034989720121837029 0 0.044679200453342498 -0.036506775205936939 0 0.046157043889095056 -0.034989720121837029 0 0.046962199693509232 -0.03614619488199055 0 0.044632948432002009 -0.034396767410612948 0 0.044679200453342498 -0.036506775205936939 0 0.0425590013756992 -0.034855003939780742 0 0.044679200453342498 -0.036506775205936939 0 0.0425590013756992 -0.034855003939780742 0 0.042018754501120949 -0.036762169870439738 0 0.044679200453342498 -0.036506775205936939 0 0.042018754501120949 -0.036762169870439738 0 0.04320765165264627 -0.038389024192880247 0 0.044679200453342498 -0.036506775205936939 0 0.046962199693509232 -0.03614619488199055 0 0.046607649865377389 -0.037768063357357551 0 0.039029600827397287 -0.044138897807058146 0 0.040228375236283975 -0.046055207675776748 0 0.04021435095340431 -0.035324143670514833 0 0.0425590013756992 -0.034855003939780742 0 0.042018754501120949 -0.036762169870439738 0 0.042018754501120949 -0.036762169870439738 0 0.039705652357779252 -0.037147305085769418 0 0.041230872622127906 -0.038476985768932027 0 0.04021435095340431 -0.035324143670514833 0 0.042018754501120949 -0.036762169870439738 0 0.039705652357779252 -0.037147305085769418 0 0.039029600827397287 -0.044138897807058146 0 0.038903477697566032 -0.038667255856058257 0 0.039705652357779252 -0.037147305085769418 0 0.041230872622127906 -0.038476985768932027 0 0.038962934820184994 -0.040203860827582712 0 0.041230872622127906 -0.038476985768932027 0 0.041455155049043728 -0.039688490507714128 0 0.038962934820184994 -0.040203860827582712 0 0.042018754501120949 -0.036762169870439738 0 0.041230872622127906 -0.038476985768932027 0 0.04320765165264627 -0.038389024192880247 0 0.041230872622127906 -0.038476985768932027 0 0.04320765165264627 -0.038389024192880247 0 0.041455155049043728 -0.039688490507714128 0 0.04320765165264627 -0.038389024192880247 0 0.041455155049043728 -0.039688490507714128 0 0.044027614612147409 -0.039815275563592503 0 0.041455155049043728 -0.039688490507714128 0 0.038962934820184994 -0.040203860827582712 0 0.039120475389463137 -0.040612719092165767 0 0.041455155049043728 -0.039688490507714128 0 0.041572388014072363 -0.040328725942436791 0 0.039120475389463137 -0.040612719092165767 0 0.044679200453342498 -0.036506775205936939 0 0.044991669806918044 -0.038529085297728624 0 0.046607649865377389 -0.037768063357357551 0 0.044679200453342498 -0.036506775205936939 0 0.04320765165264627 -0.038389024192880247 0 0.044991669806918044 -0.038529085297728624 0 0.04320765165264627 -0.038389024192880247 0 0.044991669806918044 -0.038529085297728624 0 0.044027614612147409 -0.039815275563592503 0 0.044991669806918044 -0.038529085297728624 0 0.046607649865377389 -0.037768063357357551 0 0.046528661299412959 -0.039718522898720882 0 0.044991669806918044 -0.038529085297728624 0 0.044027614612147409 -0.039815275563592503 0 0.046528661299412959 -0.039718522898720882 0 0.044027614612147409 -0.039815275563592503 0 0.046023092083741328 -0.040477345128506176 0 0.046528661299412959 -0.039718522898720882 0 0.044027614612147409 -0.039815275563592503 0 0.046023092083741328 -0.040477345128506176 0 0.043560156552112435 -0.040530503225031544 0 0.044027614612147409 -0.039815275563592503 0 0.041572388014072363 -0.040328725942436791 0 0.043560156552112435 -0.040530503225031544 0 0.041455155049043728 -0.039688490507714128 0 0.044027614612147409 -0.039815275563592503 0 0.041572388014072363 -0.040328725942436791 0 0.041572388014072363 -0.040328725942436791 0 0.041503333609372021 -0.04071288058993433 0 0.040019948561060455 -0.040663222587104933 0 0.043560156552112435 -0.040530503225031544 0 0.041503333609372021 -0.04071288058993433 0 0.042553571161297148 -0.041181944624045931 0 0.041572388014072363 -0.040328725942436791 0 0.043560156552112435 -0.040530503225031544 0 0.041503333609372021 -0.04071288058993433 0 0.041503333609372021 -0.04071288058993433 0 0.040019948561060455 -0.040663222587104933 0 0.039951900924510154 -0.040955622181082847 0 0.040019948561060455 -0.040663222587104933 0 0.039028763502100987 -0.040806316568122371 0 0.039951900924510154 -0.040955622181082847 0 0.040019948561060455 -0.040663222587104933 0 0.038941383110744056 -0.040773568277773675 0 0.039120475389463137 -0.040612719092165767 0 0.041572388014072363 -0.040328725942436791 0 0.040019948561060455 -0.040663222587104933 0 0.039120475389463137 -0.040612719092165767 0 0.038941383110744056 -0.040773568277773675 0 0.039120475389463137 -0.040612719092165767 0 0.038388242537143659 -0.04113706578923302 0 0.038941383110744056 -0.040773568277773675 0 0.038580888939071974 -0.040901372416758945 0 0.038388242537143659 -0.04113706578923302 0 0.038941383110744056 -0.040773568277773675 0 0.039028763502100987 -0.040806316568122371 0 0.038580888939071974 -0.040901372416758945 0 0.039028763502100987 -0.040806316568122371 0 0.038624894182628829 -0.04087048067958636 0 0.038580888939071974 -0.040901372416758945 0 0.040019948561060455 -0.040663222587104933 0 0.038941383110744056 -0.040773568277773675 0 0.039028763502100987 -0.040806316568122371 0 0.039028763502100987 -0.040806316568122371 0 0.038624894182628829 -0.04087048067958636 0 0.038730830008409073 -0.041006970269493848 0 0.038585360932601134 -0.040836215272042481 0 0.038657191066495157 -0.040715609045372199 0 0.038415602503120448 -0.041121417813911425 0 0.038624894182628829 -0.04087048067958636 0 0.038585360932601134 -0.040836215272042481 0 0.038580615263273207 -0.040945730992689014 0 0.038624894182628829 -0.04087048067958636 0 0.038580615263273207 -0.040945730992689014 0 0.038730830008409073 -0.041006970269493848 0 0.038624894182628829 -0.04087048067958636 0 0.038585360932601134 -0.040836215272042481 0 0.038585444242883161 -0.040879538741852801 0 0.038585360932601134 -0.040836215272042481 0 0.038585444242883161 -0.040879538741852801 0 0.038647559844309155 -0.040825948751092377 0 0.038624894182628829 -0.04087048067958636 0 0.038585444242883161 -0.040879538741852801 0 0.038580888939071974 -0.040901372416758945 0 0.029766325251728894 -0.035996890230244293 0 0.03149118226618728 -0.037178194373105086 0 0.018927817021740758 -0.031369824945358102 0 0.023849094474496773 -0.033283667201311942 0 0.022304041853618825 -0.033055293153375041 0 0.038585360932601134 -0.040836215272042481 0 0.038657191066495157 -0.040715609045372199 0 0.038647559844309155 -0.040825948751092377 0 0.023849094474496773 -0.033283667201311942 0 0.022304041853618825 -0.033055293153375041 0 0.026715633060077439 -0.035540992190389233 0 0.038585444242883161 -0.040879538741852801 0 0.038647559844309155 -0.040825948751092377 0 0.038835788711075618 -0.040960894432920419 0 0.038657191066495157 -0.040715609045372199 0 0.038647559844309155 -0.040825948751092377 0 0.038835788711075618 -0.040960894432920419 0 0.039488343755368492 -0.041031042640949304 0 0.038657191066495157 -0.040715609045372199 0 0.038835788711075618 -0.040960894432920419 0 0.038585444242883161 -0.040879538741852801 0 0.038835788711075618 -0.040960894432920419 0 0.038512425066237123 -0.041154083352716364 0 0.038835788711075618 -0.040960894432920419 0 0.038512425066237123 -0.041154083352716364 0 0.038913042506988807 -0.041439616953180845 0 0.039488343755368492 -0.041031042640949304 0 0.038835788711075618 -0.040960894432920419 0 0.038913042506988807 -0.041439616953180845 0 0.038585444242883161 -0.040879538741852801 0 0.038580888939071974 -0.040901372416758945 0 0.038512425066237123 -0.041154083352716364 0 0.038580888939071974 -0.040901372416758945 0 0.038512425066237123 -0.041154083352716364 0 0.038388242537143659 -0.04113706578923302 0 0.038512425066237123 -0.041154083352716364 0 0.038176475656867097 -0.041893907590711842 0 0.038388242537143659 -0.04113706578923302 0 0.038176475656867097 -0.041893907590711842 0 0.038033828551984616 -0.041578666749029804 0 0.038388242537143659 -0.04113706578923302 0 0.038512425066237123 -0.041154083352716364 0 0.038176475656867097 -0.041893907590711842 0 0.038913042506988807 -0.041439616953180845 0 0.039659173060090501 -0.042034376160797034 0 0.038913042506988807 -0.041439616953180845 0 0.039089175119571995 -0.042228170021278398 0 0.038176475656867097 -0.041893907590711842 0 0.038913042506988807 -0.041439616953180845 0 0.039089175119571995 -0.042228170021278398 0 0.039783458474747367 -0.042710634294920377 0 0.039089175119571995 -0.042228170021278398 0 0.038835048511068865 -0.043552695826877083 0 0.038176475656867097 -0.041893907590711842 0 0.039089175119571995 -0.042228170021278398 0 0.038835048511068865 -0.043552695826877083 0 0.036522738635153311 -0.044033636469216215 0 0.038176475656867097 -0.041893907590711842 0 0.038033828551984616 -0.041578666749029804 0 0.036522738635153311 -0.044033636469216215 0 0.038176475656867097 -0.041893907590711842 0 0.038835048511068865 -0.043552695826877083 0 0.036522738635153311 -0.044033636469216215 0 0.037865258351972755 -0.04236918812372216 0 0.038033828551984616 -0.041578666749029804 0 0.037865258351972755 -0.04236918812372216 0 0.038033828551984616 -0.041578666749029804 0 0.038962934820184994 -0.040203860827582712 0 0.037948861254551589 -0.042201604404681056 0 0.037865258351972755 -0.04236918812372216 0 0.038962934820184994 -0.040203860827582712 0 0.038903477697566032 -0.038667255856058257 0 0.038776904919951935 -0.040538114585446698 0 0.038033828551984616 -0.041578666749029804 0 0.038962934820184994 -0.040203860827582712 0 0.039120475389463137 -0.040612719092165767 0 0.038033828551984616 -0.041578666749029804 0 0.039120475389463137 -0.040612719092165767 0 0.038388242537143659 -0.04113706578923302 0 0.056434873720796641 -0.048611591504664459 0 0.057766410160159563 -0.049951552317521818 0 0.054999983709644873 -0.050192656247778612 0 0.056434873720796641 -0.048611591504664459 0 0.054999983709644873 -0.050192656247778612 0 0.054999979182140619 -0.047561617951778434 0 0.052764798714490073 -0.037282110591959537 0 0.052701078348739772 -0.037179221694326761 0 0.053066800448277468 -0.037757001870357257 0 0.056434873720796641 -0.048611591504664459 0 0.057766410160159563 -0.049951552317521818 0 0.057907738522723538 -0.047556841486167532 0 0.055456340028583691 -0.04252746781847757 0 0.055439584350896638 -0.042848385127882443 0 0.057766410160159563 -0.049951552317521818 0 0.054999983709644873 -0.050192656247778612 0 0.057614658210204596 -0.052357984467895878 0 0.055456340028583691 -0.04252746781847757 0 0.053211461623345967 -0.05047974181189447 0 0.052764798714490073 -0.037282110591959537 0 0.052622820375084395 -0.037627724136032631 0 0.05275041043395573 -0.03739182440949957 0 0.054999983709644873 -0.050192656247778612 0 0.054999947733313889 -0.052823595697972382 0 0.057614658210204596 -0.052357984467895878 0 0.055002909355926319 -0.052825046775586651 0 0.053211461623345967 -0.05047974181189447 0 0.054997914907831826 -0.052829893956548746 0 0.054240827977340429 -0.05449868261027134 0 0.053972444784882036 -0.054755802164069681 0 0.054997914907831826 -0.052829893956548746 0 0.054998395672978963 -0.054997892953995091 0 0.054240827977340429 -0.05449868261027134 0 0.054998395672978963 -0.054997892953995091 0 0.054240827977340429 -0.05449868261027134 0 0.052475959124152163 -0.054997956516767713 0 0.052470525777754698 -0.054999914230463839 0 0.052277065875888332 -0.057428852403672695 0 0.050558996858712867 -0.056470500107519708 0 0.052470644955651666 -0.055007424208058597 0 0.053211461623345967 -0.05047974181189447 0 0.054240827977340429 -0.05449868261027134 0 0.052475959124152163 -0.054997956516767713 0 0.053972444784882036 -0.054755802164069681 0 0.053211461623345967 -0.05047974181189447 0 0.050918847794523631 -0.048058773851603752 0 0.052622820375084395 -0.037627724136032631 0 0.05284210207284093 -0.037534306208705841 0 0.05275041043395573 -0.03739182440949957 0 0.052277065875888332 -0.057428852403672695 0 0.050558996858712867 -0.056470500107519708 0 0.04934130622428104 -0.057879643707855609 0 0.052470525777754698 -0.054999914230463839 0 0.050558996858712867 -0.056470500107519708 0 0.049804793683692075 -0.054999939843606738 0 0.050558996858712867 -0.056470500107519708 0 0.049804793683692075 -0.054999939843606738 0 0.048470066298640389 -0.056396159129732969 0 0.049804793683692075 -0.054999939843606738 0 0.048470066298640389 -0.056396159129732969 0 0.047138855467187747 -0.054999926731236659 0 0.050558996858712867 -0.056470500107519708 0 0.048470066298640389 -0.056396159129732969 0 0.04934130622428104 -0.057879643707855609 0 0.048470066298640389 -0.056396159129732969 0 0.04934130622428104 -0.057879643707855609 0 0.047783374828545312 -0.057665080472571267 0 0.052235797297740853 -0.036392831762362958 0 0.052677813908158906 -0.03717209500240086 0 0.05284210207284093 -0.037534306208705841 0 0.052897353496667389 -0.037440792610622532 0 0.05275041043395573 -0.03739182440949957 0 0.052897353496667389 -0.037440792610622532 0 0.05275041043395573 -0.03739182440949957 0 0.052701078348739772 -0.037179221694326761 0 0.052764798714490073 -0.037282110591959537 0 0.05275041043395573 -0.03739182440949957 0 0.052701078348739772 -0.037179221694326761 0 0.052701078348739772 -0.037179221694326761 0 0.051992341583257433 -0.037140102677744223 0 0.052470075561771419 -0.037703957561354244 0 0.052701078348739772 -0.037179221694326761 0 0.052470075561771419 -0.037703957561354244 0 0.053066800448277468 -0.037757001870357257 0 0.051649060940597145 -0.036061362643740644 0 0.052701078348739772 -0.037179221694326761 0 0.051992341583257433 -0.037140102677744223 0 0.051992341583257433 -0.037140102677744223 0 0.051751942915019784 -0.037642600019315242 0 0.052470075561771419 -0.037703957561354244 0 0.051992341583257433 -0.037140102677744223 0 0.051132142048728201 -0.036912130057021646 0 0.051751942915019784 -0.037642600019315242 0 0.051649060940597145 -0.036061362643740644 0 0.051992341583257433 -0.037140102677744223 0 0.051132142048728201 -0.036912130057021646 0 0.050400601288441642 -0.036487482637199448 0 0.051132142048728201 -0.036912130057021646 0 0.05071651794665509 -0.035895121287056971 0 0.051132142048728201 -0.036912130057021646 0 0.050985527887403417 -0.037777845052938228 0 0.051751942915019784 -0.037642600019315242 0 0.050400601288441642 -0.036487482637199448 0 0.051132142048728201 -0.036912130057021646 0 0.050061582409062021 -0.037303045794562957 0 0.051132142048728201 -0.036912130057021646 0 0.050061582409062021 -0.037303045794562957 0 0.050985527887403417 -0.037777845052938228 0 0.050061582409062021 -0.037303045794562957 0 0.049589213786638955 -0.036214265857081554 0 0.048364357004964088 -0.036940597677148489 0 0.050400601288441642 -0.036487482637199448 0 0.050061582409062021 -0.037303045794562957 0 0.049589213786638955 -0.036214265857081554 0 0.050400601288441642 -0.036487482637199448 0 0.050047403219437681 -0.035859372394235894 0 0.049589213786638955 -0.036214265857081554 0 0.050047403219437681 -0.035859372394235894 0 0.049589213786638955 -0.036214265857081554 0 0.049409562591871029 -0.03559030474102029 0 0.049589213786638955 -0.036214265857081554 0 0.049409562591871029 -0.03559030474102029 0 0.048464926483555069 -0.035887116896772639 0 0.049409562591871029 -0.03559030474102029 0 0.04893696218716307 -0.035194641071903177 0 0.048464926483555069 -0.035887116896772639 0 0.049409562591871029 -0.03559030474102029 0 0.04893696218716307 -0.035194641071903177 0 0.050044687326923132 -0.03501510468659929 0 0.050047403219437681 -0.035859372394235894 0 0.049409562591871029 -0.03559030474102029 0 0.050044687326923132 -0.03501510468659929 0 0.050047403219437681 -0.035859372394235894 0 0.05071651794665509 -0.035895121287056971 0 0.050044687326923132 -0.03501510468659929 0 0.049564522242796442 -0.042687715187970238 0 0.049028595480092682 -0.044034135995599619 0 0.051649060940597145 -0.036061362643740644 0 0.050238918748399412 -0.035121140683090669 0 0.05071651794665509 -0.035895121287056971 0 0.050238918748399412 -0.035121140683090669 0 0.05071651794665509 -0.035895121287056971 0 0.050044687326923132 -0.03501510468659929 0 0.052235797297740853 -0.036392831762362958 0 0.049564522242796442 -0.042687715187970238 0 0.05284210207284093 -0.037534306208705841 0 0.052897353496667389 -0.037440792610622532 0 0.052945977700260806 -0.037557148288786868 0 0.050400601288441642 -0.036487482637199448 0 0.050047403219437681 -0.035859372394235894 0 0.05071651794665509 -0.035895121287056971 0 0.051649060940597145 -0.036061362643740644 0 0.051132142048728201 -0.036912130057021646 0 0.05071651794665509 -0.035895121287056971 0 0.050918847794523631 -0.048058773851603752 0 0.049564522242796442 -0.042687715187970238 0 0.04934130622428104 -0.057879643707855609 0 0.046349796491864423 -0.058337277733247067 0 0.047783374828545312 -0.057665080472571267 0 0.046349796491864423 -0.058337277733247067 0 0.047783374828545312 -0.057665080472571267 0 0.046825282420045751 -0.057666646323624872 0 0.046349796491864423 -0.058337277733247067 0 0.046825282420045751 -0.057666646323624872 0 0.046332037877331145 -0.057868761448167938 0 0.046825282420045751 -0.057666646323624872 0 0.046379094327503152 -0.057457844111517352 0 0.046332037877331145 -0.057868761448167938 0 0.047783374828545312 -0.057665080472571267 0 0.046825282420045751 -0.057666646323624872 0 0.046780062415212056 -0.056735934954754888 0 0.046825282420045751 -0.057666646323624872 0 0.046780062415212056 -0.056735934954754888 0 0.046379094327503152 -0.057457844111517352 0 0.048470066298640389 -0.056396159129732969 0 0.047783374828545312 -0.057665080472571267 0 0.046780062415212056 -0.056735934954754888 0 0.046780062415212056 -0.056735934954754888 0 0.047138855467187747 -0.054999926731236659 0 0.045648661732426155 -0.055964438848410576 0 0.048470066298640389 -0.056396159129732969 0 0.046780062415212056 -0.056735934954754888 0 0.047138855467187747 -0.054999926731236659 0 0.047138855467187747 -0.054999926731236659 0 0.045648661732426155 -0.055964438848410576 0 0.044472925316331555 -0.054999941222570382 0 0.045648661732426155 -0.055964438848410576 0 0.044401073068886562 -0.056208690843778476 0 0.044472925316331555 -0.054999941222570382 0 0.046780062415212056 -0.056735934954754888 0 0.045648661732426155 -0.055964438848410576 0 0.045450747441139673 -0.056873462896325264 0 0.045648661732426155 -0.055964438848410576 0 0.045450747441139673 -0.056873462896325264 0 0.044401073068886562 -0.056208690843778476 0 0.045450747441139673 -0.056873462896325264 0 0.045537665419141733 -0.057548969318802413 0 0.043798267390814979 -0.057278356720781666 0 0.046098837370022384 -0.058232053335054171 0 0.045537665419141733 -0.057548969318802413 0 0.043798267390814979 -0.057278356720781666 0 0.049028595480092682 -0.044034135995599619 0 0.045357167602304703 -0.047276238811628603 0 0.04893696218716307 -0.035194641071903177 0 0.050044687326923132 -0.03501510468659929 0 0.048013139386092828 -0.034345140916493065 0 0.045450747441139673 -0.056873462896325264 0 0.046379094327503152 -0.057457844111517352 0 0.045537665419141733 -0.057548969318802413 0 0.046780062415212056 -0.056735934954754888 0 0.045450747441139673 -0.056873462896325264 0 0.046379094327503152 -0.057457844111517352 0 0.046379094327503152 -0.057457844111517352 0 0.046086872649786996 -0.057777043948594065 0 0.046332037877331145 -0.057868761448167938 0 0.046379094327503152 -0.057457844111517352 0 0.046086872649786996 -0.057777043948594065 0 0.045537665419141733 -0.057548969318802413 0 0.046086872649786996 -0.057777043948594065 0 0.046098837370022384 -0.058232053335054171 0 0.045537665419141733 -0.057548969318802413 0 0.046349796491864423 -0.058337277733247067 0 0.046332037877331145 -0.057868761448167938 0 0.046098837370022384 -0.058232053335054171 0 0.046086872649786996 -0.057777043948594065 0 0.046332037877331145 -0.057868761448167938 0 0.046098837370022384 -0.058232053335054171 0 0.048309925929121485 -0.032175805599163686 0 0.044796860750960212 -0.046041485453324912 0 0.04893696218716307 -0.035194641071903177 0 0.046874407943778326 -0.033846256419034729 0 0.047450292050274498 -0.035203566443626641 0 0.04893696218716307 -0.035194641071903177 0 0.048013139386092828 -0.034345140916493065 0 0.046793088155522307 -0.034363707243095738 0 0.043798267390814979 -0.057278356720781666 0 0.043021456914731721 -0.056948199548523176 0 0.043143979093271508 -0.055972147177094103 0 0.048013139386092828 -0.034345140916493065 0 0.047255974834078091 -0.034176245828039839 0 0.046793088155522307 -0.034363707243095738 0 0.045357167602304703 -0.047276238811628603 0 0.044399966593439595 -0.050514405736554149 0 0.045450747441139673 -0.056873462896325264 0 0.043798267390814979 -0.057278356720781666 0 0.044401073068886562 -0.056208690843778476 0 0.043143979093271508 -0.055972147177094103 0 0.044472925316331555 -0.054999941222570382 0 0.041807158041459319 -0.054999917079021722 0 0.043798267390814979 -0.057278356720781666 0 0.044401073068886562 -0.056208690843778476 0 0.043143979093271508 -0.055972147177094103 0 0.044401073068886562 -0.056208690843778476 0 0.043143979093271508 -0.055972147177094103 0 0.044472925316331555 -0.054999941222570382 0 0.040809581592030443 -0.056062610421576863 0 0.041807158041459319 -0.054999917079021722 0 0.041586858255281467 -0.05631308853664798 0 0.043143979093271508 -0.055972147177094103 0 0.041807158041459319 -0.054999917079021722 0 0.041586858255281467 -0.05631308853664798 0 0.043021456914731721 -0.056948199548523176 0 0.043143979093271508 -0.055972147177094103 0 0.041586858255281467 -0.05631308853664798 0 0.040809581592030443 -0.056062610421576863 0 0.041586858255281467 -0.05631308853664798 0 0.042862984154431447 -0.057053691383228244 0 0.041318914024348508 -0.05624074430832858 0 0.044796860750960212 -0.046041485453324912 0 0.044632948432002009 -0.034396767410612948 0 0.046874407943778326 -0.033846256419034729 0 0.046157043889095056 -0.034989720121837029 0 0.043504551204280095 -0.056814440045829251 0 0.041586858255281467 -0.05631308853664798 0 0.042862984154431447 -0.057053691383228244 0 0.044399966593439595 -0.050514405736554149 0 0.042523476022719026 -0.055988588647202159 0 0.044399966593439595 -0.050514405736554149 0 0.044796860750960212 -0.046041485453324912 0 0.046874407943778326 -0.033846256419034729 0 0.046157043889095056 -0.034989720121837029 0 0.047450292050274498 -0.035203566443626641 0 0.046157043889095056 -0.034989720121837029 0 0.046962199693509232 -0.03614619488199055 0 0.047450292050274498 -0.035203566443626641 0 0.046962199693509232 -0.03614619488199055 0 0.047450292050274498 -0.035203566443626641 0 0.048464926483555069 -0.035887116896772639 0 0.04893696218716307 -0.035194641071903177 0 0.047450292050274498 -0.035203566443626641 0 0.048464926483555069 -0.035887116896772639 0 0.046962199693509232 -0.03614619488199055 0 0.048464926483555069 -0.035887116896772639 0 0.048364357004964088 -0.036940597677148489 0 0.049589213786638955 -0.036214265857081554 0 0.048464926483555069 -0.035887116896772639 0 0.048364357004964088 -0.036940597677148489 0 0.046962199693509232 -0.03614619488199055 0 0.048364357004964088 -0.036940597677148489 0 0.046607649865377389 -0.037768063357357551 0 0.050061582409062021 -0.037303045794562957 0 0.048364357004964088 -0.036940597677148489 0 0.048567850671222774 -0.038364106792634273 0 0.048364357004964088 -0.036940597677148489 0 0.046607649865377389 -0.037768063357357551 0 0.048567850671222774 -0.038364106792634273 0 0.048567850671222774 -0.038364106792634273 0 0.046528661299412959 -0.039718522898720882 0 0.049075248818769117 -0.040031616466264047 0 0.046607649865377389 -0.037768063357357551 0 0.048567850671222774 -0.038364106792634273 0 0.046528661299412959 -0.039718522898720882 0 0.046528661299412959 -0.039718522898720882 0 0.047703017224987675 -0.041481706558394872 0 0.049075248818769117 -0.040031616466264047 0 0.04629668669498959 -0.040436184173880473 0 0.048726443596577837 -0.040333371400215812 0 0.046023092083741328 -0.040477345128506176 0 0.046528661299412959 -0.039718522898720882 0 0.047703017224987675 -0.041481706558394872 0 0.047703017224987675 -0.041481706558394872 0 0.049075248818769117 -0.040031616466264047 0 0.05076481803271151 -0.04192977056035703 0 0.048726443596577837 -0.040333371400215812 0 0.051810652124666047 -0.040573106336347489 0 0.049075248818769117 -0.040031616466264047 0 0.052507417349220958 -0.040317389285342474 0 0.050817646462257345 -0.038685534375449478 0 0.049075248818769117 -0.040031616466264047 0 0.05076481803271151 -0.04192977056035703 0 0.052507417349220958 -0.040317389285342474 0 0.051810652124666047 -0.040573106336347489 0 0.053947947804323881 -0.040787914056094832 0 0.05076481803271151 -0.04192977056035703 0 0.052507417349220958 -0.040317389285342474 0 0.054231399818015558 -0.040838372115887901 0 0.052966453999526833 -0.039220340722342512 0 0.054231399818015558 -0.040838372115887901 0 0.054062516389025997 -0.040245598515111114 0 0.050817646462257345 -0.038685534375449478 0 0.050985527887403417 -0.037777845052938228 0 0.051955372689319657 -0.038712107049490137 0 0.051095862419521985 -0.038791605493570955 0 0.052512401744531215 -0.038879474042312408 0 0.052507417349220958 -0.040317389285342474 0 0.050817646462257345 -0.038685534375449478 0 0.054033828832081465 -0.039491362468789232 0 0.048567850671222774 -0.038364106792634273 0 0.049075248818769117 -0.040031616466264047 0 0.050817646462257345 -0.038685534375449478 0 0.050061582409062021 -0.037303045794562957 0 0.048567850671222774 -0.038364106792634273 0 0.050817646462257345 -0.038685534375449478 0 0.050061582409062021 -0.037303045794562957 0 0.050817646462257345 -0.038685534375449478 0 0.050985527887403417 -0.037777845052938228 0 0.050985527887403417 -0.037777845052938228 0 0.051751942915019784 -0.037642600019315242 0 0.051955372689319657 -0.038712107049490137 0 0.051751942915019784 -0.037642600019315242 0 0.052470075561771419 -0.037703957561354244 0 0.051955372689319657 -0.038712107049490137 0 0.052470075561771419 -0.037703957561354244 0 0.052711588088997251 -0.038232303415689943 0 0.051955372689319657 -0.038712107049490137 0 0.052470075561771419 -0.037703957561354244 0 0.052711588088997251 -0.038232303415689943 0 0.053066800448277468 -0.037757001870357257 0 0.052711588088997251 -0.038232303415689943 0 0.051955372689319657 -0.038712107049490137 0 0.053140452280975886 -0.038781728468068925 0 0.054033828832081465 -0.039491362468789232 0 0.054909290784767598 -0.040983740685139505 0 0.055579551817198515 -0.041393392877376346 0 0.052512401744531215 -0.038879474042312408 0 0.055781658770506462 -0.042249283777014847 0 0.052507417349220958 -0.040317389285342474 0 0.054231399818015558 -0.040838372115887901 0 0.054909290784767598 -0.040983740685139505 0 0.052507417349220958 -0.040317389285342474 0 0.054033828832081465 -0.039491362468789232 0 0.054909290784767598 -0.040983740685139505 0 0.054231399818015558 -0.040838372115887901 0 0.054909290784767598 -0.040983740685139505 0 0.055401414673539782 -0.041078967251339867 0 0.054909290784767598 -0.040983740685139505 0 0.055408178750889249 -0.041569464403239352 0 0.055401414673539782 -0.041078967251339867 0 0.054909290784767598 -0.040983740685139505 0 0.055408178750889249 -0.041569464403239352 0 0.055579551817198515 -0.041393392877376346 0 0.05551787684308452 -0.042267146949826362 0 0.055408178750889249 -0.041569464403239352 0 0.055579551817198515 -0.041393392877376346 0 0.05551787684308452 -0.042267146949826362 0 0.055408178750889249 -0.041569464403239352 0 0.055505121459318615 -0.04203968690702712 0 0.055401414673539782 -0.041078967251339867 0 0.055505121459318615 -0.04203968690702712 0 0.055347227285255297 -0.040863881627528006 0 0.055408178750889249 -0.041569464403239352 0 0.055401414673539782 -0.041078967251339867 0 0.055505121459318615 -0.04203968690702712 0 0.05499901806124434 -0.042398433576645161 0 0.055505121459318615 -0.04203968690702712 0 0.055347227285255297 -0.040863881627528006 0 0.05499901806124434 -0.042398433576645161 0 0.055505121459318615 -0.04203968690702712 0 0.055000057602076761 -0.044925790102367552 0 0.05551787684308452 -0.042267146949826362 0 0.055505121459318615 -0.04203968690702712 0 0.055000057602076761 -0.044925790102367552 0 0.054999977945846289 -0.044930692734709239 0 0.054999979182140619 -0.047561617951778434 0 0.056475808607086266 -0.04654631116325228 0 0.054999977945846289 -0.044930692734709239 0 0.058034011562827101 -0.045180153361094183 0 0.056475808607086266 -0.04654631116325228 0 0.055001298511598004 -0.0449306982388556 0 0.055781658770506462 -0.042249283777014847 0 0.055781658770506462 -0.042249283777014847 0 0.055439584350896638 -0.042848385127882443 0 0.05551787684308452 -0.042267146949826362 0 0.055000057602076761 -0.044925790102367552 0 0.055579551817198515 -0.041393392877376346 0 0.052711588088997251 -0.038232303415689943 0 0.053140452280975886 -0.038781728468068925 0 0.053066800448277468 -0.037757001870357257 0 0.056434873720796641 -0.048611591504664459 0 0.057907738522723538 -0.047556841486167532 0 0.056475808607086266 -0.04654631116325228 0 0.058034011562827101 -0.045180153361094183 0 0.057907738522723538 -0.047556841486167532 0 0.056475808607086266 -0.04654631116325228 0 0.056434873720796641 -0.048611591504664459 0 0.054999979182140619 -0.047561617951778434 0 0.056475808607086266 -0.04654631116325228 0 0.054999303327879424 -0.034810710233523015 0 0.054639428518037179 -0.0369673582680181 0 0.055092157506345149 -0.037395514574225838 0 0.055092157506345149 -0.037395514574225838 0 0.05529631626147162 -0.039365217628468493 0 0.054983448688174549 -0.038578769812609728 0 0.054639428518037179 -0.0369673582680181 0 0.055092157506345149 -0.037395514574225838 0 0.054983448688174549 -0.038578769812609728 0 0.054999303327879424 -0.034810710233523015 0 0.055092157506345149 -0.037395514574225838 0 0.054998810325054062 -0.037334781334326272 0 0.055092157506345149 -0.037395514574225838 0 0.054998810325054062 -0.037334781334326272 0 0.05529631626147162 -0.039365217628468493 0 0.054998810325054062 -0.037334781334326272 0 0.054999226622036781 -0.039867359979744173 0 0.05529631626147162 -0.039365217628468493 0 0.05499901806124434 -0.042398433576645161 0 0.054999226622036781 -0.039867359979744173 0 0.055347227285255297 -0.040863881627528006 0 0.054999226622036781 -0.039867359979744173 0 0.055347227285255297 -0.040863881627528006 0 0.05529631626147162 -0.039365217628468493 0 0.055401414673539782 -0.041078967251339867 0 0.05529631626147162 -0.039365217628468493 0 0.054944541802049746 -0.040153189090241188 0 0.055401414673539782 -0.041078967251339867 0 0.055347227285255297 -0.040863881627528006 0 0.05529631626147162 -0.039365217628468493 0 0.05529631626147162 -0.039365217628468493 0 0.054944541802049746 -0.040153189090241188 0 0.054983448688174549 -0.038578769812609728 0 0.054231399818015558 -0.040838372115887901 0 0.055401414673539782 -0.041078967251339867 0 0.054944541802049746 -0.040153189090241188 0 0.054231399818015558 -0.040838372115887901 0 0.054944541802049746 -0.040153189090241188 0 0.054062516389025997 -0.040245598515111114 0 0.054944541802049746 -0.040153189090241188 0 0.054798296363689887 -0.039753552116434512 0 0.054062516389025997 -0.040245598515111114 0 0.054944541802049746 -0.040153189090241188 0 0.054798296363689887 -0.039753552116434512 0 0.054983448688174549 -0.038578769812609728 0 0.054798296363689887 -0.039753552116434512 0 0.054794215808939437 -0.038065062542639146 0 0.054941449950399325 -0.038426394879271686 0 0.054798296363689887 -0.039753552116434512 0 0.054983448688174549 -0.038578769812609728 0 0.054794215808939437 -0.038065062542639146 0 0.054639428518037179 -0.0369673582680181 0 0.054794215808939437 -0.038065062542639146 0 0.054569225717181612 -0.037375809656971362 0 0.054639428518037179 -0.0369673582680181 0 0.054983448688174549 -0.038578769812609728 0 0.054794215808939437 -0.038065062542639146 0 0.054794215808939437 -0.038065062542639146 0 0.054941449950399325 -0.038426394879271686 0 0.054569225717181612 -0.037375809656971362 0 0.054941449950399325 -0.038426394879271686 0 0.054969819585908436 -0.038632772305565485 0 0.055020833337005561 -0.037664474324116577 0 0.054969819585908436 -0.038632772305565485 0 0.054715795723156581 -0.03905821524906547 0 0.055148113493631024 -0.037758885182006728 0 0.054969819585908436 -0.038632772305565485 0 0.054628183735435681 -0.039345350148505931 0 0.054715795723156581 -0.03905821524906547 0 0.054969819585908436 -0.038632772305565485 0 0.055077813778017244 -0.03917320777141834 0 0.054628183735435681 -0.039345350148505931 0 0.054941449950399325 -0.038426394879271686 0 0.054969819585908436 -0.038632772305565485 0 0.055077813778017244 -0.03917320777141834 0 0.054798296363689887 -0.039753552116434512 0 0.054941449950399325 -0.038426394879271686 0 0.055077813778017244 -0.03917320777141834 0 0.054798296363689887 -0.039753552116434512 0 0.054062516389025997 -0.040245598515111114 0 0.052649290164602354 -0.041783020876050479 0 0.054620368214975693 -0.039902835248744918 0 0.053753210283731152 -0.04039928414151335 0 0.052966453999526833 -0.039220340722342512 0 0.054062516389025997 -0.040245598515111114 0 0.05117457963189926 -0.040572088897632502 0 0.054062516389025997 -0.040245598515111114 0 0.052649290164602354 -0.041783020876050479 0 0.05117457963189926 -0.040572088897632502 0 0.053753210283731152 -0.04039928414151335 0 0.051369025723314504 -0.04066633071136936 0 0.052649290164602354 -0.041783020876050479 0 0.05117457963189926 -0.040572088897632502 0 0.04917951398930212 -0.042264954956018931 0 0.049630044782818357 -0.039089518617613436 0 0.052966453999526833 -0.039220340722342512 0 0.05117457963189926 -0.040572088897632502 0 0.046023092083741328 -0.040477345128506176 0 0.049630044782818357 -0.039089518617613436 0 0.047670530106654604 -0.041088599438354356 0 0.049630044782818357 -0.039089518617613436 0 0.05117457963189926 -0.040572088897632502 0 0.047670530106654604 -0.041088599438354356 0 0.05117457963189926 -0.040572088897632502 0 0.04917951398930212 -0.042264954956018931 0 0.047670530106654604 -0.041088599438354356 0 0.053600922373817729 -0.038938522297302013 0 0.05379137391372691 -0.040110248100353844 0 0.050342328544320657 -0.041185701343752615 0 0.055077813778017244 -0.03917320777141834 0 0.053600922373817729 -0.038938522297302013 0 0.054628183735435681 -0.039345350148505931 0 0.053600922373817729 -0.038938522297302013 0 0.05379137391372691 -0.040110248100353844 0 0.054628183735435681 -0.039345350148505931 0 0.05379137391372691 -0.040110248100353844 0 0.054628183735435681 -0.039345350148505931 0 0.054715795723156581 -0.03905821524906547 0 0.05379137391372691 -0.040110248100353844 0 0.05502963612426915 -0.039341888797096922 0 0.050342328544320657 -0.041185701343752615 0 0.05379137391372691 -0.040110248100353844 0 0.054715795723156581 -0.03905821524906547 0 0.05502963612426915 -0.039341888797096922 0 0.048430431201097343 -0.043837315007954125 0 0.047293269422458262 -0.042520738180926609 0 0.048073599486192053 -0.043580953175467257 0 0.05502963612426915 -0.039341888797096922 0 0.055359114624316218 -0.037745457150880263 0 0.056361952004653965 -0.036699055188281107 0 0.051579951288070428 -0.041298875254738965 0 0.051790384591896492 -0.039596346859283107 0 0.054715795723156581 -0.03905821524906547 0 0.055359114624316218 -0.037745457150880263 0 0.055148113493631024 -0.037758885182006728 0 0.054715795723156581 -0.03905821524906547 0 0.05502963612426915 -0.039341888797096922 0 0.055359114624316218 -0.037745457150880263 0 0.055359114624316218 -0.037745457150880263 0 0.056361952004653965 -0.036699055188281107 0 0.05599487482267259 -0.036187812401128193 0 0.055359114624316218 -0.037745457150880263 0 0.05599487482267259 -0.036187812401128193 0 0.055623651680083423 -0.03646742254377431 0 0.055359114624316218 -0.037745457150880263 0 0.055623651680083423 -0.03646742254377431 0 0.055148113493631024 -0.037758885182006728 0 0.047293269422458262 -0.042520738180926609 0 0.047862316496050938 -0.040971756541649647 0 0.047220854781563272 -0.039732382075250879 0 0.056361952004653965 -0.036699055188281107 0 0.055781511816261876 -0.035839239007644019 0 0.05513177371979195 -0.0358631252364199 0 0.056361952004653965 -0.036699055188281107 0 0.055781511816261876 -0.035839239007644019 0 0.05599487482267259 -0.036187812401128193 0 0.051790384591896492 -0.039596346859283107 0 0.051085871338660493 -0.038053060048625888 0 0.047293269422458262 -0.042520738180926609 0 0.047862316496050938 -0.040971756541649647 0 0.04815953925826414 -0.042113849124695721 0 0.047862316496050938 -0.040971756541649647 0 0.048071225117237631 -0.039599522610481469 0 0.048490069031426324 -0.039905732459556746 0 0.047862316496050938 -0.040971756541649647 0 0.047220854781563272 -0.039732382075250879 0 0.048071225117237631 -0.039599522610481469 0 0.047220854781563272 -0.039732382075250879 0 0.047955368537738942 -0.039141273432556328 0 0.048071225117237631 -0.039599522610481469 0 0.047220854781563272 -0.039732382075250879 0 0.047955368537738942 -0.039141273432556328 0 0.048335783615427182 -0.038409632062159756 0 0.047955368537738942 -0.039141273432556328 0 0.048241376072254261 -0.038880929325385713 0 0.048335783615427182 -0.038409632062159756 0 0.047955368537738942 -0.039141273432556328 0 0.048241376072254261 -0.038880929325385713 0 0.048071225117237631 -0.039599522610481469 0 0.048241376072254261 -0.038880929325385713 0 0.048071225117237631 -0.039599522610481469 0 0.048636009156077874 -0.038930558917650272 0 0.055486242900609155 -0.03553391925023755 0 0.053735502189727953 -0.034537325856539181 0 0.055781511816261876 -0.035839239007644019 0 0.056628184448487308 -0.034632954352160579 0 0.057574238480803411 -0.033483126322889939 0 0.055781511816261876 -0.035839239007644019 0 0.05513177371979195 -0.0358631252364199 0 0.050788686014197913 -0.036548278264420107 0 0.055781511816261876 -0.035839239007644019 0 0.056628184448487308 -0.034632954352160579 0 0.05618101078143288 -0.035430689108551842 0 0.05618101078143288 -0.035430689108551842 0 0.0559944824052762 -0.035730112174811465 0 0.056210345207337788 -0.035039706311790528 0 0.056628184448487308 -0.034632954352160579 0 0.05618101078143288 -0.035430689108551842 0 0.056210345207337788 -0.035039706311790528 0 0.05618101078143288 -0.035430689108551842 0 0.0559944824052762 -0.035730112174811465 0 0.056025980886447918 -0.035780648500676138 0 0.055781511816261876 -0.035839239007644019 0 0.05618101078143288 -0.035430689108551842 0 0.056025980886447918 -0.035780648500676138 0 0.055781511816261876 -0.035839239007644019 0 0.056025980886447918 -0.035780648500676138 0 0.05599487482267259 -0.036187812401128193 0 0.0559944824052762 -0.035730112174811465 0 0.056025980886447918 -0.035780648500676138 0 0.05599487482267259 -0.036187812401128193 0 0.0559944824052762 -0.035730112174811465 0 0.05599487482267259 -0.036187812401128193 0 0.055623651680083423 -0.03646742254377431 0 0.0559944824052762 -0.035730112174811465 0 0.055779784383143752 -0.035554646095705689 0 0.055623651680083423 -0.03646742254377431 0 0.055779784383143752 -0.035554646095705689 0 0.055280250806505664 -0.036531579360005735 0 0.055623651680083423 -0.03646742254377431 0 0.055779784383143752 -0.035554646095705689 0 0.055963157439336018 -0.03460167751301392 0 0.055437791706049518 -0.035013668535820767 0 0.0559944824052762 -0.035730112174811465 0 0.055779784383143752 -0.035554646095705689 0 0.056210345207337788 -0.035039706311790528 0 0.055779784383143752 -0.035554646095705689 0 0.056210345207337788 -0.035039706311790528 0 0.055963157439336018 -0.03460167751301392 0 0.056210345207337788 -0.035039706311790528 0 0.055963157439336018 -0.03460167751301392 0 0.056732832514512117 -0.033930008042829619 0 0.056628184448487308 -0.034632954352160579 0 0.056210345207337788 -0.035039706311790528 0 0.056732832514512117 -0.033930008042829619 0 0.055963157439336018 -0.03460167751301392 0 0.055285796809946754 -0.033838605913886752 0 0.05567748996009135 -0.033491135107536582 0 0.055963157439336018 -0.03460167751301392 0 0.055285796809946754 -0.033838605913886752 0 0.055437791706049518 -0.035013668535820767 0 0.055285796809946754 -0.033838605913886752 0 0.055437791706049518 -0.035013668535820767 0 0.055039531202825509 -0.033087904452185783 0 0.055779784383143752 -0.035554646095705689 0 0.055437791706049518 -0.035013668535820767 0 0.055280250806505664 -0.036531579360005735 0 0.055437791706049518 -0.035013668535820767 0 0.055280250806505664 -0.036531579360005735 0 0.054930225335651339 -0.036110802464848324 0 0.055437791706049518 -0.035013668535820767 0 0.054930225335651339 -0.036110802464848324 0 0.055040785748952901 -0.035065159210736378 0 0.055280250806505664 -0.036531579360005735 0 0.055020833337005561 -0.037664474324116577 0 0.054800141559965203 -0.037174007688025791 0 0.055280250806505664 -0.036531579360005735 0 0.054800141559965203 -0.037174007688025791 0 0.054930225335651339 -0.036110802464848324 0 0.055280250806505664 -0.036531579360005735 0 0.055623651680083423 -0.03646742254377431 0 0.055148113493631024 -0.037758885182006728 0 0.055280250806505664 -0.036531579360005735 0 0.055148113493631024 -0.037758885182006728 0 0.055020833337005561 -0.037664474324116577 0 0.054969819585908436 -0.038632772305565485 0 0.055148113493631024 -0.037758885182006728 0 0.055020833337005561 -0.037664474324116577 0 0.054941449950399325 -0.038426394879271686 0 0.055020833337005561 -0.037664474324116577 0 0.054800141559965203 -0.037174007688025791 0 0.054941449950399325 -0.038426394879271686 0 0.054800141559965203 -0.037174007688025791 0 0.054569225717181612 -0.037375809656971362 0 0.054800141559965203 -0.037174007688025791 0 0.054569225717181612 -0.037375809656971362 0 0.05441458482503074 -0.036678841695031605 0 0.054639428518037179 -0.0369673582680181 0 0.054305890774997867 -0.03689230411163863 0 0.054569225717181612 -0.037375809656971362 0 0.054305890774997867 -0.03689230411163863 0 0.054569225717181612 -0.037375809656971362 0 0.05441458482503074 -0.036678841695031605 0 0.054305890774997867 -0.03689230411163863 0 0.05441458482503074 -0.036678841695031605 0 0.053766241505098164 -0.036165706321476587 0 0.05441458482503074 -0.036678841695031605 0 0.054560241480979092 -0.035740589171168242 0 0.053766241505098164 -0.036165706321476587 0 0.05441458482503074 -0.036678841695031605 0 0.054930225335651339 -0.036110802464848324 0 0.054560241480979092 -0.035740589171168242 0 0.054800141559965203 -0.037174007688025791 0 0.05441458482503074 -0.036678841695031605 0 0.054930225335651339 -0.036110802464848324 0 0.054560241480979092 -0.035740589171168242 0 0.055039531202825509 -0.033087904452185783 0 0.053766241505098164 -0.036165706321476587 0 0.054560241480979092 -0.035740589171168242 0 0.055040785748952901 -0.035065159210736378 0 0.055039531202825509 -0.033087904452185783 0 0.055191824487220223 -0.033095525620181906 0 0.055812811908044088 -0.033285148961508255 0 0.054930225335651339 -0.036110802464848324 0 0.054560241480979092 -0.035740589171168242 0 0.055040785748952901 -0.035065159210736378 0 0.055437791706049518 -0.035013668535820767 0 0.055040785748952901 -0.035065159210736378 0 0.055039531202825509 -0.033087904452185783 0 0.055285796809946754 -0.033838605913886752 0 0.055039531202825509 -0.033087904452185783 0 0.054542221697532263 -0.033811010545643526 0 0.055039531202825509 -0.033087904452185783 0 0.0573384188000053 -0.031255809152303637 0 0.054542221697532263 -0.033811010545643526 0 0.057284925245028144 -0.031136421192972025 0 0.057017091472445013 -0.030193334275538917 0 0.0573384188000053 -0.031255809152303637 0 0.057572005412378016 -0.02819395993275613 0 0.059534050750006472 -0.026828693048349051 0 0.0573384188000053 -0.031255809152303637 0 0.057110242886184451 -0.029792304926517337 0 0.057572005412378016 -0.02819395993275613 0 0.055039531202825509 -0.033087904452185783 0 0.0573384188000053 -0.031255809152303637 0 0.057852382780435578 -0.030377833552495601 0 0.0573384188000053 -0.031255809152303637 0 0.057852382780435578 -0.030377833552495601 0 0.057110242886184451 -0.029792304926517337 0 0.057852382780435578 -0.030377833552495601 0 0.056598365621268923 -0.0296954137439468 0 0.057110242886184451 -0.029792304926517337 0 0.057852382780435578 -0.030377833552495601 0 0.056598365621268923 -0.0296954137439468 0 0.056698991881966566 -0.030992756154956582 0 0.057110242886184451 -0.029792304926517337 0 0.056453871774873821 -0.027446563040512909 0 0.057572005412378016 -0.02819395993275613 0 0.056598365621268923 -0.0296954137439468 0 0.057110242886184451 -0.029792304926517337 0 0.056453871774873821 -0.027446563040512909 0 0.056598365621268923 -0.0296954137439468 0 0.054999461130475415 -0.028332662096176006 0 0.056453871774873821 -0.027446563040512909 0 0.056598365621268923 -0.0296954137439468 0 0.054999461130475415 -0.028332662096176006 0 0.054999838419386049 -0.031567371284021019 0 0.056598365621268923 -0.0296954137439468 0 0.054999838419386049 -0.031567371284021019 0 0.056698991881966566 -0.030992756154956582 0 0.054999838419386049 -0.031567371284021019 0 0.056698991881966566 -0.030992756154956582 0 0.056701391191738122 -0.032518755822376441 0 0.054305890774997867 -0.03689230411163863 0 0.053766241505098164 -0.036165706321476587 0 0.054477192530060572 -0.036826029511989725 0 0.055812811908044088 -0.033285148961508255 0 0.055502148432819184 -0.034617383725014272 0 0.057852382780435578 -0.030377833552495601 0 0.056698991881966566 -0.030992756154956582 0 0.056701391191738122 -0.032518755822376441 0 0.054999303327879424 -0.034810710233523015 0 0.054639428518037179 -0.0369673582680181 0 0.054477192530060572 -0.036826029511989725 0 0.054639428518037179 -0.0369673582680181 0 0.054305890774997867 -0.03689230411163863 0 0.054477192530060572 -0.036826029511989725 0 0.054999953167023274 -0.034803954754529173 0 0.055502148432819184 -0.034617383725014272 0 0.05499991542640599 -0.034803407060770029 0 0.054999838419386049 -0.031567371284021019 0 0.056701391191738122 -0.032518755822376441 0 0.040007799663950246 -0.043646151242680148 0 0.037560672548371955 -0.04616790798123576 0 0.037844575448204 -0.041737947896757832 0 0.040007799663950246 -0.043646151242680148 0 0.040694096328429852 -0.04181081495887768 0 0.042475647956040745 -0.043267802647071044 0 0.040007799663950246 -0.043646151242680148 0 0.041002186066366117 -0.045875482003756178 0 0.042475647956040745 -0.043267802647071044 0 0.040007799663950246 -0.043646151242680148 0 0.041002186066366117 -0.045875482003756178 0 0.037560672548371955 -0.04616790798123576 0 0.037560672548371955 -0.04616790798123576 0 0.032664315359909719 -0.044542192841764458 0 0.034699124903746263 -0.047929587817761785 0 0.024696131896144616 -0.038947164567117658 0 0.02501199551992675 -0.040959610432456189 0 0.017317035479819914 -0.03390144611241603 0 0.01662428846974159 -0.033185179601901052 0 0.016728249329528381 -0.033821839949503579 0 0.01662428846974159 -0.033185179601901052 0 0.016728249329528381 -0.033821839949503579 0 0.016308736645698419 -0.032908031061956312 0 0.017317035479819914 -0.03390144611241603 0 0.016728249329528381 -0.033821839949503579 0 0.017819608550353253 -0.034411065174124539 0 0.032664315359909719 -0.044542192841764458 0 0.033183532092745598 -0.040941611505950798 0 0.037844575448204 -0.041737947896757832 0 0.037560672548371955 -0.04616790798123576 0 0.032664315359909719 -0.044542192841764458 0 0.037844575448204 -0.041737947896757832 0 0.03544967339935802 -0.039375691468041041 0 0.037739278316224381 -0.041589175104438283 0 0.033183532092745598 -0.040941611505950798 0 0.032540195255160144 -0.03705828557132014 0 0.037844575448204 -0.041737947896757832 0 0.032664315359909719 -0.044542192841764458 0 0.033183532092745598 -0.040941611505950798 0 0.028560111050953952 -0.038916176570172982 0 0.033183532092745598 -0.040941611505950798 0 0.028560111050953952 -0.038916176570172982 0 0.032540195255160144 -0.03705828557132014 0 0.024696131896144616 -0.038947164567117658 0 0.023377326868788739 -0.036506810125502123 0 0.016728249329528381 -0.033821839949503579 0 0.017819608550353253 -0.034411065174124539 0 0.018294339984958552 -0.034854777257370066 0 0.018459143754614257 -0.034644469114163426 0 0.017819608550353253 -0.034411065174124539 0 0.018294339984958552 -0.034854777257370066 0 0.023849094474496773 -0.033283667201311942 0 0.026715633060077439 -0.035540992190389233 0 0.032540195255160144 -0.03705828557132014 0 0.019410604771913777 -0.034345777026435313 0 0.022304041853618825 -0.033055293153375041 0 0.018294339984958552 -0.034854777257370066 0 0.022304041853618825 -0.033055293153375041 0 0.028560111050953952 -0.038916176570172982 0 0.026715633060077439 -0.035540992190389233 0 0.022302132416891499 -0.032795416914248025 0 0.023377326868788739 -0.036506810125502123 0 0.018459143754614257 -0.034644469114163426 0 0.019410604771913777 -0.034345777026435313 0 0.018294339984958552 -0.034854777257370066 0 0.028560111050953952 -0.038916176570172982 0 0.026715633060077439 -0.035540992190389233 0 0.032540195255160144 -0.03705828557132014 0 0.03149118226618728 -0.037178194373105086 0 0.03544967339935802 -0.039375691468041041 0 0.038585360932601134 -0.040836215272042481 0 0.038415602503120448 -0.041121417813911425 0 0.038580615263273207 -0.040945730992689014 0 0.038415602503120448 -0.041121417813911425 0 0.038580615263273207 -0.040945730992689014 0 0.038730830008409073 -0.041006970269493848 0 0.038415602503120448 -0.041121417813911425 0 0.038730830008409073 -0.041006970269493848 0 0.037844575448204 -0.041737947896757832 0 0.039028763502100987 -0.040806316568122371 0 0.038730830008409073 -0.041006970269493848 0 0.039951900924510154 -0.040955622181082847 0 0.038730830008409073 -0.041006970269493848 0 0.037844575448204 -0.041737947896757832 0 0.039951900924510154 -0.040955622181082847 0 0.037844575448204 -0.041737947896757832 0 0.040694096328429852 -0.04181081495887768 0 0.039951900924510154 -0.040955622181082847 0 0.040007799663950246 -0.043646151242680148 0 0.037844575448204 -0.041737947896757832 0 0.040694096328429852 -0.04181081495887768 0 0.040694096328429852 -0.04181081495887768 0 0.039951900924510154 -0.040955622181082847 0 0.042553571161297148 -0.041181944624045931 0 0.041503333609372021 -0.04071288058993433 0 0.039951900924510154 -0.040955622181082847 0 0.042553571161297148 -0.041181944624045931 0 0.043560156552112435 -0.040530503225031544 0 0.042553571161297148 -0.041181944624045931 0 0.045508253801067579 -0.041108097939173645 0 0.042553571161297148 -0.041181944624045931 0 0.044204838418886408 -0.042045037714041139 0 0.045508253801067579 -0.041108097939173645 0 0.040694096328429852 -0.04181081495887768 0 0.042493451026808952 -0.042009167016439759 0 0.042475647956040745 -0.043267802647071044 0 0.042553571161297148 -0.041181944624045931 0 0.044204838418886408 -0.042045037714041139 0 0.042493451026808952 -0.042009167016439759 0 0.040694096328429852 -0.04181081495887768 0 0.042553571161297148 -0.041181944624045931 0 0.042493451026808952 -0.042009167016439759 0 0.046023092083741328 -0.040477345128506176 0 0.047670530106654604 -0.041088599438354356 0 0.045508253801067579 -0.041108097939173645 0 0.046023092083741328 -0.040477345128506176 0 0.043560156552112435 -0.040530503225031544 0 0.045508253801067579 -0.041108097939173645 0 0.044204838418886408 -0.042045037714041139 0 0.045508253801067579 -0.041108097939173645 0 0.046109991466396764 -0.04221538775893148 0 0.045508253801067579 -0.041108097939173645 0 0.047395910881070903 -0.041202886534916348 0 0.046109991466396764 -0.04221538775893148 0 0.053600922373817729 -0.038938522297302013 0 0.047395910881070903 -0.041202886534916348 0 0.050342328544320657 -0.041185701343752615 0 0.04917951398930212 -0.042264954956018931 0 0.047670530106654604 -0.041088599438354356 0 0.047395910881070903 -0.041202886534916348 0 0.047670530106654604 -0.041088599438354356 0 0.045508253801067579 -0.041108097939173645 0 0.047395910881070903 -0.041202886534916348 0 0.051369025723314504 -0.04066633071136936 0 0.047836907321433281 -0.0410820795976303 0 0.047395910881070903 -0.041202886534916348 0 0.050342328544320657 -0.041185701343752615 0 0.047610648620448635 -0.043377601490875238 0 0.047395910881070903 -0.041202886534916348 0 0.046109991466396764 -0.04221538775893148 0 0.047610648620448635 -0.043377601490875238 0 0.046109991466396764 -0.04221538775893148 0 0.047610648620448635 -0.043377601490875238 0 0.04529182316001288 -0.043425652394397114 0 0.047610648620448635 -0.043377601490875238 0 0.048073599486192053 -0.043580953175467257 0 0.047402678095529643 -0.044343174652364058 0 0.047610648620448635 -0.043377601490875238 0 0.04529182316001288 -0.043425652394397114 0 0.047402678095529643 -0.044343174652364058 0 0.051579951288070428 -0.041298875254738965 0 0.050516231036429701 -0.040838510075773618 0 0.048430431201097343 -0.043837315007954125 0 0.050342328544320657 -0.041185701343752615 0 0.047610648620448635 -0.043377601490875238 0 0.048430431201097343 -0.043837315007954125 0 0.047610648620448635 -0.043377601490875238 0 0.048073599486192053 -0.043580953175467257 0 0.044204838418886408 -0.042045037714041139 0 0.042493451026808952 -0.042009167016439759 0 0.042475647956040745 -0.043267802647071044 0 0.044204838418886408 -0.042045037714041139 0 0.046109991466396764 -0.04221538775893148 0 0.04529182316001288 -0.043425652394397114 0 0.044204838418886408 -0.042045037714041139 0 0.042475647956040745 -0.043267802647071044 0 0.04529182316001288 -0.043425652394397114 0 0.04529182316001288 -0.043425652394397114 0 0.043864869337483056 -0.044855526316590545 0 0.047402678095529643 -0.044343174652364058 0 0.042475647956040745 -0.043267802647071044 0 0.04529182316001288 -0.043425652394397114 0 0.043864869337483056 -0.044855526316590545 0 0.041002186066366117 -0.045875482003756178 0 0.042475647956040745 -0.043267802647071044 0 0.043864869337483056 -0.044855526316590545 0 0.041002186066366117 -0.045875482003756178 0 0.043864869337483056 -0.044855526316590545 0 0.043119143680527619 -0.047952573942136527 0 0.045562649273169963 -0.045117982689926242 0 0.047351720611966353 -0.044457909016619286 0 0.048906300821127513 -0.042381709894983431 0 0.048664203816814702 -0.042724571314936524 0 0.047402678095529643 -0.044343174652364058 0 0.043864869337483056 -0.044855526316590545 0 0.043119143680527619 -0.047952573942136527 0 0.047402678095529643 -0.044343174652364058 0 0.048906300821127513 -0.042381709894983431 0 0.048664203816814702 -0.042724571314936524 0 0.049024197373130907 -0.042511656986228136 0 0.048664203816814702 -0.042724571314936524 0 0.049024197373130907 -0.042511656986228136 0 0.049224194890115654 -0.041603060716450362 0 0.048906300821127513 -0.042381709894983431 0 0.049024197373130907 -0.042511656986228136 0 0.047860115918930329 -0.042723290640516658 0 0.048906300821127513 -0.042381709894983431 0 0.047860115918930329 -0.042723290640516658 0 0.046378984572059544 -0.042002549840789827 0 0.048073599486192053 -0.043580953175467257 0 0.047402678095529643 -0.044343174652364058 0 0.048492214257786451 -0.042601764465759744 0 0.048664203816814702 -0.042724571314936524 0 0.047402678095529643 -0.044343174652364058 0 0.048492214257786451 -0.042601764465759744 0 0.048664203816814702 -0.042724571314936524 0 0.048492214257786451 -0.042601764465759744 0 0.049224194890115654 -0.041603060716450362 0 0.048073599486192053 -0.043580953175467257 0 0.048492214257786451 -0.042601764465759744 0 0.04815953925826414 -0.042113849124695721 0 0.047293269422458262 -0.042520738180926609 0 0.048073599486192053 -0.043580953175467257 0 0.04815953925826414 -0.042113849124695721 0 0.047862316496050938 -0.040971756541649647 0 0.04815953925826414 -0.042113849124695721 0 0.048743295747938412 -0.040815206674773487 0 0.048492214257786451 -0.042601764465759744 0 0.04815953925826414 -0.042113849124695721 0 0.048743295747938412 -0.040815206674773487 0 0.048743295747938412 -0.040815206674773487 0 0.049389014366869446 -0.040223534578976164 0 0.049224194890115654 -0.041603060716450362 0 0.048492214257786451 -0.042601764465759744 0 0.048743295747938412 -0.040815206674773487 0 0.049224194890115654 -0.041603060716450362 0 0.049389014366869446 -0.040223534578976164 0 0.050291401074933871 -0.040296798309774041 0 0.04972476113643539 -0.038878346196912487 0 0.049389014366869446 -0.040223534578976164 0 0.049053499914147959 -0.039448854578226389 0 0.04972476113643539 -0.038878346196912487 0 0.048743295747938412 -0.040815206674773487 0 0.049389014366869446 -0.040223534578976164 0 0.049053499914147959 -0.039448854578226389 0 0.047862316496050938 -0.040971756541649647 0 0.048743295747938412 -0.040815206674773487 0 0.048490069031426324 -0.039905732459556746 0 0.048743295747938412 -0.040815206674773487 0 0.049053499914147959 -0.039448854578226389 0 0.048490069031426324 -0.039905732459556746 0 0.049053499914147959 -0.039448854578226389 0 0.048490069031426324 -0.039905732459556746 0 0.048636009156077874 -0.038930558917650272 0 0.048071225117237631 -0.039599522610481469 0 0.048490069031426324 -0.039905732459556746 0 0.048636009156077874 -0.038930558917650272 0 0.049024197373130907 -0.042511656986228136 0 0.04797610529992645 -0.043800577247299653 0 0.048859447615754836 -0.044485760284415206 0 0.047860115918930329 -0.042723290640516658 0 0.04797610529992645 -0.043800577247299653 0 0.046824984396866366 -0.043525137653432612 0 0.049024197373130907 -0.042511656986228136 0 0.047860115918930329 -0.042723290640516658 0 0.04797610529992645 -0.043800577247299653 0 0.049024197373130907 -0.042511656986228136 0 0.049224194890115654 -0.041603060716450362 0 0.050291401074933871 -0.040296798309774041 0 0.048950311580642808 -0.041966536572661653 0 0.049973263891058183 -0.043223565229470448 0 0.049389014366869446 -0.040223534578976164 0 0.049224194890115654 -0.041603060716450362 0 0.050291401074933871 -0.040296798309774041 0 0.048859447615754836 -0.044485760284415206 0 0.048059034602976967 -0.044646650836190904 0 0.048418378770374935 -0.045058834869131245 0 0.04797610529992645 -0.043800577247299653 0 0.048859447615754836 -0.044485760284415206 0 0.048059034602976967 -0.044646650836190904 0 0.04797610529992645 -0.043800577247299653 0 0.048059034602976967 -0.044646650836190904 0 0.047273177082809682 -0.044410535642188227 0 0.048059034602976967 -0.044646650836190904 0 0.047273177082809682 -0.044410535642188227 0 0.047605138222736681 -0.045135856562369299 0 0.033999267217046769 -0.035174698797992135 0 0.036232537247474439 -0.036658802995989281 0 0.047273177082809682 -0.044410535642188227 0 0.045906811213748365 -0.044598131499052861 0 0.047605138222736681 -0.045135856562369299 0 0.020793233337214091 -0.025342564447565167 0 0.021551519991667163 -0.026966358367470553 0 0.023479964571665415 -0.026717600080192236 0 0.020793233337214091 -0.025342564447565167 0 0.020422862721865827 -0.026565358116928114 0 0.021551519991667163 -0.026966358367470553 0 0.047273177082809682 -0.044410535642188227 0 0.045906811213748365 -0.044598131499052861 0 0.046824984396866366 -0.043525137653432612 0 0.019127446106895672 -0.026353160747617267 0 0.020793233337214091 -0.025342564447565167 0 0.018841317500218412 -0.024145461196168939 0 0.019127446106895672 -0.026353160747617267 0 0.020793233337214091 -0.025342564447565167 0 0.020422862721865827 -0.026565358116928114 0 0.033999267217046769 -0.035174698797992135 0 0.02651268657874932 -0.032970379926551108 0 0.045906811213748365 -0.044598131499052861 0 0.045201160059050484 -0.043366441834790943 0 0.043538253243598647 -0.043494983911292022 0 0.045201160059050484 -0.043366441834790943 0 0.043359120990092537 -0.042886130809117871 0 0.043538253243598647 -0.043494983911292022 0 0.045201160059050484 -0.043366441834790943 0 0.046824984396866366 -0.043525137653432612 0 0.046378984572059544 -0.042002549840789827 0 0.04797610529992645 -0.043800577247299653 0 0.047273177082809682 -0.044410535642188227 0 0.046824984396866366 -0.043525137653432612 0 0.045906811213748365 -0.044598131499052861 0 0.045201160059050484 -0.043366441834790943 0 0.046824984396866366 -0.043525137653432612 0 0.047860115918930329 -0.042723290640516658 0 0.046824984396866366 -0.043525137653432612 0 0.046378984572059544 -0.042002549840789827 0 0.045562649273169963 -0.045117982689926242 0 0.044402867973297254 -0.046698779447506909 0 0.03934877102519619 -0.049873995442556419 0 0.036869193756386358 -0.049184629512820835 0 0.035966552123829258 -0.051336907058381995 0 0.045201160059050484 -0.043366441834790943 0 0.046378984572059544 -0.042002549840789827 0 0.043359120990092537 -0.042886130809117871 0 0.044402867973297254 -0.046698779447506909 0 0.030391679049146726 -0.039177227723728496 0 0.037560672548371955 -0.04616790798123576 0 0.03934877102519619 -0.049873995442556419 0 0.036869193756386358 -0.049184629512820835 0 0.041002186066366117 -0.045875482003756178 0 0.043119143680527619 -0.047952573942136527 0 0.03934877102519619 -0.049873995442556419 0 0.041002186066366117 -0.045875482003756178 0 0.037560672548371955 -0.04616790798123576 0 0.03934877102519619 -0.049873995442556419 0 0.016100845121555282 -0.032502937140611712 0 0.01662428846974159 -0.033185179601901052 0 0.016308736645698419 -0.032908031061956312 0 0.037560672548371955 -0.04616790798123576 0 0.036869193756386358 -0.049184629512820835 0 0.034699124903746263 -0.047929587817761785 0 0.036869193756386358 -0.049184629512820835 0 0.034699124903746263 -0.047929587817761785 0 0.035966552123829258 -0.051336907058381995 0 0.016308736645698419 -0.032908031061956312 0 0.016262557830349991 -0.03283756817712901 0 0.016416337810161486 -0.032937952262905142 0 0.02501199551992675 -0.040959610432456189 0 0.030391679049146726 -0.039177227723728496 0 0.014969557899898449 -0.03178017333867416 0 0.020046074081331473 -0.033426066074987874 0 0.016100845121555282 -0.032502937140611712 0 0.016308736645698419 -0.032908031061956312 0 0.016262557830349991 -0.03283756817712901 0 0.016201556187693335 -0.032628628808191271 0 0.014969557899898449 -0.03178017333867416 0 0.017549241391647392 -0.026437195850326261 0 0.018625500684874161 -0.025729361587240727 0 0.018298939255821198 -0.026349797989632558 0 0.015925064865739382 -0.027701661146424691 0 0.020046074081331473 -0.033426066074987874 0 0.015384691656352492 -0.030190083267789419 0 0.0147908441012784 -0.031683947399536345 0 0.014005808913812897 -0.031108876995074742 0 0.018829036668367209 -0.025863176535529494 0 0.018625500684874161 -0.025729361587240727 0 0.018298939255821198 -0.026349797989632558 0 0.016262557830349991 -0.03283756817712901 0 0.016416337810161486 -0.032937952262905142 0 0.016384878778355958 -0.032947782665034217 0 0.030391679049146726 -0.039177227723728496 0 0.020046074081331473 -0.033426066074987874 0 0.02651268657874932 -0.032970379926551108 0 0.020046074081331473 -0.033426066074987874 0 0.027444969391376802 -0.035416772218366692 0 0.02727447077643751 -0.034571296967712287 0 0.028042123813486936 -0.03512702180647103 0 0.030391679049146726 -0.039177227723728496 0 0.02651268657874932 -0.032970379926551108 0 0.017462277431314035 -0.022846248497645508 0 0.02651268657874932 -0.032970379926551108 0 0.019127446106895672 -0.026353160747617267 0 0.018829036668367209 -0.025863176535529494 0 0.018298939255821198 -0.026349797989632558 0 0.019127446106895672 -0.026353160747617267 0 0.018298939255821198 -0.026349797989632558 0 0.01843211196265402 -0.026706976556946007 0 0.017549241391647392 -0.026437195850326261 0 0.018298939255821198 -0.026349797989632558 0 0.017784738672543696 -0.026967879078715111 0 0.017784738672543696 -0.026967879078715111 0 0.01843211196265402 -0.026706976556946007 0 0.017877979608096759 -0.026919998160307178 0 0.018298939255821198 -0.026349797989632558 0 0.017784738672543696 -0.026967879078715111 0 0.01843211196265402 -0.026706976556946007 0 0.017784738672543696 -0.026967879078715111 0 0.017877979608096759 -0.026919998160307178 0 0.017350511111348263 -0.027203328238583586 0 0.01843211196265402 -0.026706976556946007 0 0.01794923410830845 -0.026758679365923091 0 0.018912920096479956 -0.02629901985617502 0 0.01843211196265402 -0.026706976556946007 0 0.017877979608096759 -0.026919998160307178 0 0.01794923410830845 -0.026758679365923091 0 0.017877979608096759 -0.026919998160307178 0 0.01794923410830845 -0.026758679365923091 0 0.017350511111348263 -0.027203328238583586 0 0.01794923410830845 -0.026758679365923091 0 0.017956779303072806 -0.026786003069344214 0 0.017507777966637158 -0.026827828797162299 0 0.01794923410830845 -0.026758679365923091 0 0.017455246292058024 -0.026941648981452137 0 0.017507777966637158 -0.026827828797162299 0 0.01794923410830845 -0.026758679365923091 0 0.018622128378339545 -0.026619695906932125 0 0.017956779303072806 -0.026786003069344214 0 0.01794923410830845 -0.026758679365923091 0 0.018622128378339545 -0.026619695906932125 0 0.018912920096479956 -0.02629901985617502 0 0.018622128378339545 -0.026619695906932125 0 0.018262285855868095 -0.027011391622799738 0 0.017956779303072806 -0.026786003069344214 0 0.018622128378339545 -0.026619695906932125 0 0.018262285855868095 -0.027011391622799738 0 0.019840739262213459 -0.026862988245520192 0 0.017720678686772129 -0.026816449981948893 0 0.017956779303072806 -0.026786003069344214 0 0.017507777966637158 -0.026827828797162299 0 0.018262285855868095 -0.027011391622799738 0 0.017720678686772129 -0.026816449981948893 0 0.017956779303072806 -0.026786003069344214 0 0.017720678686772129 -0.026816449981948893 0 0.017507777966637158 -0.026827828797162299 0 0.017442821528116745 -0.026647323308284818 0 0.019840739262213459 -0.026862988245520192 0 0.020379305753759732 -0.026155578781112347 0 0.022141295732296194 -0.026723746171747678 0 0.019840739262213459 -0.026862988245520192 0 0.022141295732296194 -0.026723746171747678 0 0.021369820542894418 -0.027461124364641234 0 0.018262285855868095 -0.027011391622799738 0 0.019840739262213459 -0.026862988245520192 0 0.018905933820654211 -0.027631971720297147 0 0.018622128378339545 -0.026619695906932125 0 0.019840739262213459 -0.026862988245520192 0 0.019489808479883269 -0.026467941085992968 0 0.019489808479883269 -0.026467941085992968 0 0.020379305753759732 -0.026155578781112347 0 0.018912920096479956 -0.02629901985617502 0 0.019840739262213459 -0.026862988245520192 0 0.019489808479883269 -0.026467941085992968 0 0.020379305753759732 -0.026155578781112347 0 0.018622128378339545 -0.026619695906932125 0 0.019489808479883269 -0.026467941085992968 0 0.018912920096479956 -0.02629901985617502 0 0.020379305753759732 -0.026155578781112347 0 0.021688890494567153 -0.02604879547538801 0 0.022141295732296194 -0.026723746171747678 0 0.020379305753759732 -0.026155578781112347 0 0.021021495714541774 -0.02558763870965277 0 0.021688890494567153 -0.02604879547538801 0 0.020379305753759732 -0.026155578781112347 0 0.021021495714541774 -0.02558763870965277 0 0.01959864207568178 -0.025376184468606334 0 0.021021495714541774 -0.02558763870965277 0 0.01959864207568178 -0.025376184468606334 0 0.021359727624389271 -0.024806373190043637 0 0.020379305753759732 -0.026155578781112347 0 0.018912920096479956 -0.02629901985617502 0 0.01959864207568178 -0.025376184468606334 0 0.01843211196265402 -0.026706976556946007 0 0.018912920096479956 -0.02629901985617502 0 0.01959864207568178 -0.025376184468606334 0 0.018551968564418847 -0.026665227990475993 0 0.020409677612359314 -0.026680479473600454 0 0.019127446106895672 -0.026353160747617267 0 0.01843211196265402 -0.026706976556946007 0 0.02018858253796256 -0.027854909872316327 0 0.02018858253796256 -0.027854909872316327 0 0.020422862721865827 -0.026565358116928114 0 0.021551519991667163 -0.026966358367470553 0 0.019127446106895672 -0.026353160747617267 0 0.02018858253796256 -0.027854909872316327 0 0.020422862721865827 -0.026565358116928114 0 0.02018858253796256 -0.027854909872316327 0 0.021551519991667163 -0.026966358367470553 0 0.023149797450385461 -0.028583529995373055 0 0.020409677612359314 -0.026680479473600454 0 0.020419331203459592 -0.026293103419542045 0 0.021551519991667163 -0.026966358367470553 0 0.023479964571665415 -0.026717600080192236 0 0.023149797450385461 -0.028583529995373055 0 0.047605138222736681 -0.045135856562369299 0 0.048418378770374935 -0.045058834869131245 0 0.048556264401340657 -0.045506619638432957 0 0.020419331203459592 -0.026293103419542045 0 0.034150354724711215 -0.032509372822728783 0 0.023479964571665415 -0.026717600080192236 0 0.023149797450385461 -0.028583529995373055 0 0.026803071532812493 -0.028880290175226461 0 0.036232537247474439 -0.036658802995989281 0 0.034150354724711215 -0.032509372822728783 0 0.048059034602976967 -0.044646650836190904 0 0.047605138222736681 -0.045135856562369299 0 0.048418378770374935 -0.045058834869131245 0 0.050291401074933871 -0.040296798309774041 0 0.050385327417648958 -0.038038264975287936 0 0.04972476113643539 -0.038878346196912487 0 0.048859447615754836 -0.044485760284415206 0 0.048418378770374935 -0.045058834869131245 0 0.048837588246262324 -0.045529001541848267 0 0.049973263891058183 -0.043223565229470448 0 0.046608477170739439 -0.038016847609440636 0 0.048418378770374935 -0.045058834869131245 0 0.048556264401340657 -0.045506619638432957 0 0.048837588246262324 -0.045529001541848267 0 0.022999383607079996 -0.02482104007391514 0 0.022906116251416583 -0.025503590388687537 0 0.022154072781044136 -0.025466821819298439 0 0.034150354724711215 -0.032509372822728783 0 0.042478649286432198 -0.028477406255490671 0 0.039333609418113646 -0.032118243342422144 0 0.04226089070710317 -0.032270280038029647 0 0.042858057541886478 -0.034537907620117603 0 0.022999383607079996 -0.02482104007391514 0 0.023573975126702989 -0.02525830129752988 0 0.022906116251416583 -0.025503590388687537 0 0.046608477170739439 -0.038016847609440636 0 0.042478649286432198 -0.028477406255490671 0 0.034150354724711215 -0.032509372822728783 0 0.046608477170739439 -0.038016847609440636 0 0.023573975126702989 -0.02525830129752988 0 0.022906116251416583 -0.025503590388687537 0 0.023206013528373721 -0.025930964120980178 0 0.021359727624389271 -0.024806373190043637 0 0.022999383607079996 -0.02482104007391514 0 0.022154072781044136 -0.025466821819298439 0 0.022906116251416583 -0.025503590388687537 0 0.022154072781044136 -0.025466821819298439 0 0.022621629490475293 -0.026173898414316447 0 0.021021495714541774 -0.02558763870965277 0 0.022154072781044136 -0.025466821819298439 0 0.021688890494567153 -0.02604879547538801 0 0.021021495714541774 -0.02558763870965277 0 0.021359727624389271 -0.024806373190043637 0 0.022154072781044136 -0.025466821819298439 0 0.048890796146993397 -0.038187647400502983 0 0.0492083007094994 -0.037627457749223103 0 0.048934684184492691 -0.037642134770862402 0 0.048890796146993397 -0.038187647400502983 0 0.04914954584989762 -0.038425286452133132 0 0.0492083007094994 -0.037627457749223103 0 0.048890796146993397 -0.038187647400502983 0 0.048636009156077874 -0.038930558917650272 0 0.04914954584989762 -0.038425286452133132 0 0.049053499914147959 -0.039448854578226389 0 0.048636009156077874 -0.038930558917650272 0 0.04914954584989762 -0.038425286452133132 0 0.04914954584989762 -0.038425286452133132 0 0.049636040545676066 -0.037836296599549651 0 0.0492083007094994 -0.037627457749223103 0 0.04914954584989762 -0.038425286452133132 0 0.04972476113643539 -0.038878346196912487 0 0.049636040545676066 -0.037836296599549651 0 0.049053499914147959 -0.039448854578226389 0 0.04914954584989762 -0.038425286452133132 0 0.04972476113643539 -0.038878346196912487 0 0.050385327417648958 -0.038038264975287936 0 0.04972476113643539 -0.038878346196912487 0 0.049636040545676066 -0.037836296599549651 0 0.050058712255677575 -0.037585773098621447 0 0.049636040545676066 -0.037836296599549651 0 0.049542607428463857 -0.036711667319010981 0 0.042478649286432198 -0.028477406255490671 0 0.049080891591987447 -0.029905104812804301 0 0.050103481926244448 -0.037812049883648675 0 0.050058712255677575 -0.037585773098621447 0 0.049636040545676066 -0.037836296599549651 0 0.046608477170739439 -0.038016847609440636 0 0.050568747588842056 -0.037970912615238814 0 0.049636040545676066 -0.037836296599549651 0 0.0492083007094994 -0.037627457749223103 0 0.049542607428463857 -0.036711667319010981 0 0.0492083007094994 -0.037627457749223103 0 0.049542607428463857 -0.036711667319010981 0 0.049164334380607397 -0.03713123903028033 0 0.0492083007094994 -0.037627457749223103 0 0.048934684184492691 -0.037642134770862402 0 0.049164334380607397 -0.03713123903028033 0 0.047643620260825088 -0.021771617902388934 0 0.048607863659582036 -0.02118251696510693 0 0.047523198232419891 -0.02066904493940866 0 0.042478649286432198 -0.028477406255490671 0 0.034537018194331602 -0.023626195393744796 0 0.023573975126702989 -0.02525830129752988 0 0.02373922012306854 -0.026347094483646524 0 0.023853509029613133 -0.026573903989106171 0 0.048931196051863364 -0.022863910665398928 0 0.047643620260825088 -0.021771617902388934 0 0.048607863659582036 -0.02118251696510693 0 0.02373922012306854 -0.026347094483646524 0 0.023838881620843563 -0.026540654499726042 0 0.023296513908609713 -0.026361531755485234 0 0.031942181399065336 -0.023383800861836019 0 0.034537018194331602 -0.023626195393744796 0 0.048607863659582036 -0.02118251696510693 0 0.047523198232419891 -0.02066904493940866 0 0.048088568117171895 -0.019968305453280492 0 0.038835274350743167 -0.024687502680029633 0 0.036744322565291268 -0.020343953064115263 0 0.037559945998005641 -0.019145780812114127 0 0.023838881620843563 -0.026540654499726042 0 0.023515250505434897 -0.027104884946544117 0 0.024125489118909101 -0.027548774695170808 0 0.034537018194331602 -0.023626195393744796 0 0.043159803239139753 -0.021149297997682864 0 0.034537018194331602 -0.023626195393744796 0 0.030602849961185768 -0.023822073781723137 0 0.047643620260825088 -0.021771617902388934 0 0.047523198232419891 -0.02066904493940866 0 0.046375863243427455 -0.020678136636541413 0 0.021688890494567153 -0.02604879547538801 0 0.022621629490475293 -0.026173898414316447 0 0.022141295732296194 -0.026723746171747678 0 0.022154072781044136 -0.025466821819298439 0 0.021688890494567153 -0.02604879547538801 0 0.022621629490475293 -0.026173898414316447 0 0.022621629490475293 -0.026173898414316447 0 0.023206013528373721 -0.025930964120980178 0 0.023296513908609713 -0.026361531755485234 0 0.023573975126702989 -0.02525830129752988 0 0.02373922012306854 -0.026347094483646524 0 0.023206013528373721 -0.025930964120980178 0 0.022906116251416583 -0.025503590388687537 0 0.022621629490475293 -0.026173898414316447 0 0.023206013528373721 -0.025930964120980178 0 0.02373922012306854 -0.026347094483646524 0 0.023206013528373721 -0.025930964120980178 0 0.023296513908609713 -0.026361531755485234 0 0.022621629490475293 -0.026173898414316447 0 0.023296513908609713 -0.026361531755485234 0 0.023015059114531292 -0.026770724763835775 0 0.023015059114531292 -0.026770724763835775 0 0.023515250505434897 -0.027104884946544117 0 0.023057929233559444 -0.027535936680952586 0 0.023015059114531292 -0.026770724763835775 0 0.022141295732296194 -0.026723746171747678 0 0.023057929233559444 -0.027535936680952586 0 0.023838881620843563 -0.026540654499726042 0 0.023015059114531292 -0.026770724763835775 0 0.023515250505434897 -0.027104884946544117 0 0.023838881620843563 -0.026540654499726042 0 0.023296513908609713 -0.026361531755485234 0 0.023015059114531292 -0.026770724763835775 0 0.022621629490475293 -0.026173898414316447 0 0.023015059114531292 -0.026770724763835775 0 0.022141295732296194 -0.026723746171747678 0 0.022238616496157049 -0.026444135673428681 0 0.024012673453354682 -0.028787953384023384 0 0.022141295732296194 -0.026723746171747678 0 0.022826975330940292 -0.027877838956469985 0 0.021369820542894418 -0.027461124364641234 0 0.022826975330940292 -0.027877838956469985 0 0.023903112876190784 -0.028708897058625209 0 0.024853733977805062 -0.027710505721159323 0 0.022141295732296194 -0.026723746171747678 0 0.022826975330940292 -0.027877838956469985 0 0.024853733977805062 -0.027710505721159323 0 0.022826975330940292 -0.027877838956469985 0 0.023903112876190784 -0.028708897058625209 0 0.022889257728145453 -0.028717825231839973 0 0.022826975330940292 -0.027877838956469985 0 0.022889257728145453 -0.028717825231839973 0 0.021750486214671898 -0.028269910709736563 0 0.023903112876190784 -0.028708897058625209 0 0.024853733977805062 -0.027710505721159323 0 0.025117451976384625 -0.029520598056358503 0 0.024012673453354682 -0.028787953384023384 0 0.028727472275960467 -0.019592677288662961 0 0.028543037131506365 -0.015648955946685458 0 0.028727472275960467 -0.019592677288662961 0 0.031361503850078049 -0.0018929130551494165 0 0.033220906324912827 -0.0016867461360703668 0 0.032955118831370499 -0.0026331576662848677 0 0.024853733977805062 -0.027710505721159323 0 0.025117451976384625 -0.029520598056358503 0 0.026847433794208363 -0.029205573278838708 0 0.025117451976384625 -0.029520598056358503 0 0.023419894914139143 -0.029750763661085901 0 0.023449559071500446 -0.029489127609578791 0 0.028543037131506365 -0.015648955946685458 0 0.026551590820915415 -0.015379555420636494 0 0.031361503850078049 -0.0018929130551494165 0 0.029772059001001234 -0.0020767416199446065 0 0.030824327563130031 -0.0033178158172696049 0 0.022968768222525388 -0.029947323866276316 0 0.023449559071500446 -0.029489127609578791 0 0.022204240315329991 -0.029259565340597517 0 0.026551590820915415 -0.015379555420636494 0 0.023814300603314759 -0.020638984606281587 0 0.023449559071500446 -0.029489127609578791 0 0.022889257728145453 -0.028717825231839973 0 0.022204240315329991 -0.029259565340597517 0 0.023903112876190784 -0.028708897058625209 0 0.023449559071500446 -0.029489127609578791 0 0.022889257728145453 -0.028717825231839973 0 0.023903112876190784 -0.028708897058625209 0 0.025117451976384625 -0.029520598056358503 0 0.023449559071500446 -0.029489127609578791 0 0.048088568117171895 -0.019968305453280492 0 0.047512150202583099 -0.018757935250967597 0 0.046931757583136842 -0.01972831521201911 0 0.043159803239139753 -0.021149297997682864 0 0.042964114933017578 -0.012890221654011939 0 0.036744322565291268 -0.020343953064115263 0 0.037559945998005641 -0.019145780812114127 0 0.034476369162221243 -0.015837265768755923 0 0.047523198232419891 -0.02066904493940866 0 0.048088568117171895 -0.019968305453280492 0 0.046931757583136842 -0.01972831521201911 0 0.042964114933017578 -0.012890221654011939 0 0.05067329639914675 -0.01505650519745968 0 0.023057929233559444 -0.027535936680952586 0 0.024125489118909101 -0.027548774695170808 0 0.023909837958126207 -0.028175121466858924 0 0.023515250505434897 -0.027104884946544117 0 0.023057929233559444 -0.027535936680952586 0 0.024125489118909101 -0.027548774695170808 0 0.030602849961185768 -0.023822073781723137 0 0.030205856971757435 -0.020588711401865349 0 0.033220906324912827 -0.0016867461360703668 0 0.034150424306986213 -0.0024392206380415963 0 0.032955118831370499 -0.0026331576662848677 0 0.032759488136656474 -0.015547565082687434 0 0.031186805696758173 -0.015767543189909066 0 0.03074585143720274 -0.013959645706676576 0 0.028727472275960467 -0.019592677288662961 0 0.03441209100858094 -0.007004444208314726 0 0.028727472275960467 -0.019592677288662961 0 0.030205856971757435 -0.020588711401865349 0 0.024125489118909101 -0.027548774695170808 0 0.023909837958126207 -0.028175121466858924 0 0.024304600475389116 -0.028100927911554618 0 0.042964114933017578 -0.012890221654011939 0 0.045340386602676724 -0.0075103425683584893 0 0.037559945998005641 -0.019145780812114127 0 0.036742381471250828 -0.015794987246657042 0 0.034476369162221243 -0.015837265768755923 0 0.03441209100858094 -0.007004444208314726 0 0.042964114933017578 -0.012890221654011939 0 0.037833472666915988 -0.004053509277778043 0 0.037722119152054916 -0.0042959618391581952 0 0.03780933032324816 -0.0039733350346035758 0 0.030205856971757435 -0.020588711401865349 0 0.03441209100858094 -0.007004444208314726 0 0.036742381471250828 -0.015794987246657042 0 0.036125612614698946 -0.013321417870900323 0 0.034476369162221243 -0.015837265768755923 0 0.03560725780956616 -0.0040101748938139786 0 0.037954283995313254 -0.0038830630998593118 0 0.037722119152054916 -0.0042959618391581952 0 0.03780933032324816 -0.0039733350346035758 0 0.037595070305182887 -0.0037869659625445165 0 0.03780933032324816 -0.0039733350346035758 0 0.037595070305182887 -0.0037869659625445165 0 0.037605124258605863 -0.0038905982209197711 0 0.036571192275070129 -0.0028507404714003528 0 0.03683033841453278 -0.0038273372866374448 0 0.037605124258605863 -0.0038905982209197711 0 0.03441209100858094 -0.007004444208314726 0 0.03560725780956616 -0.0040101748938139786 0 0.035801292542802142 -0.0012211662760231285 0 0.034570505706614026 -0.002481686119455111 0 0.036301135779195526 -0.0029894975512318395 0 0.03560725780956616 -0.0040101748938139786 0 0.036459486574697927 -0.0031747208031771132 0 0.034150424306986213 -0.0024392206380415963 0 0.032955118831370499 -0.0026331576662848677 0 0.033408571069734043 -0.0035092310715548517 0 0.03441209100858094 -0.007004444208314726 0 0.034476653090097398 -0.0023561764119562276 0 0.035712637770604544 -0.00087615836336910698 0 0.035801292542802142 -0.0012211662760231285 0 0.034570505706614026 -0.002481686119455111 0 0.032955118831370499 -0.0026331576662848677 0 0.033408571069734043 -0.0035092310715548517 0 0.032388394567179457 -0.0033722629563213585 0 0.034476653090097398 -0.0023561764119562276 0 0.033228364282418578 -0.0043071424768298455 0 0.033408571069734043 -0.0035092310715548517 0 0.032388394567179457 -0.0033722629563213585 0 0.033326503075379946 -0.0042719366455987295 0 0.034570505706614026 -0.002481686119455111 0 0.035225332915243414 -0.0041782652239762295 0 0.033326503075379946 -0.0042719366455987295 0 0.034570505706614026 -0.002481686119455111 0 0.035225332915243414 -0.0041782652239762295 0 0.036301135779195526 -0.0029894975512318395 0 0.035225332915243414 -0.0041782652239762295 0 0.036301135779195526 -0.0029894975512318395 0 0.036843362059210009 -0.0046512346710332313 0 0.036459486574697927 -0.0031747208031771132 0 0.036841204156941802 -0.0045924311103969929 0 0.03683033841453278 -0.0038273372866374448 0 0.037596112233294295 -0.0043468496349661212 0 0.036843362059210009 -0.0046512346710332313 0 0.03683033841453278 -0.0038273372866374448 0 0.037605124258605863 -0.0038905982209197711 0 0.037596112233294295 -0.0043468496349661212 0 0.029772059001001234 -0.0020767416199446065 0 0.030824327563130031 -0.0033178158172696049 0 0.028864707457332557 -0.0038079354672970345 0 0.031361503850078049 -0.0018929130551494165 0 0.032955118831370499 -0.0026331576662848677 0 0.032388394567179457 -0.0033722629563213585 0 0.030824327563130031 -0.0033178158172696049 0 0.032388394567179457 -0.0033722629563213585 0 0.032006912419894999 -0.0043987640893426378 0 0.031361503850078049 -0.0018929130551494165 0 0.030824327563130031 -0.0033178158172696049 0 0.032388394567179457 -0.0033722629563213585 0 0.032388394567179457 -0.0033722629563213585 0 0.033326503075379946 -0.0042719366455987295 0 0.032006912419894999 -0.0043987640893426378 0 0.033326503075379946 -0.0042719366455987295 0 0.032006912419894999 -0.0043987640893426378 0 0.033216135508054287 -0.005384916963943151 0 0.032006912419894999 -0.0043987640893426378 0 0.030232598099439543 -0.004709948961368675 0 0.031705067593924503 -0.0057028820806831358 0 0.030824327563130031 -0.0033178158172696049 0 0.032006912419894999 -0.0043987640893426378 0 0.030232598099439543 -0.004709948961368675 0 0.030232598099439543 -0.004709948961368675 0 0.028864707457332557 -0.0038079354672970345 0 0.026962364854726983 -0.0060908351597105861 0 0.030824327563130031 -0.0033178158172696049 0 0.030232598099439543 -0.004709948961368675 0 0.028864707457332557 -0.0038079354672970345 0 0.026778417983930655 -0.010210393917532567 0 0.024934512050423782 -0.012845201028319377 0 0.023975250273278383 -0.011896015210963583 0 0.026778417983930655 -0.010210393917532567 0 0.023975250273278383 -0.011896015210963583 0 0.023903043586542175 -0.010546100444729941 0 0.026551590820915415 -0.015379555420636494 0 0.027608783576266758 -0.006576762821316022 0 0.022726603671512208 -0.011471228346222884 0 0.02065189123803067 -0.011138197761930764 0 0.023903043586542175 -0.010546100444729941 0 0.022726603671512208 -0.011471228346222884 0 0.023975250273278383 -0.011896015210963583 0 0.023903043586542175 -0.010546100444729941 0 0.024934512050423782 -0.012845201028319377 0 0.023975250273278383 -0.011896015210963583 0 0.022761079924270181 -0.012745044765303535 0 0.022726603671512208 -0.011471228346222884 0 0.023975250273278383 -0.011896015210963583 0 0.022761079924270181 -0.012745044765303535 0 0.022726603671512208 -0.011471228346222884 0 0.022761079924270181 -0.012745044765303535 0 0.021706123597434939 -0.012202312020519688 0 0.027608783576266758 -0.006576762821316022 0 0.024675530266998931 -0.01135928287765778 0 0.024934512050423782 -0.012845201028319377 0 0.022761079924270181 -0.012745044765303535 0 0.02287499711415631 -0.015862359048160433 0 0.022761079924270181 -0.012745044765303535 0 0.020963284886835486 -0.013738784647037967 0 0.02287499711415631 -0.015862359048160433 0 0.020963284886835486 -0.013738784647037967 0 0.018830764521756051 -0.014601147787095132 0 0.019570594720136149 -0.016775410138227712 0 0.015496063644020877 -0.021099965827587441 0 0.016460190905359287 -0.022678845628594818 0 0.016746801419572594 -0.02084011390398607 0 0.015496063644020877 -0.021099965827587441 0 0.015974593241086351 -0.022805542236882123 0 0.015095326631554251 -0.022556096241828655 0 0.015496063644020877 -0.021099965827587441 0 0.015974593241086351 -0.022805542236882123 0 0.016460190905359287 -0.022678845628594818 0 0.014636160117582833 -0.022913213454718889 0 0.018889432373758803 -0.021115113489830278 0 0.015974593241086351 -0.022805542236882123 0 0.016216913011441497 -0.023095280454292221 0 0.016460190905359287 -0.022678845628594818 0 0.020963284886835486 -0.013738784647037967 0 0.021706123597434939 -0.012202312020519688 0 0.02065189123803067 -0.011138197761930764 0 0.017266922039570583 -0.017009455687469758 0 0.018889432373758803 -0.021115113489830278 0 0.020963284886835486 -0.013738784647037967 0 0.018830764521756051 -0.014601147787095132 0 0.02065189123803067 -0.011138197761930764 0 0.022761079924270181 -0.012745044765303535 0 0.020963284886835486 -0.013738784647037967 0 0.021706123597434939 -0.012202312020519688 0 0.022726603671512208 -0.011471228346222884 0 0.021706123597434939 -0.012202312020519688 0 0.02065189123803067 -0.011138197761930764 0 0.017371983655797889 -0.026936126248860801 0 0.018633656099819821 -0.028072802905163081 0 0.015974593241086351 -0.022805542236882123 0 0.015199009680139316 -0.022930309347077404 0 0.015054462267982497 -0.023232626063849699 0 0.018147732519962531 -0.027348837104968854 0 0.018155032578451729 -0.027215274684129469 0 0.018905933820654211 -0.027631971720297147 0 0.018889432373758803 -0.021115113489830278 0 0.017371983655797889 -0.026936126248860801 0 0.018147732519962531 -0.027348837104968854 0 0.017737354763928421 -0.026888108016431388 0 0.018155032578451729 -0.027215274684129469 0 0.017371983655797889 -0.026936126248860801 0 0.016753457428416451 -0.024571449525405974 0 0.015974593241086351 -0.022805542236882123 0 0.015054462267982497 -0.023232626063849699 0 0.016216913011441497 -0.023095280454292221 0 0.018147732519962531 -0.027348837104968854 0 0.017290641591118046 -0.026447987152526688 0 0.017737354763928421 -0.026888108016431388 0 0.017290641591118046 -0.026447987152526688 0 0.017737354763928421 -0.026888108016431388 0 0.017393193326640317 -0.026490606547848596 0 0.017393193326640317 -0.026490606547848596 0 0.017733032343172535 -0.026869933893087283 0 0.017442821528116745 -0.026647323308284818 0 0.017737354763928421 -0.026888108016431388 0 0.017733032343172535 -0.026869933893087283 0 0.018155032578451729 -0.027215274684129469 0 0.017737354763928421 -0.026888108016431388 0 0.017393193326640317 -0.026490606547848596 0 0.017733032343172535 -0.026869933893087283 0 0.018262285855868095 -0.027011391622799738 0 0.017720678686772129 -0.026816449981948893 0 0.017733032343172535 -0.026869933893087283 0 0.017720678686772129 -0.026816449981948893 0 0.017733032343172535 -0.026869933893087283 0 0.017442821528116745 -0.026647323308284818 0 0.018262285855868095 -0.027011391622799738 0 0.017733032343172535 -0.026869933893087283 0 0.018155032578451729 -0.027215274684129469 0 0.018262285855868095 -0.027011391622799738 0 0.018155032578451729 -0.027215274684129469 0 0.018905933820654211 -0.027631971720297147 0 0.019840739262213459 -0.026862988245520192 0 0.018905933820654211 -0.027631971720297147 0 0.020473472711361521 -0.027874914631069773 0 0.018905933820654211 -0.027631971720297147 0 0.019811426344277603 -0.028455520911391065 0 0.020473472711361521 -0.027874914631069773 0 0.019811426344277603 -0.028455520911391065 0 0.020473472711361521 -0.027874914631069773 0 0.020848310295412589 -0.028664614860458668 0 0.021369820542894418 -0.027461124364641234 0 0.021750486214671898 -0.028269910709736563 0 0.020473472711361521 -0.027874914631069773 0 0.019840739262213459 -0.026862988245520192 0 0.021369820542894418 -0.027461124364641234 0 0.020473472711361521 -0.027874914631069773 0 0.022826975330940292 -0.027877838956469985 0 0.021369820542894418 -0.027461124364641234 0 0.021750486214671898 -0.028269910709736563 0 0.021750486214671898 -0.028269910709736563 0 0.020473472711361521 -0.027874914631069773 0 0.020848310295412589 -0.028664614860458668 0 0.021911089174568785 -0.029280042340340286 0 0.020350505341252257 -0.029459341688327714 0 0.020848310295412589 -0.028664614860458668 0 0.022204240315329991 -0.029259565340597517 0 0.019967724712046605 -0.029630702934098314 0 0.022204240315329991 -0.029259565340597517 0 0.020590858450700671 -0.029947843509083073 0 0.020474116113441226 -0.029375422200499341 0 0.026551590820915415 -0.015379555420636494 0 0.022036107355166874 -0.02055122687851859 0 0.022968768222525388 -0.029947323866276316 0 0.022204240315329991 -0.029259565340597517 0 0.020590858450700671 -0.029947843509083073 0 0.021750486214671898 -0.028269910709736563 0 0.020848310295412589 -0.028664614860458668 0 0.022204240315329991 -0.029259565340597517 0 0.022889257728145453 -0.028717825231839973 0 0.021750486214671898 -0.028269910709736563 0 0.022204240315329991 -0.029259565340597517 0 0.018731490265878847 -0.03002805203198592 0 0.018994169953691076 -0.029519791011416253 0 0.020590858450700671 -0.029947843509083073 0 0.017371983655797889 -0.026936126248860801 0 0.020350505341252257 -0.029459341688327714 0 0.018889432373758803 -0.021115113489830278 0 0.022036107355166874 -0.02055122687851859 0 0.017775555350519168 -0.029952923267661868 0 0.019811426344277603 -0.028455520911391065 0 0.019967724712046605 -0.029630702934098314 0 0.018994169953691076 -0.029519791011416253 0 0.020590858450700671 -0.029947843509083073 0 0.020474116113441226 -0.029375422200499341 0 0.017775555350519168 -0.029952923267661868 0 0.018905933820654211 -0.027631971720297147 0 0.019811426344277603 -0.028455520911391065 0 0.019811426344277603 -0.028455520911391065 0 0.020848310295412589 -0.028664614860458668 0 0.019967724712046605 -0.029630702934098314 0 0.054999668585864164 -0.021860440780525955 0 0.056789292375188254 -0.022472707733942613 0 0.056364547016888998 -0.020596135354425171 0 0.056789292375188254 -0.022472707733942613 0 0.057811162135756544 -0.021679797264959021 0 0.056364547016888998 -0.020596135354425171 0 0.056789292375188254 -0.022472707733942613 0 0.056526929347412339 -0.024555706688638268 0 0.058065964701808706 -0.02361422626616767 0 0.054999668585864164 -0.021860440780525955 0 0.054999303522960299 -0.025096163407929178 0 0.056526929347412339 -0.024555706688638268 0 0.054999668585864164 -0.021860440780525955 0 0.056789292375188254 -0.022472707733942613 0 0.056526929347412339 -0.024555706688638268 0 0.054999303522960299 -0.025096163407929178 0 0.056453871774873821 -0.027446563040512909 0 0.056526929347412339 -0.024555706688638268 0 0.054999461130475415 -0.028332662096176006 0 0.054999303522960299 -0.025096163407929178 0 0.056453871774873821 -0.027446563040512909 0 0.056453871774873821 -0.027446563040512909 0 0.056526929347412339 -0.024555706688638268 0 0.058029082155814905 -0.025614864877073203 0 0.056526929347412339 -0.024555706688638268 0 0.058029082155814905 -0.025614864877073203 0 0.058065964701808706 -0.02361422626616767 0 0.058029082155814905 -0.025614864877073203 0 0.057572005412378016 -0.02819395993275613 0 0.059534050750006472 -0.026828693048349051 0 0.056453871774873821 -0.027446563040512909 0 0.058029082155814905 -0.025614864877073203 0 0.057572005412378016 -0.02819395993275613 0 0.057017091472445013 -0.030193334275538917 0 0.057175351881066788 -0.026865396538972706 0 0.058029082155814905 -0.025614864877073203 0 0.059534050750006472 -0.026828693048349051 0 0.059581493664052673 -0.023886078805448532 0 0.058029082155814905 -0.025614864877073203 0 0.058065964701808706 -0.02361422626616767 0 0.059581493664052673 -0.023886078805448532 0 0.058065964701808706 -0.02361422626616767 0 0.058782825558144958 -0.022869360588808136 0 0.059581493664052673 -0.023886078805448532 0 0.058065964701808706 -0.02361422626616767 0 0.057811162135756544 -0.021679797264959021 0 0.058782825558144958 -0.022869360588808136 0 0.056789292375188254 -0.022472707733942613 0 0.058065964701808706 -0.02361422626616767 0 0.057811162135756544 -0.021679797264959021 0 0.057811162135756544 -0.021679797264959021 0 0.058782825558144958 -0.022869360588808136 0 0.05870869248504202 -0.021941238711661454 0 0.058782825558144958 -0.022869360588808136 0 0.058472850372338139 -0.023394789431131206 0 0.05870869248504202 -0.021941238711661454 0 0.058472850372338139 -0.023394789431131206 0 0.059419102940320649 -0.02477809052008385 0 0.059544350603480498 -0.023531614654549546 0 0.059419102940320649 -0.02477809052008385 0 0.060724172860239518 -0.025480300127073103 0 0.059544350603480498 -0.023531614654549546 0 0.060436797692459812 -0.028931450222785478 0 0.059623481388253255 -0.024362700865776472 0 0.058472850372338139 -0.023394789431131206 0 0.059419102940320649 -0.02477809052008385 0 0.058335558799259023 -0.028153836419745473 0 0.058335558799259023 -0.028153836419745473 0 0.061262695847302907 -0.029291306612715954 0 0.060724172860239518 -0.025480300127073103 0 0.059419102940320649 -0.02477809052008385 0 0.058335558799259023 -0.028153836419745473 0 0.060724172860239518 -0.025480300127073103 0 0.058472850372338139 -0.023394789431131206 0 0.058335558799259023 -0.028153836419745473 0 0.054547686185268646 -0.029764471246000367 0 0.058782825558144958 -0.022869360588808136 0 0.058472850372338139 -0.023394789431131206 0 0.059581493664052673 -0.023886078805448532 0 0.058346909517151775 -0.023686969406881052 0 0.057175351881066788 -0.026865396538972706 0 0.058335558799259023 -0.028153836419745473 0 0.054547686185268646 -0.029764471246000367 0 0.055992399522292249 -0.031880137655892045 0 0.054542221697532263 -0.033811010545643526 0 0.054547686185268646 -0.029764471246000367 0 0.055992399522292249 -0.031880137655892045 0 0.054542221697532263 -0.033811010545643526 0 0.055992399522292249 -0.031880137655892045 0 0.05567748996009135 -0.033491135107536582 0 0.055285796809946754 -0.033838605913886752 0 0.054542221697532263 -0.033811010545643526 0 0.05567748996009135 -0.033491135107536582 0 0.055992399522292249 -0.031880137655892045 0 0.05567748996009135 -0.033491135107536582 0 0.057714579016459835 -0.032741645687491744 0 0.055963157439336018 -0.03460167751301392 0 0.05567748996009135 -0.033491135107536582 0 0.056732832514512117 -0.033930008042829619 0 0.05567748996009135 -0.033491135107536582 0 0.056732832514512117 -0.033930008042829619 0 0.057714579016459835 -0.032741645687491744 0 0.056732832514512117 -0.033930008042829619 0 0.057714579016459835 -0.032741645687491744 0 0.057457894727669975 -0.033143872132267195 0 0.058335558799259023 -0.028153836419745473 0 0.055992399522292249 -0.031880137655892045 0 0.057714579016459835 -0.032741645687491744 0 0.058335558799259023 -0.028153836419745473 0 0.057714579016459835 -0.032741645687491744 0 0.061262695847302907 -0.029291306612715954 0 0.058894483968691139 -0.031232019993077922 0 0.057653885617770906 -0.035270288311978523 0 0.053735502189727953 -0.034537325856539181 0 0.057653885617770906 -0.035270288311978523 0 0.057714579016459835 -0.032741645687491744 0 0.057457894727669975 -0.033143872132267195 0 0.057626366537836496 -0.032680080403898915 0 0.049406002450090643 -0.036856134006547484 0 0.050788686014197913 -0.036548278264420107 0 0.049024599094401509 -0.03671911637692276 0 0.057457894727669975 -0.033143872132267195 0 0.057574238480803411 -0.033483126322889939 0 0.057626366537836496 -0.032680080403898915 0 0.049406002450090643 -0.036856134006547484 0 0.049179708383295877 -0.036901443630259809 0 0.049024599094401509 -0.03671911637692276 0 0.057457894727669975 -0.033143872132267195 0 0.057574238480803411 -0.033483126322889939 0 0.057035984392066356 -0.033871819060920523 0 0.05513177371979195 -0.0358631252364199 0 0.049406002450090643 -0.036856134006547484 0 0.050788686014197913 -0.036548278264420107 0 0.056628184448487308 -0.034632954352160579 0 0.057574238480803411 -0.033483126322889939 0 0.057035984392066356 -0.033871819060920523 0 0.056732832514512117 -0.033930008042829619 0 0.057457894727669975 -0.033143872132267195 0 0.057035984392066356 -0.033871819060920523 0 0.056628184448487308 -0.034632954352160579 0 0.056732832514512117 -0.033930008042829619 0 0.057035984392066356 -0.033871819060920523 0 0.051085871338660493 -0.038053060048625888 0 0.049787602774560784 -0.037301265435160096 0 0.047220854781563272 -0.039732382075250879 0 0.049406002450090643 -0.036856134006547484 0 0.048335783615427182 -0.038409632062159756 0 0.048890796146993397 -0.038187647400502983 0 0.048636009156077874 -0.038930558917650272 0 0.048620158158372666 -0.038258242279805309 0 0.048241376072254261 -0.038880929325385713 0 0.048636009156077874 -0.038930558917650272 0 0.048620158158372666 -0.038258242279805309 0 0.048241376072254261 -0.038880929325385713 0 0.048620158158372666 -0.038258242279805309 0 0.048335783615427182 -0.038409632062159756 0 0.048620158158372666 -0.038258242279805309 0 0.048335783615427182 -0.038409632062159756 0 0.048814473856026233 -0.037664169859017507 0 0.049406002450090643 -0.036856134006547484 0 0.048335783615427182 -0.038409632062159756 0 0.048814473856026233 -0.037664169859017507 0 0.048890796146993397 -0.038187647400502983 0 0.048620158158372666 -0.038258242279805309 0 0.048934684184492691 -0.037642134770862402 0 0.048814473856026233 -0.037664169859017507 0 0.048934684184492691 -0.037642134770862402 0 0.049028966891477531 -0.03722938813316938 0 0.048620158158372666 -0.038258242279805309 0 0.048814473856026233 -0.037664169859017507 0 0.048934684184492691 -0.037642134770862402 0 0.048934684184492691 -0.037642134770862402 0 0.049028966891477531 -0.03722938813316938 0 0.049164334380607397 -0.03713123903028033 0 0.049406002450090643 -0.036856134006547484 0 0.049028966891477531 -0.03722938813316938 0 0.049179708383295877 -0.036901443630259809 0 0.049406002450090643 -0.036856134006547484 0 0.048814473856026233 -0.037664169859017507 0 0.049028966891477531 -0.03722938813316938 0 0.049028966891477531 -0.03722938813316938 0 0.049179708383295877 -0.036901443630259809 0 0.049164334380607397 -0.03713123903028033 0 0.049179708383295877 -0.036901443630259809 0 0.049164334380607397 -0.03713123903028033 0 0.049292519498289479 -0.036519615155466957 0 0.049080891591987447 -0.029905104812804301 0 0.053155570484314407 -0.025796104842868556 0 0.049542607428463857 -0.036711667319010981 0 0.049164334380607397 -0.03713123903028033 0 0.049292519498289479 -0.036519615155466957 0 0.049542607428463857 -0.036711667319010981 0 0.049292519498289479 -0.036519615155466957 0 0.049472950452044841 -0.035535572944023597 0 0.049292519498289479 -0.036519615155466957 0 0.049024599094401509 -0.03671911637692276 0 0.049472950452044841 -0.035535572944023597 0 0.057653885617770906 -0.035270288311978523 0 0.053155570484314407 -0.025796104842868556 0 0.057653885617770906 -0.035270288311978523 0 0.060436797692459812 -0.028931450222785478 0 0.049179708383295877 -0.036901443630259809 0 0.049292519498289479 -0.036519615155466957 0 0.049024599094401509 -0.03671911637692276 0 0.061820881463832938 -0.04050615822992789 0 0.060312296616062799 -0.032082018846844536 0 0.068954069854561567 -0.029483515589365992 0 0.053155570484314407 -0.025796104842868556 0 0.058055654349670208 -0.017000777229301066 0 0.060312296616062799 -0.032082018846844536 0 0.068954069854561567 -0.029483515589365992 0 0.059544350603480498 -0.023531614654549546 0 0.068954069854561567 -0.029483515589365992 0 0.059912381524753068 -0.022082569069445179 0 0.059544350603480498 -0.023531614654549546 0 0.047523198232419891 -0.02066904493940866 0 0.046375863243427455 -0.020678136636541413 0 0.046931757583136842 -0.01972831521201911 0 0.053155570484314407 -0.025796104842868556 0 0.05067329639914675 -0.01505650519745968 0 0.053094298962510049 -0.012390796804369476 0 0.053157037105037587 -0.012524018482172961 0 0.05298518003078849 -0.012512526477977763 0 0.053157037105037587 -0.012524018482172961 0 0.05298518003078849 -0.012512526477977763 0 0.053021449207597653 -0.012564487384913522 0 0.053094298962510049 -0.012390796804369476 0 0.053157037105037587 -0.012524018482172961 0 0.053606682597666357 -0.012408384798987381 0 0.053178575180563029 -0.012516797844409591 0 0.053414855781552494 -0.01270513520096268 0 0.053157037105037587 -0.012524018482172961 0 0.053621010025557081 -0.012870359051066243 0 0.053606682597666357 -0.012408384798987381 0 0.053157037105037587 -0.012524018482172961 0 0.053021449207597653 -0.012564487384913522 0 0.053217448455160597 -0.012550528663458975 0 0.052887750979519109 -0.012544049740369509 0 0.053021449207597653 -0.012564487384913522 0 0.052913261089386071 -0.012640342740447891 0 0.052887750979519109 -0.012544049740369509 0 0.05298518003078849 -0.012512526477977763 0 0.053021449207597653 -0.012564487384913522 0 0.053021449207597653 -0.012564487384913522 0 0.052913261089386071 -0.012640342740447891 0 0.053217448455160597 -0.012550528663458975 0 0.045340386602676724 -0.0075103425683584893 0 0.045791030679167767 -0.0088457581446507814 0 0.037595070305182887 -0.0037869659625445165 0 0.037605124258605863 -0.0038905982209197711 0 0.038402428279258598 -0.0044181021056279683 0 0.037605124258605863 -0.0038905982209197711 0 0.037596112233294295 -0.0043468496349661212 0 0.038402428279258598 -0.0044181021056279683 0 0.053217448455160597 -0.012550528663458975 0 0.053577059659926658 -0.012860175783520066 0 0.052959902909876871 -0.012913477844056149 0 0.052913261089386071 -0.012640342740447891 0 0.053217448455160597 -0.012550528663458975 0 0.052959902909876871 -0.012913477844056149 0 0.053621010025557081 -0.012870359051066243 0 0.05419028669026741 -0.01291827998269395 0 0.054140357038090121 -0.012583946265688093 0 0.053621010025557081 -0.012870359051066243 0 0.053965769807587764 -0.013185639446852084 0 0.05419028669026741 -0.01291827998269395 0 0.053414855781552494 -0.01270513520096268 0 0.053776944392771031 -0.013040586032705317 0 0.053965769807587764 -0.013185639446852084 0 0.05419028669026741 -0.01291827998269395 0 0.054293498515356788 -0.013249328739343503 0 0.05419028669026741 -0.01291827998269395 0 0.054140357038090121 -0.012583946265688093 0 0.054631275639972304 -0.012732531113882483 0 0.053621010025557081 -0.012870359051066243 0 0.054140357038090121 -0.012583946265688093 0 0.053606682597666357 -0.012408384798987381 0 0.059074547017952644 -0.020692883795931011 0 0.059912381524753068 -0.022082569069445179 0 0.059012399834268564 -0.022083792418836474 0 0.056361151438712245 -0.016539848937153063 0 0.058055654349670208 -0.017000777229301066 0 0.059912381524753068 -0.022082569069445179 0 0.059544350603480498 -0.023531614654549546 0 0.059012399834268564 -0.022083792418836474 0 0.058472850372338139 -0.023394789431131206 0 0.059544350603480498 -0.023531614654549546 0 0.059012399834268564 -0.022083792418836474 0 0.058472850372338139 -0.023394789431131206 0 0.059012399834268564 -0.022083792418836474 0 0.05870869248504202 -0.021941238711661454 0 0.059074547017952644 -0.020692883795931011 0 0.059012399834268564 -0.022083792418836474 0 0.05870869248504202 -0.021941238711661454 0 0.057811162135756544 -0.021679797264959021 0 0.05870869248504202 -0.021941238711661454 0 0.058296834037595315 -0.02031787760495329 0 0.059074547017952644 -0.020692883795931011 0 0.05870869248504202 -0.021941238711661454 0 0.058296834037595315 -0.02031787760495329 0 0.057811162135756544 -0.021679797264959021 0 0.058296834037595315 -0.02031787760495329 0 0.057107162557872335 -0.018996392340481793 0 0.058296834037595315 -0.02031787760495329 0 0.058624449287800341 -0.01838480158899566 0 0.057107162557872335 -0.018996392340481793 0 0.059074547017952644 -0.020692883795931011 0 0.058296834037595315 -0.02031787760495329 0 0.058624449287800341 -0.01838480158899566 0 0.056361151438712245 -0.016539848937153063 0 0.056602936328933692 -0.015545417295997314 0 0.05419028669026741 -0.01291827998269395 0 0.054631275639972304 -0.012732531113882483 0 0.054714866745793587 -0.013148767982138357 0 0.05419028669026741 -0.01291827998269395 0 0.054714866745793587 -0.013148767982138357 0 0.054293498515356788 -0.013249328739343503 0 0.054631275639972304 -0.012732531113882483 0 0.054714866745793587 -0.013148767982138357 0 0.055200647352184627 -0.012922971176618028 0 0.054714866745793587 -0.013148767982138357 0 0.055200647352184627 -0.012922971176618028 0 0.055315730955322905 -0.013210259594233409 0 0.058624449287800341 -0.01838480158899566 0 0.057419086902875421 -0.015884351767566775 0 0.057107162557872335 -0.018996392340481793 0 0.056602936328933692 -0.015545417295997314 0 0.056232329270801303 -0.014369776842296065 0 0.057419086902875421 -0.015884351767566775 0 0.055991745466604292 -0.017116266725037649 0 0.057107162557872335 -0.018996392340481793 0 0.057419086902875421 -0.015884351767566775 0 0.05602080370968255 -0.015458797500332761 0 0.055991745466604292 -0.017116266725037649 0 0.056232329270801303 -0.014369776842296065 0 0.055625415242538397 -0.013446212400529973 0 0.055200647352184627 -0.012922971176618028 0 0.055660149721880672 -0.013369013336654455 0 0.055315730955322905 -0.013210259594233409 0 0.05602080370968255 -0.015458797500332761 0 0.054999588056099447 -0.01538908710459504 0 0.055660149721880672 -0.013369013336654455 0 0.057419086902875421 -0.015884351767566775 0 0.05602080370968255 -0.015458797500332761 0 0.055660149721880672 -0.013369013336654455 0 0.054999588056099447 -0.01538908710459504 0 0.055991745466604292 -0.017116266725037649 0 0.054999598637478109 -0.018624992615285187 0 0.05602080370968255 -0.015458797500332761 0 0.054999588056099447 -0.01538908710459504 0 0.055991745466604292 -0.017116266725037649 0 0.055991745466604292 -0.017116266725037649 0 0.054999598637478109 -0.018624992615285187 0 0.057107162557872335 -0.018996392340481793 0 0.057811162135756544 -0.021679797264959021 0 0.057107162557872335 -0.018996392340481793 0 0.056364547016888998 -0.020596135354425171 0 0.054999598637478109 -0.018624992615285187 0 0.057107162557872335 -0.018996392340481793 0 0.056364547016888998 -0.020596135354425171 0 0.054999668585864164 -0.021860440780525955 0 0.054999598637478109 -0.018624992615285187 0 0.056364547016888998 -0.020596135354425171 0 0.056689250536782081 -0.0071877575562134081 0 0.054999942816020178 -0.0089159960536394373 0 0.054999620124855125 -0.0056812728807142084 0 0.056689250536782081 -0.0071877575562134081 0 0.057222692694452293 -0.0090419763956693655 0 0.054999942816020178 -0.0089159960536394373 0 0.056689250536782081 -0.0071877575562134081 0 0.057222692694452293 -0.0090419763956693655 0 0.057610999303702649 -0.0078818039713515562 0 0.056689250536782081 -0.0071877575562134081 0 0.057610999303702649 -0.0078818039713515562 0 0.057673615943236368 -0.0070670476950095949 0 0.057222692694452293 -0.0090419763956693655 0 0.054999942816020178 -0.0089159960536394373 0 0.056245086732519142 -0.010670201631275616 0 0.054999942816020178 -0.0089159960536394373 0 0.056245086732519142 -0.010670201631275616 0 0.054999580215823622 -0.012151599934691922 0 0.056245086732519142 -0.010670201631275616 0 0.054999580215823622 -0.012151599934691922 0 0.055699108572111022 -0.013051423653186846 0 0.054999588056099447 -0.01538908710459504 0 0.054999580215823622 -0.012151599934691922 0 0.055660149721880672 -0.013369013336654455 0 0.055699108572111022 -0.013051423653186846 0 0.055660149721880672 -0.013369013336654455 0 0.055315730955322905 -0.013210259594233409 0 0.054999580215823622 -0.012151599934691922 0 0.055699108572111022 -0.013051423653186846 0 0.055660149721880672 -0.013369013336654455 0 0.055699108572111022 -0.013051423653186846 0 0.055315730955322905 -0.013210259594233409 0 0.055043369588532357 -0.013604883049932803 0 0.055681692470253299 -0.012973734573036935 0 0.056276496792857095 -0.012053507908795044 0 0.057222692694452293 -0.0090419763956693655 0 0.056245086732519142 -0.010670201631275616 0 0.057864321055973673 -0.01045250713449738 0 0.056245086732519142 -0.010670201631275616 0 0.055699108572111022 -0.013051423653186846 0 0.057864321055973673 -0.01045250713449738 0 0.054714866745793587 -0.013148767982138357 0 0.055315730955322905 -0.013210259594233409 0 0.055043369588532357 -0.013604883049932803 0 0.054714866745793587 -0.013148767982138357 0 0.055043369588532357 -0.013604883049932803 0 0.054487635851600852 -0.013471189948216646 0 0.054714866745793587 -0.013148767982138357 0 0.054487635851600852 -0.013471189948216646 0 0.054293498515356788 -0.013249328739343503 0 0.057864321055973673 -0.01045250713449738 0 0.058289963066354117 -0.0084126193810293987 0 0.058250623550029627 -0.0084349197214495086 0 0.056276496792857095 -0.012053507908795044 0 0.05663988950435743 -0.011304917186114639 0 0.054487635851600852 -0.013471189948216646 0 0.054337686421397205 -0.013835447924174205 0 0.054163472559985673 -0.013541216217562043 0 0.055043369588532357 -0.013604883049932803 0 0.054487635851600852 -0.013471189948216646 0 0.054337686421397205 -0.013835447924174205 0 0.058289963066354117 -0.0084126193810293987 0 0.058250623550029627 -0.0084349197214495086 0 0.057766872155887841 -0.0084697112473522962 0 0.057864321055973673 -0.01045250713449738 0 0.058250623550029627 -0.0084349197214495086 0 0.05797768872351701 -0.0084798594641594029 0 0.057222692694452293 -0.0090419763956693655 0 0.057864321055973673 -0.01045250713449738 0 0.05797768872351701 -0.0084798594641594029 0 0.057222692694452293 -0.0090419763956693655 0 0.05797768872351701 -0.0084798594641594029 0 0.057610999303702649 -0.0078818039713515562 0 0.05797768872351701 -0.0084798594641594029 0 0.057610999303702649 -0.0078818039713515562 0 0.058087516226952234 -0.0076950202826217562 0 0.057610999303702649 -0.0078818039713515562 0 0.058087516226952234 -0.0076950202826217562 0 0.057673615943236368 -0.0070670476950095949 0 0.05797768872351701 -0.0084798594641594029 0 0.058087516226952234 -0.0076950202826217562 0 0.05820445237047487 -0.0082750573220319347 0 0.058087516226952234 -0.0076950202826217562 0 0.05820445237047487 -0.0082750573220319347 0 0.058272706748694614 -0.0081712569297203771 0 0.05820445237047487 -0.0082750573220319347 0 0.058058730002359678 -0.0085217868222555258 0 0.058272706748694614 -0.0081712569297203771 0 0.058250623550029627 -0.0084349197214495086 0 0.05820445237047487 -0.0082750573220319347 0 0.058058730002359678 -0.0085217868222555258 0 0.058250623550029627 -0.0084349197214495086 0 0.058058730002359678 -0.0085217868222555258 0 0.057766872155887841 -0.0084697112473522962 0 0.058250623550029627 -0.0084349197214495086 0 0.05797768872351701 -0.0084798594641594029 0 0.05820445237047487 -0.0082750573220319347 0 0.057366844228199508 -0.0086280905835723377 0 0.056635966575983146 -0.0083759777563743951 0 0.057766872155887841 -0.0084697112473522962 0 0.057366844228199508 -0.0086280905835723377 0 0.058058730002359678 -0.0085217868222555258 0 0.057766872155887841 -0.0084697112473522962 0 0.058058730002359678 -0.0085217868222555258 0 0.058045772630836448 -0.0089118218779675289 0 0.058272706748694614 -0.0081712569297203771 0 0.057366844228199508 -0.0086280905835723377 0 0.058058730002359678 -0.0085217868222555258 0 0.058045772630836448 -0.0089118218779675289 0 0.057366844228199508 -0.0086280905835723377 0 0.055219340426811474 -0.0088823409696181643 0 0.058045772630836448 -0.0089118218779675289 0 0.054720248692700535 -0.0089329844082605067 0 0.05688855318740741 -0.0097246497520314772 0 0.054897077926078369 -0.010842202255548987 0 0.054507665241768151 -0.0090594954726404258 0 0.056215566296649574 -0.010871137353280666 0 0.054507665241768151 -0.0090594954726404258 0 0.055219340426811474 -0.0088823409696181643 0 0.058045772630836448 -0.0089118218779675289 0 0.054897077926078369 -0.010842202255548987 0 0.055016936923496719 -0.010989745175457304 0 0.056215566296649574 -0.010871137353280666 0 0.054150709910414138 -0.0087176629918172786 0 0.053991794694907926 -0.008375668687419683 0 0.054897077926078369 -0.010842202255548987 0 0.051615527118448114 -0.0095556213562961491 0 0.055117177430287392 -0.011087688643031689 0 0.046436543982136133 -0.0092670995582133982 0 0.053991794694907926 -0.008375668687419683 0 0.054507665241768151 -0.0090594954726404258 0 0.054119849265074384 -0.0078650099249332715 0 0.051615527118448114 -0.0095556213562961491 0 0.054897077926078369 -0.010842202255548987 0 0.054507665241768151 -0.0090594954726404258 0 0.051615527118448114 -0.0095556213562961491 0 0.054507665241768151 -0.0090594954726404258 0 0.055219340426811474 -0.0088823409696181643 0 0.054119849265074384 -0.0078650099249332715 0 0.057366844228199508 -0.0086280905835723377 0 0.056635966575983146 -0.0083759777563743951 0 0.055219340426811474 -0.0088823409696181643 0 0.053482156568425497 -0.014138225297696715 0 0.053908257594195104 -0.013787334878430733 0 0.05364768809332135 -0.013638544104624168 0 0.056635966575983146 -0.0083759777563743951 0 0.055219340426811474 -0.0088823409696181643 0 0.055310604706091296 -0.0078343359126164889 0 0.053505226521756988 -0.0094803230000512356 0 0.052183117538650764 -0.0096810164435302999 0 0.054337686421397205 -0.013835447924174205 0 0.053482156568425497 -0.014138225297696715 0 0.053908257594195104 -0.013787334878430733 0 0.05663988950435743 -0.011304917186114639 0 0.052183117538650764 -0.0096810164435302999 0 0.058289963066354117 -0.0084126193810293987 0 0.056635966575983146 -0.0083759777563743951 0 0.055310604706091296 -0.0078343359126164889 0 0.058289963066354117 -0.0084126193810293987 0 0.056635966575983146 -0.0083759777563743951 0 0.057766872155887841 -0.0084697112473522962 0 0.054337686421397205 -0.013835447924174205 0 0.053908257594195104 -0.013787334878430733 0 0.054163472559985673 -0.013541216217562043 0 0.053908257594195104 -0.013787334878430733 0 0.054163472559985673 -0.013541216217562043 0 0.05364768809332135 -0.013638544104624168 0 0.053776944392771031 -0.013040586032705317 0 0.054139622084045255 -0.013523697332886794 0 0.053965769807587764 -0.013185639446852084 0 0.054163472559985673 -0.013541216217562043 0 0.054293498515356788 -0.013249328739343503 0 0.054487635851600852 -0.013471189948216646 0 0.054163472559985673 -0.013541216217562043 0 0.054293498515356788 -0.013249328739343503 0 0.053577059659926658 -0.012860175783520066 0 0.053469534376697832 -0.013250561273598317 0 0.052959902909876871 -0.012913477844056149 0 0.053577059659926658 -0.012860175783520066 0 0.054163472559985673 -0.013541216217562043 0 0.053469534376697832 -0.013250561273598317 0 0.053482156568425497 -0.014138225297696715 0 0.05364768809332135 -0.013638544104624168 0 0.053150200397764656 -0.013487096879827465 0 0.054163472559985673 -0.013541216217562043 0 0.053469534376697832 -0.013250561273598317 0 0.05364768809332135 -0.013638544104624168 0 0.053469534376697832 -0.013250561273598317 0 0.05364768809332135 -0.013638544104624168 0 0.053150200397764656 -0.013487096879827465 0 0.039968696216301516 -0.0057612642599326287 0 0.038211000509648908 -0.0065639927769841518 0 0.039044000705305677 -0.0079017335877547591 0 0.053469534376697832 -0.013250561273598317 0 0.053150200397764656 -0.013487096879827465 0 0.052959902909876871 -0.012913477844056149 0 0.046182372816572656 -0.0097102739489721528 0 0.045791030679167767 -0.0088457581446507814 0 0.037596112233294295 -0.0043468496349661212 0 0.038402428279258598 -0.0044181021056279683 0 0.037785284798019111 -0.0053643042104940817 0 0.039968696216301516 -0.0057612642599326287 0 0.038402428279258598 -0.0044181021056279683 0 0.037785284798019111 -0.0053643042104940817 0 0.037596112233294295 -0.0043468496349661212 0 0.037785284798019111 -0.0053643042104940817 0 0.036843362059210009 -0.0046512346710332313 0 0.037785284798019111 -0.0053643042104940817 0 0.038211000509648908 -0.0065639927769841518 0 0.036998445278962046 -0.0065404303820568834 0 0.039968696216301516 -0.0057612642599326287 0 0.037785284798019111 -0.0053643042104940817 0 0.038211000509648908 -0.0065639927769841518 0 0.038211000509648908 -0.0065639927769841518 0 0.037415066642588729 -0.0074190196104310484 0 0.036998445278962046 -0.0065404303820568834 0 0.037415066642588729 -0.0074190196104310484 0 0.037858909668802253 -0.0081429578127861189 0 0.036513240097158291 -0.0080194483212389246 0 0.037415066642588729 -0.0074190196104310484 0 0.037858909668802253 -0.0081429578127861189 0 0.039044000705305677 -0.0079017335877547591 0 0.038211000509648908 -0.0065639927769841518 0 0.037415066642588729 -0.0074190196104310484 0 0.039044000705305677 -0.0079017335877547591 0 0.04250199206907522 -0.0078453398290884852 0 0.039968696216301516 -0.0057612642599326287 0 0.039044000705305677 -0.0079017335877547591 0 0.04250199206907522 -0.0078453398290884852 0 0.039044000705305677 -0.0079017335877547591 0 0.040511281874163259 -0.0086917140556913731 0 0.052183117538650764 -0.0096810164435302999 0 0.046182372816572656 -0.0097102739489721528 0 0.037858909668802253 -0.0081429578127861189 0 0.039044000705305677 -0.0079017335877547591 0 0.039728496714756922 -0.0085813161372658431 0 0.052183117538650764 -0.0096810164435302999 0 0.042045143360577637 -0.0083298087116371131 0 0.039743901133096129 -0.0075029251085569322 0 0.042045143360577637 -0.0083298087116371131 0 0.036835284851749861 -0.0088882776764497365 0 0.036826053117265369 -0.0088742603886017655 0 0.036813696252635975 -0.0086514983795102432 0 0.051078640672121055 -0.0085788748967060464 0 0.05230690313336165 -0.0060860496654644288 0 0.050979207572495119 -0.0068442128606083464 0 0.046436543982136133 -0.0092670995582133982 0 0.044309494416343957 -0.0073058899355069925 0 0.054119849265074384 -0.0078650099249332715 0 0.05105353189997637 -0.0092475399075358008 0 0.051615527118448114 -0.0095556213562961491 0 0.042045143360577637 -0.0083298087116371131 0 0.046436543982136133 -0.0092670995582133982 0 0.051078640672121055 -0.0085788748967060464 0 0.050979207572495119 -0.0068442128606083464 0 0.049400265474469643 -0.0071588081363350223 0 0.037858909668802253 -0.0081429578127861189 0 0.039728496714756922 -0.0085813161372658431 0 0.036960885895646202 -0.0088477816776857052 0 0.036835284851749861 -0.0088882776764497365 0 0.036960885895646202 -0.0088477816776857052 0 0.036813696252635975 -0.0086514983795102432 0 0.042045143360577637 -0.0083298087116371131 0 0.035703532054706451 -0.0092719209499251085 0 0.037858909668802253 -0.0081429578127861189 0 0.036960885895646202 -0.0088477816776857052 0 0.036513240097158291 -0.0080194483212389246 0 0.036960885895646202 -0.0088477816776857052 0 0.036813696252635975 -0.0086514983795102432 0 0.036666768390364486 -0.0087965307864376618 0 0.036813696252635975 -0.0086514983795102432 0 0.036692684957030375 -0.0083554007549047245 0 0.036666768390364486 -0.0087965307864376618 0 0.050979207572495119 -0.0068442128606083464 0 0.05163343152817558 -0.0052564989376047517 0 0.050192076909873061 -0.0053514035497063015 0 0.05230690313336165 -0.0060860496654644288 0 0.050979207572495119 -0.0068442128606083464 0 0.05163343152817558 -0.0052564989376047517 0 0.05163343152817558 -0.0052564989376047517 0 0.051100654616664652 -0.0042978588263503587 0 0.050192076909873061 -0.0053514035497063015 0 0.05163343152817558 -0.0052564989376047517 0 0.051100654616664652 -0.0042978588263503587 0 0.051929401689619563 -0.0040708977909444657 0 0.044309494416343957 -0.0073058899355069925 0 0.0441441024345363 -0.007142076539129608 0 0.05230690313336165 -0.0060860496654644288 0 0.052285880395489398 -0.0049838146715866618 0 0.052430368461811858 -0.0051516727590321691 0 0.05230690313336165 -0.0060860496654644288 0 0.05163343152817558 -0.0052564989376047517 0 0.052430368461811858 -0.0051516727590321691 0 0.05163343152817558 -0.0052564989376047517 0 0.051929401689619563 -0.0040708977909444657 0 0.052430368461811858 -0.0051516727590321691 0 0.052454495254905559 -0.0048159140447217438 0 0.052827307102429485 -0.0023149640746781843 0 0.052285880395489398 -0.0049838146715866618 0 0.05097000095303901 -0.0043316036547291154 0 0.051432557194580765 -0.0045544122433874446 0 0.052430368461811858 -0.0051516727590321691 0 0.052650917775439933 -0.0026097169458308609 0 0.054569556685446524 -0.00022519773706333049 0 0.052285880395489398 -0.0049838146715866618 0 0.052430368461811858 -0.0051516727590321691 0 0.05097000095303901 -0.0043316036547291154 0 0.051929401689619563 -0.0040708977909444657 0 0.052430368461811858 -0.0051516727590321691 0 0.052650917775439933 -0.0026097169458308609 0 0.053905586038991149 0.0022547126928990345 0 0.054569556685446524 -0.00022519773706333049 0 0.053390309048569194 0.00068555965075289306 0 0.054569556685446524 -0.00022519773706333049 0 0.052923485718173992 -0.00095696201945411909 0 0.053390309048569194 0.00068555965075289306 0 0.052923485718173992 -0.00095696201945411909 0 0.053390309048569194 0.00068555965075289306 0 0.052337075321751012 0.00013853640652278015 0 0.052650917775439933 -0.0026097169458308609 0 0.054569556685446524 -0.00022519773706333049 0 0.052923485718173992 -0.00095696201945411909 0 0.051409927123493376 0.0021270651449952147 0 0.052337075321751012 0.00013853640652278015 0 0.050566303021267633 -3.0367563990406354e-05 0 0.052911988151974586 0.0022601070229513894 0 0.053390309048569194 0.00068555965075289306 0 0.052337075321751012 0.00013853640652278015 0 0.052923485718173992 -0.00095696201945411909 0 0.052337075321751012 0.00013853640652278015 0 0.051638845144378206 -0.0023787343394873622 0 0.052337075321751012 0.00013853640652278015 0 0.051638845144378206 -0.0023787343394873622 0 0.050566303021267633 -3.0367563990406354e-05 0 0.051638845144378206 -0.0023787343394873622 0 0.049743414945852334 -0.0027932623594818804 0 0.050566303021267633 -3.0367563990406354e-05 0 0.052650917775439933 -0.0026097169458308609 0 0.052923485718173992 -0.00095696201945411909 0 0.051638845144378206 -0.0023787343394873622 0 0.051100654616664652 -0.0042978588263503587 0 0.051929401689619563 -0.0040708977909444657 0 0.051638845144378206 -0.0023787343394873622 0 0.051929401689619563 -0.0040708977909444657 0 0.052650917775439933 -0.0026097169458308609 0 0.051638845144378206 -0.0023787343394873622 0 0.051100654616664652 -0.0042978588263503587 0 0.051638845144378206 -0.0023787343394873622 0 0.049743414945852334 -0.0027932623594818804 0 0.049743414945852334 -0.0027932623594818804 0 0.048381431090917991 -0.0013292005901048192 0 0.047795923094858021 -0.0042645272565068606 0 0.049743414945852334 -0.0027932623594818804 0 0.050566303021267633 -3.0367563990406354e-05 0 0.048381431090917991 -0.0013292005901048192 0 0.050343237917169763 0.0021302274223688432 0 0.049821091257559985 0.0002882842682016281 0 0.047989837990953896 0.0014172227672499414 0 0.050566303021267633 -3.0367563990406354e-05 0 0.048381431090917991 -0.0013292005901048192 0 0.047989837990953896 0.0014172227672499414 0 0.048381431090917991 -0.0013292005901048192 0 0.045992870379264528 -0.00075018801487830057 0 0.050343237917169763 0.0021302274223688432 0 0.053658908562952079 -0.0011472533181907585 0 0.053649220269840786 0.0015022934080619551 0 0.053630466174862876 0.0014962207398884959 0 0.053624819406206579 0.0014412491643388142 0 0.048381431090917991 -0.0013292005901048192 0 0.047795923094858021 -0.0042645272565068606 0 0.045992870379264528 -0.00075018801487830057 0 0.050631993277169052 -0.0047198269761040967 0 0.053658908562952079 -0.0011472533181907585 0 0.049743414945852334 -0.0027932623594818804 0 0.047795923094858021 -0.0042645272565068606 0 0.050192076909873061 -0.0053514035497063015 0 0.051100654616664652 -0.0042978588263503587 0 0.049743414945852334 -0.0027932623594818804 0 0.050192076909873061 -0.0053514035497063015 0 0.050979207572495119 -0.0068442128606083464 0 0.050192076909873061 -0.0053514035497063015 0 0.049400265474469643 -0.0071588081363350223 0 0.047795923094858021 -0.0042645272565068606 0 0.050192076909873061 -0.0053514035497063015 0 0.049400265474469643 -0.0071588081363350223 0 0.050631993277169052 -0.0047198269761040967 0 0.053991794694907926 -0.008375668687419683 0 0.056657783696985924 -0.011814279607395674 0 0.055016936923496719 -0.010989745175457304 0 0.056215566296649574 -0.010871137353280666 0 0.054947562631254852 -0.0055555693393153941 0 0.054539439057559654 -0.0059914355428934861 0 0.055574670734289011 -0.0069613843502619272 0 0.056657783696985924 -0.011814279607395674 0 0.056215566296649574 -0.010871137353280666 0 0.057092776656237527 -0.011590750954554911 0 0.055562043526771417 -0.0094602031444418963 0 0.053991794694907926 -0.008375668687419683 0 0.05688855318740741 -0.0097246497520314772 0 0.05774551783708444 -0.0094425236789479269 0 0.058045772630836448 -0.0089118218779675289 0 0.058475008270255271 -0.0070091418109598166 0 0.058272706748694614 -0.0081712569297203771 0 0.058087516226952234 -0.0076950202826217562 0 0.058272706748694614 -0.0081712569297203771 0 0.058134935839258085 -0.0064184432003994247 0 0.058475008270255271 -0.0070091418109598166 0 0.058272706748694614 -0.0081712569297203771 0 0.058179290715230828 -0.0063829864144249199 0 0.058391598079798865 -0.0078796529886309783 0 0.058108690318944896 -0.0064442942795035251 0 0.057673615943236368 -0.0070670476950095949 0 0.058134935839258085 -0.0064184432003994247 0 0.057095422520531215 -0.0061212062780641304 0 0.058087516226952234 -0.0076950202826217562 0 0.057673615943236368 -0.0070670476950095949 0 0.058134935839258085 -0.0064184432003994247 0 0.057092776656237527 -0.011590750954554911 0 0.057573756434943189 -0.0119335382558534 0 0.057254902981928542 -0.011870176474539156 0 0.058475008270255271 -0.0070091418109598166 0 0.058179290715230828 -0.0063829864144249199 0 0.058058474925592962 -0.0052338613695702123 0 0.05774551783708444 -0.0094425236789479269 0 0.058157524197688097 -0.0070201261019785643 0 0.058179290715230828 -0.0063829864144249199 0 0.057700814980558519 -0.0053365156075949093 0 0.058058474925592962 -0.0052338613695702123 0 0.058388150215428911 -0.006043227366148019 0 0.058157524197688097 -0.0070201261019785643 0 0.058157524197688097 -0.0070201261019785643 0 0.057842352005653123 -0.0052413001631417553 0 0.057573756434943189 -0.0119335382558534 0 0.057254902981928542 -0.011870176474539156 0 0.057382968167507611 -0.012141161017977077 0 0.056657783696985924 -0.011814279607395674 0 0.057092776656237527 -0.011590750954554911 0 0.057254902981928542 -0.011870176474539156 0 0.055562043526771417 -0.0094602031444418963 0 0.057842352005653123 -0.0052413001631417553 0 0.056657783696985924 -0.011814279607395674 0 0.057254902981928542 -0.011870176474539156 0 0.057382968167507611 -0.012141161017977077 0 0.054947562631254852 -0.0055555693393153941 0 0.054539439057559654 -0.0059914355428934861 0 0.053490769924783257 -0.0050393332637898311 0 0.054947562631254852 -0.0055555693393153941 0 0.054299988668661398 -0.004164789118353193 0 0.053490769924783257 -0.0050393332637898311 0 0.060934400719870982 -0.0010614836414898109 0 0.059438303861626414 -0.0010815542135109745 0 0.059446824334907382 -0.0026132861693523046 0 0.053658908562952079 -0.0011472533181907585 0 0.057842352005653123 -0.0052413001631417553 0 0.053630466174862876 0.0014962207398884959 0 0.053610362074892115 0.0015096053320475553 0 0.053624819406206579 0.0014412491643388142 0 0.05720324994581618 0.00066256652433891448 0 0.053658908562952079 -0.0011472533181907585 0 0.060171881160670078 0.00060229909261096711 0 0.060934400719870982 -0.0010614836414898109 0 0.059438303861626414 -0.0010815542135109745 0 0.060171881160670078 0.00060229909261096711 0 0.058551702950515552 -0.0003713222945832946 0 0.059438303861626414 -0.0010815542135109745 0 0.058551702950515552 -0.0003713222945832946 0 0.059438303861626414 -0.0010815542135109745 0 0.057938314125739999 -0.00130707961466028 0 0.059039720823288087 -0.0033087169057002819 0 0.058406352531002154 -0.0031477812123311454 0 0.058163486834652979 -0.0017342126784940237 0 0.060115349956092627 -0.0034545036212942281 0 0.059039720823288087 -0.0033087169057002819 0 0.058163486834652979 -0.0017342126784940237 0 0.059438303861626414 -0.0010815542135109745 0 0.059446824334907382 -0.0026132861693523046 0 0.057938314125739999 -0.00130707961466028 0 0.057842352005653123 -0.0052413001631417553 0 0.058130978241022188 -0.001379578046631455 0 0.059139704968241905 -0.0044561243836027473 0 0.059039720823288087 -0.0033087169057002819 0 0.058406352531002154 -0.0031477812123311454 0 0.059139704968241905 -0.0044561243836027473 0 0.060115349956092627 -0.0034545036212942281 0 0.059039720823288087 -0.0033087169057002819 0 0.058157524197688097 -0.0070201261019785643 0 0.056952404973687289 -0.0025162339825149315 0 0.058268397752317937 -0.0047634602408889934 0 0.057073787635154923 -0.0028133422042413096 0 0.056984949441158658 -0.0043768627703438664 0 0.059139704968241905 -0.0044561243836027473 0 0.058406352531002154 -0.0031477812123311454 0 0.057073787635154923 -0.0028133422042413096 0 0.057073787635154923 -0.0028133422042413096 0 0.058163486834652979 -0.0017342126784940237 0 0.056153293603518166 -0.001424866079967148 0 0.058406352531002154 -0.0031477812123311454 0 0.057073787635154923 -0.0028133422042413096 0 0.058163486834652979 -0.0017342126784940237 0 0.058551702950515552 -0.0003713222945832946 0 0.057938314125739999 -0.00130707961466028 0 0.056382403607422013 -6.0952218634698028e-05 0 0.058163486834652979 -0.0017342126784940237 0 0.056153293603518166 -0.001424866079967148 0 0.056382403607422013 -6.0952218634698028e-05 0 0.058130978241022188 -0.001379578046631455 0 0.05650111255971358 -0.00019442039347521047 0 0.055000017018175869 0.0006083460266755428 0 0.056153293603518166 -0.001424866079967148 0 0.056382403607422013 -6.0952218634698028e-05 0 0.055000017018175869 0.0006083460266755428 0 0.056153293603518166 -0.001424866079967148 0 0.054999533456491757 -0.0024450334116764179 0 0.057073787635154923 -0.0028133422042413096 0 0.056153293603518166 -0.001424866079967148 0 0.054999533456491757 -0.0024450334116764179 0 0.055000345695831662 -0.0024449785398126399 0 0.056887706138985597 -0.0043907539407302279 0 0.057073787635154923 -0.0028133422042413096 0 0.054999533456491757 -0.0024450334116764179 0 0.056984949441158658 -0.0043768627703438664 0 0.054999918719884515 -0.0024449978969971679 0 0.056121312501515759 -0.0052730419022168542 0 0.056858154117185741 -0.0043485252405013036 0 0.054999918719884515 -0.0024449978969971679 0 0.056121312501515759 -0.0052730419022168542 0 0.054999620124855125 -0.0056812728807142084 0 0.058108690318944896 -0.0064442942795035251 0 0.056887706138985597 -0.0043907539407302279 0 0.058134935839258085 -0.0064184432003994247 0 0.056858154117185741 -0.0043485252405013036 0 0.057095422520531215 -0.0061212062780641304 0 0.058179290715230828 -0.0063829864144249199 0 0.057700814980558519 -0.0053365156075949093 0 0.056984949441158658 -0.0043768627703438664 0 0.057700814980558519 -0.0053365156075949093 0 0.058268397752317937 -0.0047634602408889934 0 0.056984949441158658 -0.0043768627703438664 0 0.056121312501515759 -0.0052730419022168542 0 0.056858154117185741 -0.0043485252405013036 0 0.057095422520531215 -0.0061212062780641304 0 0.056689250536782081 -0.0071877575562134081 0 0.056121312501515759 -0.0052730419022168542 0 0.057095422520531215 -0.0061212062780641304 0 0.056689250536782081 -0.0071877575562134081 0 0.057673615943236368 -0.0070670476950095949 0 0.057095422520531215 -0.0061212062780641304 0 0.056689250536782081 -0.0071877575562134081 0 0.056121312501515759 -0.0052730419022168542 0 0.054999620124855125 -0.0056812728807142084 0 0.028553602749561986 -0.0086475080828448073 0 0.029137851653027812 -0.0089987425729555447 0 0.028773074883267202 -0.0093576455077058317 0 0.028553602749561986 -0.0086475080828448073 0 0.029117579115782975 -0.0086104894878041693 0 0.02901990568707348 -0.0080218291156786432 0 0.028553602749561986 -0.0086475080828448073 0 0.029117579115782975 -0.0086104894878041693 0 0.029137851653027812 -0.0089987425729555447 0 0.029117579115782975 -0.0086104894878041693 0 0.029797774236947381 -0.0088459163646972608 0 0.029631522341829211 -0.0080701950472702923 0 0.029117579115782975 -0.0086104894878041693 0 0.029797774236947381 -0.0088459163646972608 0 0.029137851653027812 -0.0089987425729555447 0 0.029797774236947381 -0.0088459163646972608 0 0.029137851653027812 -0.0089987425729555447 0 0.028994062579234346 -0.0095829829405165035 0 0.035886044488458418 -0.0055033401064231453 0 0.035946491121541253 -0.0053677738139240837 0 0.035861560050900999 -0.0053871905175577953 0 0.032902857336839168 -0.007266623807618929 0 0.032260190905587606 -0.0082476809787567114 0 0.028773074883267202 -0.0093576455077058317 0 0.028468786430797234 -0.0095244269160960713 0 0.028691664311995397 -0.0097012335056751893 0 0.029137851653027812 -0.0089987425729555447 0 0.028994062579234346 -0.0095829829405165035 0 0.028773074883267202 -0.0093576455077058317 0 0.028994062579234346 -0.0095829829405165035 0 0.028773074883267202 -0.0093576455077058317 0 0.028691664311995397 -0.0097012335056751893 0 0.028553602749561986 -0.0086475080828448073 0 0.028773074883267202 -0.0093576455077058317 0 0.028468786430797234 -0.0095244269160960713 0 0.027543860051632375 -0.0098367030720494762 0 0.02669024202183605 -0.013014326482248489 0 0.024735025043741827 -0.015091729169713854 0 0.023251145683811324 -0.015462685384427898 0 0.023698198651510547 -0.014176289869312887 0 0.023698198651510547 -0.014176289869312887 0 0.021883140628475375 -0.013070556215355789 0 0.024262650762684624 -0.012844149149675783 0 0.024735025043741827 -0.015091729169713854 0 0.023698198651510547 -0.014176289869312887 0 0.024262650762684624 -0.012844149149675783 0 0.020485005099957251 -0.016936864361343631 0 0.015403107796351774 -0.016263595431396466 0 0.021615054307859909 -0.015470328286234115 0 0.021883140628475375 -0.013070556215355789 0 0.019752236245223861 -0.016060797146222543 0 0.023251145683811324 -0.015462685384427898 0 0.021615054307859909 -0.015470328286234115 0 0.021883140628475375 -0.013070556215355789 0 0.023251145683811324 -0.015462685384427898 0 0.023698198651510547 -0.014176289869312887 0 0.021883140628475375 -0.013070556215355789 0 0.020485005099957251 -0.016936864361343631 0 0.022154387820914615 -0.014208651959954174 0 0.018381943040007211 -0.020309420706151615 0 0.017764241497119717 -0.019557936966252045 0 0.020193136866100213 -0.018935227839500579 0 0.018381943040007211 -0.020309420706151615 0 0.017764241497119717 -0.019557936966252045 0 0.017396131053032431 -0.020299816815728081 0 0.026492368733958542 -0.011553778340298476 0 0.024262650762684624 -0.012844149149675783 0 0.023981909875948341 -0.0097986444657442492 0 0.021883140628475375 -0.013070556215355789 0 0.024262650762684624 -0.012844149149675783 0 0.023981909875948341 -0.0097986444657442492 0 0.026492368733958542 -0.011553778340298476 0 0.024735025043741827 -0.015091729169713854 0 0.024262650762684624 -0.012844149149675783 0 0.017764241497119717 -0.019557936966252045 0 0.020193136866100213 -0.018935227839500579 0 0.017242758360743349 -0.018530901413319659 0 0.020193136866100213 -0.018935227839500579 0 0.017242758360743349 -0.018530901413319659 0 0.019570594720136149 -0.016775410138227712 0 0.017266922039570583 -0.017009455687469758 0 0.017101140843481962 -0.018820953556816674 0 0.015496063644020877 -0.021099965827587441 0 0.017242758360743349 -0.018530901413319659 0 0.016746801419572594 -0.02084011390398607 0 0.018830764521756051 -0.014601147787095132 0 0.017242758360743349 -0.018530901413319659 0 0.019570594720136149 -0.016775410138227712 0 0.022154387820914615 -0.014208651959954174 0 0.024675530266998931 -0.01135928287765778 0 0.020963284886835486 -0.013738784647037967 0 0.019570594720136149 -0.016775410138227712 0 0.02287499711415631 -0.015862359048160433 0 0.020193136866100213 -0.018935227839500579 0 0.019570594720136149 -0.016775410138227712 0 0.02287499711415631 -0.015862359048160433 0 0.023981909875948341 -0.0097986444657442492 0 0.026962364854726983 -0.0060908351597105861 0 0.028439281867991609 -0.0069620137037501185 0 0.026962364854726983 -0.0060908351597105861 0 0.028439281867991609 -0.0069620137037501185 0 0.029918554389019983 -0.0062928002570955049 0 0.027543860051632375 -0.0098367030720494762 0 0.028422249140591719 -0.0071985864236604209 0 0.026492368733958542 -0.011553778340298476 0 0.023981909875948341 -0.0097986444657442492 0 0.028439281867991609 -0.0069620137037501185 0 0.028553602749561986 -0.0086475080828448073 0 0.028439281867991609 -0.0069620137037501185 0 0.02901990568707348 -0.0080218291156786432 0 0.029797774236947381 -0.0088459163646972608 0 0.029631522341829211 -0.0080701950472702923 0 0.031147913554224756 -0.0071615462447823797 0 0.032902857336839168 -0.007266623807618929 0 0.030877367527537398 -0.0077831558048467109 0 0.02901990568707348 -0.0080218291156786432 0 0.029631522341829211 -0.0080701950472702923 0 0.029571288373978464 -0.0073238616764893186 0 0.029117579115782975 -0.0086104894878041693 0 0.02901990568707348 -0.0080218291156786432 0 0.029631522341829211 -0.0080701950472702923 0 0.028439281867991609 -0.0069620137037501185 0 0.02901990568707348 -0.0080218291156786432 0 0.029571288373978464 -0.0073238616764893186 0 0.029571288373978464 -0.0073238616764893186 0 0.029918554389019983 -0.0062928002570955049 0 0.031147913554224756 -0.0071615462447823797 0 0.029631522341829211 -0.0080701950472702923 0 0.029571288373978464 -0.0073238616764893186 0 0.031147913554224756 -0.0071615462447823797 0 0.030232598099439543 -0.004709948961368675 0 0.026962364854726983 -0.0060908351597105861 0 0.029918554389019983 -0.0062928002570955049 0 0.028439281867991609 -0.0069620137037501185 0 0.029571288373978464 -0.0073238616764893186 0 0.029918554389019983 -0.0062928002570955049 0 0.030232598099439543 -0.004709948961368675 0 0.029918554389019983 -0.0062928002570955049 0 0.031705067593924503 -0.0057028820806831358 0 0.031705067593924503 -0.0057028820806831358 0 0.033084102587919426 -0.0064918792959849057 0 0.031147913554224756 -0.0071615462447823797 0 0.029918554389019983 -0.0062928002570955049 0 0.031705067593924503 -0.0057028820806831358 0 0.031147913554224756 -0.0071615462447823797 0 0.032006912419894999 -0.0043987640893426378 0 0.031705067593924503 -0.0057028820806831358 0 0.033216135508054287 -0.005384916963943151 0 0.033216135508054287 -0.005384916963943151 0 0.033084102587919426 -0.0064918792959849057 0 0.034873290256577025 -0.005641377696662655 0 0.031705067593924503 -0.0057028820806831358 0 0.033216135508054287 -0.005384916963943151 0 0.033084102587919426 -0.0064918792959849057 0 0.033084102587919426 -0.0064918792959849057 0 0.034585848775422041 -0.0071231570774010619 0 0.03284787121700225 -0.0076525868036476955 0 0.033084102587919426 -0.0064918792959849057 0 0.031147913554224756 -0.0071615462447823797 0 0.03284787121700225 -0.0076525868036476955 0 0.031418625645241449 -0.0078928560357155227 0 0.031147913554224756 -0.0071615462447823797 0 0.03284787121700225 -0.0076525868036476955 0 0.035225332915243414 -0.0041782652239762295 0 0.036843362059210009 -0.0046512346710332313 0 0.034873290256577025 -0.005641377696662655 0 0.036843362059210009 -0.0046512346710332313 0 0.036378670757830245 -0.0057517585868210709 0 0.034873290256577025 -0.005641377696662655 0 0.037785284798019111 -0.0053643042104940817 0 0.036843362059210009 -0.0046512346710332313 0 0.036378670757830245 -0.0057517585868210709 0 0.033326503075379946 -0.0042719366455987295 0 0.033216135508054287 -0.005384916963943151 0 0.034873290256577025 -0.005641377696662655 0 0.035225332915243414 -0.0041782652239762295 0 0.033326503075379946 -0.0042719366455987295 0 0.034873290256577025 -0.005641377696662655 0 0.034873290256577025 -0.005641377696662655 0 0.034585848775422041 -0.0071231570774010619 0 0.035671252584705729 -0.0064607179490843722 0 0.033084102587919426 -0.0064918792959849057 0 0.034873290256577025 -0.005641377696662655 0 0.034585848775422041 -0.0071231570774010619 0 0.034585848775422041 -0.0071231570774010619 0 0.035671252584705729 -0.0064607179490843722 0 0.035999747875637332 -0.0071956682819931351 0 0.036378670757830245 -0.0057517585868210709 0 0.034873290256577025 -0.005641377696662655 0 0.035671252584705729 -0.0064607179490843722 0 0.036378670757830245 -0.0057517585868210709 0 0.035671252584705729 -0.0064607179490843722 0 0.036998445278962046 -0.0065404303820568834 0 0.035671252584705729 -0.0064607179490843722 0 0.036998445278962046 -0.0065404303820568834 0 0.035999747875637332 -0.0071956682819931351 0 0.037785284798019111 -0.0053643042104940817 0 0.036378670757830245 -0.0057517585868210709 0 0.036998445278962046 -0.0065404303820568834 0 0.037415066642588729 -0.0074190196104310484 0 0.036513240097158291 -0.0080194483212389246 0 0.035999747875637332 -0.0071956682819931351 0 0.037415066642588729 -0.0074190196104310484 0 0.036998445278962046 -0.0065404303820568834 0 0.035999747875637332 -0.0071956682819931351 0 0.036513240097158291 -0.0080194483212389246 0 0.035999747875637332 -0.0071956682819931351 0 0.035535616298504463 -0.0079811469617004742 0 0.034585848775422041 -0.0071231570774010619 0 0.035999747875637332 -0.0071956682819931351 0 0.035535616298504463 -0.0079811469617004742 0 0.034585848775422041 -0.0071231570774010619 0 0.035535616298504463 -0.0079811469617004742 0 0.034329344870169212 -0.0080961111546552431 0 0.035419813897230409 -0.008581596651676569 0 0.036240998180335451 -0.0086864217332542903 0 0.036154207798669548 -0.0089566522021658195 0 0.035419813897230409 -0.008581596651676569 0 0.034329344870169212 -0.0080961111546552431 0 0.034662874377450838 -0.0087139400454842066 0 0.035535616298504463 -0.0079811469617004742 0 0.035419813897230409 -0.008581596651676569 0 0.034329344870169212 -0.0080961111546552431 0 0.035419813897230409 -0.008581596651676569 0 0.034662874377450838 -0.0087139400454842066 0 0.035395671962776286 -0.0089277226194539872 0 0.035535616298504463 -0.0079811469617004742 0 0.035419813897230409 -0.008581596651676569 0 0.036240998180335451 -0.0086864217332542903 0 0.036513240097158291 -0.0080194483212389246 0 0.035535616298504463 -0.0079811469617004742 0 0.036240998180335451 -0.0086864217332542903 0 0.036960885895646202 -0.0088477816776857052 0 0.036240998180335451 -0.0086864217332542903 0 0.036666768390364486 -0.0087965307864376618 0 0.036960885895646202 -0.0088477816776857052 0 0.036513240097158291 -0.0080194483212389246 0 0.036240998180335451 -0.0086864217332542903 0 0.032902857336839168 -0.007266623807618929 0 0.034210989808950022 -0.0073200550869815771 0 0.031418625645241449 -0.0078928560357155227 0 0.03284787121700225 -0.0076525868036476955 0 0.033061303113490495 -0.0088169206499586258 0 0.03284787121700225 -0.0076525868036476955 0 0.034329344870169212 -0.0080961111546552431 0 0.033061303113490495 -0.0088169206499586258 0 0.034585848775422041 -0.0071231570774010619 0 0.03284787121700225 -0.0076525868036476955 0 0.034329344870169212 -0.0080961111546552431 0 0.034662874377450838 -0.0087139400454842066 0 0.033061303113490495 -0.0088169206499586258 0 0.034658008348632821 -0.0089992107843009806 0 0.034329344870169212 -0.0080961111546552431 0 0.034662874377450838 -0.0087139400454842066 0 0.033061303113490495 -0.0088169206499586258 0 0.035861560050900999 -0.0053871905175577953 0 0.035869417373222856 -0.0052968340154035285 0 0.035921831251845192 -0.0052722871225365066 0 0.039200936162528004 -0.0037945181397253244 0 0.039821042876197692 0.00083983465355133612 0 0.033061303113490495 -0.0088169206499586258 0 0.034658008348632821 -0.0089992107843009806 0 0.034996365757517196 -0.0092516301834641365 0 0.034210989808950022 -0.0073200550869815771 0 0.039200936162528004 -0.0037945181397253244 0 0.034658008348632821 -0.0089992107843009806 0 0.034996365757517196 -0.0092516301834641365 0 0.035395671962776286 -0.0089277226194539872 0 0.034662874377450838 -0.0087139400454842066 0 0.034658008348632821 -0.0089992107843009806 0 0.035395671962776286 -0.0089277226194539872 0 0.039200936162528004 -0.0037945181397253244 0 0.042308284626795867 -0.0026560341740055633 0 0.045872773168009758 0.0061554761843451971 0 0.048789254152888852 0.0025525499865180321 0 0.044808372636813761 0.0020459881026786194 0 0.041939567618188275 0.0016465758726556541 0 0.044808372636813761 0.0020459881026786194 0 0.041344750101130409 0.0051141754321328446 0 0.045872773168009758 0.0061554761843451971 0 0.044808372636813761 0.0020459881026786194 0 0.041344750101130409 0.0051141754321328446 0 0.036240998180335451 -0.0086864217332542903 0 0.036666768390364486 -0.0087965307864376618 0 0.036154207798669548 -0.0089566522021658195 0 0.035419813897230409 -0.008581596651676569 0 0.036154207798669548 -0.0089566522021658195 0 0.035395671962776286 -0.0089277226194539872 0 0.034996365757517196 -0.0092516301834641365 0 0.036154207798669548 -0.0089566522021658195 0 0.035395671962776286 -0.0089277226194539872 0 0.034996365757517196 -0.0092516301834641365 0 0.036154207798669548 -0.0089566522021658195 0 0.03643430835400658 -0.0087511761537776116 0 0.036692684957030375 -0.0083554007549047245 0 0.036154207798669548 -0.0089566522021658195 0 0.03643430835400658 -0.0087511761537776116 0 0.036692684957030375 -0.0083554007549047245 0 0.036666768390364486 -0.0087965307864376618 0 0.036154207798669548 -0.0089566522021658195 0 0.048789254152888852 0.0025525499865180321 0 0.051248014690462335 -0.001215691642275698 0 0.051464613559259603 -0.0011814408245564188 0 0.052285880395489398 -0.0049838146715866618 0 0.051366182166072735 -0.0045752580274782849 0 0.051432557194580765 -0.0045544122433874446 0 0.036692684957030375 -0.0083554007549047245 0 0.03643430835400658 -0.0087511761537776116 0 0.0369054303565126 -0.0076985213258328614 0 0.0441441024345363 -0.007142076539129608 0 0.046197121497356768 -0.0042315108210409626 0 0.042308284626795867 -0.0026560341740055633 0 0.046197121497356768 -0.0042315108210409626 0 0.048789254152888852 0.0025525499865180321 0 0.051248014690462335 -0.001215691642275698 0 0.047352277955694799 -0.00063141431268282317 0 0.048960099952836809 -0.0033902826584023948 0 0.051248014690462335 -0.001215691642275698 0 0.047352277955694799 -0.00063141431268282317 0 0.047492675665609989 0.0038242890895213055 0 0.050485419344182318 -0.0016787210839912556 0 0.051631978666991207 -0.0013271578692111595 0 0.051691681370472829 -0.0013414122052129089 0 0.051248014690462335 -0.001215691642275698 0 0.051631978666991207 -0.0013271578692111595 0 0.051708795219341581 -0.0013167169100449826 0 0.051464613559259603 -0.0011814408245564188 0 0.05263510603731654 -0.0025275785372695656 0 0.051821574287102261 -0.0045917027963521357 0 0.051522475180903367 -0.0041947578832431066 0 0.052719838816107978 -0.0013174283376843551 0 0.046197121497356768 -0.0042315108210409626 0 0.051631978666991207 -0.0013271578692111595 0 0.051248014690462335 -0.001215691642275698 0 0.051464613559259603 -0.0011814408245564188 0 0.051421304813455637 -0.0028310259341930142 0 0.05097000095303901 -0.0043316036547291154 0 0.051522475180903367 -0.0041947578832431066 0 0.05097000095303901 -0.0043316036547291154 0 0.051522475180903367 -0.0041947578832431066 0 0.051432557194580765 -0.0045544122433874446 0 0.051366182166072735 -0.0045752580274782849 0 0.051522475180903367 -0.0041947578832431066 0 0.051432557194580765 -0.0045544122433874446 0 0.046197121497356768 -0.0042315108210409626 0 0.047981873608708488 -0.0051875511950043116 0 0.041939567618188275 0.0016465758726556541 0 0.044808372636813761 0.0020459881026786194 0 0.043605883418570038 -0.0026110305495355601 0 0.048789254152888852 0.0025525499865180321 0 0.044808372636813761 0.0020459881026786194 0 0.047352277955694799 -0.00063141431268282317 0 0.048960099952836809 -0.0033902826584023948 0 0.047352277955694799 -0.00063141431268282317 0 0.043605883418570038 -0.0026110305495355601 0 0.044808372636813761 0.0020459881026786194 0 0.047352277955694799 -0.00063141431268282317 0 0.043605883418570038 -0.0026110305495355601 0 0.047492675665609989 0.0038242890895213055 0 0.04450442490274744 0.0041352993612045561 0 0.041939567618188275 0.0016465758726556541 0 0.043605883418570038 -0.0026110305495355601 0 0.040345681055129722 3.6981492291164739e-05 0 0.04450442490274744 0.0041352993612045561 0 0.04267317381258235 0.013589276790938234 0 0.043605883418570038 -0.0026110305495355601 0 0.038357763126729845 -0.0018220974280938043 0 0.040345681055129722 3.6981492291164739e-05 0 0.046704187264657616 0.014516829915822061 0 0.045628789846905417 0.01280795292578122 0 0.049753838109242568 0.012311642500135566 0 0.038357763126729845 -0.0018220974280938043 0 0.037321246197570185 0.00018211414453381809 0 0.040345681055129722 3.6981492291164739e-05 0 0.028084544037218887 0.037962835335026465 0 0.02797349401506594 0.037666059761649294 0 0.028196271903241175 0.037547810984224508 0 0.027865994394737904 0.017678984161207514 0 0.028287385175854888 0.01329531538984942 0 0.034957230617047155 0.016746856106438585 0 0.044856704657702265 0.020899364897306563 0 0.044578417418601995 0.022699630145787034 0 0.044983365623733278 0.022643800323044895 0 0.033291570614738426 0.022935378804390599 0 0.027266033427914161 0.022006223517537723 0 0.033291570614738426 0.022935378804390599 0 0.04267317381258235 0.013589276790938234 0 0.036262958235470988 0.017008432173161666 0 0.033655273623312491 0.017355058394667951 0 0.036838480766680552 0.010809363120882248 0 0.04267317381258235 0.013589276790938234 0 0.034582681961220295 0.0081077561039955386 0 0.033291570614738426 0.022935378804390599 0 0.034582681961220295 0.0081077561039955386 0 0.028287385175854888 0.01329531538984942 0 0.030836525878841933 0.0069973262360327844 0 0.034957230617047155 0.016746856106438585 0 0.038277871953162582 0.0022164774192670808 0 0.037157073743539909 0.0021127478699030362 0 0.040345681055129722 3.6981492291164739e-05 0 0.037321246197570185 0.00018211414453381809 0 0.03709566909195091 0.0023364869081637708 0 0.040345681055129722 3.6981492291164739e-05 0 0.034582681961220295 0.0081077561039955386 0 0.035576919958196708 0.0021449985171097573 0 0.034582681961220295 0.0081077561039955386 0 0.030497254120832831 0.0029113364320409903 0 0.032820861523889279 0.0065229123825920887 0 0.033067528986162234 0.0037211210110087755 0 0.034247437217528577 0.0029000535456273546 0 0.035576919958196708 0.0021449985171097573 0 0.030497254120832831 0.0029113364320409903 0 0.035576919958196708 0.0021449985171097573 0 0.040526517414455031 4.1381879162008889e-05 0 0.038277871953162582 0.0022164774192670808 0 0.040345681055129722 3.6981492291164739e-05 0 0.039905739837540602 0.0027356774013757553 0 0.041939567618188275 0.0016465758726556541 0 0.040345681055129722 3.6981492291164739e-05 0 0.039905739837540602 0.0027356774013757553 0 0.041344750101130409 0.0051141754321328446 0 0.039905739837540602 0.0027356774013757553 0 0.0368238652681896 0.0040494422040175835 0 0.039821042876197692 0.00083983465355133612 0 0.033016317002889935 -0.003605935609959312 0 0.041939567618188275 0.0016465758726556541 0 0.041344750101130409 0.0051141754321328446 0 0.039905739837540602 0.0027356774013757553 0 0.038277871953162582 0.0022164774192670808 0 0.037157073743539909 0.0021127478699030362 0 0.0368238652681896 0.0040494422040175835 0 0.038277871953162582 0.0022164774192670808 0 0.039905739837540602 0.0027356774013757553 0 0.0368238652681896 0.0040494422040175835 0 0.037157073743539909 0.0021127478699030362 0 0.036245910144476236 0.0027143481211372353 0 0.0368238652681896 0.0040494422040175835 0 0.030784360242864899 -0.0021291923144293517 0 0.030740186567081839 -0.002094856780261408 0 0.030674402074423037 -0.0022798972194282988 0 0.028570641415973163 0.00084135363582126584 0 0.030497254120832831 0.0029113364320409903 0 0.030497254120832831 0.0029113364320409903 0 0.033016317002889935 -0.003605935609959312 0 0.033016317002889935 -0.003605935609959312 0 0.028767754699744838 -0.0042482472456481912 0 0.030784360242864899 -0.0021291923144293517 0 0.030674402074423037 -0.0022798972194282988 0 0.030833070032055009 -0.0022384047400973248 0 0.028604930644756735 -0.0098415915691046768 0 0.028695991792690081 -0.0099356627812733599 0 0.028575204544415391 -0.0099616829369080021 0 0.028994062579234346 -0.0095829829405165035 0 0.028695991792690081 -0.0099356627812733599 0 0.028691664311995397 -0.0097012335056751893 0 0.028604930644756735 -0.0098415915691046768 0 0.028695991792690081 -0.0099356627812733599 0 0.028691664311995397 -0.0097012335056751893 0 0.032260190905587606 -0.0082476809787567114 0 0.033016317002889935 -0.003605935609959312 0 0.035946491121541253 -0.0053677738139240837 0 0.035861560050900999 -0.0053871905175577953 0 0.035921831251845192 -0.0052722871225365066 0 0.035946491121541253 -0.0053677738139240837 0 0.035921831251845192 -0.0052722871225365066 0 0.035968327558532839 -0.0052463318376933157 0 0.021977558562871095 -0.016914556247965135 0 0.023320121451934104 -0.016357219157033955 0 0.023429666064572779 -0.017930099477234 0 0.019823294891135219 -0.013978927333973148 0 0.015403107796351774 -0.016263595431396466 0 0.021615054307859909 -0.015470328286234115 0 0.021588765780385284 -0.017322954825855701 0 0.019752236245223861 -0.016060797146222543 0 0.023251145683811324 -0.015462685384427898 0 0.021977558562871095 -0.016914556247965135 0 0.023320121451934104 -0.016357219157033955 0 0.023251145683811324 -0.015462685384427898 0 0.021615054307859909 -0.015470328286234115 0 0.021588765780385284 -0.017322954825855701 0 0.022719763002718663 -0.015810913792345404 0 0.019823294891135219 -0.013978927333973148 0 0.028468786430797234 -0.0095244269160960713 0 0.028691664311995397 -0.0097012335056751893 0 0.028448305259209047 -0.0097805254037074789 0 0.024735025043741827 -0.015091729169713854 0 0.023320121451934104 -0.016357219157033955 0 0.023429666064572779 -0.017930099477234 0 0.02669024202183605 -0.013014326482248489 0 0.0240596774325063 -0.0099805605365048729 0 0.028468786430797234 -0.0095244269160960713 0 0.028448305259209047 -0.0097805254037074789 0 0.028367058610707763 -0.0098629599881269042 0 0.024735025043741827 -0.015091729169713854 0 0.023251145683811324 -0.015462685384427898 0 0.023320121451934104 -0.016357219157033955 0 0.028604930644756735 -0.0098415915691046768 0 0.028691664311995397 -0.0097012335056751893 0 0.028448305259209047 -0.0097805254037074789 0 0.0240596774325063 -0.0099805605365048729 0 0.026634929844967424 -0.0026867269787268682 0 0.028448305259209047 -0.0097805254037074789 0 0.028367058610707763 -0.0098629599881269042 0 0.02844392890928648 -0.0098664135984009079 0 0.028448305259209047 -0.0097805254037074789 0 0.02846840221208323 -0.0098547288168012101 0 0.02844392890928648 -0.0098664135984009079 0 0.029499901346721376 -0.010445729993141291 0 0.028767754699744838 -0.0042482472456481912 0 0.028604930644756735 -0.0098415915691046768 0 0.028448305259209047 -0.0097805254037074789 0 0.028575204544415391 -0.0099616829369080021 0 0.028570641415973163 0.00084135363582126584 0 0.026634929844967424 -0.0026867269787268682 0 0.028570641415973163 0.00084135363582126584 0 0.028767754699744838 -0.0042482472456481912 0 0.028495622964519747 -0.0013047774443215791 0 0.028702670572641316 -0.0017375513470334306 0 0.029005431711249283 -0.0016684190081217509 0 0.028767754699744838 -0.0042482472456481912 0 0.026634929844967424 -0.0026867269787268682 0 0.024264116187975176 0.0076813165889641141 0 0.024264928578997629 0.0076106991216302053 0 0.024162669137579997 0.0076085301975527134 0 0.024337408579080917 0.0076325415509298934 0 0.024264116187975176 0.0076813165889641141 0 0.024264928578997629 0.0076106991216302053 0 0.024337408579080917 0.0076325415509298934 0 0.024362447061409317 0.0076179530323172507 0 0.024264928578997629 0.0076106991216302053 0 0.026634929844967424 -0.0026867269787268682 0 0.024021517574520181 0.00018615189234625845 0 0.0240596774325063 -0.0099805605365048729 0 0.024021517574520181 0.00018615189234625845 0 0.024531138029552223 -0.0035026944441242155 0 0.024588193927417717 -0.003526096542548846 0 0.02451042032738587 -0.0035346052131018544 0 0.024264116187975176 0.0076813165889641141 0 0.02406082580806743 0.0076689354598222211 0 0.024162669137579997 0.0076085301975527134 0 0.02406082580806743 0.0076689354598222211 0 0.024022172736407835 0.0076222624880004234 0 0.024162669137579997 0.0076085301975527134 0 0.020630036343990139 -0.0077733569031671335 0 0.02072945943517282 -0.0078729412786632379 0 0.020525428460734747 -0.0078391302251373321 0 0.024021517574520181 0.00018615189234625845 0 0.024840865726974564 0.0034924980169682898 0 0.020630036343990139 -0.0077733569031671335 0 0.020758431972955193 -0.0078216872190613185 0 0.02072945943517282 -0.0078729412786632379 0 0.019823294891135219 -0.013978927333973148 0 0.0240596774325063 -0.0099805605365048729 0 0.019823294891135219 -0.013978927333973148 0 0.015847348198174429 -0.011529350849727411 0 0.023905367663036591 0.0074015952129213754 0 0.023621664377244906 0.007209562778443558 0 0.024209107238024583 0.0074479942465476298 0 0.024021517574520181 0.00018615189234625845 0 0.018523680042196778 -0.0042912076411759812 0 0.024076702839382152 0.0077393792103657866 0 0.023775433425442603 0.0074930186344190353 0 0.023060764238308763 0.0075078445680261145 0 0.024076702839382152 0.0077393792103657866 0 0.023775433425442603 0.0074930186344190353 0 0.024022172736407835 0.0076222624880004234 0 0.024022172736407835 0.0076222624880004234 0 0.023974191625448508 0.0075033177277809941 0 0.024107616896473501 0.007534306907440903 0 0.023775433425442603 0.0074930186344190353 0 0.024022172736407835 0.0076222624880004234 0 0.023974191625448508 0.0075033177277809941 0 0.023775433425442603 0.0074930186344190353 0 0.023974191625448508 0.0075033177277809941 0 0.023905367663036591 0.0074015952129213754 0 0.023974191625448508 0.0075033177277809941 0 0.023905367663036591 0.0074015952129213754 0 0.024062132012531566 0.0074674734934015875 0 0.023775433425442603 0.0074930186344190353 0 0.023905367663036591 0.0074015952129213754 0 0.023621664377244906 0.007209562778443558 0 0.024362447061409317 0.0076179530323172507 0 0.024246024076092942 0.0073960441226937441 0 0.024209107238024583 0.0074479942465476298 0 0.030497254120832831 0.0029113364320409903 0 0.027266033427914161 0.022006223517537723 0 0.024362447061409317 0.0076179530323172507 0 0.02421424404138053 0.0075442226348101972 0 0.024209107238024583 0.0074479942465476298 0 0.024362447061409317 0.0076179530323172507 0 0.024264928578997629 0.0076106991216302053 0 0.02421424404138053 0.0075442226348101972 0 0.024264928578997629 0.0076106991216302053 0 0.02421424404138053 0.0075442226348101972 0 0.024162669137579997 0.0076085301975527134 0 0.02421424404138053 0.0075442226348101972 0 0.024107616896473501 0.007534306907440903 0 0.024154145018807624 0.0074927930079055427 0 0.02421424404138053 0.0075442226348101972 0 0.024162669137579997 0.0076085301975527134 0 0.024107616896473501 0.007534306907440903 0 0.024022172736407835 0.0076222624880004234 0 0.024162669137579997 0.0076085301975527134 0 0.024107616896473501 0.007534306907440903 0 0.023974191625448508 0.0075033177277809941 0 0.024107616896473501 0.007534306907440903 0 0.024062132012531566 0.0074674734934015875 0 0.023905367663036591 0.0074015952129213754 0 0.024062132012531566 0.0074674734934015875 0 0.024209107238024583 0.0074479942465476298 0 0.02421424404138053 0.0075442226348101972 0 0.024154145018807624 0.0074927930079055427 0 0.024209107238024583 0.0074479942465476298 0 0.024107616896473501 0.007534306907440903 0 0.024062132012531566 0.0074674734934015875 0 0.024154145018807624 0.0074927930079055427 0 0.024062132012531566 0.0074674734934015875 0 0.024154145018807624 0.0074927930079055427 0 0.024209107238024583 0.0074479942465476298 0 0.023933100694112364 0.0076619747900595909 0 0.024031084665899264 0.0074525068973494224 0 0.025805998248427851 0.0276815673782893 0 0.026050645126116316 0.028188623606492078 0 0.025399837562308882 0.028179845538643583 0 0.024246024076092942 0.0073960441226937441 0 0.024209107238024583 0.0074479942465476298 0 0.023739439379515476 0.0077351821213854201 0 0.023761368259730395 0.0078485998844798517 0 0.024209107238024583 0.0074479942465476298 0 0.023739439379515476 0.0077351821213854201 0 0.027266033427914161 0.022006223517537723 0 0.024207479481391774 0.017934330385115268 0 0.024207479481391774 0.017934330385115268 0 0.023554617591991886 0.014232384028461038 0 0.025134657426680355 0.027761496059641136 0 0.025399837562308882 0.028179845538643583 0 0.024689138789201173 0.028170766360224277 0 0.025444676787811368 0.03288642694834211 0 0.023228637154969482 0.027671721253558868 0 0.025134657426680355 0.027761496059641136 0 0.024689138789201173 0.028170766360224277 0 0.024411427777975905 0.027874121616426391 0 0.023554617591991886 0.014232384028461038 0 0.023228637154969482 0.027671721253558868 0 0.019038644115755531 -0.0024772969135913674 0 0.019950184968501448 -0.0014463941318628233 0 0.016826714038219243 -0.0021606001775857802 0 0.01229620007105822 -0.013480584720155163 0 0.012867846002656495 -0.013214839959661839 0 0.01259498960945267 -0.013579901681129446 0 0.018523680042196778 -0.0042912076411759812 0 0.01557424669876995 -0.0041913720549569267 0 0.021409428284091234 0.0054341572277025827 0 0.023554617591991886 0.014232384028461038 0 0.021710133075630675 0.0045475372511494215 0 0.021167474067826469 0.0039289686168802566 0 0.019434507549514712 0.0048475013190388671 0 0.021409428284091234 0.0054341572277025827 0 0.01557424669876995 -0.0041913720549569267 0 0.021409428284091234 0.0054341572277025827 0 0.018523680042196778 -0.0042912076411759812 0 0.023739439379515476 0.0077351821213854201 0 0.023036197908155781 0.0080777907681911839 0 0.022908855630989954 0.0079543877501930243 0 0.023775433425442603 0.0074930186344190353 0 0.023621664377244906 0.007209562778443558 0 0.023060764238308763 0.0075078445680261145 0 0.023933100694112364 0.0076619747900595909 0 0.021409428284091234 0.0054341572277025827 0 0.023621664377244906 0.007209562778443558 0 0.0228156938728988 0.0072314631803671488 0 0.023060764238308763 0.0075078445680261145 0 0.023761368259730395 0.0078485998844798517 0 0.023739439379515476 0.0077351821213854201 0 0.023036197908155781 0.0080777907681911839 0 0.019610936909540206 0.01943321782085031 0 0.020637371243702365 0.021668185628142912 0 0.019605283057391433 0.020616825282718403 0 0.020637371243702365 0.021668185628142912 0 0.0196012650143059 0.021908770425244115 0 0.019605283057391433 0.020616825282718403 0 0.021433897426886742 0.016269598315561906 0 0.018431444064792312 0.0036754553968453966 0 0.021433897426886742 0.016269598315561906 0 0.018255565337551304 0.0027144649915090587 0 0.024211059183615255 0.029659345355027039 0 0.028375774163266091 0.021384161694675941 0 0.015873705070987964 0.026105583930415708 0 0.02022015268632087 0.01593313305491692 0 0.022875288497227843 0.015062135322468398 0 0.020976089180378403 0.016676231330290118 0 0.021433897426886742 0.016269598315561906 0 0.023228637154969482 0.027671721253558868 0 0.024030682046375883 0.016366105911494323 0 0.022875288497227843 0.015062135322468398 0 0.020976089180378403 0.016676231330290118 0 0.021167474067826469 0.0039289686168802566 0 0.019434507549514712 0.0048475013190388671 0 0.01746086763357927 0.0043711926895434175 0 0.023554617591991886 0.014232384028461038 0 0.018204058694245368 0.002397166776542831 0 0.012867846002656495 -0.013214839959661839 0 0.013100010461201423 -0.013561005431701351 0 0.01259498960945267 -0.013579901681129446 0 0.015887327733311307 -0.0048736249392952336 0 0.016086270628408929 -0.0048329075876707992 0 0.01616516195182768 -0.0049338895961901982 0 0.01557424669876995 -0.0041913720549569267 0 0.01504098932753907 -0.010407952952238935 0 0.012867846002656495 -0.013214839959661839 0 0.013518373618573028 -0.013275293284813403 0 0.013100010461201423 -0.013561005431701351 0 0.01557424669876995 -0.0041913720549569267 0 0.018204058694245368 0.002397166776542831 0 0.019502456901674303 -0.00061819008812607969 0 0.0143037659486081 5.6675920322628424e-05 0 0.014199086918494008 -0.0018708811251900033 0 0.018204058694245368 0.002397166776542831 0 0.018255565337551304 0.0027144649915090587 0 0.02022015268632087 0.01593313305491692 0 0.020976089180378403 0.016676231330290118 0 0.020246007411153191 0.016493992974009355 0 0.018204058694245368 0.002397166776542831 0 0.01673885418589454 -0.0041764894084433757 0 0.016086270628408929 -0.0048329075876707992 0 0.01616516195182768 -0.0049338895961901982 0 0.016170840963226862 -0.0048500540871306364 0 0.013499839554089507 -0.011573478894672097 0 0.013907771396154317 -0.011637565884432642 0 0.014007593155136928 -0.012240065602954247 0 0.01504098932753907 -0.010407952952238935 0 0.014148279823598181 -0.010722469296961443 0 0.013527847041777851 -0.011560305902126703 0 0.013907771396154317 -0.011637565884432642 0 0.013545192385370809 -0.011232330307038905 0 0.016387429027319378 -0.011029876563078222 0 0.016391807624854413 -0.011047246756278212 0 0.016336656492038464 -0.011138976406309233 0 0.021761320235128528 0.0063079565137074099 0 0.021854273501325336 0.0080431660478992618 0 0.018911321647095122 0.0073492949577489896 0 0.018255565337551304 0.0027144649915090587 0 0.018431444064792312 0.0036754553968453966 0 0.016387429027319378 -0.011029876563078222 0 0.016336656492038464 -0.011138976406309233 0 0.016304436812528019 -0.011197257463612284 0 0.01504098932753907 -0.010407952952238935 0 0.01673885418589454 -0.0041764894084433757 0 0.01673885418589454 -0.0041764894084433757 0 0.018255565337551304 0.0027144649915090587 0 0.013518373618573028 -0.013275293284813403 0 0.013100010461201423 -0.013561005431701351 0 0.013435543453888851 -0.014263683996719236 0 0.013499839554089507 -0.011573478894672097 0 0.013322042405989037 -0.013341351542828938 0 0.014007593155136928 -0.012240065602954247 0 0.01504098932753907 -0.010407952952238935 0 0.01316343077016977 -0.01430911415647667 0 0.013100010461201423 -0.013561005431701351 0 0.012830954384475993 -0.013879182445469538 0 0.013435543453888851 -0.014263683996719236 0 0.013100010461201423 -0.013561005431701351 0 0.012830954384475993 -0.013879182445469538 0 0.01259498960945267 -0.013579901681129446 0 0.012830954384475993 -0.013879182445469538 0 0.012906359537470461 -0.014340286641571309 0 0.013435543453888851 -0.014263683996719236 0 0.012830954384475993 -0.013879182445469538 0 0.012906359537470461 -0.014340286641571309 0 0.012524497114093126 -0.014421911462971917 0 0.012906359537470461 -0.014340286641571309 0 0.012524497114093126 -0.014421911462971917 0 0.012880101366833163 -0.014801613094615043 0 0.012906359537470461 -0.014340286641571309 0 0.013435543453888851 -0.014263683996719236 0 0.012880101366833163 -0.014801613094615043 0 0.02072945943517282 -0.0078729412786632379 0 0.020415745131299776 -0.0079084699879128084 0 0.020525428460734747 -0.0078391302251373321 0 0.018523680042196778 -0.0042912076411759812 0 0.015847348198174429 -0.011529350849727411 0 0.01229620007105822 -0.013480584720155163 0 0.01223440000396402 -0.013788348863871803 0 0.012308889114125237 -0.01385813164646992 0 0.01229620007105822 -0.013480584720155163 0 0.01259498960945267 -0.013579901681129446 0 0.012308889114125237 -0.01385813164646992 0 0.012830954384475993 -0.013879182445469538 0 0.01259498960945267 -0.013579901681129446 0 0.012308889114125237 -0.01385813164646992 0 0.012830954384475993 -0.013879182445469538 0 0.012308889114125237 -0.01385813164646992 0 0.012524497114093126 -0.014421911462971917 0 0.012308889114125237 -0.01385813164646992 0 0.012524497114093126 -0.014421911462971917 0 0.011893469889747722 -0.014477515052631467 0 0.01223440000396402 -0.013788348863871803 0 0.012308889114125237 -0.01385813164646992 0 0.012293148355588068 -0.013893815244920426 0 0.011923850093329453 -0.013719158495565698 0 0.015403107796351774 -0.016263595431396466 0 0.012272895221511712 -0.013844612771587436 0 0.01223440000396402 -0.013788348863871803 0 0.012293148355588068 -0.013893815244920426 0 0.018381943040007211 -0.020309420706151615 0 0.0175060468800111 -0.021208104273066103 0 0.017396131053032431 -0.020299816815728081 0 0.0175060468800111 -0.021208104273066103 0 0.017396131053032431 -0.020299816815728081 0 0.016467845610015821 -0.020534408261346313 0 0.015403107796351774 -0.016263595431396466 0 0.0133866778461705 -0.017027895685420954 0 0.017764241497119717 -0.019557936966252045 0 0.017396131053032431 -0.020299816815728081 0 0.017324501077437205 -0.019630168252246435 0 0.017396131053032431 -0.020299816815728081 0 0.017324501077437205 -0.019630168252246435 0 0.016998289330463528 -0.019834557465897223 0 0.017324501077437205 -0.019630168252246435 0 0.017102122194617514 -0.019282771960064646 0 0.016998289330463528 -0.019834557465897223 0 0.017324501077437205 -0.019630168252246435 0 0.017102122194617514 -0.019282771960064646 0 0.017357630482307183 -0.019231847234282385 0 0.017764241497119717 -0.019557936966252045 0 0.017324501077437205 -0.019630168252246435 0 0.017357630482307183 -0.019231847234282385 0 0.015311905626423683 -0.018540336179940289 0 0.0133866778461705 -0.017027895685420954 0 0.016761419694102258 -0.019221777567195553 0 0.016998289330463528 -0.019834557465897223 0 0.016467845610015821 -0.020534408261346313 0 0.011501354528364852 -0.016386517510441082 0 0.011722499716550644 -0.015377467578950942 0 0.012118885435315313 -0.016177461076377016 0 0.017102122194617514 -0.019282771960064646 0 0.016761419694102258 -0.019221777567195553 0 0.016998289330463528 -0.019834557465897223 0 0.016297951178648289 -0.018871242498809556 0 0.015311905626423683 -0.018540336179940289 0 0.017396131053032431 -0.020299816815728081 0 0.016998289330463528 -0.019834557465897223 0 0.016467845610015821 -0.020534408261346313 0 0.012524497114093126 -0.014421911462971917 0 0.011893469889747722 -0.014477515052631467 0 0.012448327082588133 -0.014881338475638361 0 0.012524497114093126 -0.014421911462971917 0 0.012295681060968667 -0.015030983762666136 0 0.012880101366833163 -0.014801613094615043 0 0.0133866778461705 -0.017027895685420954 0 0.012228096581312872 -0.015460618582676427 0 0.012739021398205578 -0.014033977683854502 0 0.0133866778461705 -0.017027895685420954 0 0.012295681060968667 -0.015030983762666136 0 0.012880101366833163 -0.014801613094615043 0 0.012651858660516839 -0.015405502051482157 0 0.012880101366833163 -0.014801613094615043 0 0.013210044344235262 -0.015408748476555484 0 0.012651858660516839 -0.015405502051482157 0 0.013435543453888851 -0.014263683996719236 0 0.012880101366833163 -0.014801613094615043 0 0.013210044344235262 -0.015408748476555484 0 0.01316343077016977 -0.01430911415647667 0 0.013287211061535246 -0.01510327940893544 0 0.013322042405989037 -0.013341351542828938 0 0.013210044344235262 -0.015408748476555484 0 0.014124779525862167 -0.01485958126919317 0 0.013210044344235262 -0.015408748476555484 0 0.013976217325507686 -0.016088967376381273 0 0.014124779525862167 -0.01485958126919317 0 0.013210044344235262 -0.015408748476555484 0 0.013027194752290737 -0.016081506116943416 0 0.013976217325507686 -0.016088967376381273 0 0.011722499716550644 -0.015377467578950942 0 0.012315875365648951 -0.015766978558197989 0 0.012118885435315313 -0.016177461076377016 0 0.013076008993891374 -0.016070144675202236 0 0.012228096581312872 -0.015460618582676427 0 0.013210044344235262 -0.015408748476555484 0 0.013027194752290737 -0.016081506116943416 0 0.012651858660516839 -0.015405502051482157 0 0.013027194752290737 -0.016081506116943416 0 0.012538935632422251 -0.016293131202858191 0 0.012591264396237711 -0.016827618230582764 0 0.013027194752290737 -0.016081506116943416 0 0.012315875365648951 -0.015766978558197989 0 0.012538935632422251 -0.016293131202858191 0 0.012315875365648951 -0.015766978558197989 0 0.012538935632422251 -0.016293131202858191 0 0.012118885435315313 -0.016177461076377016 0 0.012538935632422251 -0.016293131202858191 0 0.012118885435315313 -0.016177461076377016 0 0.012591264396237711 -0.016827618230582764 0 0.011501354528364852 -0.016386517510441082 0 0.012118885435315313 -0.016177461076377016 0 0.012591264396237711 -0.016827618230582764 0 0.015311905626423683 -0.018540336179940289 0 0.014833284061347698 -0.018816486393340191 0 0.017539223405417661 -0.020881943312003874 0 0.017481876997042813 -0.020975420242238269 0 0.017536957219471863 -0.020846936964652684 0 0.017539223405417661 -0.020881943312003874 0 0.017481876997042813 -0.020975420242238269 0 0.017254151896717491 -0.020955600940607753 0 0.017539223405417661 -0.020881943312003874 0 0.017536957219471863 -0.020846936964652684 0 0.017066394782177714 -0.02062568968675621 0 0.013027194752290737 -0.016081506116943416 0 0.014007137921243855 -0.017688241812059937 0 0.013976217325507686 -0.016088967376381273 0 0.013027194752290737 -0.016081506116943416 0 0.012591264396237711 -0.016827618230582764 0 0.014007137921243855 -0.017688241812059937 0 0.014833284061347698 -0.018816486393340191 0 0.015702772626219056 -0.019137599218498759 0 0.017001988158134172 -0.020546338910579186 0 0.017536957219471863 -0.020846936964652684 0 0.017066394782177714 -0.02062568968675621 0 0.017481876997042813 -0.020975420242238269 0 0.017440899265129196 -0.021574485189190539 0 0.017254151896717491 -0.020955600940607753 0 0.017481876997042813 -0.020975420242238269 0 0.017536957219471863 -0.020846936964652684 0 0.017440899265129196 -0.021574485189190539 0 0.017440899265129196 -0.021574485189190539 0 0.016833719585551889 -0.021320717787018585 0 0.017254151896717491 -0.020955600940607753 0 0.017242758360743349 -0.018530901413319659 0 0.017839465740082012 -0.019399394789826628 0 0.016746801419572594 -0.02084011390398607 0 0.017242758360743349 -0.018530901413319659 0 0.017839465740082012 -0.019399394789826628 0 0.017320027796259529 -0.019059060074055625 0 0.017090497348979584 -0.019108081983593664 0 0.017839465740082012 -0.019399394789826628 0 0.017320027796259529 -0.019059060074055625 0 0.017764241497119717 -0.019557936966252045 0 0.017242758360743349 -0.018530901413319659 0 0.017357630482307183 -0.019231847234282385 0 0.017242758360743349 -0.018530901413319659 0 0.017357630482307183 -0.019231847234282385 0 0.017320027796259529 -0.019059060074055625 0 0.017102122194617514 -0.019282771960064646 0 0.017357630482307183 -0.019231847234282385 0 0.017320027796259529 -0.019059060074055625 0 0.015311905626423683 -0.018540336179940289 0 0.017428418583994406 -0.020686358890541511 0 0.017022836564160176 -0.02055662681798549 0 0.016833719585551889 -0.021320717787018585 0 0.017254151896717491 -0.020955600940607753 0 0.017022836564160176 -0.02055662681798549 0 0.017539223405417661 -0.020881943312003874 0 0.017254151896717491 -0.020955600940607753 0 0.017102122194617514 -0.019282771960064646 0 0.017090497348979584 -0.019108081983593664 0 0.017320027796259529 -0.019059060074055625 0 0.017230975941746 -0.016622888079959094 0 0.01666051100276815 -0.017754145054911949 0 0.016094932555652208 -0.0166141591791217 0 0.017482508843331246 -0.018079737099307661 0 0.017230975941746 -0.016622888079959094 0 0.017952084537623113 -0.017263831339427115 0 0.017482508843331246 -0.018079737099307661 0 0.017230975941746 -0.016622888079959094 0 0.01666051100276815 -0.017754145054911949 0 0.017482508843331246 -0.018079737099307661 0 0.016707706614003715 -0.019118070274413382 0 0.01666051100276815 -0.017754145054911949 0 0.017230975941746 -0.016622888079959094 0 0.017952084537623113 -0.017263831339427115 0 0.018124276719022774 -0.016213884464453199 0 0.017482508843331246 -0.018079737099307661 0 0.017952084537623113 -0.017263831339427115 0 0.01821492980980767 -0.018140088577404775 0 0.017952084537623113 -0.017263831339427115 0 0.018124276719022774 -0.016213884464453199 0 0.018740294357403698 -0.017030786531491857 0 0.017952084537623113 -0.017263831339427115 0 0.01821492980980767 -0.018140088577404775 0 0.018740294357403698 -0.017030786531491857 0 0.019635981464137454 -0.019318409272430274 0 0.020458924035375227 -0.019977359557609476 0 0.019082412040406005 -0.020298032011031721 0 0.019635981464137454 -0.019318409272430274 0 0.017436563213557132 -0.019457308112619844 0 0.019082412040406005 -0.020298032011031721 0 0.017482508843331246 -0.018079737099307661 0 0.01821492980980767 -0.018140088577404775 0 0.017436563213557132 -0.019457308112619844 0 0.019421367333092833 -0.019356063909562113 0 0.01721920973218833 -0.019235293106548253 0 0.017482508843331246 -0.018079737099307661 0 0.017436563213557132 -0.019457308112619844 0 0.016707706614003715 -0.019118070274413382 0 0.017436563213557132 -0.019457308112619844 0 0.017117354713188072 -0.020012877159898693 0 0.016707706614003715 -0.019118070274413382 0 0.017117354713188072 -0.020012877159898693 0 0.016707706614003715 -0.019118070274413382 0 0.016943891323878139 -0.020116828167754505 0 0.016707706614003715 -0.019118070274413382 0 0.016943891323878139 -0.020116828167754505 0 0.017066394782177714 -0.02062568968675621 0 0.017001988158134172 -0.020546338910579186 0 0.016943891323878139 -0.020116828167754505 0 0.017066394782177714 -0.02062568968675621 0 0.016692293123705512 -0.019208155009450105 0 0.015702772626219056 -0.019137599218498759 0 0.016707706614003715 -0.019118070274413382 0 0.014007137921243855 -0.017688241812059937 0 0.015294901861371397 -0.017033778616356188 0 0.014007137921243855 -0.017688241812059937 0 0.015294901861371397 -0.017033778616356188 0 0.013976217325507686 -0.016088967376381273 0 0.016707706614003715 -0.019118070274413382 0 0.01666051100276815 -0.017754145054911949 0 0.015294901861371397 -0.017033778616356188 0 0.01666051100276815 -0.017754145054911949 0 0.015294901861371397 -0.017033778616356188 0 0.016094932555652208 -0.0166141591791217 0 0.016094932555652208 -0.0166141591791217 0 0.015758653703132876 -0.015384324571551781 0 0.014804046151456817 -0.015791985845170223 0 0.015294901861371397 -0.017033778616356188 0 0.016094932555652208 -0.0166141591791217 0 0.014804046151456817 -0.015791985845170223 0 0.015758653703132876 -0.015384324571551781 0 0.014804046151456817 -0.015791985845170223 0 0.015135439891997008 -0.014739867193008124 0 0.016094932555652208 -0.0166141591791217 0 0.015758653703132876 -0.015384324571551781 0 0.016503532631640453 -0.015312386637942219 0 0.015294901861371397 -0.017033778616356188 0 0.013976217325507686 -0.016088967376381273 0 0.014804046151456817 -0.015791985845170223 0 0.013976217325507686 -0.016088967376381273 0 0.014804046151456817 -0.015791985845170223 0 0.014124779525862167 -0.01485958126919317 0 0.013322042405989037 -0.013341351542828938 0 0.014124779525862167 -0.01485958126919317 0 0.01460566478016115 -0.013994722106428926 0 0.014804046151456817 -0.015791985845170223 0 0.014124779525862167 -0.01485958126919317 0 0.015135439891997008 -0.014739867193008124 0 0.014124779525862167 -0.01485958126919317 0 0.015135439891997008 -0.014739867193008124 0 0.01460566478016115 -0.013994722106428926 0 0.015758653703132876 -0.015384324571551781 0 0.015953868543510358 -0.01456851024436772 0 0.015135439891997008 -0.014739867193008124 0 0.015135439891997008 -0.014739867193008124 0 0.01460566478016115 -0.013994722106428926 0 0.015395937261158238 -0.013780677666350367 0 0.015953868543510358 -0.01456851024436772 0 0.015135439891997008 -0.014739867193008124 0 0.015395937261158238 -0.013780677666350367 0 0.015953868543510358 -0.01456851024436772 0 0.016075352122586085 -0.013525871193188276 0 0.015395937261158238 -0.013780677666350367 0 0.015953868543510358 -0.01456851024436772 0 0.016517347320821166 -0.014236558419893693 0 0.016075352122586085 -0.013525871193188276 0 0.016517347320821166 -0.014236558419893693 0 0.016503532631640453 -0.015312386637942219 0 0.017301887998629709 -0.014597833113011278 0 0.015758653703132876 -0.015384324571551781 0 0.015953868543510358 -0.01456851024436772 0 0.016503532631640453 -0.015312386637942219 0 0.015953868543510358 -0.01456851024436772 0 0.016517347320821166 -0.014236558419893693 0 0.016503532631640453 -0.015312386637942219 0 0.017230975941746 -0.016622888079959094 0 0.016094932555652208 -0.0166141591791217 0 0.016503532631640453 -0.015312386637942219 0 0.017230975941746 -0.016622888079959094 0 0.016503532631640453 -0.015312386637942219 0 0.017301887998629709 -0.014597833113011278 0 0.017230975941746 -0.016622888079959094 0 0.018124276719022774 -0.016213884464453199 0 0.017301887998629709 -0.014597833113011278 0 0.016517347320821166 -0.014236558419893693 0 0.017301887998629709 -0.014597833113011278 0 0.016594428009898816 -0.013249402794179382 0 0.017301887998629709 -0.014597833113011278 0 0.016958171814858074 -0.012914117160735383 0 0.016594428009898816 -0.013249402794179382 0 0.016958171814858074 -0.012914117160735383 0 0.016544068772538171 -0.012421912692243109 0 0.016562788956653255 -0.012285956043900731 0 0.016958171814858074 -0.012914117160735383 0 0.016594428009898816 -0.013249402794179382 0 0.016544068772538171 -0.012421912692243109 0 0.016517347320821166 -0.014236558419893693 0 0.016594428009898816 -0.013249402794179382 0 0.016075352122586085 -0.013525871193188276 0 0.016075352122586085 -0.013525871193188276 0 0.016169293264951201 -0.012612497168518628 0 0.015601485572074919 -0.01286733385215641 0 0.016594428009898816 -0.013249402794179382 0 0.016169293264951201 -0.012612497168518628 0 0.016544068772538171 -0.012421912692243109 0 0.016594428009898816 -0.013249402794179382 0 0.016075352122586085 -0.013525871193188276 0 0.016169293264951201 -0.012612497168518628 0 0.016169293264951201 -0.012612497168518628 0 0.016544068772538171 -0.012421912692243109 0 0.01632782153517319 -0.011894213285433533 0 0.016169293264951201 -0.012612497168518628 0 0.015679736038507596 -0.012224106201886322 0 0.01632782153517319 -0.011894213285433533 0 0.016169293264951201 -0.012612497168518628 0 0.015601485572074919 -0.01286733385215641 0 0.015679736038507596 -0.012224106201886322 0 0.016544068772538171 -0.012421912692243109 0 0.016439986905716648 -0.01199610964699329 0 0.01632782153517319 -0.011894213285433533 0 0.016544068772538171 -0.012421912692243109 0 0.016439986905716648 -0.01199610964699329 0 0.016562788956653255 -0.012285956043900731 0 0.013322042405989037 -0.013341351542828938 0 0.01460566478016115 -0.013994722106428926 0 0.014937914790560922 -0.013171880156707951 0 0.013322042405989037 -0.013341351542828938 0 0.014937914790560922 -0.013171880156707951 0 0.014614657718863005 -0.012504568941878114 0 0.014937914790560922 -0.013171880156707951 0 0.015395937261158238 -0.013780677666350367 0 0.015601485572074919 -0.01286733385215641 0 0.01460566478016115 -0.013994722106428926 0 0.014937914790560922 -0.013171880156707951 0 0.015395937261158238 -0.013780677666350367 0 0.016075352122586085 -0.013525871193188276 0 0.015395937261158238 -0.013780677666350367 0 0.015601485572074919 -0.01286733385215641 0 0.015601485572074919 -0.01286733385215641 0 0.015679736038507596 -0.012224106201886322 0 0.015081724087718143 -0.012361068281726277 0 0.015679736038507596 -0.012224106201886322 0 0.015081724087718143 -0.012361068281726277 0 0.015061214457201709 -0.011544207430418642 0 0.014937914790560922 -0.013171880156707951 0 0.015601485572074919 -0.01286733385215641 0 0.015081724087718143 -0.012361068281726277 0 0.013322042405989037 -0.013341351542828938 0 0.014614657718863005 -0.012504568941878114 0 0.014007593155136928 -0.012240065602954247 0 0.014937914790560922 -0.013171880156707951 0 0.015081724087718143 -0.012361068281726277 0 0.014614657718863005 -0.012504568941878114 0 0.015081724087718143 -0.012361068281726277 0 0.014614657718863005 -0.012504568941878114 0 0.014546789440122327 -0.01206110543633231 0 0.014614657718863005 -0.012504568941878114 0 0.014546789440122327 -0.01206110543633231 0 0.014007593155136928 -0.012240065602954247 0 0.013907771396154317 -0.011637565884432642 0 0.014546789440122327 -0.01206110543633231 0 0.014007593155136928 -0.012240065602954247 0 0.01673885418589454 -0.0041764894084433757 0 0.015383721224276945 -0.012187654581396002 0 0.013907771396154317 -0.011637565884432642 0 0.014546789440122327 -0.01206110543633231 0 0.015061214457201709 -0.011544207430418642 0 0.013907771396154317 -0.011637565884432642 0 0.013545192385370809 -0.011232330307038905 0 0.015061214457201709 -0.011544207430418642 0 0.016387429027319378 -0.011029876563078222 0 0.016304436812528019 -0.011197257463612284 0 0.016236641556896129 -0.011335255460342314 0 0.018431444064792312 0.0036754553968453966 0 0.019145021924678034 -0.00020848324176599975 0 0.015081724087718143 -0.012361068281726277 0 0.014546789440122327 -0.01206110543633231 0 0.015061214457201709 -0.011544207430418642 0 0.016236641556896129 -0.011335255460342314 0 0.016278238333518592 -0.011395371432630539 0 0.016242307458344672 -0.011545700852501943 0 0.015679736038507596 -0.012224106201886322 0 0.015061214457201709 -0.011544207430418642 0 0.01632782153517319 -0.011894213285433533 0 0.016304436812528019 -0.011197257463612284 0 0.016236641556896129 -0.011335255460342314 0 0.016278238333518592 -0.011395371432630539 0 0.015383721224276945 -0.012187654581396002 0 0.0164097731160966 -0.011671697834302729 0 0.016764194049077873 0.019338179130389068 0 0.016506528792412514 0.020917039286835002 0 0.015256823476426659 0.019470589326281155 0 0.016764194049077873 0.019338179130389068 0 0.018392858573908207 0.019752456084372583 0 0.016506528792412514 0.020917039286835002 0 0.016315436455003288 -0.011145172275948445 0 0.016304436812528019 -0.011197257463612284 0 0.016278238333518592 -0.011395371432630539 0 0.018431444064792312 0.0036754553968453966 0 0.016338762633849858 0.0049771289757338478 0 0.018392858573908207 0.019752456084372583 0 0.0196012650143059 0.021908770425244115 0 0.016506528792412514 0.020917039286835002 0 0.018392858573908207 0.019752456084372583 0 0.0196012650143059 0.021908770425244115 0 0.019605283057391433 0.020616825282718403 0 0.019610936909540206 0.01943321782085031 0 0.018392858573908207 0.019752456084372583 0 0.019605283057391433 0.020616825282718403 0 0.016622708338581017 -0.01209319107067027 0 0.016439986905716648 -0.01199610964699329 0 0.01632782153517319 -0.011894213285433533 0 0.016622708338581017 -0.01209319107067027 0 0.016329192737044081 -0.011727331967665519 0 0.016618437491337935 -0.011886615775121399 0 0.016622708338581017 -0.01209319107067027 0 0.016618437491337935 -0.011886615775121399 0 0.016838771769827478 -0.012616567726124107 0 0.016622708338581017 -0.01209319107067027 0 0.016838771769827478 -0.012616567726124107 0 0.015950147414380726 -0.012258854287484482 0 0.016622708338581017 -0.01209319107067027 0 0.016439986905716648 -0.01199610964699329 0 0.015950147414380726 -0.012258854287484482 0 0.016236641556896129 -0.011335255460342314 0 0.01632782153517319 -0.011894213285433533 0 0.016242307458344672 -0.011545700852501943 0 0.016622708338581017 -0.01209319107067027 0 0.01632782153517319 -0.011894213285433533 0 0.016329192737044081 -0.011727331967665519 0 0.01632782153517319 -0.011894213285433533 0 0.016242307458344672 -0.011545700852501943 0 0.016329192737044081 -0.011727331967665519 0 0.016242307458344672 -0.011545700852501943 0 0.016329192737044081 -0.011727331967665519 0 0.016175065622860082 -0.011276994756118045 0 0.016278238333518592 -0.011395371432630539 0 0.016242307458344672 -0.011545700852501943 0 0.016175065622860082 -0.011276994756118045 0 0.016278238333518592 -0.011395371432630539 0 0.016175065622860082 -0.011276994756118045 0 0.015991945808043612 -0.011344141147762827 0 0.016338762633849858 0.0049771289757338478 0 0.014406088378268251 0.0044694969649715244 0 0.016506528792412514 0.020917039286835002 0 0.015256823476426659 0.019470589326281155 0 0.013021724769949131 0.020321311668551788 0 0.013951418156347623 0.018890327831136582 0 0.015256823476426659 0.019470589326281155 0 0.013021724769949131 0.020321311668551788 0 0.010383399138540809 -0.012080276093257219 0 0.015991945808043612 -0.011344141147762827 0 0.013885473403131829 -0.0092989178741308375 0 0.0088038218884131814 0.0035646507001519008 0 0.014406088378268251 0.0044694969649715244 0 0.016808821005360155 -0.011170970552703051 0 0.012606217118126576 -0.0088247699807537071 0 0.016175065622860082 -0.011276994756118045 0 0.015991945808043612 -0.011344141147762827 0 0.013885473403131829 -0.0092989178741308375 0 0.016175065622860082 -0.011276994756118045 0 0.016618437491337935 -0.011886615775121399 0 0.01718111911899791 -0.011930258419602012 0 0.016329192737044081 -0.011727331967665519 0 0.016175065622860082 -0.011276994756118045 0 0.016618437491337935 -0.011886615775121399 0 0.01596649699437246 -0.0099089180489290822 0 0.012606217118126576 -0.0088247699807537071 0 0.010383399138540809 -0.012080276093257219 0 0.013885473403131829 -0.0092989178741308375 0 0.0087664243400482778 -0.0090467026586908521 0 0.0058490326949502689 -0.003477698570536948 0 -0.00048453992677449165 -0.0015023079994944696 0 0.00034106316969870405 -0.0038104918026041074 0 0.012606217118126576 -0.0088247699807537071 0 0.003937845627778813 -0.0062971619863231723 0 0.015950147414380726 -0.012258854287484482 0 0.015349118212380849 -0.011458880784996824 0 0.012591515474521127 -0.014026856501145581 0 0.016838771769827478 -0.012616567726124107 0 0.015950147414380726 -0.012258854287484482 0 0.012591515474521127 -0.014026856501145581 0 0.012606217118126576 -0.0088247699807537071 0 0.0055935536946481517 -0.0074731021773580542 0 0.016439986905716648 -0.01199610964699329 0 0.015950147414380726 -0.012258854287484482 0 0.015349118212380849 -0.011458880784996824 0 0.011557599696291231 -0.010884351477994365 0 0.012591515474521127 -0.014026856501145581 0 0.0015871173082237105 -0.010513231535415292 0 0.015349118212380849 -0.011458880784996824 0 0.011557599696291231 -0.010884351477994365 0 0.012591515474521127 -0.014026856501145581 0 0.003937845627778813 -0.0062971619863231723 0 0.0001751214179472071 -0.0065098127803178739 0 0.0087664243400482778 -0.0090467026586908521 0 0.0067700472703182994 -0.010837573624228021 0 0.003542300509478916 -0.0091300986768842185 0 -0.00048453992677449165 -0.0015023079994944696 0 0.00034106316969870405 -0.0038104918026041074 0 -0.0043820074154232534 -0.0036799992402488687 0 0.010383399138540809 -0.012080276093257219 0 0.0087664243400482778 -0.0090467026586908521 0 0.0067700472703182994 -0.010837573624228021 0 0.0043883421111453541 -0.013094529320610063 0 0.0067700472703182994 -0.010837573624228021 0 0.003542300509478916 -0.0091300986768842185 0 0.001227319485221751 -0.011462364431223927 0 0.0043883421111453541 -0.013094529320610063 0 0.003542300509478916 -0.0091300986768842185 0 -0.0043820074154232534 -0.0036799992402488687 0 -0.0079300733502236306 -0.0034612199572450039 0 -0.0079393429335614576 -0.0018134904113908674 0 0.001227319485221751 -0.011462364431223927 0 0.003542300509478916 -0.0091300986768842185 0 -0.0015473599674362011 -0.0093903527331980347 0 0.0001751214179472071 -0.0065098127803178739 0 -0.0070833612831312535 -0.0045554804822346201 0 -0.0070833612831312535 -0.0045554804822346201 0 -0.0075545430732745925 -0.0020702664937987921 0 -0.0079393429335614576 -0.0018134904113908674 0 -0.0057530360113256839 -0.00027107296224464407 0 -0.0086812863737620264 -0.00053712738354967464 0 -0.0043820074154232534 -0.0036799992402488687 0 -0.0079393429335614576 -0.0018134904113908674 0 -0.0057530360113256839 -0.00027107296224464407 0 -0.00048453992677449165 -0.0015023079994944696 0 -0.0043820074154232534 -0.0036799992402488687 0 -0.0057530360113256839 -0.00027107296224464407 0 0.0055935536946481517 -0.0074731021773580542 0 -0.0017952864534184268 -0.0054203232774978436 0 0.0030729806886400386 -0.0047689214774655608 0 0.0090028060329766044 -0.0021334433705466186 0 0.0083211233358655746 -0.0083851794812709254 0 0.011557599696291231 -0.010884351477994365 0 0.0015871173082237105 -0.010513231535415292 0 0.0083211233358655746 -0.0083851794812709254 0 0.0015871173082237105 -0.010513231535415292 0 0.0030729806886400386 -0.0047689214774655608 0 0.0083211233358655746 -0.0083851794812709254 0 0.0015871173082237105 -0.010513231535415292 0 -0.0017204988088305047 -0.004086613785318668 0 -0.0055535048819814713 -0.0056686790254520088 0 0.0015871173082237105 -0.010513231535415292 0 0.0030729806886400386 -0.0047689214774655608 0 -0.0017204988088305047 -0.004086613785318668 0 -0.0017952864534184268 -0.0054203232774978436 0 -0.0069087003516003645 -0.0031220312712361533 0 -0.0017204988088305047 -0.004086613785318668 0 0.00012482689699843232 -0.00032083015095963816 0 -0.0062530980060764496 -0.00076481029885579752 0 0.0030729806886400386 -0.0047689214774655608 0 -0.0017204988088305047 -0.004086613785318668 0 0.00012482689699843232 -0.00032083015095963816 0 0.0030729806886400386 -0.0047689214774655608 0 0.00012482689699843232 -0.00032083015095963816 0 0.0090028060329766044 -0.0021334433705466186 0 0.00012482689699843232 -0.00032083015095963816 0 0.0090028060329766044 -0.0021334433705466186 0 0.0051452538140101516 0.0026212059632164746 0 0.013196840665462206 -0.0078171268851578973 0 0.008791043193826056 -0.0047155012026109909 0 0.01723466720287533 -0.01282295873172175 0 0.01764718272104248 -0.013102180435945741 0 0.017185289542616181 -0.01251690693040792 0 0.016958171814858074 -0.012914117160735383 0 0.01764718272104248 -0.013102180435945741 0 0.016562788956653255 -0.012285956043900731 0 0.01723466720287533 -0.01282295873172175 0 0.01764718272104248 -0.013102180435945741 0 0.016562788956653255 -0.012285956043900731 0 0.015349118212380849 -0.011458880784996824 0 0.01723466720287533 -0.01282295873172175 0 0.016562788956653255 -0.012285956043900731 0 0.016439986905716648 -0.01199610964699329 0 0.015349118212380849 -0.011458880784996824 0 0.016562788956653255 -0.012285956043900731 0 0.015243939825814115 -0.011259812491515257 0 0.013196840665462206 -0.0078171268851578973 0 0.015349118212380849 -0.011458880784996824 0 0.011557599696291231 -0.010884351477994365 0 0.0083211233358655746 -0.0083851794812709254 0 0.015349118212380849 -0.011458880784996824 0 0.0090028060329766044 -0.0021334433705466186 0 0.0083211233358655746 -0.0083851794812709254 0 -0.0094973248273827089 -0.00095245628662521398 0 -0.0098001156134540808 -0.00082264807096318242 0 -0.009119417786747774 -0.00072834935402150091 0 -0.0093128100546533716 -0.0008112839212789908 0 -0.0098001156134540808 -0.00082264807096318242 0 -0.009119417786747774 -0.00072834935402150091 0 -0.0094334185395063448 -0.00098983109595925231 0 -0.0098017677399045051 -0.0011208030667548816 0 -0.0083937282869368766 0.00020804160697490478 0 -0.009119417786747774 -0.00072834935402150091 0 -0.0088159543374884269 -0.00033370527381072453 0 -0.0083937282869368766 0.00020804160697490478 0 -0.0093128100546533716 -0.0008112839212789908 0 -0.009119417786747774 -0.00072834935402150091 0 -0.009119417786747774 -0.00072834935402150091 0 -0.0088159543374884269 -0.00033370527381072453 0 -0.0091812158221147439 -0.0010380361039983195 0 -0.0094973248273827089 -0.00095245628662521398 0 -0.009119417786747774 -0.00072834935402150091 0 -0.0091812158221147439 -0.0010380361039983195 0 -0.0091812158221147439 -0.0010380361039983195 0 -0.0090895215864212967 -0.0013597185950667025 0 -0.0089180601520074589 -0.0011857794869272317 0 -0.0091812158221147439 -0.0010380361039983195 0 -0.0089180601520074589 -0.0011857794869272317 0 -0.0093673897171460858 -0.0013532167315443108 0 -0.0086121528763443752 -0.0004236333525952377 0 -0.0091260544252800176 -0.00046552680456930773 0 -0.0088159543374884269 -0.00033370527381072453 0 -0.0091812158221147439 -0.0010380361039983195 0 -0.0090895215864212967 -0.0013597185950667025 0 -0.0084252958457578884 0.00044633868606141667 0 -0.0088159543374884269 -0.00033370527381072453 0 -0.0086614968209505969 5.0213671225812178e-05 0 -0.0070833612831312535 -0.0045554804822346201 0 -0.0091260544252800176 -0.00046552680456930773 0 -0.008931013117641497 0.00054542508275076901 0 -0.0096435336093602022 -0.00015076405402926889 0 -0.0086614968209505969 5.0213671225812178e-05 0 -0.0080162280223604748 -0.0020618345704134758 0 -0.0090895215864212967 -0.0013597185950667025 0 -0.0089180601520074589 -0.0011857794869272317 0 -0.0079393429335614576 -0.0018134904113908674 0 -0.0089180601520074589 -0.0011857794869272317 0 -0.0086812863737620264 -0.00053712738354967464 0 -0.0080162280223604748 -0.0020618345704134758 0 -0.0079393429335614576 -0.0018134904113908674 0 -0.0089180601520074589 -0.0011857794869272317 0 -0.0017204988088305047 -0.004086613785318668 0 -0.0055535048819814713 -0.0056686790254520088 0 -0.0062530980060764496 -0.00076481029885579752 0 -0.0055535048819814713 -0.0056686790254520088 0 -0.0062530980060764496 -0.00076481029885579752 0 -0.0093673897171460858 -0.0013532167315443108 0 -0.0062530980060764496 -0.00076481029885579752 0 -0.0088419788448515346 -4.7009658175095591e-05 0 -0.0093673897171460858 -0.0013532167315443108 0 -0.0089180601520074589 -0.0011857794869272317 0 -0.0086812863737620264 -0.00053712738354967464 0 -0.0093673897171460858 -0.0013532167315443108 0 -0.0069087003516003645 -0.0031220312712361533 0 -0.0091152510353303857 -0.0016343463221392856 0 -0.0094973248273827089 -0.00095245628662521398 0 -0.0091812158221147439 -0.0010380361039983195 0 -0.0093673897171460858 -0.0013532167315443108 0 -0.0094973248273827089 -0.00095245628662521398 0 -0.0093673897171460858 -0.0013532167315443108 0 -0.010361577552046339 -0.00036507768385230432 0 -0.0088419788448515346 -4.7009658175095591e-05 0 -0.0093673897171460858 -0.0013532167315443108 0 -0.01021800648654194 0.00037322530062202741 0 -0.0093673897171460858 -0.0013532167315443108 0 -0.010361577552046339 -0.00036507768385230432 0 -0.01021800648654194 0.00037322530062202741 0 -0.01145047331690487 0.0010138653554824678 0 -0.010361577552046339 -0.00036507768385230432 0 -0.01021800648654194 0.00037322530062202741 0 -0.0094973248273827089 -0.00095245628662521398 0 -0.0098001156134540808 -0.00082264807096318242 0 -0.010361577552046339 -0.00036507768385230432 0 -0.01145047331690487 0.0010138653554824678 0 -0.011383361632022615 0.0021185999876681622 0 -0.01021800648654194 0.00037322530062202741 0 -0.0088419788448515346 -4.7009658175095591e-05 0 -0.01021800648654194 0.00037322530062202741 0 -0.0089833798466986033 0.0015907473188232599 0 -0.011383361632022615 0.0021185999876681622 0 -0.01021800648654194 0.00037322530062202741 0 -0.0089833798466986033 0.0015907473188232599 0 -0.011383361632022615 0.0021185999876681622 0 -0.0095332898899694214 0.0029943318846783022 0 -0.011606603892074487 0.0033292629082978271 0 -0.011383361632022615 0.0021185999876681622 0 -0.0095332898899694214 0.0029943318846783022 0 -0.0089833798466986033 0.0015907473188232599 0 -0.0095332898899694214 0.0029943318846783022 0 -0.0089833798466986033 0.0015907473188232599 0 -0.0050317115944805563 0.0028496902755541405 0 -0.0095332898899694214 0.0029943318846783022 0 -0.0050317115944805563 0.0028496902755541405 0 -0.0082898431474450578 0.0048432736663816204 0 -0.0062530980060764496 -0.00076481029885579752 0 -0.0088419788448515346 -4.7009658175095591e-05 0 -0.0089833798466986033 0.0015907473188232599 0 -0.0062530980060764496 -0.00076481029885579752 0 -0.0089833798466986033 0.0015907473188232599 0 -0.0050317115944805563 0.0028496902755541405 0 -0.0070556979551188543 0.0063872012286302505 0 -0.010914688753959964 0.012700092137349381 0 -0.0052929941525809857 0.010757692662412787 0 -0.0059508511432286668 0.0051599867099227882 0 -0.012015853086359642 0.0061496200262208933 0 -0.016439196266377912 -0.0018559057607471423 0 -0.016773424987503439 -0.0020791762902410767 0 -0.016581356781103698 -0.0018922427274607478 0 -0.010914688753959964 0.012700092137349381 0 -0.012160911438269138 0.014375102081807055 0 -0.0055756369108595416 0.01534090995218779 0 -0.014209497114930266 0.0057729258081288407 0 -0.005271057712416297 0.00017595827593190098 0 -0.0070556979551188543 0.0063872012286302505 0 -0.010914688753959964 0.012700092137349381 0 -0.014422853288701602 0.013879776253257318 0 -0.010914688753959964 0.012700092137349381 0 -0.0052929941525809857 0.010757692662412787 0 -0.0055756369108595416 0.01534090995218779 0 -0.010914688753959964 0.012700092137349381 0 -0.011957478257320523 0.014332953816792848 0 -0.014422853288701602 0.013879776253257318 0 -0.014562661204181227 0.0091829814881476419 0 -0.014209497114930266 0.0057729258081288407 0 -0.016773424987503439 -0.0020791762902410767 0 -0.016581356781103698 -0.0018922427274607478 0 -0.017545451736736564 -0.0025696355433536405 0 -0.016773424987503439 -0.0020791762902410767 0 -0.016926410704700114 -0.0023320305046260334 0 -0.017545451736736564 -0.0025696355433536405 0 -0.016439196266377912 -0.0018559057607471423 0 -0.016773424987503439 -0.0020791762902410767 0 -0.016726915244326564 -0.0021736291640714342 0 -0.016773424987503439 -0.0020791762902410767 0 -0.016926410704700114 -0.0023320305046260334 0 -0.016726915244326564 -0.0021736291640714342 0 -0.012015853086359642 0.0061496200262208933 0 -0.013596592180046704 0.0012958035718987923 0 -0.016439196266377912 -0.0018559057607471423 0 -0.016726915244326564 -0.0021736291640714342 0 -0.016743866190407148 -0.0024342288399882856 0 -0.014237969765641604 0.0031857068820318104 0 -0.012980767557413137 0.0026250531369726299 0 -0.013364426284915626 0.0017552739808064904 0 -0.014030235637412387 0.001450155494881104 0 -0.014452627346059404 0.0031465722986142239 0 -0.013364426284915626 0.0017552739808064904 0 -0.014209497114930266 0.0057729258081288407 0 -0.015343636141093015 -0.0013549553891935081 0 -0.01494700560746345 0.0030742518929279023 0 -0.014030235637412387 0.001450155494881104 0 -0.014452627346059404 0.0031465722986142239 0 -0.016926410704700114 -0.0023320305046260334 0 -0.016743866190407148 -0.0024342288399882856 0 -0.017104094200335224 -0.0026258378086361726 0 -0.016926410704700114 -0.0023320305046260334 0 -0.016726915244326564 -0.0021736291640714342 0 -0.016743866190407148 -0.0024342288399882856 0 -0.014237969765641604 0.0031857068820318104 0 -0.011606603892074487 0.0033292629082978271 0 -0.012980767557413137 0.0026250531369726299 0 -0.0095332898899694214 0.0029943318846783022 0 -0.0082898431474450578 0.0048432736663816204 0 -0.011606603892074487 0.0033292629082978271 0 -0.012015853086359642 0.0061496200262208933 0 -0.011343461080387038 0.0033062784518244539 0 -0.014209497114930266 0.0057729258081288407 0 -0.012015853086359642 0.0061496200262208933 0 -0.011606603892074487 0.0033292629082978271 0 -0.012617198058726202 0.0024491620214191121 0 -0.012478392848495798 0.0021891419585887482 0 -0.011606603892074487 0.0033292629082978271 0 -0.012980767557413137 0.0026250531369726299 0 -0.012617198058726202 0.0024491620214191121 0 -0.012980767557413137 0.0026250531369726299 0 -0.012617198058726202 0.0024491620214191121 0 -0.013364426284915626 0.0017552739808064904 0 -0.014030235637412387 0.001450155494881104 0 -0.013364426284915626 0.0017552739808064904 0 -0.013493274954717043 0.0012355667166122138 0 -0.013364426284915626 0.0017552739808064904 0 -0.012478392848495798 0.0021891419585887482 0 -0.013493274954717043 0.0012355667166122138 0 -0.012617198058726202 0.0024491620214191121 0 -0.013364426284915626 0.0017552739808064904 0 -0.012478392848495798 0.0021891419585887482 0 -0.012478392848495798 0.0021891419585887482 0 -0.012158457165143877 0.0022697376650716262 0 -0.011906969439334832 0.0027041736874953825 0 -0.012478392848495798 0.0021891419585887482 0 -0.012408406400984517 0.001753569182187012 0 -0.012856401755767976 0.0013872489003563342 0 -0.012478392848495798 0.0021891419585887482 0 -0.012856401755767976 0.0013872489003563342 0 -0.013493274954717043 0.0012355667166122138 0 -0.012478392848495798 0.0021891419585887482 0 -0.012408406400984517 0.001753569182187012 0 -0.012158457165143877 0.0022697376650716262 0 -0.012024423402868606 0.0023593476673267268 0 -0.011383361632022615 0.0021185999876681622 0 -0.011906969439334832 0.0027041736874953825 0 -0.012024423402868606 0.0023593476673267268 0 -0.012158457165143877 0.0022697376650716262 0 -0.011906969439334832 0.0027041736874953825 0 -0.011383361632022615 0.0021185999876681622 0 -0.011606603892074487 0.0033292629082978271 0 -0.011906969439334832 0.0027041736874953825 0 -0.011606603892074487 0.0033292629082978271 0 -0.012478392848495798 0.0021891419585887482 0 -0.011906969439334832 0.0027041736874953825 0 0.016979025844087704 -0.011918417823922094 0 0.016633031581286227 -0.012468596944391955 0 0.016483876251504322 -0.011124829027984803 0 0.016979025844087704 -0.011918417823922094 0 0.017582537577242256 -0.011389617474043006 0 0.017185289542616181 -0.01251690693040792 0 0.016979025844087704 -0.011918417823922094 0 0.017582537577242256 -0.011389617474043006 0 0.016483876251504322 -0.011124829027984803 0 0.018124276719022774 -0.016213884464453199 0 0.019377152655397002 -0.015786701078843533 0 0.018740294357403698 -0.017030786531491857 0 0.018124276719022774 -0.016213884464453199 0 0.017301887998629709 -0.014597833113011278 0 0.019377152655397002 -0.015786701078843533 0 0.01764718272104248 -0.013102180435945741 0 0.017582537577242256 -0.011389617474043006 0 0.017185289542616181 -0.01251690693040792 0 0.017301887998629709 -0.014597833113011278 0 0.01764718272104248 -0.013102180435945741 0 0.019377152655397002 -0.015786701078843533 0 0.017778948148520081 -0.013124144061161143 0 0.018483564476730708 -0.013624734160586623 0 0.017301887998629709 -0.014597833113011278 0 0.016958171814858074 -0.012914117160735383 0 0.01764718272104248 -0.013102180435945741 0 0.01723466720287533 -0.01282295873172175 0 0.017185289542616181 -0.01251690693040792 0 0.016633031581286227 -0.012468596944391955 0 0.016979025844087704 -0.011918417823922094 0 0.017185289542616181 -0.01251690693040792 0 0.016633031581286227 -0.012468596944391955 0 0.00012482689699843232 -0.00032083015095963816 0 0.0051452538140101516 0.0026212059632164746 0 0.0034503311581177074 0.0049345560088335542 0 0.00012482689699843232 -0.00032083015095963816 0 0.0034503311581177074 0.0049345560088335542 0 -0.0016465744496738219 0.0072192493090849422 0 0.008791043193826056 -0.0047155012026109909 0 0.0036359579459182179 0.0038124717326213403 0 -0.00026231519712269588 -0.00043174961463414207 0 -0.0059508511432286668 0.0051599867099227882 0 0.00012482689699843232 -0.00032083015095963816 0 -0.0070556979551188543 0.0063872012286302505 0 -0.0016465744496738219 0.0072192493090849422 0 0.00012482689699843232 -0.00032083015095963816 0 -0.0062530980060764496 -0.00076481029885579752 0 -0.0050317115944805563 0.0028496902755541405 0 -0.0016465744496738219 0.0072192493090849422 0 -0.0052929941525809857 0.010757692662412787 0 -0.0014618057057593093 0.012375173024077498 0 -0.0070556979551188543 0.0063872012286302505 0 -0.0016465744496738219 0.0072192493090849422 0 -0.0052929941525809857 0.010757692662412787 0 0.0036359579459182179 0.0038124717326213403 0 -0.0011500060980516485 0.011849371648572821 0 0.0034503311581177074 0.0049345560088335542 0 -0.0016465744496738219 0.0072192493090849422 0 -0.0014618057057593093 0.012375173024077498 0 0.0035902383355949216 0.0024811829626773395 0 0.0060010958426787156 0.0084912793865796581 0 -0.0014618057057593093 0.012375173024077498 0 0.005274418244240707 -0.00066177670452368135 0 0.0035902383355949216 0.0024811829626773395 0 0.0060010958426787156 0.0084912793865796581 0 0.008791043193826056 -0.0047155012026109909 0 0.011685421681199994 -0.00043002032925649005 0 0.0060010958426787156 0.0084912793865796581 0 -0.0014618057057593093 0.012375173024077498 0 0.0064006941810175648 0.017094489633466884 0 -0.005271057712416297 0.00017595827593190098 0 0.0076023527785332367 -0.0022845181433312095 0 -0.0014618057057593093 0.012375173024077498 0 -0.0055756369108595416 0.01534090995218779 0 0.0064006941810175648 0.017094489633466884 0 -0.0052929941525809857 0.010757692662412787 0 -0.0014618057057593093 0.012375173024077498 0 -0.0055756369108595416 0.01534090995218779 0 -0.005271057712416297 0.00017595827593190098 0 -0.0076544345493062618 -0.0068390926543548365 0 0.0021152160722929282 -0.008607005595276997 0 0.0022662949018090735 -0.008565348278995296 0 0.0021952641531717354 -0.0085598438187513004 0 0.0021152160722929282 -0.008607005595276997 0 0.0023099646113418841 -0.0085689260316173625 0 0.0022662949018090735 -0.008565348278995296 0 0.0023099646113418841 -0.0085689260316173625 0 0.0022919164181885244 -0.0086186320028248213 0 0.0022861251393442804 -0.0086005870835195956 0 0.0023099646113418841 -0.0085689260316173625 0 0.0022662949018090735 -0.008565348278995296 0 0.0022861251393442804 -0.0086005870835195956 0 0.00011718376734822953 -0.0074946123694704225 0 0.010520071116092938 -0.014018670533260018 0 0.0021152160722929282 -0.008607005595276997 0 0.0023099646113418841 -0.0085689260316173625 0 0.0026711955208277025 -0.0086069082844016775 0 0.0023099646113418841 -0.0085689260316173625 0 0.0026711955208277025 -0.0086069082844016775 0 0.0027781897438068103 -0.0082688249581929774 0 0.021164752222284467 -0.01909100529500201 0 0.020458924035375227 -0.019977359557609476 0 0.021470559297096115 -0.020217659498859494 0 0.017897380470757 -0.013585373414686536 0 0.010520071116092938 -0.014018670533260018 0 0.0076023527785332367 -0.0022845181433312095 0 0.010520071116092938 -0.014018670533260018 0 0.0098942242033511468 -0.0080625806766443497 0 0.011827611250380758 -0.0077520869542097434 0 0.01132249182602758 -0.013267975534393536 0 0.017897380470757 -0.013585373414686536 0 0.0076023527785332367 -0.0022845181433312095 0 0.011685421681199994 -0.00043002032925649005 0 0.0076023527785332367 -0.0022845181433312095 0 0.017582537577242256 -0.011389617474043006 0 0.016483876251504322 -0.011124829027984803 0 0.017054411104229499 -0.0094855145023839613 0 0.016483876251504322 -0.011124829027984803 0 0.017054411104229499 -0.0094855145023839613 0 0.016519866340117682 -0.0095432998759274433 0 0.018483564476730708 -0.013624734160586623 0 0.017897380470757 -0.013585373414686536 0 0.019377152655397002 -0.015786701078843533 0 0.019958212676142922 -0.017795222714217143 0 0.018740294357403698 -0.017030786531491857 0 0.019635981464137454 -0.019318409272430274 0 0.021164752222284467 -0.01909100529500201 0 0.020458924035375227 -0.019977359557609476 0 0.01821492980980767 -0.018140088577404775 0 0.019958212676142922 -0.017795222714217143 0 0.018740294357403698 -0.017030786531491857 0 0.019421367333092833 -0.019356063909562113 0 0.017897380470757 -0.013585373414686536 0 0.020458924035375227 -0.019977359557609476 0 0.020589417720571525 -0.021147289403889224 0 0.019769296132491794 -0.020930766769244907 0 0.015962482973527686 -0.018274581572664518 0 0.016009720311548462 -0.01834964514214869 0 0.015942656506857687 -0.018353420671178476 0 0.020589417720571525 -0.021147289403889224 0 0.019769296132491794 -0.020930766769244907 0 0.019672201537545678 -0.02200710204792836 0 0.018960617005338149 -0.019604246650383978 0 0.018670902437114317 -0.021870639682744959 0 0.010824126849889613 -0.0147497312162939 0 0.010937667841092883 -0.012854988551149948 0 0.011504024744675096 -0.014864896295410027 0 0.010146536252164055 -0.013626317560739206 0 0.0065382514618758268 -0.010478461406835541 0 0.015962482973527686 -0.018274581572664518 0 0.016007379650280696 -0.018273824712518583 0 0.016009720311548462 -0.01834964514214869 0 0.013397226710358277 -0.016378731687042465 0 0.015908046103430603 -0.020230807075393806 0 0.010824126849889613 -0.0147497312162939 0 0.011504024744675096 -0.014864896295410027 0 0.010717678409913473 -0.016673264367631349 0 0.015962482973527686 -0.018274581572664518 0 0.016007379650280696 -0.018273824712518583 0 0.015985237955655696 -0.018163848105815755 0 0.020458924035375227 -0.019977359557609476 0 0.020589417720571525 -0.021147289403889224 0 0.021470559297096115 -0.020217659498859494 0 0.013397226710358277 -0.016378731687042465 0 0.010146536252164055 -0.013626317560739206 0 0.015962482973527686 -0.018274581572664518 0 0.015985237955655696 -0.018163848105815755 0 0.01597989078071279 -0.018153230528753391 0 0.018960617005338149 -0.019604246650383978 0 0.010520071116092938 -0.014018670533260018 0 0.010146536252164055 -0.013626317560739206 0 0.010520071116092938 -0.014018670533260018 0 0.0022920652872027644 -0.0086205604410768393 0 0.0022804952059108543 -0.0086145771141773429 0 0.0022650122971512999 -0.0086361793623121776 0 0.0022920652872027644 -0.0086205604410768393 0 0.0022919164181885244 -0.0086186320028248213 0 0.0022861251393442804 -0.0086005870835195956 0 0.0022662949018090735 -0.008565348278995296 0 0.0022861251393442804 -0.0086005870835195956 0 0.0022668814339154601 -0.0085997966253939795 0 0.0022861251393442804 -0.0086005870835195956 0 0.0022804952059108543 -0.0086145771141773429 0 0.0022668814339154601 -0.0085997966253939795 0 0.0022804952059108543 -0.0086145771141773429 0 0.0022668814339154601 -0.0085997966253939795 0 0.0022864734636393615 -0.0086238842949267289 0 0.0022920652872027644 -0.0086205604410768393 0 0.0022861251393442804 -0.0086005870835195956 0 0.0022804952059108543 -0.0086145771141773429 0 0.0022668814339154601 -0.0085997966253939795 0 0.0022400765238381362 -0.0086183169613858936 0 0.0021952641531717354 -0.0085598438187513004 0 0.0022662949018090735 -0.008565348278995296 0 0.0022668814339154601 -0.0085997966253939795 0 0.0021952641531717354 -0.0085598438187513004 0 0.0022400765238381362 -0.0086183169613858936 0 0.0021952641531717354 -0.0085598438187513004 0 0.002166763093631579 -0.0086084373549102679 0 0.0022668814339154601 -0.0085997966253939795 0 0.0022400765238381362 -0.0086183169613858936 0 0.0022864734636393615 -0.0086238842949267289 0 0.0022400765238381362 -0.0086183169613858936 0 0.0023229123460735391 -0.0086635695642130264 0 0.0022238524801848135 -0.0086048833530999805 0 0.0022400765238381362 -0.0086183169613858936 0 0.0022238524801848135 -0.0086048833530999805 0 0.002166763093631579 -0.0086084373549102679 0 0.0023229123460735391 -0.0086635695642130264 0 0.0022650122971512999 -0.0086361793623121776 0 0.0023039433511449717 -0.0088879790805342432 0 0.0022804952059108543 -0.0086145771141773429 0 0.0022864734636393615 -0.0086238842949267289 0 0.0022650122971512999 -0.0086361793623121776 0 0.0022400765238381362 -0.0086183169613858936 0 0.0022864734636393615 -0.0086238842949267289 0 0.0023229123460735391 -0.0086635695642130264 0 0.0022864734636393615 -0.0086238842949267289 0 0.0023229123460735391 -0.0086635695642130264 0 0.0022650122971512999 -0.0086361793623121776 0 0.0065382514618758268 -0.010478461406835541 0 0.010759776092452281 -0.016344318223015294 0 0.011504024744675096 -0.014864896295410027 0 0.012078002410374709 -0.016905826234302472 0 0.010717678409913473 -0.016673264367631349 0 0.0029640305457970346 -0.0075188570746266073 0 0.0056388233461387872 -0.013818198426995169 0 0.0023229123460735391 -0.0086635695642130264 0 0.0024007142709593279 -0.0089162735264193167 0 0.0023039433511449717 -0.0088879790805342432 0 0.0056388233461387872 -0.013818198426995169 0 0.010759776092452281 -0.016344318223015294 0 0.01109723660963724 -0.016241307779747385 0 0.0093312387184163476 -0.015932010024271828 0 0.0099928549959774071 -0.018311177794304197 0 0.010759776092452281 -0.016344318223015294 0 0.014821578273821199 -0.022374879325838221 0 0.010759776092452281 -0.016344318223015294 0 0.015908046103430603 -0.020230807075393806 0 0.018255255649481085 -0.025054131958735144 0 0.018235160523449735 -0.025090393752673135 0 0.018107597599677859 -0.024917356776437118 0 0.018282937686138836 -0.025065735840767323 0 0.018255255649481085 -0.025054131958735144 0 0.018291649182597132 -0.025065302034569869 0 0.01829756065036495 -0.025077347964925851 0 0.018235160523449735 -0.025090393752673135 0 0.018322531302956028 -0.025095468629295934 0 0.016773795931078226 -0.024604002355852875 0 0.014821578273821199 -0.022374879325838221 0 0.018282937686138836 -0.025065735840767323 0 0.01829756065036495 -0.025077347964925851 0 0.018255255649481085 -0.025054131958735144 0 0.018282937686138836 -0.025065735840767323 0 0.01829756065036495 -0.025077347964925851 0 0.018306676961803315 -0.025076020099995461 0 0.01829756065036495 -0.025077347964925851 0 0.018255255649481085 -0.025054131958735144 0 0.018235160523449735 -0.025090393752673135 0 0.0023186706850521375 -0.0085687853676949203 0 0.0022238524801848135 -0.0086048833530999805 0 0.0020957772734333047 -0.0085331892709159026 0 0.0056388233461387872 -0.013818198426995169 0 -0.0031562471320697332 -0.010420856534149231 0 0.0023229123460735391 -0.0086635695642130264 0 0.0023186706850521375 -0.0085687853676949203 0 0.0022238524801848135 -0.0086048833530999805 0 0.0030556476731077469 -0.016474575640566261 0 0.0031396294159053524 -0.016492253435365936 0 0.00306684787686195 -0.016471806109125301 0 0.017514182565380062 -0.02232379543683077 0 0.01757457634743537 -0.023123352510898067 0 0.018520657320042402 -0.023752104243425363 0 0.0031378346760986622 -0.016522528241771049 0 0.0030556476731077469 -0.016474575640566261 0 0.0029868715856501225 -0.016468217571212074 0 0.011996045870517988 -0.019740934048939979 0 0.010395122857722797 -0.019711633423111531 0 0.0031378346760986622 -0.016522528241771049 0 0.0030556476731077469 -0.016474575640566261 0 0.0031396294159053524 -0.016492253435365936 0 0.018300101038228728 -0.025071330585020205 0 0.018291649182597132 -0.025065302034569869 0 0.018305944422703002 -0.025068022332169853 0 0.018300101038228728 -0.025071330585020205 0 0.018305944422703002 -0.025068022332169853 0 0.018321732622005763 -0.025075057646032 0 0.018306676961803315 -0.025076020099995461 0 0.018300101038228728 -0.025071330585020205 0 0.018321732622005763 -0.025075057646032 0 0.018282937686138836 -0.025065735840767323 0 0.018306676961803315 -0.025076020099995461 0 0.018300101038228728 -0.025071330585020205 0 0.018282937686138836 -0.025065735840767323 0 0.018300101038228728 -0.025071330585020205 0 0.018291649182597132 -0.025065302034569869 0 0.014642706159300476 -0.021023657041663184 0 0.015215828735765418 -0.021884304885762141 0 0.015271438974372272 -0.023311865911493982 0 0.01109723660963724 -0.016241307779747385 0 0.0099928549959774071 -0.018311177794304197 0 0.011268478710887889 -0.020213878549310241 0 0.014821578273821199 -0.022374879325838221 0 0.011996045870517988 -0.019740934048939979 0 0.0056388233461387872 -0.013818198426995169 0 0.011996045870517988 -0.019740934048939979 0 0.018291649182597132 -0.025065302034569869 0 0.018305944422703002 -0.025068022332169853 0 0.018307205657310796 -0.025063568356831382 0 0.018305944422703002 -0.025068022332169853 0 0.018320804056209998 -0.025066379073003978 0 0.018307205657310796 -0.025063568356831382 0 0.011996045870517988 -0.019740934048939979 0 0.016881896727148491 -0.024059769928860223 0 0.014821578273821199 -0.022374879325838221 0 0.016881896727148491 -0.024059769928860223 0 0.018305944422703002 -0.025068022332169853 0 0.018321732622005763 -0.025075057646032 0 0.018320804056209998 -0.025066379073003978 0 0.018321732622005763 -0.025075057646032 0 0.018343828923329419 -0.025072760644677443 0 0.018320804056209998 -0.025066379073003978 0 0.018321732622005763 -0.025075057646032 0 0.018343828923329419 -0.025072760644677443 0 0.018362050618973402 -0.025085683498427668 0 0.018343828923329419 -0.025072760644677443 0 0.018362050618973402 -0.025085683498427668 0 0.018375983912706957 -0.025076536806452995 0 0.018306676961803315 -0.025076020099995461 0 0.018321732622005763 -0.025075057646032 0 0.018340096742902566 -0.02508929620071193 0 0.018321732622005763 -0.025075057646032 0 0.018340096742902566 -0.02508929620071193 0 0.018362050618973402 -0.025085683498427668 0 0.018306676961803315 -0.025076020099995461 0 0.018340096742902566 -0.02508929620071193 0 0.018316990016575392 -0.025085045570177242 0 0.018340096742902566 -0.02508929620071193 0 0.018383796212645132 -0.025101296156826238 0 0.018362050618973402 -0.025085683498427668 0 0.018340096742902566 -0.02508929620071193 0 0.018383796212645132 -0.025101296156826238 0 0.018385165093627306 -0.025119797689911221 0 0.018362050618973402 -0.025085683498427668 0 0.018406354393688564 -0.025096490202875622 0 0.018375983912706957 -0.025076536806452995 0 0.018383796212645132 -0.025101296156826238 0 0.018362050618973402 -0.025085683498427668 0 0.018406354393688564 -0.025096490202875622 0 0.018438229027752842 -0.025124443830578214 0 0.018460291945728399 -0.025104975128663186 0 0.018512693438992023 -0.025140910613388918 0 0.018406354393688564 -0.025096490202875622 0 0.018438229027752842 -0.025124443830578214 0 0.018460291945728399 -0.025104975128663186 0 0.018383796212645132 -0.025101296156826238 0 0.018438229027752842 -0.025124443830578214 0 0.018385165093627306 -0.025119797689911221 0 0.018383796212645132 -0.025101296156826238 0 0.018406354393688564 -0.025096490202875622 0 0.018438229027752842 -0.025124443830578214 0 0.015908046103430603 -0.020230807075393806 0 0.018670902437114317 -0.021870639682744959 0 0.018438229027752842 -0.025124443830578214 0 0.018487804815344865 -0.025180905330790829 0 0.018504610258552309 -0.025152039408072622 0 0.018325468193080743 -0.025124154646635206 0 0.018385165093627306 -0.025119797689911221 0 0.018487804815344865 -0.025180905330790829 0 0.018438229027752842 -0.025124443830578214 0 0.018385165093627306 -0.025119797689911221 0 0.018487804815344865 -0.025180905330790829 0 0.018325468193080743 -0.025124154646635206 0 0.018326008632890939 -0.025097231262148387 0 0.018385165093627306 -0.025119797689911221 0 0.015908046103430603 -0.020230807075393806 0 0.016235467121374452 -0.022722581127283929 0 0.01829756065036495 -0.025077347964925851 0 0.018322531302956028 -0.025095468629295934 0 0.018326008632890939 -0.025097231262148387 0 0.01829756065036495 -0.025077347964925851 0 0.018306676961803315 -0.025076020099995461 0 0.018316990016575392 -0.025085045570177242 0 0.01829756065036495 -0.025077347964925851 0 0.018316990016575392 -0.025085045570177242 0 0.018326008632890939 -0.025097231262148387 0 0.018340096742902566 -0.02508929620071193 0 0.018316990016575392 -0.025085045570177242 0 0.018326008632890939 -0.025097231262148387 0 0.018340096742902566 -0.02508929620071193 0 0.018326008632890939 -0.025097231262148387 0 0.018385165093627306 -0.025119797689911221 0 -0.013319105538934261 0.00018547856663355677 0 -0.014611958094834201 -8.8043463025876874e-05 0 -0.01480418916621762 -0.0040979790010399987 0 -0.012810605055849758 -0.0016773987301486849 0 -0.013319105538934261 0.00018547856663355677 0 -0.01480418916621762 -0.0040979790010399987 0 -0.012422283108853219 6.5036355917642261e-05 0 -0.012810605055849758 -0.0016773987301486849 0 -0.013319105538934261 0.00018547856663355677 0 -0.012422283108853219 6.5036355917642261e-05 0 -0.012494161074204636 0.0011321802043980349 0 -0.013319105538934261 0.00018547856663355677 0 -0.012494161074204636 0.0011321802043980349 0 -0.013319105538934261 0.00018547856663355677 0 -0.012856401755767976 0.0013872489003563342 0 -0.012494161074204636 0.0011321802043980349 0 -0.012408406400984517 0.001753569182187012 0 -0.012856401755767976 0.0013872489003563342 0 -0.013319105538934261 0.00018547856663355677 0 -0.012856401755767976 0.0013872489003563342 0 -0.013493274954717043 0.0012355667166122138 0 -0.013319105538934261 0.00018547856663355677 0 -0.013493274954717043 0.0012355667166122138 0 -0.014611958094834201 -8.8043463025876874e-05 0 -0.014030235637412387 0.001450155494881104 0 -0.013493274954717043 0.0012355667166122138 0 -0.014611958094834201 -8.8043463025876874e-05 0 -0.015343636141093015 -0.0013549553891935081 0 -0.015408243770965373 -0.0017611389859248656 0 -0.016289248260048034 -0.0034121096361602625 0 -0.017342930423420923 -0.0041918135488304481 0 -0.016451918890602584 -0.0044585006852381802 0 -0.015408243770965373 -0.0017611389859248656 0 -0.014655469439218933 -0.0040945746291847114 0 -0.016289248260048034 -0.0034121096361602625 0 -0.017342930423420923 -0.0041918135488304481 0 -0.017280199722335628 -0.0031965805759216941 0 -0.016743866190407148 -0.0024342288399882856 0 -0.017280199722335628 -0.0031965805759216941 0 -0.017104094200335224 -0.0026258378086361726 0 -0.016743866190407148 -0.0024342288399882856 0 -0.016289248260048034 -0.0034121096361602625 0 -0.017280199722335628 -0.0031965805759216941 0 -0.017280199722335628 -0.0031965805759216941 0 -0.017545451736736564 -0.0025696355433536405 0 -0.018402052991436799 -0.0038159931256708142 0 -0.0076544345493062618 -0.0068390926543548365 0 -0.0085859148273171818 -0.0053586337843337904 0 -0.017280199722335628 -0.0031965805759216941 0 -0.017104094200335224 -0.0026258378086361726 0 -0.017545451736736564 -0.0025696355433536405 0 -0.016926410704700114 -0.0023320305046260334 0 -0.017104094200335224 -0.0026258378086361726 0 -0.017545451736736564 -0.0025696355433536405 0 -0.017342930423420923 -0.0041918135488304481 0 -0.017280199722335628 -0.0031965805759216941 0 -0.018402052991436799 -0.0038159931256708142 0 -0.017342930423420923 -0.0041918135488304481 0 -0.018402052991436799 -0.0038159931256708142 0 -0.018306909349941027 -0.0053036409106207265 0 -0.018402052991436799 -0.0038159931256708142 0 -0.018306909349941027 -0.0053036409106207265 0 -0.019192693584301163 -0.0060255831102970477 0 0.0022238524801848135 -0.0086048833530999805 0 0.002166763093631579 -0.0086084373549102679 0 0.0020957772734333047 -0.0085331892709159026 0 -0.0085859148273171818 -0.0053586337843337904 0 -0.0031562471320697332 -0.010420856534149231 0 -0.018306909349941027 -0.0053036409106207265 0 -0.018422264364196334 -0.0060984064141228148 0 -0.019192693584301163 -0.0060255831102970477 0 -0.019192693584301163 -0.0060255831102970477 0 -0.018546162137914827 -0.0072133969853982825 0 -0.019193882101241917 -0.0096764584570750156 0 -0.0031562471320697332 -0.010420856534149231 0 -0.0099527613887235734 -0.012242106055918861 0 0.0030556476731077469 -0.016474575640566261 0 0.0029868715856501225 -0.016468217571212074 0 0.0029967172158153529 -0.016458514950938672 0 -0.018422264364196334 -0.0060984064141228148 0 -0.019192693584301163 -0.0060255831102970477 0 -0.018546162137914827 -0.0072133969853982825 0 -0.018546162137914827 -0.0072133969853982825 0 -0.017992480054691059 -0.0063469782524605564 0 -0.017599394512656248 -0.007363758966771587 0 -0.018422264364196334 -0.0060984064141228148 0 -0.018546162137914827 -0.0072133969853982825 0 -0.017992480054691059 -0.0063469782524605564 0 -0.018546162137914827 -0.0072133969853982825 0 -0.017599394512656248 -0.007363758966771587 0 -0.017972603279632775 -0.0086695084648152898 0 -0.017599394512656248 -0.007363758966771587 0 -0.017090961293037932 -0.0083322715427372983 0 -0.017972603279632775 -0.0086695084648152898 0 -0.017992480054691059 -0.0063469782524605564 0 -0.017599394512656248 -0.007363758966771587 0 -0.017193364845424292 -0.0062151769298830215 0 -0.017599394512656248 -0.007363758966771587 0 -0.017193364845424292 -0.0062151769298830215 0 -0.016620929342640464 -0.0074595204889064196 0 -0.017193364845424292 -0.0062151769298830215 0 -0.017570883756058822 -0.0053917556717893913 0 -0.016451918890602584 -0.0044585006852381802 0 -0.017992480054691059 -0.0063469782524605564 0 -0.017193364845424292 -0.0062151769298830215 0 -0.017570883756058822 -0.0053917556717893913 0 -0.018306909349941027 -0.0053036409106207265 0 -0.017570883756058822 -0.0053917556717893913 0 -0.018072431120895537 -0.0057826850858581748 0 -0.017992480054691059 -0.0063469782524605564 0 -0.017570883756058822 -0.0053917556717893913 0 -0.018072431120895537 -0.0057826850858581748 0 -0.018306909349941027 -0.0053036409106207265 0 -0.018422264364196334 -0.0060984064141228148 0 -0.018072431120895537 -0.0057826850858581748 0 -0.018422264364196334 -0.0060984064141228148 0 -0.017992480054691059 -0.0063469782524605564 0 -0.018072431120895537 -0.0057826850858581748 0 -0.017342930423420923 -0.0041918135488304481 0 -0.018306909349941027 -0.0053036409106207265 0 -0.017570883756058822 -0.0053917556717893913 0 -0.017342930423420923 -0.0041918135488304481 0 -0.017570883756058822 -0.0053917556717893913 0 -0.016451918890602584 -0.0044585006852381802 0 -0.016289248260048034 -0.0034121096361602625 0 -0.016451918890602584 -0.0044585006852381802 0 -0.01480418916621762 -0.0040979790010399987 0 -0.016451918890602584 -0.0044585006852381802 0 -0.016310673156554056 -0.0056580905592536288 0 -0.01480418916621762 -0.0040979790010399987 0 -0.017193364845424292 -0.0062151769298830215 0 -0.016451918890602584 -0.0044585006852381802 0 -0.016310673156554056 -0.0056580905592536288 0 -0.016310673156554056 -0.0056580905592536288 0 -0.015087668275829403 -0.0081577568300709221 0 -0.01480418916621762 -0.0040979790010399987 0 -0.017193364845424292 -0.0062151769298830215 0 -0.016310673156554056 -0.0056580905592536288 0 -0.016620929342640464 -0.0074595204889064196 0 -0.017599394512656248 -0.007363758966771587 0 -0.016620929342640464 -0.0074595204889064196 0 -0.017090961293037932 -0.0083322715427372983 0 -0.016620929342640464 -0.0074595204889064196 0 -0.016112961877440025 -0.0088661886545752713 0 -0.017090961293037932 -0.0083322715427372983 0 -0.016620929342640464 -0.0074595204889064196 0 -0.015087668275829403 -0.0081577568300709221 0 -0.016112961877440025 -0.0088661886545752713 0 -0.016310673156554056 -0.0056580905592536288 0 -0.016620929342640464 -0.0074595204889064196 0 -0.015087668275829403 -0.0081577568300709221 0 -0.014995844799654462 -0.0095369448782977907 0 -0.015118912850135035 -0.01022512544291517 0 -0.015087668275829403 -0.0081577568300709221 0 -0.01356027845177653 -0.0066863158950524826 0 -0.015117776921460775 -0.0081292612581322556 0 -0.011381170626587769 -0.0028897695459257195 0 -0.012810605055849758 -0.0016773987301486849 0 -0.01480418916621762 -0.0040979790010399987 0 -0.011381170626587769 -0.0028897695459257195 0 -0.015087668275829403 -0.0081577568300709221 0 -0.01480418916621762 -0.0040979790010399987 0 -0.015116433460660444 -0.010530661265448046 0 -0.015533319274298057 -0.011631953870732686 0 -0.015731027873914744 -0.0098796190782187206 0 -0.015533319274298057 -0.011631953870732686 0 -0.015731027873914744 -0.0098796190782187206 0 -0.017026282454098016 -0.011620375611318436 0 -0.015087668275829403 -0.0081577568300709221 0 -0.015731027873914744 -0.0098796190782187206 0 -0.016112961877440025 -0.0088661886545752713 0 -0.015116433460660444 -0.010530661265448046 0 -0.014995844799654462 -0.0095369448782977907 0 -0.015731027873914744 -0.0098796190782187206 0 -0.014995844799654462 -0.0095369448782977907 0 -0.015087668275829403 -0.0081577568300709221 0 -0.015731027873914744 -0.0098796190782187206 0 -0.015731027873914744 -0.0098796190782187206 0 -0.016112961877440025 -0.0088661886545752713 0 -0.017454122439551446 -0.0099414570514225076 0 -0.016112961877440025 -0.0088661886545752713 0 -0.017090961293037932 -0.0083322715427372983 0 -0.017454122439551446 -0.0099414570514225076 0 -0.015731027873914744 -0.0098796190782187206 0 -0.017454122439551446 -0.0099414570514225076 0 -0.017026282454098016 -0.011620375611318436 0 -0.017454122439551446 -0.0099414570514225076 0 -0.017026282454098016 -0.011620375611318436 0 -0.019146468467839961 -0.011777772137653192 0 -0.017841534033638834 -0.011494914998045206 0 -0.019193882101241917 -0.0096764584570750156 0 -0.018680616753162373 -0.012683480936216069 0 -0.017664435149296578 -0.010147824257820875 0 -0.018532429206071881 -0.011811826785753087 0 -0.017454122439551446 -0.0099414570514225076 0 -0.017841534033638834 -0.011494914998045206 0 -0.019193882101241917 -0.0096764584570750156 0 -0.017454122439551446 -0.0099414570514225076 0 -0.017972603279632775 -0.0086695084648152898 0 -0.019193882101241917 -0.0096764584570750156 0 -0.018546162137914827 -0.0072133969853982825 0 -0.017972603279632775 -0.0086695084648152898 0 -0.019193882101241917 -0.0096764584570750156 0 -0.017090961293037932 -0.0083322715427372983 0 -0.017454122439551446 -0.0099414570514225076 0 -0.017972603279632775 -0.0086695084648152898 0 0.0029967172158153529 -0.016458514950938672 0 0.0030024278781396593 -0.01652432086307935 0 0.00306684787686195 -0.016471806109125301 0 -0.0099527613887235734 -0.012242106055918861 0 -1.1288336988164783e-05 -0.018605344205104037 0 0.0029967172158153529 -0.016458514950938672 0 0.0030024278781396593 -0.01652432086307935 0 0.0029844915241364345 -0.016618444523245304 0 0.019245914279100055 -0.025066361409304728 0 0.019039253187361729 -0.025561993824934553 0 0.019498329336297755 -0.025863032218307838 0 0.019039253187361729 -0.025561993824934553 0 0.019498329336297755 -0.025863032218307838 0 0.018974052264357746 -0.025952863063441349 0 0.012443125723588527 -0.021951237842482461 0 -1.1288336988164783e-05 -0.018605344205104037 0 0.019200810028115346 -0.026170012391070301 0 0.019498329336297755 -0.025863032218307838 0 0.018974052264357746 -0.025952863063441349 0 0.019200810028115346 -0.026170012391070301 0 0.018974052264357746 -0.025952863063441349 0 0.018925460918348201 -0.026320259823207723 0 0.019200810028115346 -0.026170012391070301 0 0.019102560533871531 -0.026458158799576782 0 0.019489169023751227 -0.026172832247072727 0 0.019200810028115346 -0.026170012391070301 0 0.019102560533871531 -0.026458158799576782 0 0.018925460918348201 -0.026320259823207723 0 0.019200810028115346 -0.026170012391070301 0 0.019489169023751227 -0.026172832247072727 0 0.019498329336297755 -0.025863032218307838 0 0.0023585730368675859 -0.023182068298552617 0 -1.1288336988164783e-05 -0.018605344205104037 0 -0.009639727906744255 -0.016895344666339754 0 0.0023585730368675859 -0.023182068298552617 0 0.00078736320832229389 -0.019102665509591388 0 8.5311248464703548e-05 -0.020946082911728094 0 -0.0004892522716986895 -0.017192804303840389 0 -0.021221356247019971 -0.013989610522906542 0 -0.020671616601805609 -0.014839325638500583 0 -0.021811478516415708 -0.015154758769599668 0 -0.009639727906744255 -0.016895344666339754 0 -0.012114127392343627 -0.014881607250460432 0 -0.020671616601805609 -0.014839325638500583 0 -0.020540857642267499 -0.015658672288558155 0 -0.021811478516415708 -0.015154758769599668 0 -0.020540857642267499 -0.015658672288558155 0 -0.021811478516415708 -0.015154758769599668 0 -0.020431449702528959 -0.017059381192149149 0 -0.019382684468813388 -0.016886692040436874 0 -0.019419400132467627 -0.015618879063476717 0 -0.017966071694243545 -0.016219146814523976 0 -0.019771136929965828 -0.018704186367597703 0 -0.019382684468813388 -0.016886692040436874 0 -0.017966071694243545 -0.016219146814523976 0 -0.019771136929965828 -0.018704186367597703 0 -0.020431449702528959 -0.017059381192149149 0 -0.019382684468813388 -0.016886692040436874 0 -0.020431449702528959 -0.017059381192149149 0 -0.019382684468813388 -0.016886692040436874 0 -0.019419400132467627 -0.015618879063476717 0 -0.020540857642267499 -0.015658672288558155 0 -0.020431449702528959 -0.017059381192149149 0 -0.019419400132467627 -0.015618879063476717 0 -0.020671616601805609 -0.014839325638500583 0 -0.019419400132467627 -0.015618879063476717 0 -0.018758759048818203 -0.01343289631424178 0 -0.019419400132467627 -0.015618879063476717 0 -0.018758759048818203 -0.01343289631424178 0 -0.017966071694243545 -0.016219146814523976 0 -0.020671616601805609 -0.014839325638500583 0 -0.020540857642267499 -0.015658672288558155 0 -0.019419400132467627 -0.015618879063476717 0 -0.02090281787759175 -0.014310027517095808 0 -0.020671616601805609 -0.014839325638500583 0 -0.018758759048818203 -0.01343289631424178 0 -0.018532429206071881 -0.011811826785753087 0 -0.009639727906744255 -0.016895344666339754 0 -0.019146468467839961 -0.011777772137653192 0 -0.02090281787759175 -0.014310027517095808 0 -0.018758759048818203 -0.01343289631424178 0 -0.017841534033638834 -0.011494914998045206 0 -0.018332884182344519 -0.013177767948232381 0 -0.018680616753162373 -0.012683480936216069 0 -0.009639727906744255 -0.016895344666339754 0 -1.1288336988164783e-05 -0.018605344205104037 0 -0.017026282454098016 -0.011620375611318436 0 -0.018758759048818203 -0.01343289631424178 0 -0.016413616184075917 -0.013558427376362822 0 -0.017026282454098016 -0.011620375611318436 0 -0.019146468467839961 -0.011777772137653192 0 -0.018758759048818203 -0.01343289631424178 0 -0.015086723233366817 -0.017056832275841472 0 -0.016413616184075917 -0.013558427376362822 0 -0.017966071694243545 -0.016219146814523976 0 -0.018758759048818203 -0.01343289631424178 0 -0.016413616184075917 -0.013558427376362822 0 -0.017966071694243545 -0.016219146814523976 0 -0.015086723233366817 -0.017056832275841472 0 -0.016413616184075917 -0.013558427376362822 0 -0.01506133970119247 -0.013053663548718496 0 -0.015533319274298057 -0.011631953870732686 0 -0.016413616184075917 -0.013558427376362822 0 -0.01506133970119247 -0.013053663548718496 0 -0.015533319274298057 -0.011631953870732686 0 -0.017026282454098016 -0.011620375611318436 0 -0.016413616184075917 -0.013558427376362822 0 -0.014798986013979559 -0.011460834526245722 0 -0.015533319274298057 -0.011631953870732686 0 -0.01506133970119247 -0.013053663548718496 0 0.018374402882671698 -0.025042866332640377 0 0.01837743968831141 -0.025014144526968131 0 0.018412282552923216 -0.025054359486842849 0 0.018374402882671698 -0.025042866332640377 0 0.018356826912987415 -0.025033412167317422 0 0.01837743968831141 -0.025014144526968131 0 0.018374402882671698 -0.025042866332640377 0 0.018356826912987415 -0.025033412167317422 0 0.018352370450183491 -0.025049616821549263 0 0.018356826912987415 -0.025033412167317422 0 0.01837743968831141 -0.025014144526968131 0 0.018340498707975959 -0.025026691351246019 0 0.018356826912987415 -0.025033412167317422 0 0.018352370450183491 -0.025049616821549263 0 0.018337528755371861 -0.025040930004787999 0 0.020315612111066708 -0.027784152988181446 0 0.020089424829529214 -0.027380698072223965 0 0.020616829253263032 -0.027579408997556423 0 0.01837743968831141 -0.025014144526968131 0 0.018493145284569669 -0.025051192294933217 0 0.018412282552923216 -0.025054359486842849 0 0.020315612111066708 -0.027784152988181446 0 0.020394450296608763 -0.027179611865891989 0 0.020616829253263032 -0.027579408997556423 0 0.020394450296608763 -0.027179611865891989 0 0.020616829253263032 -0.027579408997556423 0 0.020228371046284815 -0.027791051206790728 0 0.019282833589413143 -0.026385124763165568 0 0.019410667238851747 -0.026123735699822324 0 0.018412282552923216 -0.025054359486842849 0 0.018460291945728399 -0.025104975128663186 0 0.018405767124557982 -0.025079640212276377 0 0.018493145284569669 -0.025051192294933217 0 0.018412282552923216 -0.025054359486842849 0 0.018460291945728399 -0.025104975128663186 0 0.018406354393688564 -0.025096490202875622 0 0.018460291945728399 -0.025104975128663186 0 0.018405767124557982 -0.025079640212276377 0 0.018406354393688564 -0.025096490202875622 0 0.018375983912706957 -0.025076536806452995 0 0.018405767124557982 -0.025079640212276377 0 0.018375983912706957 -0.025076536806452995 0 0.018405767124557982 -0.025079640212276377 0 0.018378698548012364 -0.025061032990850763 0 0.018374402882671698 -0.025042866332640377 0 0.018412282552923216 -0.025054359486842849 0 0.018378698548012364 -0.025061032990850763 0 0.018412282552923216 -0.025054359486842849 0 0.018405767124557982 -0.025079640212276377 0 0.018378698548012364 -0.025061032990850763 0 0.018374402882671698 -0.025042866332640377 0 0.018378698548012364 -0.025061032990850763 0 0.018352370450183491 -0.025049616821549263 0 0.018378698548012364 -0.025061032990850763 0 0.018352370450183491 -0.025049616821549263 0 0.018357292379919257 -0.025064701096223795 0 0.018352370450183491 -0.025049616821549263 0 0.018357292379919257 -0.025064701096223795 0 0.018338044745524182 -0.025061826883312863 0 0.018375983912706957 -0.025076536806452995 0 0.018378698548012364 -0.025061032990850763 0 0.018357292379919257 -0.025064701096223795 0 0.018343828923329419 -0.025072760644677443 0 0.018375983912706957 -0.025076536806452995 0 0.018357292379919257 -0.025064701096223795 0 0.018343828923329419 -0.025072760644677443 0 0.018357292379919257 -0.025064701096223795 0 0.018338044745524182 -0.025061826883312863 0 0.018338044745524182 -0.025061826883312863 0 0.018320804056209998 -0.025066379073003978 0 0.01832720862117572 -0.025054052670004934 0 0.018307205657310796 -0.025063568356831382 0 0.01832720862117572 -0.025054052670004934 0 0.018316469758047391 -0.025040736813215829 0 0.018343828923329419 -0.025072760644677443 0 0.018338044745524182 -0.025061826883312863 0 0.018320804056209998 -0.025066379073003978 0 0.016881896727148491 -0.024059769928860223 0 0.018207260548986633 -0.02488279307800699 0 0.018320804056209998 -0.025066379073003978 0 0.018307205657310796 -0.025063568356831382 0 0.01832720862117572 -0.025054052670004934 0 0.01832720862117572 -0.025054052670004934 0 0.018337528755371861 -0.025040930004787999 0 0.018316469758047391 -0.025040736813215829 0 0.018352370450183491 -0.025049616821549263 0 0.018338044745524182 -0.025061826883312863 0 0.01832720862117572 -0.025054052670004934 0 0.018352370450183491 -0.025049616821549263 0 0.01832720862117572 -0.025054052670004934 0 0.018337528755371861 -0.025040930004787999 0 0.016881896727148491 -0.024059769928860223 0 0.018646867665848426 -0.025033416924748985 0 0.01757457634743537 -0.023123352510898067 0 0.018520657320042402 -0.023752104243425363 0 0.018437315150533269 -0.025249797974230027 0 0.018102794625741801 -0.024153804337475177 0 0.018437315150533269 -0.025249797974230027 0 0.018145655326537592 -0.024786049688085891 0 0.0030556476731077469 -0.016474575640566261 0 0.0029967172158153529 -0.016458514950938672 0 0.00306684787686195 -0.016471806109125301 0 0.019245914279100055 -0.025066361409304728 0 0.018520657320042402 -0.023752104243425363 0 0.018437315150533269 -0.025249797974230027 0 0.012443125723588527 -0.021951237842482461 0 0.010395122857722797 -0.019711633423111531 0 0.018437315150533269 -0.025249797974230027 0 0.018145655326537592 -0.024786049688085891 0 0.018219052011733305 -0.025445302639827014 0 0.019245914279100055 -0.025066361409304728 0 0.019039253187361729 -0.025561993824934553 0 0.018437315150533269 -0.025249797974230027 0 0.020315612111066708 -0.027784152988181446 0 0.019406560766481198 -0.027351547964077454 0 0.0186709637829632 -0.027505793603241686 0 0.018207260548986633 -0.02488279307800699 0 0.018647585382128826 -0.026012068890322249 0 0.01837743968831141 -0.025014144526968131 0 0.018340498707975959 -0.025026691351246019 0 0.018317289692527491 -0.025013856279202842 0 0.019282833589413143 -0.026385124763165568 0 0.018647585382128826 -0.026012068890322249 0 0.018340498707975959 -0.025026691351246019 0 0.018316469758047391 -0.025040736813215829 0 0.018317289692527491 -0.025013856279202842 0 0.018340498707975959 -0.025026691351246019 0 0.018337528755371861 -0.025040930004787999 0 0.018316469758047391 -0.025040736813215829 0 0.018356826912987415 -0.025033412167317422 0 0.018340498707975959 -0.025026691351246019 0 0.018337528755371861 -0.025040930004787999 0 0.0186709637829632 -0.027505793603241686 0 0.01906475869004361 -0.026940928819296207 0 0.018681890109948675 -0.026411528862240657 0 0.018647585382128826 -0.026012068890322249 0 0.018602557671323471 -0.026557357699084166 0 0.019406560766481198 -0.027351547964077454 0 0.01906475869004361 -0.026940928819296207 0 0.019603677402854187 -0.027188601553252884 0 0.019406560766481198 -0.027351547964077454 0 0.0186709637829632 -0.027505793603241686 0 0.01906475869004361 -0.026940928819296207 0 0.01906475869004361 -0.026940928819296207 0 0.019614646963603117 -0.026553265833011902 0 0.019603677402854187 -0.027188601553252884 0 0.018219052011733305 -0.025445302639827014 0 0.018679316802219837 -0.025734718249689498 0 0.018681890109948675 -0.026411528862240657 0 0.019039253187361729 -0.025561993824934553 0 0.018437315150533269 -0.025249797974230027 0 0.018679316802219837 -0.025734718249689498 0 0.019039253187361729 -0.025561993824934553 0 0.018679316802219837 -0.025734718249689498 0 0.018974052264357746 -0.025952863063441349 0 0.018437315150533269 -0.025249797974230027 0 0.018219052011733305 -0.025445302639827014 0 0.018679316802219837 -0.025734718249689498 0 0.018679316802219837 -0.025734718249689498 0 0.018974052264357746 -0.025952863063441349 0 0.018681890109948675 -0.026411528862240657 0 0.018974052264357746 -0.025952863063441349 0 0.018925460918348201 -0.026320259823207723 0 0.018681890109948675 -0.026411528862240657 0 0.018816585866257066 -0.026516086979932466 0 0.018925460918348201 -0.026320259823207723 0 0.018681890109948675 -0.026411528862240657 0 0.018816585866257066 -0.026516086979932466 0 0.019102560533871531 -0.026458158799576782 0 0.018925460918348201 -0.026320259823207723 0 0.020768721348343996 -0.027846859791544172 0 0.020639405670433892 -0.027704673098608225 0 0.0187680261978483 -0.026423678200527618 0 0.018816585866257066 -0.026516086979932466 0 0.018681890109948675 -0.026411528862240657 0 0.01906475869004361 -0.026940928819296207 0 0.018681890109948675 -0.026411528862240657 0 0.019614646963603117 -0.026553265833011902 0 0.0187680261978483 -0.026423678200527618 0 0.018681890109948675 -0.026411528862240657 0 0.019614646963603117 -0.026553265833011902 0 0.021358891382037035 -0.029614457805213962 0 0.021651108829270429 -0.028613148569711411 0 0.020558213973476056 -0.028643074995404492 0 0.021358891382037035 -0.029614457805213962 0 0.02248690166065959 -0.029850957113611323 0 0.021651108829270429 -0.028613148569711411 0 0.019614646963603117 -0.026553265833011902 0 0.020089424829529214 -0.027380698072223965 0 0.020616829253263032 -0.027579408997556423 0 0.020639405670433892 -0.027704673098608225 0 0.02063433793328345 -0.027587860035302361 0 0.019614646963603117 -0.026553265833011902 0 0.020089424829529214 -0.027380698072223965 0 0.019603677402854187 -0.027188601553252884 0 0.021651108829270429 -0.028613148569711411 0 0.020616829253263032 -0.027579408997556423 0 0.020558213973476056 -0.028643074995404492 0 0.020315612111066708 -0.027784152988181446 0 0.019406560766481198 -0.027351547964077454 0 0.019603677402854187 -0.027188601553252884 0 0.020315612111066708 -0.027784152988181446 0 0.020089424829529214 -0.027380698072223965 0 0.019603677402854187 -0.027188601553252884 0 0.020616829253263032 -0.027579408997556423 0 0.020558213973476056 -0.028643074995404492 0 0.020228371046284815 -0.027791051206790728 0 0.019725082660940793 -0.029460919904608224 0 0.020558213973476056 -0.028643074995404492 0 0.019819270003615049 -0.028307718387741047 0 0.019725082660940793 -0.029460919904608224 0 0.018872801746418498 -0.029716654134077598 0 0.019140928404268533 -0.028615425171109692 0 0.019725082660940793 -0.029460919904608224 0 0.019140928404268533 -0.028615425171109692 0 0.019819270003615049 -0.028307718387741047 0 0.019140928404268533 -0.028615425171109692 0 0.019525177499484053 -0.027540787838536595 0 0.018567831563899882 -0.027853164583521391 0 0.019140928404268533 -0.028615425171109692 0 0.019819270003615049 -0.028307718387741047 0 0.019525177499484053 -0.027540787838536595 0 0.019819270003615049 -0.028307718387741047 0 0.020228371046284815 -0.027791051206790728 0 0.019525177499484053 -0.027540787838536595 0 0.020558213973476056 -0.028643074995404492 0 0.019819270003615049 -0.028307718387741047 0 0.020228371046284815 -0.027791051206790728 0 0.020394450296608763 -0.027179611865891989 0 0.020228371046284815 -0.027791051206790728 0 0.019525177499484053 -0.027540787838536595 0 0.020394450296608763 -0.027179611865891989 0 0.019525177499484053 -0.027540787838536595 0 0.019478365765893842 -0.026513197313908794 0 0.019525177499484053 -0.027540787838536595 0 0.019478365765893842 -0.026513197313908794 0 0.018784900736380158 -0.026960336400708693 0 0.018619730080711022 -0.025202671550727036 0 0.018500552770764778 -0.025326711936113057 0 0.018567508276040905 -0.02516281420428837 0 0.018619730080711022 -0.025202671550727036 0 0.018544903646154388 -0.025144211194573943 0 0.018567508276040905 -0.02516281420428837 0 0.018493145284569669 -0.025051192294933217 0 0.018619730080711022 -0.025202671550727036 0 0.018544903646154388 -0.025144211194573943 0 0.019410667238851747 -0.026123735699822324 0 0.018994419211605572 -0.02583615534865458 0 0.018460291945728399 -0.025104975128663186 0 0.018544903646154388 -0.025144211194573943 0 0.018512693438992023 -0.025140910613388918 0 0.018493145284569669 -0.025051192294933217 0 0.018460291945728399 -0.025104975128663186 0 0.018544903646154388 -0.025144211194573943 0 0.017657158989578339 -0.025972797017626607 0 0.018344579015554873 -0.025500640027861551 0 0.018201495889435749 -0.02647609549147547 0 0.017657158989578339 -0.025972797017626607 0 0.017166875975651877 -0.024911222726933944 0 0.01786534692506556 -0.024674794487451496 0 0.017657158989578339 -0.025972797017626607 0 0.018344579015554873 -0.025500640027861551 0 0.01786534692506556 -0.024674794487451496 0 0.019478365765893842 -0.026513197313908794 0 0.018344579015554873 -0.025500640027861551 0 0.018716447967698488 -0.026366505875715818 0 0.018344579015554873 -0.025500640027861551 0 0.018500552770764778 -0.025326711936113057 0 0.018335816261360514 -0.024595387603604905 0 0.018994419211605572 -0.02583615534865458 0 0.018333962511724314 -0.025528444812138479 0 0.018619730080711022 -0.025202671550727036 0 0.018344579015554873 -0.025500640027861551 0 0.018500552770764778 -0.025326711936113057 0 0.018344579015554873 -0.025500640027861551 0 0.018716447967698488 -0.026366505875715818 0 0.018201495889435749 -0.02647609549147547 0 0.018784900736380158 -0.026960336400708693 0 0.018200428399265407 -0.027265476568030765 0 0.018567831563899882 -0.027853164583521391 0 0.018784900736380158 -0.026960336400708693 0 0.018200428399265407 -0.027265476568030765 0 0.018201495889435749 -0.02647609549147547 0 0.018716447967698488 -0.026366505875715818 0 0.018784900736380158 -0.026960336400708693 0 0.018201495889435749 -0.02647609549147547 0 0.019525177499484053 -0.027540787838536595 0 0.018784900736380158 -0.026960336400708693 0 0.018567831563899882 -0.027853164583521391 0 0.019478365765893842 -0.026513197313908794 0 0.018716447967698488 -0.026366505875715818 0 0.018784900736380158 -0.026960336400708693 0 0.018200428399265407 -0.027265476568030765 0 0.018201495889435749 -0.02647609549147547 0 0.017613894884507625 -0.027067070281875348 0 0.017657158989578339 -0.025972797017626607 0 0.018201495889435749 -0.02647609549147547 0 0.017613894884507625 -0.027067070281875348 0 0.018200428399265407 -0.027265476568030765 0 0.017613894884507625 -0.027067070281875348 0 0.0178872682032063 -0.027991111552587534 0 0.018200428399265407 -0.027265476568030765 0 0.0178872682032063 -0.027991111552587534 0 0.018567831563899882 -0.027853164583521391 0 0.0178872682032063 -0.027991111552587534 0 0.018567831563899882 -0.027853164583521391 0 0.018333132771318577 -0.028917776450822164 0 0.018872801746418498 -0.029716654134077598 0 0.019140928404268533 -0.028615425171109692 0 0.018333132771318577 -0.028917776450822164 0 0.019140928404268533 -0.028615425171109692 0 0.018567831563899882 -0.027853164583521391 0 0.018333132771318577 -0.028917776450822164 0 0.01761548881370226 -0.029304234968084646 0 0.0178872682032063 -0.027991111552587534 0 0.018333132771318577 -0.028917776450822164 0 0.016732243513707865 -0.028506397175099688 0 0.01761548881370226 -0.029304234968084646 0 0.017208402916559618 -0.027674725263783253 0 0.01761548881370226 -0.029304234968084646 0 0.0178872682032063 -0.027991111552587534 0 0.017208402916559618 -0.027674725263783253 0 0.016732243513707865 -0.028506397175099688 0 0.017208402916559618 -0.027674725263783253 0 0.017049668993322144 -0.027525763033731433 0 0.017208402916559618 -0.027674725263783253 0 0.017049668993322144 -0.027525763033731433 0 0.017196036765864408 -0.026994022785654683 0 0.017613894884507625 -0.027067070281875348 0 0.0178872682032063 -0.027991111552587534 0 0.017208402916559618 -0.027674725263783253 0 0.017784738672543696 -0.026967879078715111 0 0.017163268319018151 -0.02751428869641143 0 0.017350511111348263 -0.027203328238583586 0 0.017163268319018151 -0.02751428869641143 0 0.017049668993322144 -0.027525763033731433 0 0.017350511111348263 -0.027203328238583586 0 0.016732243513707865 -0.028506397175099688 0 0.017163268319018151 -0.02751428869641143 0 0.017049668993322144 -0.027525763033731433 0 0.017049668993322144 -0.027525763033731433 0 0.017350511111348263 -0.027203328238583586 0 0.017196036765864408 -0.026994022785654683 0 0.01794923410830845 -0.026758679365923091 0 0.017350511111348263 -0.027203328238583586 0 0.017455246292058024 -0.026941648981452137 0 0.017350511111348263 -0.027203328238583586 0 0.017455246292058024 -0.026941648981452137 0 0.017196036765864408 -0.026994022785654683 0 0.017455246292058024 -0.026941648981452137 0 0.017196036765864408 -0.026994022785654683 0 0.017507777966637158 -0.026827828797162299 0 0.017196036765864408 -0.026994022785654683 0 0.017390384056155447 -0.026683035726756611 0 0.017184290436396209 -0.02660655147431688 0 0.017196036765864408 -0.026994022785654683 0 0.017390384056155447 -0.026683035726756611 0 0.017507777966637158 -0.026827828797162299 0 0.017390384056155447 -0.026683035726756611 0 0.017507777966637158 -0.026827828797162299 0 0.017442821528116745 -0.026647323308284818 0 0.017657158989578339 -0.025972797017626607 0 0.017613894884507625 -0.027067070281875348 0 0.017184290436396209 -0.02660655147431688 0 0.017613894884507625 -0.027067070281875348 0 0.017208402916559618 -0.027674725263783253 0 0.017184290436396209 -0.02660655147431688 0 0.017208402916559618 -0.027674725263783253 0 0.017196036765864408 -0.026994022785654683 0 0.017184290436396209 -0.02660655147431688 0 0.017390384056155447 -0.026683035726756611 0 0.017184290436396209 -0.02660655147431688 0 0.017596668945856993 -0.026348294595772141 0 0.017657158989578339 -0.025972797017626607 0 0.017184290436396209 -0.02660655147431688 0 0.017166875975651877 -0.024911222726933944 0 0.017166875975651877 -0.024911222726933944 0 0.015935061644214064 -0.023795313300192585 0 0.017422692501151256 -0.023291089586986571 0 0.01718315944502715 -0.026402043999387347 0 0.017235988285236307 -0.02475465092801666 0 0.017184290436396209 -0.02660655147431688 0 0.017166875975651877 -0.024911222726933944 0 0.015935061644214064 -0.023795313300192585 0 0.017184290436396209 -0.02660655147431688 0 0.018489728492189234 -0.025852094820980272 0 0.017596668945856993 -0.026348294595772141 0 0.018489728492189234 -0.025852094820980272 0 0.017596668945856993 -0.026348294595772141 0 0.017481783164805299 -0.025734625847322945 0 0.018489728492189234 -0.025852094820980272 0 0.017481783164805299 -0.025734625847322945 0 0.017370392029138017 -0.024163373160988152 0 0.018489728492189234 -0.025852094820980272 0 0.017370392029138017 -0.024163373160988152 0 0.018761877763953622 -0.023168166208481191 0 0.017235988285236307 -0.02475465092801666 0 0.01748456377963413 -0.022284084448041745 0 0.015935061644214064 -0.023795313300192585 0 0.016859964256323256 -0.022151716656245827 0 0.017422692501151256 -0.023291089586986571 0 0.015935061644214064 -0.023795313300192585 0 0.016255264627698537 -0.021234471157736502 0 0.016859964256323256 -0.022151716656245827 0 0.017390384056155447 -0.026683035726756611 0 0.017442821528116745 -0.026647323308284818 0 0.017332886378014539 -0.026272584802844751 0 0.017393193326640317 -0.026490606547848596 0 0.017442821528116745 -0.026647323308284818 0 0.017332886378014539 -0.026272584802844751 0 0.017332886378014539 -0.026272584802844751 0 0.017596668945856993 -0.026348294595772141 0 0.017481783164805299 -0.025734625847322945 0 0.017390384056155447 -0.026683035726756611 0 0.017332886378014539 -0.026272584802844751 0 0.017596668945856993 -0.026348294595772141 0 0.017481783164805299 -0.025734625847322945 0 0.017245939139142227 -0.025826974396836226 0 0.017370392029138017 -0.024163373160988152 0 0.017332886378014539 -0.026272584802844751 0 0.017481783164805299 -0.025734625847322945 0 0.017245939139142227 -0.025826974396836226 0 0.017290641591118046 -0.026447987152526688 0 0.017245939139142227 -0.025826974396836226 0 0.017370392029138017 -0.024163373160988152 0 0.017393193326640317 -0.026490606547848596 0 0.017332886378014539 -0.026272584802844751 0 0.017245939139142227 -0.025826974396836226 0 0.017290641591118046 -0.026447987152526688 0 0.017393193326640317 -0.026490606547848596 0 0.017245939139142227 -0.025826974396836226 0 0.016460190905359287 -0.022678845628594818 0 0.017370392029138017 -0.024163373160988152 0 0.016947523565408667 -0.022329121231471155 0 0.016216913011441497 -0.023095280454292221 0 0.016460190905359287 -0.022678845628594818 0 0.017370392029138017 -0.024163373160988152 0 0.016753457428416451 -0.024571449525405974 0 0.017583766230695352 -0.024269544902267393 0 0.017370392029138017 -0.024163373160988152 0 0.017372240828847835 -0.022488512658751354 0 0.016947523565408667 -0.022329121231471155 0 0.017440899265129196 -0.021574485189190539 0 0.016833719585551889 -0.021320717787018585 0 0.017372240828847835 -0.022488512658751354 0 0.016833719585551889 -0.021320717787018585 0 0.017372240828847835 -0.022488512658751354 0 0.016947523565408667 -0.022329121231471155 0 0.017839465740082012 -0.019399394789826628 0 0.016746801419572594 -0.02084011390398607 0 0.016947523565408667 -0.022329121231471155 0 0.017428418583994406 -0.020686358890541511 0 0.016973140931170378 -0.022039999887369079 0 0.016460190905359287 -0.022678845628594818 0 0.016746801419572594 -0.02084011390398607 0 0.016947523565408667 -0.022329121231471155 0 0.016255264627698537 -0.021234471157736502 0 0.016859964256323256 -0.022151716656245827 0 0.017171238580334657 -0.020856980599895551 0 0.017370392029138017 -0.024163373160988152 0 0.017372240828847835 -0.022488512658751354 0 0.018761877763953622 -0.023168166208481191 0 0.017538916609155509 -0.021024019174855964 0 0.01748456377963413 -0.022284084448041745 0 0.017440899265129196 -0.021574485189190539 0 0.017372240828847835 -0.022488512658751354 0 0.018761877763953622 -0.023168166208481191 0 0.017536957219471863 -0.020846936964652684 0 0.017440899265129196 -0.021574485189190539 0 0.018761877763953622 -0.023168166208481191 0 0.017001988158134172 -0.020546338910579186 0 0.016255264627698537 -0.021234471157736502 0 0.017171238580334657 -0.020856980599895551 0 0.017001988158134172 -0.020546338910579186 0 0.017536957219471863 -0.020846936964652684 0 0.016255264627698537 -0.021234471157736502 0 0.017001988158134172 -0.020546338910579186 0 0.016943891323878139 -0.020116828167754505 0 0.017171238580334657 -0.020856980599895551 0 0.017117354713188072 -0.020012877159898693 0 0.016943891323878139 -0.020116828167754505 0 0.017171238580334657 -0.020856980599895551 0 0.016859964256323256 -0.022151716656245827 0 0.017171238580334657 -0.020856980599895551 0 0.017481090869852528 -0.022090164188411702 0 0.017171238580334657 -0.020856980599895551 0 0.017481090869852528 -0.022090164188411702 0 0.01775581504645361 -0.021434048780529947 0 0.018456648940723908 -0.02187450679557968 0 0.01775581504645361 -0.021434048780529947 0 0.01807292918789867 -0.022565783304242963 0 0.017481090869852528 -0.022090164188411702 0 0.01775581504645361 -0.021434048780529947 0 0.01807292918789867 -0.022565783304242963 0 0.018456648940723908 -0.02187450679557968 0 0.01775581504645361 -0.021434048780529947 0 0.018341920907775089 -0.021275651245429728 0 0.01775581504645361 -0.021434048780529947 0 0.017569901883415968 -0.020749748020289682 0 0.018341920907775089 -0.021275651245429728 0 0.017569901883415968 -0.020749748020289682 0 0.017901792123231983 -0.020392198871168655 0 0.018341920907775089 -0.021275651245429728 0 0.017171238580334657 -0.020856980599895551 0 0.01775581504645361 -0.021434048780529947 0 0.017569901883415968 -0.020749748020289682 0 0.017117354713188072 -0.020012877159898693 0 0.017171238580334657 -0.020856980599895551 0 0.017569901883415968 -0.020749748020289682 0 0.017436563213557132 -0.019457308112619844 0 0.017117354713188072 -0.020012877159898693 0 0.017901792123231983 -0.020392198871168655 0 0.017117354713188072 -0.020012877159898693 0 0.017569901883415968 -0.020749748020289682 0 0.017901792123231983 -0.020392198871168655 0 0.017436563213557132 -0.019457308112619844 0 0.017901792123231983 -0.020392198871168655 0 0.019082412040406005 -0.020298032011031721 0 0.017901792123231983 -0.020392198871168655 0 0.018507459813434612 -0.020854668374453291 0 0.019082412040406005 -0.020298032011031721 0 0.018507459813434612 -0.020854668374453291 0 0.019082412040406005 -0.020298032011031721 0 0.018976276848725805 -0.02126921135683129 0 0.017901792123231983 -0.020392198871168655 0 0.018507459813434612 -0.020854668374453291 0 0.018341920907775089 -0.021275651245429728 0 0.020458924035375227 -0.019977359557609476 0 0.019082412040406005 -0.020298032011031721 0 0.019769296132491794 -0.020930766769244907 0 0.019082412040406005 -0.020298032011031721 0 0.019769296132491794 -0.020930766769244907 0 0.018976276848725805 -0.02126921135683129 0 0.019769296132491794 -0.020930766769244907 0 0.018976276848725805 -0.02126921135683129 0 0.019672201537545678 -0.02200710204792836 0 0.018976276848725805 -0.02126921135683129 0 0.018850166145637767 -0.02184788211984014 0 0.019672201537545678 -0.02200710204792836 0 0.018976276848725805 -0.02126921135683129 0 0.018341920907775089 -0.021275651245429728 0 0.018850166145637767 -0.02184788211984014 0 0.018507459813434612 -0.020854668374453291 0 0.018976276848725805 -0.02126921135683129 0 0.018341920907775089 -0.021275651245429728 0 0.018456648940723908 -0.02187450679557968 0 0.018341920907775089 -0.021275651245429728 0 0.018850166145637767 -0.02184788211984014 0 0.018504240987726406 -0.021871740343324102 0 0.019743965489816759 -0.022076121473274105 0 0.018456648940723908 -0.02187450679557968 0 0.020101046020960897 -0.022197689037714172 0 0.018847910068843305 -0.023090803367422346 0 0.020101046020960897 -0.022197689037714172 0 0.018847910068843305 -0.023090803367422346 0 0.019873464618760914 -0.023943575218577744 0 0.018670902437114317 -0.021870639682744959 0 0.019311199965478525 -0.024794640168353262 0 0.020101046020960897 -0.022197689037714172 0 0.021431096605199006 -0.022434583185711343 0 0.019873464618760914 -0.023943575218577744 0 0.018487804815344865 -0.025180905330790829 0 0.018504610258552309 -0.025152039408072622 0 0.018567508276040905 -0.02516281420428837 0 0.019743965489816759 -0.022076121473274105 0 0.018670902437114317 -0.021870639682744959 0 0.018544903646154388 -0.025144211194573943 0 0.018512693438992023 -0.025140910613388918 0 0.018567508276040905 -0.02516281420428837 0 0.018438229027752842 -0.025124443830578214 0 0.018504610258552309 -0.025152039408072622 0 0.018512693438992023 -0.025140910613388918 0 0.018504610258552309 -0.025152039408072622 0 0.018512693438992023 -0.025140910613388918 0 0.018567508276040905 -0.02516281420428837 0 0.018500552770764778 -0.025326711936113057 0 0.019873464618760914 -0.023943575218577744 0 0.018747301977315591 -0.024116672857229824 0 0.018531442115327704 -0.025211188933459788 0 0.019311199965478525 -0.024794640168353262 0 0.018847910068843305 -0.023090803367422346 0 0.019873464618760914 -0.023943575218577744 0 0.018747301977315591 -0.024116672857229824 0 0.018500552770764778 -0.025326711936113057 0 0.018747301977315591 -0.024116672857229824 0 0.018335816261360514 -0.024595387603604905 0 0.018200403825437691 -0.023713810338672304 0 0.018335816261360514 -0.024595387603604905 0 0.01786534692506556 -0.024674794487451496 0 0.018747301977315591 -0.024116672857229824 0 0.018200403825437691 -0.023713810338672304 0 0.018335816261360514 -0.024595387603604905 0 0.018344579015554873 -0.025500640027861551 0 0.018335816261360514 -0.024595387603604905 0 0.01786534692506556 -0.024674794487451496 0 0.017166875975651877 -0.024911222726933944 0 0.01786534692506556 -0.024674794487451496 0 0.017422692501151256 -0.023291089586986571 0 0.018200403825437691 -0.023713810338672304 0 0.01786534692506556 -0.024674794487451496 0 0.017422692501151256 -0.023291089586986571 0 0.016859964256323256 -0.022151716656245827 0 0.017481090869852528 -0.022090164188411702 0 0.017422692501151256 -0.023291089586986571 0 0.017481090869852528 -0.022090164188411702 0 0.017422692501151256 -0.023291089586986571 0 0.01807292918789867 -0.022565783304242963 0 0.018456648940723908 -0.02187450679557968 0 0.018847910068843305 -0.023090803367422346 0 0.01807292918789867 -0.022565783304242963 0 0.018847910068843305 -0.023090803367422346 0 0.018747301977315591 -0.024116672857229824 0 0.018200403825437691 -0.023713810338672304 0 0.018847910068843305 -0.023090803367422346 0 0.018200403825437691 -0.023713810338672304 0 0.01807292918789867 -0.022565783304242963 0 0.018200403825437691 -0.023713810338672304 0 0.017422692501151256 -0.023291089586986571 0 0.01807292918789867 -0.022565783304242963 0 
</DataArray>
</PointData>
<CellData Scalars="region_id,cross_section_updated," Vectors="" Tensors="stress,">
<DataArray type="Float64" Name="region_id" format="ascii">
5 5 5 5 5 6 5 5 5 5 5 5 6 5 5 5 6 5 5 5 5 6 5 5 5 5 5 6 5 6 5 5 5 5 6 5 5 5 5 5 5 5 5 6 5 5 5 6 5 6 5 5 5 6 6 5 5 5 5 5 6 5 5 5 5 5 5 5 5 5 6 6 5 5 5 5 5 6 5 6 5 6 5 5 5 5 5 6 5 5 5 6 5 5 6 5 5 6 5 5 6 5 5 5 5 5 5 5 5 5 5 6 6 5 5 5 5 5 5 5 5 5 5 6 5 6 5 5 6 5 6 5 5 6 5 5 5 5 5 5 5 5 5 5 5 5 5 5 5 6 5 5 5 6 5 5 5 6 5 5 5 5 6 5 5 6 6 5 5 5 6 5 5 5 5 5 5 6 5 5 5 5 5 5 5 5 5 5 5 5 6 5 5 5 5 5 5 5 5 5 5 5 5 5 5 5 5 5 6 6 5 5 5 6 5 5 5 5 5 5 6 5 5 5 5 6 5 6 6 5 5 6 5 5 5 5 5 5 5 5 5 5 5 5 5 5 5 5 5 5 5 6 5 5 5 5 5 6 5 5 5 5 5 5 5 5 6 5 5 5 5 6 5 6 5 6 5 5 5 5 5 5 5 6 5 5 5 6 5 5 5 5 5 5 5 5 5 5 5 5 5 5 5 5 5 6 5 5 6 6 5 5 5 5 5 5 5 5 5 5 5 5 5 5 5 5 6 5 5 5 5 6 6 5 5 5 5 5 6 5 6 5 5 5 5 5 5 6 6 5 5 5 5 5 5 5 5 5 5 6 5 5 5 5 5 5 5 5 5 5 5 5 5 5 5 5 5 5 5 5 5 6 5 5 5 6 5 5 5 5 6 5 5 5 5 5 5 5 5 5 5 5 5 5 5 5 5 5 5 5 5 5 5 5 5 6 5 5 6 5 5 5 5 6 5 5 5 5 5 5 5 5 5 5 5 5 5 5 5 5 5 5 5 5 5 5 5 5 5 5 5 6 5 5 6 5 5 6 5 5 5 5 5 5 5 5 5 5 6 5 5 5 5 6 5 6 5 5 5 6 5 5 5 5 6 5 5 5 5 6 5 6 5 6 5 5 5 6 5 5 5 5 5 5 5 5 5 5 6 5 5 6 5 6 5 5 6 5 6 5 5 5 5 5 5 6 5 5 5 5 6 5 6 6 5 5 5 6 5 5 5 5 5 5 5 5 5 5 5 5 5 5 5 5 5 5 5 5 5 5 5 5 5 5 5 5 5 5 5 5 5 5 5 6 5 5 6 5 5 5 5 5 6 5 5 5 5 5 5 5 5 5 5 5 5 5 5 5 5 6 5 5 5 5 5 5 6 5 5 5 5 5 5 5 5 5 5 5 5 5 5 6 5 5 5 5 5 5 5 5 5 5 5 5 6 5 5 5 5 5 5 5 5 5 5 6 5 5 5 5 5 5 5 5 5 5 5 6 5 5 5 5 6 5 5 5 5 6 5 5 5 5 5 5 5 6 5 6 5 5 6 5 6 5 5 5 6 5 5 5 5 5 5 5 5 5 5 5 5 5 5 5 5 5 5 5 5 6 5 5 5 5 5 6 5 5 5 5 5 6 5 5 5 5 5 5 5 5 5 5 5 5 5 5 5 5 5 5 5 5 5 5 5 5 5 5 5 5 5 5 5 5 5 5 5 5 5 5 5 5 5 5 5 6 5 5 5 5 5 5 5 5 5 5 5 5 5 5 5 5 5 5 5 5 5 5 5 5 5 5 5 5 5 5 5 5 5 5 5 5 5 5 5 5 5 5 5 5 5 5 5 5 6 5 5 5 6 5 6 5 6 5 5 5 5 5 5 5 5 5 5 6 5 5 5 5 6 5 5 5 5 5 5 5 5 5 5 6 5 5 5 5 6 5 5 5 5 5 5 5 6 5 5 5 5 5 5 5 5 5 5 5 6 5 5 5 5 5 5 6 5 5 5 5 5 5 5 5 5 5 5 5 5 5 5 5 6 5 5 5 6 5 5 5 5 5 5 5 5 5 5 5 5 5 5 5 6 5 5 5 6 5 5 6 6 5 6 5 5 5 5 5 5 6 5 5 5 5 5 5 5 6 5 5 5 5 5 5 5 5 5 5 5 5 5 5 5 5 5 5 5 5 5 5 5 5 5 5 5 5 5 5 5 5 5 5 5 6 5 5 5 5 5 5 5 6 5 6 5 5 5 6 5 5 5 5 5 5 5 5 6 5 5 6 5 5 6 5 6 5 5 6 5 5 5 5 5 5 5 5 6 5 6 6 5 5 5 6 5 5 5 6 5 6 5 5 6 6 5 5 6 5 5 5 5 5 5 5 6 5 5 6 5 6 5 5 6 5 5 5 5 5 6 5 5 5 5 6 5 6 5 5 6 6 5 5 5 5 5 6 5 5 5 5 5 5 5 5 5 6 5 5 5 5 5 5 5 5 5 5 5 5 5 5 5 5 5 5 5 5 5 5 5 5 5 5 5 6 5 5 5 5 5 5 5 5 5 5 5 6 5 6 5 5 5 5 5 5 5 5 5 5 5 5 5 5 5 5 5 5 5 6 5 6 5 6 5 5 5 5 5 6 5 5 6 5 5 5 5 5 5 5 5 5 5 5 5 5 5 6 5 5 5 5 5 5 5 5 5 5 5 6 5 5 5 5 6 5 5 5 5 5 5 6 5 5 5 5 5 5 6 5 5 5 5 5 5 5 5 5 5 5 5 5 5 5 5 5 5 5 6 5 5 5 6 5 5 5 5 5 5 5 5 5 5 6 5 5 5 5 5 5 6 6 5 5 5 5 5 5 5 5 5 5 5 5 5 5 5 5 6 5 5 6 5 5 5 5 6 6 5 5 5 5 5 5 5 5 5 5 5 5 5 5 5 5 5 5 5 5 5 5 5 5 5 5 5 5 5 5 5 5 5 5 5 5 5 5 5 5 5 5 6 5 5 5 5 5 5 5 5 5 5 5 5 5 6 5 5 5 5 5 5 5 6 5 5 5 5 5 5 5 5 5 5 6 5 5 6 5 5 6 5 5 5 5 5 5 5 5 5 5 5 6 5 6 5 6 5 5 5 6 5 5 5 5 5 5 5 5 5 5 5 5 5 5 5 6 5 6 5 5 6 5 5 6 5 5 5 5 6 5 5 5 5 5 5 5 5 5 5 6 5 5 5 5 5 5 5 5 5 5 5 5 6 5 5 5 5 5 5 5 5 5 5 5 5 5 5 5 6 5 5 5 5 5 5 5 6 5 5 5 5 5 5 6 5 5 5 6 6 6 6 5 5 5 5 5 5 5 5 5 5 5 5 5 5 5 5 6 5 5 5 5 5 5 6 5 6 5 5 6 5 5 5 6 6 5 5 5 6 5 5 5 5 6 5 5 5 5 5 5 5 5 5 5 5 5 5 5 5 5 5 5 5 5 5 5 5 5 5 5 5 5 5 5 5 5 5 5 5 5 5 5 5 5 5 5 5 5 6 5 6 5 5 5 5 5 5 5 5 5 5 5 5 5 5 5 5 5 5 5 5 5 5 6 5 5 5 5 5 5 5 5 5 5 5 5 5 5 5 6 5 5 5 5 5 6 5 5 5 5 5 5 5 5 5 5 5 5 5 5 5 5 5 5 5 5 5 5 5 5 6 6 5 5 5 5 5 5 5 5 5 5 5 5 5 5 5 5 5 6 5 5 5 5 5 5 5 6 6 5 5 5 5 5 5 5 5 5 5 5 5 5 5 5 5 5 5 6 6 5 5 5 5 5 5 5 5 5 5 5 5 5 5 5 5 5 5 5 5 5 5 5 5 5 5 5 5 5 5 6 5 5 6 5 5 5 6 5 5 5 5 5 5 5 5 5 5 5 5 5 5 5 5 5 5 5 5 5 5 5 5 6 5 5 5 5 5 5 5 5 5 6 5 6 6 6 5 5 5 6 5 6 5 5 5 5 6 5 5 5 5 5 5 5 5 5 5 5 5 5 5 5 5 5 5 5 5 5 5 5 5 6 5 5 5 5 6 5 6 5 5 5 5 5 5 5 5 5 5 5 5 5 5 5 5 5 5 5 5 5 5 6 5 6 5 5 5 5 5 6 6 5 5 5 6 5 6 5 5 5 5 5 5 5 5 5 5 5 5 6 5 5 5 5 5 5 5 6 5 5 5 5 5 6 5 5 5 5 6 5 5 6 5 5 6 5 5 5 5 5 5 5 5 5 6 5 5 5 5 5 5 5 5 5 5 5 5 5 6 5 5 5 6 5 5 5 5 5 5 5 5 6 5 5 6 5 5 5 5 5 6 5 5 6 5 6 5 6 5 5 6 5 5 6 5 5 5 6 5 5 5 6 6 5 6 5 5 6 5 5 5 6 5 5 5 5 5 5 6 5 5 5 5 5 5 5 5 5 6 5 5 6 5 5 6 5 6 5 5 5 5 5 5 6 6 5 5 5 5 5 5 5 5 5 5 5 5 6 5 5 5 5 5 6 5 5 5 6 6 6 5 5 5 5 5 5 5 5 6 5 5 5 5 5 5 5 5 5 5 5 5 5 5 5 6 5 5 6 5 5 5 5 5 6 5 5 5 5 6 5 5 5 5 5 6 6 5 5 5 5 5 5 5 5 5 6 5 5 6 5 5 5 6 6 6 5 5 5 6 6 5 5 5 5 5 5 6 5 5 5 5 5 6 5 5 5 6 5 5 5 5 6 5 5 6 5 5 5 6 5 6 6 5 5 5 5 6 5 6 5 5 5 5 5 5 5 5 5 5 5 5 5 5 5 5 5 5 5 5 6 5 5 5 6 5 5 5 5 5 6 5 5 5 5 5 5 5 5 5 5 5 5 5 5 5 5 5 5 5 5 5 5 5 5 5 5 5 5 5 5 5 5 5 5 5 5 5 6 5 6 5 5 5 5 5 5 5 5 5 5 5 5 5 5 6 5 6 5 5 5 5 6 5 5 6 6 5 5 5 5 5 6 5 5 5 5 5 5 5 5 5 5 5 5 5 5 5 5 5 5 5 5 5 5 5 5 5 5 5 5 5 5 5 5 6 5 5 5 5 5 5 5 5 5 5 5 5 5 5 5 5 5 5 5 5 5 5 5 6 5 6 5 5 5 5 5 5 5 5 5 5 5 5 5 5 5 5 5 5 5 6 6 5 5 5 5 5 5 5 5 5 5 5 6 5 5 5 5 5 5 5 5 5 5 5 6 5 6 5 5 5 6 5 5 5 5 5 5 5 5 5 5 5 5 5 5 5 5 5 5 5 5 5 5 5 5 5 5 5 5 5 5 5 5 5 5 5 5 6 5 6 5 5 5 5 5 5 5 5 5 5 6 5 5 5 5 5 5 6 5 5 5 5 5 5 5 5 5 5 5 5 5 5 5 5 5 6 6 5 5 5 5 5 5 5 5 5 5 5 5 5 5 5 5 5 5 6 5 5 5 5 5 5 5 5 6 5 5 5 5 5 5 5 5 5 5 5 5 5 5 5 5 5 5 5 5 5 6 5 5 5 5 5 5 5 5 5 5 5 5 5 5 5 5 5 5 5 5 5 6 5 6 5 5 5 5 6 5 5 5 5 5 5 5 5 5 5 5 5 5 5 5 5 5 5 5 5 5 5 5 5 5 5 5 5 5 5 6 6 5 5 6 5 5 5 5 5 5 5 5 5 5 5 5 5 5 6 5 6 5 5 5 5 6 5 5 5 5 5 5 5 5 5 5 5 5 5 5 5 5 5 5 5 5 5 5 5 5 5 5 5 5 5 5 5 5 5 5 6 5 5 6 6 5 5 5 5 5 5 5 5 5 5 5 5 5 5 6 6 5 5 5 5 6 5 6 6 5 5 5 5 5 5 5 5 5 6 5 5 5 5 5 5 5 5 5 5 5 6 5 5 5 5 5 6 5 5 6 5 6 5 5 5 5 6 5 6 5 5 6 5 5 5 5 5 6 5 6 5 5 5 5 6 5 5 5 5 6 5 6 5 5 5 5 5 5 5 6 5 6 5 5 5 6 6 5 5 5 6 6 5 5 5 5 5 5 5 5 5 5 5 6 5 5 5 5 5 5 5 5 6 5 5 6 5 5 5 6 5 5 5 6 5 5 5 5 5 5 5 5 5 5 5 6 5 5 5 5 5 5 5 5 5 6 5 5 5 5 5 5 6 5 5 5 5 6 5 5 5 5 5 5 5 5 5 5 5 5 5 5 5 6 5 5 5 5 5 5 5 5 5 5 5 5 5 5 5 5 5 5 5 5 6 6 5 5 5 5 5 5 6 5 6 5 5 5 5 6 5 5 5 5 5 6 5 5 5 6 5 6 6 5 5 5 5 5 6 5 5 5 5 5 5 5 5 5 5 6 5 6 5 5 5 6 5 5 5 5 5 6 5 6 5 5 5 5 5 6 5 5 5 5 5 5 5 5 6 5 5 5 5 5 6 5 5 5 5 5 5 5 5 5 5 5 5 5 6 5 5 5 5 5 5 5 5 5 5 5 5 5 5 5 5 6 5 5 5 6 5 6 5 5 6 5 5 5 5 5 5 5 6 5 6 5 5 5 5 6 5 5 5 6 5 5 5 5 6 5 5 6 5 5 5 5 6 5 5 5 5 5 5 5 5 5 6 5 5 6 5 5 5 5 5 6 6 5 5 6 5 5 6 5 5 5 5 5 5 5 5 5 5 5 5 5 5 5 5 5 5 5 5 6 5 5 5 5 5 6 5 6 5 5 6 5 6 5 5 5 5 6 5 5 5 5 6 5 5 5 5 5 5 5 5 6 5 5 6 5 5 5 6 6 5 5 6 5 5 5 6 5 6 5 5 5 5 5 5 5 5 5 5 5 5 5 5 6 5 5 5 6 5 5 5 5 6 5 5 5 5 5 5 5 5 5 5 5 5 6 5 5 6 5 5 6 5 5 5 6 5 5 5 6 6 5 5 5 5 5 5 5 5 5 5 5 5 6 5 6 5 5 6 5 5 6 5 5 5 5 5 5 5 6 6 6 6 5 5 6 5 5 5 5 6 5 6 5 5 6 5 5 5 5 5 5 5 6 5 6 5 5 5 5 5 5 5 5 6 5 5 5 5 6 5 5 6 6 5 6 5 5 5 5 6 5 5 5 6 5 5 6 5 5 6 5 6 5 6 5 5 6 5 6 5 5 5 5 5 6 5 5 5 6 5 6 5 5 5 6 5 5 5 5 5 5 5 5 5 5 5 5 5 6 5 5 6 5 5 6 5 5 5 5 6 5 5 5 6 5 5 5 5 5 5 6 5 6 5 5 5 5 5 6 5 5 5 5 6 5 5 5 5 5 5 5 5 5 5 6 5 6 5 5 5 6 5 5 6 5 5 6 5 5 5 5 6 5 5 6 5 5 5 6 5 5 5 5 6 5 5 5 5 5 5 5 6 5 6 5 5 6 5 5 5 5 5 5 5 6 5 5 5 5 6 5 5 5 5 5 5 5 6 6 5 6 5 5 5 6 5 5 5 5 5 6 5 5 5 5 5 5 5 5 5 5 6 5 5 5 5 5 5 5 6 5 5 5 5 5 5 5 6 5 5 5 5 5 5 6 5 5 5 5 5 5 5 5 5 5 5 5 5 5 5 5 5 5 5 5 5 5 5 5 5 5 5 5 5 5 5 5 5 5 5 5 5 5 5 5 5 5 5 5 5 5 5 5 5 5 5 5 5 5 5 5 5 5 5 5 5 5 6 5 6 5 6 5 5 5 5 5 5 5 5 5 5 6 5 6 6 5 6 5 5 5 5 6 5 5 5 5 6 5 5 5 5 5 5 5 5 5 5 5 6 5 5 5 5 5 5 5 5 5 5 5 5 5 5 5 5 5 6 5 5 5 5 5 5 6 5 5 5 5 5 6 5 5 5 5 5 5 6 5 5 5 5 5 5 5 5 5 5 5 5 5 5 6 5 6 5 5 5 5 6 5 5 5 6 5 5 5 5 6 6 5 6 5 5 6 5 5 5 5 5 5 5 5 5 5 5 5 5 5 5 6 5 5 6 5 5 5 6 5 5 5 5 6 5 5 5 5 5 5 5 5 6 5 5 5 5 5 5 5 5 5 5 6 5 5 5 6 5 5 5 5 5 5 5 5 5 5 5 5 5 5 5 6 5 5 5 6 5 5 6 5 6 5 5 6 6 6 5 5 5 5 6 5 5 5 5 5 6 5 5 6 5 5 5 5 5 5 5 5 5 5 5 5 6 5 5 5 5 5 6 5 5 5 5 6 6 5 5 5 5 6 5 5 5 5 5 5 5 5 5 5 5 6 5 5 5 5 5 5 5 6 5 5 6 5 5 6 5 5 5 6 5 6 5 5 5 6 6 5 6 5 5 5 5 5 5 5 5 5 5 5 5 5 5 5 5 5 5 5 5 5 5 5 6 5 5 6 5 5 5 5 5 5 5 5 5 5 5 5 5 5 5 5 5 5 5 5 5 5 5 5 5 5 5 5 5 5 5 6 5 5 5 5 6 5 5 5 5 5 5 5 6 5 5 5 5 5 6 5 6 6 5 5 5 5 5 5 5 5 5 5 5 6 5 5 5 6 5 5 5 5 5 5 5 5 5 5 5 5 5 5 5 5 5 5 5 5 5 5 5 5 5 5 5 5 5 5 5 5 6 5 5 5 5 5 6 5 6 5 5 5 5 6 5 5 5 5 5 5 5 5 5 5 5 5 5 5 5 5 5 5 6 5 5 5 5 5 5 6 6 5 5 5 5 5 5 5 5 5 5 6 6 5 5 5 5 6 5 5 6 5 5 5 5 5 5 5 5 5 5 6 5 6 5 6 5 5 5 5 5 6 5 5 5 5 5 6 5 5 5 5 5 5 5 5 5 5 5 5 5 5 5 6 5 6 5 5 5 5 5 5 5 5 5 5 5 5 5 5 5 6 5 5 5 5 5 5 5 5 5 5 5 6 5 5 5 5 5 5 5 5 5 5 5 5 5 5 5 5 5 5 5 5 5 6 5 5 5 5 5 5 5 5 5 5 5 5 5 5 6 5 5 5 5 5 5 5 5 5 5 5 5 5 5 5 5 5 5 5 5 5 5 5 5 5 5 5 5 5 5 5 5 5 5 5 5 5 5 5 5 5 6 5 5 5 5 5 5 5 5 6 5 5 5 5 5 5 5 5 5 5 5 5 5 5 6 5 5 6 5 5 5 5 5 5 5 5 5 6 5 5 5 5 5 5 5 6 6 5 5 5 5 5 5 5 5 5 5 5 5 6 5 5 5 6 5 5 5 5 5 5 5 6 5 5 6 5 5 5 5 5 5 5 5 5 5 5 5 5 6 5 5 5 6 5 5 5 5 5 6 5 5 6 6 5 5 5 6 5 5 5 6 5 5 5 6 5 5 5 5 5 5 5 5 5 5 5 5 5 6 5 5 5 5 6 5 5 5 5 5 6 5 5 5 5 5 5 6 5 5 5 5 5 5 5 5 5 5 5 5 5 5 5 5 5 5 5 5 5 5 5 5 5 5 5 5 5 5 5 5 5 5 5 5 5 5 5 5 5 5 5 5 5 6 5 5 5 5 5 5 5 5 5 5 5 5 5 6 5 5 5 5 5 6 5 5 5 5 6 5 5 5 5 6 5 5 5 6 6 5 5 6 5 6 6 5 5 5 6 5 5 5 5 5 5 5 6 5 5 5 5 6 5 5 5 5 5 5 5 5 6 5 6 5 5 6 5 5 5 5 5 5 5 5 5 5 5 6 5 6 5 5 5 5 5 5 5 6 5 5 5 5 5 6 5 5 5 5 5 5 5 5 5 6 5 5 5 5 5 5 5 5 5 5 5 5 5 5 5 5 5 5 5 5 5 5 5 5 5 5 5 5 5 5 5 5 5 5 5 5 5 5 5 5 5 6 5 5 5 5 5 5 5 5 5 5 5 5 5 5 5 5 6 5 5 5 5 5 5 5 5 5 5 5 5 5 5 5 5 5 5 5 5 5 5 5 5 5 5 5 5 5 5 5 5 5 5 5 5 5 5 5 5 5 5 5 5 5 5 5 5 5 5 5 5 5 5 5 5 5 5 5 5 5 5 5 5 5 5 5 5 5 5 5 5 5 5 5 5 5 5 5 5 5 5 5 5 5 5 5 5 5 5 5 5 5 5 5 5 5 5 5 5 5 5 5 6 5 5 5 5 5 5 5 5 5 5 5 5 5 6 5 5 5 5 5 5 5 5 5 5 6 5 5 5 5 5 5 5 5 5 5 5 5 5 5 5 5 5 5 5 5 5 5 5 5 5 5 5 6 5 5 5 5 5 5 5 5 6 5 5 5 5 5 5 5 5 5 5 5 5 5 5 5 6 5 5 5 5 5 5 5 5 5 5 5 5 6 5 5 5 5 5 5 5 5 5 5 5 5 5 5 5 5 5 5 5 5 5 5 5 5 5 5 6 6 5 5 5 5 5 5 5 6 5 5 5 5 6 5 6 5 5 5 5 6 5 5 6 5 5 6 5 5 5 5 5 5 5 5 5 5 5 5 5 5 5 5 5 5 5 5 5 5 5 5 5 5 5 5 5 5 5 5 5 5 5 5 5 5 5 5 6 5 5 5 6 5 5 5 5 5 5 5 5 5 6 5 5 5 5 5 5 6 5 5 5 6 5 5 5 6 5 5 5 5 5 5 5 6 6 6 5 6 6 5 5 6 6 5 5 5 5 5 5 5 5 5 5 5 5 5 5 5 5 5 5 5 5 5 5 5 5 5 5 6 6 5 5 5 6 6 5 6 5 6 5 6 6 5 5 5 5 5 6 5 5 5 5 6 5 5 5 5 5 5 5 6 5 6 5 5 6 5 5 5 5 6 5 5 5 5 5 5 5 5 5 5 5 5 5 5 5 5 5 6 5 5 6 5 5 6 5 5 5 5 6 5 5 5 5 5 6 5 5 5 6 5 6 5 5 5 5 5 6 6 5 6 5 5 6 5 5 5 5 5 6 5 5 5 5 5 5 5 5 6 5 5 5 5 5 5 5 5 5 6 5 5 5 5 5 5 5 5 5 5 5 5 5 5 5 5 5 5 5 5 5 5 5 5 5 5 5 5 5 5 5 5 5 5 5 5 5 5 5 5 5 5 5 5 5 5 5 5 5 5 5 5 5 5 5 5 5 5 5 5 5 5 5 5 5 5 5 5 5 5 5 5 5 5 5 5 5 6 6 5 5 6 5 5 5 5 5 5 5 6 5 5 5 5 5 5 5 5 6 5 5 5 5 5 5 5 5 6 5 5 5 5 5 5 5 5 5 5 5 5 5 5 5 5 5 5 5 5 5 5 5 5 5 5 5 6 5 5 5 6 5 5 5 6 6 5 5 6 6 5 5 6 6 5 5 5 5 5 5 5 5 5 5 5 5 5 5 5 5 5 5 5 6 5 5 5 5 6 5 5 5 5 5 5 5 5 5 5 5 5 5 6 5 5 5 5 5 5 5 5 5 5 5 6 5 5 5 6 5 5 6 6 5 5 5 5 5 5 5 5 6 5 5 5 5 5 6 5 5 5 5 5 5 5 5 5 5 5 5 5 5 6 5 6 6 5 5 5 5 5 6 5 5 5 6 5 6 5 5 6 5 5 5 5 6 5 5 5 6 5 5 5 5 6 5 5 6 5 5 6 5 5 5 5 5 5 5 5 5 5 5 5 5 5 5 5 5 5 5 5 5 5 5 5 5 5 5 5 5 5 5 5 5 5 5 5 5 5 5 5 5 5 5 5 5 5 5 5 5 5 5 5 5 5 5 5 5 5 5 5 5 5 5 5 5 5 5 5 5 5 5 5 5 5 5 5 5 5 5 5 5 5 5 5 5 5 5 5 5 5 5 5 5 5 5 5 5 5 5 5 5 5 5 5 5 5 5 5 5 5 5 5 5 5 5 5 5 5 5 5 5 5 5 5 5 5 5 5 5 5 5 5 5 5 5 5 5 5 5 5 5 5 5 5 5 5 5 5 5 5 5 5 5 5 5 5 5 5 5 5 6 5 5 5 5 5 5 5 5 5 6 6 5 5 6 5 6 5 6 5 5 5 5 5 5 5 5 5 5 5 5 5 5 5 5 5 5 5 5 5 5 5 5 5 5 5 5 5 5 5 5 5 5 5 5 5 5 5 5 5 5 5 5 5 5 5 5 5 5 5 5 5 5 5 5 5 5 5 5 5 5 5 5 5 5 5 5 5 6 5 5 5 5 5 5 5 5 5 5 5 5 5 5 5 5 5 5 5 5 5 5 5 5 5 5 5 5 5 5 5 5 5 5 5 5 5 5 5 5 5 5 5 5 6 5 5 5 5 5 5 5 5 5 5 6 5 5 5 5 5 5 5 5 5 5 6 5 5 5 5 5 5 5 5 5 5 5 5 5 5 5 5 5 6 5 5 6 5 5 5 5 5 5 5 5 5 6 5 6 5 6 5 5 5 5 5 5 5 5 6 5 5 6 5 5 5 5 5 5 5 5 6 5 5 5 5 5 5 5 5 5 5 5 5 5 5 5 5 5 5 5 5 5 5 5 5 5 5 5 5 5 6 6 5 6 5 5 5 5 6 5 5 5 5 6 6 5 5 5 5 5 5 5 5 5 5 5 5 5 5 6 5 6 6 5 5 5 6 5 5 5 5 5 5 5 5 5 5 5 5 5 5 5 5 5 5 5 6 5 5 5 5 5 5 5 5 5 5 5 5 5 5 5 5 5 5 5 5 6 5 5 5 5 5 5 5 5 5 6 5 5 6 5 5 5 5 5 5 5 6 5 5 5 5 5 5 5 5 5 5 5 5 5 5 5 5 5 5 5 5 6 5 6 6 5 6 5 5 5 5 5 5 5 5 5 5 5 5 5 5 5 5 5 5 5 5 6 5 6 5 5 5 5 5 5 5 5 5 5 5 5 6 5 5 5 5 5 5 5 5 5 5 5 6 5 5 5 5 5 5 5 5 5 5 5 5 5 5 5 5 5 5 5 5 5 5 5 6 5 5 5 5 5 5 5 5 5 5 5 5 5 5 5 5 5 5 5 6 5 5 5 5 5 6 5 5 6 5 5 6 5 5 5 5 5 5 5 5 5 5 5 5 6 5 5 6 5 5 5 5 5 5 5 5 5 5 5 5 5 5 5 5 5 5 5 5 5 5 6 5 5 5 5 6 5 6 5 5 5 5 5 5 5 5 5 5 5 5 5 6 5 6 6 5 6 5 6 5 5 5 5 5 5 6 5 5 5 5 5 5 5 5 5 5 5 5 5 5 6 5 5 5 6 5 5 5 5 5 5 6 5 5 6 5 5 5 5 5 5 5 6 5 5 5 5 5 5 5 5 5 5 5 5 5 5 5 5 5 5 5 5 5 5 6 5 6 5 5 5 5 5 5 5 6 5 5 5 5 5 5 5 5 5 6 5 5 5 5 5 5 5 5 5 5 5 5 5 5 5 5 5 5 6 5 6 5 5 5 6 5 6 5 5 5 5 5 5 6 5 5 5 5 5 5 5 5 5 5 5 6 5 5 6 5 5 5 5 5 6 6 5 6 5 5 6 6 5 6 5 5 5 5 5 5 5 5 5 5 5 5 5 5 5 5 5 5 5 5 5 5 5 5 5 5 5 6 5 5 5 6 5 5 5 5 5 5 5 5 5 5 5 5 5 5 5 6 5 5 5 5 5 5 6 5 5 5 5 5 5 6 5 5 5 5 5 5 5 5 5 5 6 6 5 5 5 5 5 5 5 5 5 5 5 5 5 5 5 6 5 5 5 6 6 5 5 5 5 5 5 5 5 5 5 5 6 5 5 5 5 5 5 5 5 5 5 5 5 5 5 5 5 5 5 5 5 5 5 5 5 5 5 5 5 5 5 5 5 5 5 5 5 5 5 5 5 5 6 5 6 5 5 5 5 5 5 5 6 5 5 5 5 5 6 5 5 5 6 5 5 5 5 5 5 5 5 5 5 5 6 6 5 6 6 5 5 6 5 5 5 6 5 5 5 5 6 5 5 5 5 5 5 5 6 5 5 5 5 5 5 5 5 5 5 5 5 5 5 5 6 5 5 5 5 5 5 5 5 6 5 5 5 6 6 6 5 5 5 6 5 5 5 6 5 5 5 5 6 6 5 6 5 5 5 6 5 5 5 5 5 6 5 5 5 5 6 5 5 5 5 6 5 5 5 5 5 5 5 5 5 5 5 5 5 5 5 5 6 5 5 5 5 6 5 6 5 5 5 5 5 5 5 5 5 5 5 5 6 5 5 5 5 5 5 5 5 5 5 5 6 5 5 5 5 5 5 5 5 6 5 5 5 6 5 6 5 5 5 5 5 5 5 5 5 5 5 5 5 5 5 5 5 5 5 5 5 5 5 5 5 5 5 5 5 5 5 5 6 5 5 5 5 5 5 5 5 5 5 5 5 5 5 5 5 5 5 5 5 5 5 5 5 5 5 5 5 5 5 5 5 5 6 5 6 5 6 5 5 5 5 5 5 5 5 5 5 5 5 5 5 6 5 5 5 6 5 5 5 5 5 5 5 5 5 5 5 6 5 5 5 5 5 5 5 5 5 5 5 5 6 5 5 5 6 5 5 5 5 5 5 5 5 5 5 5 5 5 5 5 6 5 6 5 5 5 5 5 6 5 5 5 5 5 5 5 5 5 5 5 5 5 5 5 5 5 5 5 5 5 5 5 5 5 5 5 5 5 5 5 5 5 5 5 5 5 5 5 5 5 5 5 5 5 5 5 5 5 5 5 5 5 5 5 6 6 5 5 5 5 5 5 5 5 5 6 5 5 5 5 5 5 5 5 5 6 5 5 5 6 5 5 5 5 5 5 5 5 6 5 5 5 6 5 5 5 6 5 5 5 5 5 5 5 5 5 5 5 5 5 5 5 5 5 5 5 5 5 5 5 5 5 6 5 5 5 6 5 5 5 5 5 5 5 5 5 5 5 5 5 5 5 6 5 6 5 5 5 5 5 5 6 5 5 5 5 5 5 5 6 5 5 5 6 5 5 5 5 6 5 5 6 5 5 5 5 6 5 5 5 5 5 5 6 5 5 5 5 5 5 5 5 5 5 5 5 5 5 5 5 5 5 5 5 5 5 5 5 5 5 5 6 5 5 5 6 5 5 5 5 5 5 5 5 6 6 5 5 5 5 5 5 5 6 5 5 6 5 5 5 6 5 5 6 5 5 5 6 5 6 6 5 6 6 5 5 5 6 6 5 5 5 6 5 5 5 6 5 5 5 5 5 5 5 5 5 5 5 5 5 5 5 5 5 5 5 5 6 5 5 5 5 6 5 5 5 5 5 5 5 6 5 5 6 5 5 5 5 5 6 6 5 5 6 6 5 5 5 5 5 5 5 5 6 6 5 6 5 5 5 5 6 5 5 6 5 5 5 5 5 5 5 5 5 5 5 5 6 5 5 6 5 5 5 5 5 5 5 5 5 5 5 6 5 5 5 5 5 5 5 5 5 5 5 5 5 5 5 5 5 5 5 5 5 5 5 5 5 6 5 6 5 5 5 5 5 5 6 5 5 5 5 5 5 5 5 5 5 5 5 5 5 5 5 5 5 5 5 5 5 5 5 5 5 6 5 5 5 6 5 5 5 5 5 5 6 5 5 5 6 5 5 5 5 6 5 5 5 5 5 5 5 5 5 6 5 5 5 5 5 5 5 5 5 5 5 5 5 5 5 5 5 5 5 5 5 5 6 5 5 5 5 6 5 5 5 5 5 5 5 5 5 5 5 5 5 5 5 6 5 5 5 5 5 6 5 5 5 5 5 5 6 5 5 6 5 5 5 5 5 6 5 5 5 5 5 6 5 5 5 5 5 5 5 6 5 6 5 5 5 5 6 5 5 5 6 5 5 6 5 5 5 6 5 5 5 5 6 6 5 5 5 5 5 5 6 5 5 5 6 6 5 5 5 5 5 5 5 5 5 5 5 5 5 5 5 5 5 5 5 5 5 5 5 5 5 5 5 5 6 5 5 5 5 5 5 5 5 6 5 5 5 5 6 5 5 5 5 5 5 5 5 5 5 5 5 5 6 5 6 5 5 5 5 6 5 5 5 5 5 5 5 5 5 5 5 5 5 5 5 5 5 5 5 6 5 5 5 5 5 5 5 5 5 5 5 5 6 5 6 5 5 5 6 5 5 5 5 5 5 5 5 5 5 5 5 5 5 5 5 5 5 6 5 5 5 5 5 5 6 5 5 5 5 5 5 5 6 5 5 6 5 5 5 5 5 5 5 5 5 5 5 5 5 5 5 5 5 5 6 5 5 5 5 6 5 5 5 5 5 5 5 6 6 5 5 5 6 5 5 5 5 6 5 5 5 5 5 5 5 5 6 5 5 5 5 5 5 5 5 5 6 5 5 5 5 6 5 5 5 5 5 5 6 5 5 5 5 5 5 5 5 5 6 5 5 5 5 5 5 5 5 5 5 5 5 5 6 5 5 5 6 5 6 5 5 5 6 5 5 5 5 6 5 5 5 6 5 5 5 5 6 5 5 5 5 5 5 5 5 5 6 5 5 5 5 5 5 5 5 5 5 6 5 5 5 5 6 5 5 5 5 5 5 5 5 5 5 5 5 5 5 5 5 5 5 5 5 5 5 5 6 5 6 6 5 5 5 5 5 5 6 5 5 5 6 6 5 6 6 5 6 5 5 5 5 5 6 5 5 5 5 5 5 5 6 5 5 6 5 5 5 5 5 6 6 5 5 6 6 5 5 5 5 5 5 6 5 5 6 5 6 5 5 5 5 5 5 6 5 6 5 5 5 5 5 5 5 5 5 5 5 5 6 5 5 5 5 5 5 6 5 6 5 6 5 5 5 5 5 5 5 5 5 5 5 5 5 5 5 6 5 5 5 5 6 5 5 5 6 5 5 5 5 5 5 5 6 5 5 5 5 5 6 6 5 5 5 5 6 5 5 5 5 5 5 5 6 6 5 5 5 5 5 5 6 5 6 5 5 5 5 5 5 5 5 6 5 5 5 5 5 6 5 5 6 5 5 6 5 6 5 5 5 6 6 5 5 5 5 5 5 6 5 6 5 5 5 6 5 5 6 5 5 5 5 5 5 5 5 5 5 5 5 5 5 5 5 5 6 5 5 5 6 5 6 5 5 5 5 5 6 6 5 5 5 6 5 5 5 5 5 6 5 5 5 5 5 5 5 6 5 5 5 5 5 5 5 5 5 5 6 5 6 5 5 5 5 5 5 5 5 6 5 5 6 6 5 6 5 5 6 5 5 5 5 6 5 6 5 5 5 5 6 5 5 5 5 6 5 5 5 5 6 6 5 5 5 5 5 5 5 5 6 5 5 5 5 5 6 5 5 5 5 5 5 5 5 5 5 5 5 5 5 6 5 5 6 5 5 5 5 5 6 5 5 6 5 5 5 5 6 5 5 6 6 6 5 5 5 5 6 5 6 5 5 5 6 5 5 6 5 5 5 5 5 5 5 5 5 5 5 5 5 5 5 5 5 5 5 5 5 5 5 5 5 6 5 5 5 5 5 5 5 5 6 5 5 5 5 5 5 5 5 5 5 5 5 5 5 5 5 5 6 5 5 5 5 5 5 6 6 5 6 5 5 5 6 6 5 5 5 5 5 5 5 5 5 5 5 5 5 5 6 5 6 5 5 5 5 5 5 5 5 5 5 5 5 5 5 5 5 5 5 5 5 5 5 5 5 5 5 5 5 5 5 5 5 5 5 5 5 5 5 5 5 5 5 5 5 5 5 5 5 5 6 5 5 6 5 5 5 5 5 5 5 6 5 6 5 5 5 5 5 5 5 5 5 6 5 5 5 5 6 5 5 5 5 5 6 5 5 5 5 5 5 5 5 5 5 5 5 5 5 5 5 5 5 5 5 5 5 5 5 5 5 5 6 5 5 5 5 5 5 5 6 5 5 5 5 6 5 6 5 5 5 5 6 5 5 5 6 5 5 5 5 5 5 5 5 6 5 5 5 5 5 5 5 5 5 5 5 5 5 5 5 5 5 5 5 5 5 6 5 5 5 5 5 6 5 5 5 5 6 5 5 5 5 5 6 5 5 5 5 5 6 5 5 5 5 5 5 5 5 5 5 6 5 5 5 5 5 5 5 5 5 5 5 6 5 5 5 5 5 6 5 5 5 5 5 5 5 5 5 5 5 6 5 5 5 5 5 5 5 5 5 5 5 5 5 5 5 5 5 5 5 5 5 5 5 5 5 5 5 5 5 5 5 5 5 5 5 5 5 5 5 6 5 5 6 5 5 5 5 5 5 5 5 5 5 5 5 5 5 5 5 5 5 5 5 5 5 5 5 5 5 5 5 5 5 5 5 5 6 5 5 5 5 6 5 5 5 5 5 6 5 5 5 5 6 5 5 6 5 5 5 5 5 5 5 6 6 5 5 5 5 5 6 5 6 5 5 6 5 5 6 5 5 5 5 5 5 5 5 5 5 5 5 5 5 5 5 5 5 5 5 5 5 5 5 5 5 5 5 5 5 5 5 5 5 5 5 5 5 5 5 5 5 5 5 5 5 5 5 5 5 6 5 5 5 5 5 5 5 5 5 5 5 5 5 5 5 5 6 5 6 5 5 5 5 6 5 5 6 5 6 5 6 5 5 5 5 6 5 5 5 5 5 5 5 5 5 5 5 5 5 5 5 6 5 5 5 5 5 5 5 6 5 5 5 6 5 5 5 5 5 5 5 5 6 5 6 5 5 5 6 5 5 5 5 5 6 5 5 5 5 5 5 5 5 5 5 5 5 5 5 5 5 6 5 5 6 5 5 5 5 5 5 5 5 5 5 6 5 5 5 5 5 5 5 5 6 5 6 5 5 5 5 5 5 5 5 5 5 5 6 6 5 5 5 5 5 6 5 6 5 5 5 6 5 6 5 5 5 5 5 5 5 5 6 5 5 5 6 5 5 5 5 5 5 5 5 5 5 5 5 5 5 5 5 5 5 5 5 5 5 5 5 5 5 5 5 5 5 5 5 5 5 5 6 5 5 5 5 5 5 5 5 5 5 5 5 5 5 5 5 5 5 5 5 5 5 5 6 5 5 5 5 5 5 6 5 6 5 5 6 5 5 5 5 6 5 6 5 5 5 5 5 5 5 6 5 5 5 5 5 5 5 5 5 5 5 5 5 5 5 5 5 5 5 5 5 5 6 5 5 6 5 5 5 6 5 5 5 5 5 5 5 5 5 5 5 5 5 5 5 6 5 5 5 5 5 5 5 5 6 5 5 5 5 6 5 5 5 5 5 5 5 5 6 5 5 6 6 5 5 5 5 5 5 5 5 5 5 5 5 6 5 5 6 5 5 6 5 5 5 6 5 5 5 5 5 5 5 5 5 5 6 5 5 5 5 5 5 5 5 5 5 5 5 5 5 6 6 5 5 5 5 5 5 5 5 5 5 5 5 5 5 5 5 5 5 5 5 5 5 5 5 5 5 5 5 5 5 5 5 6 5 5 6 5 5 5 5 5 5 5 5 5 5 5 5 5 6 5 5 5 5 5 5 5 5 6 5 5 5 5 5 5 5 5 6 5 5 5 5 5 5 5 5 5 5 5 5 5 5 5 5 5 5 5 5 5 5 5 5 5 5 5 5 5 5 5 5 5 5 5 5 5 5 5 6 5 5 5 5 6 5 5 5 5 5 5 5 5 5 5 5 5 5 6 5 5 5 6 5 5 5 5 5 5 6 5 5 5 5 5 6 5 5 5 6 5 5 5 5 5 6 5 5 6 5 5 5 5 5 5 5 5 5 5 5 5 5 5 5 5 5 5 5 5 5 6 5 5 5 5 5 6 5 5 5 5 5 5 5 5 5 6 5 5 5 5 5 5 5 5 5 5 5 5 5 5 5 5 5 5 5 5 5 5 5 5 5 5 6 5 5 5 5 5 6 5 5 5 5 5 5 6 5 5 5 5 5 5 6 5 5 6 5 5 5 5 5 5 5 6 6 5 6 5 6 5 5 5 6 6 5 6 6 5 5 5 5 5 5 5 5 5 5 5 5 5 5 5 5 5 5 5 5 5 5 5 5 5 5 5 5 5 5 5 6 5 5 5 5 6 5 5 6 5 6 5 5 5 6 5 5 6 5 5 6 6 5 5 5 5 5 5 5 5 5 5 5 5 5 5 6 5 6 5 5 5 5 6 5 5 5 6 5 5 5 6 6 5 5 5 5 5 5 5 5 5 5 5 5 5 6 5 5 5 5 5 5 6 6 5 5 5 6 5 5 6 5 5 5 5 6 5 5 6 5 5 6 5 5 6 6 5 6 5 6 5 6 5 6 5 5 5 6 5 6 5 6 5 5 6 5 5 5 5 6 5 5 5 5 5 5 5 5 5 5 5 5 5 5 6 5 5 5 5 5 6 5 5 5 5 5 5 6 5 5 6 5 5 5 6 5 5 6 5 6 5 5 5 5 5 5 5 5 5 5 5 5 5 5 5 5 5 6 5 5 6 5 5 5 5 6 6 5 5 5 5 5 5 5 5 5 5 5 5 5 5 5 6 5 5 5 5 5 5 5 5 5 6 5 5 5 5 5 6 5 5 5 5 5 5 5 5 5 5 6 6 5 5 5 5 5 5 5 5 5 6 5 5 5 5 5 5 5 5 5 5 5 5 5 5 6 5 5 5 6 6 5 5 6 5 5 5 6 5 5 5 6 5 5 5 5 5 6 5 5 5 5 5 5 6 5 5 5 5 6 5 5 5 5 5 5 5 5 5 6 5 5 5 5 5 6 5 5 6 5 5 5 5 5 5 5 5 5 5 5 5 5 5 5 5 5 5 5 5 6 5 5 5 5 5 5 6 5 5 5 5 5 5 5 5 5 5 5 5 5 5 5 5 5 5 5 6 5 5 5 6 5 6 5 5 5 5 5 5 6 5 6 5 5 5 5 6 5 5 5 5 5 5 5 5 5 6 5 5 5 5 5 5 5 5 5 5 5 6 5 6 6 5 5 6 5 6 5 5 5 6 5 5 5 5 5 5 5 6 5 5 5 6 5 5 5 5 5 5 5 5 5 5 5 5 5 5 5 5 5 5 5 6 5 5 6 5 5 6 5 5 5 5 6 5 5 5 6 6 5 5 5 6 5 5 5 5 6 5 6 6 5 5 6 5 5 5 5 6 5 6 5 5 5 5 5 5 6 5 5 6 5 5 5 5 5 5 6 5 5 5 6 5 5 5 6 5 5 5 5 5 5 5 5 5 5 5 5 5 5 6 5 5 5 5 6 5 5 5 6 5 5 5 6 5 5 5 5 5 5 5 6 5 5 6 5 5 5 5 6 5 5 5 6 5 5 5 5 5 5 5 5 5 5 5 5 5 5 5 5 5 5 5 5 5 5 5 5 5 5 5 5 5 5 5 5 5 5 5 5 5 5 5 5 5 6 5 5 5 5 5 5 6 5 6 5 5 6 5 5 5 5 5 5 5 5 5 5 5 5 6 6 5 5 6 5 5 5 6 5 5 5 5 6 5 5 5 5 6 5 6 5 5 5 5 5 5 6 6 5 6 6 5 5 5 6 6 5 6 6 5 5 5 6 5 5 5 5 5 6 6 6 5 5 5 5 6 5 5 5 6 5 5 5 6 5 5 6 5 5 5 6 5 5 6 5 6 6 5 6 5 5 5 6 6 5 5 5 5 6 5 6 6 5 6 5 5 5 5 5 5 5 5 6 5 5 5 5 5 5 5 5 5 5 5 6 5 5 5 6 6 5 6 5 6 5 5 6 6 5 6 6 5 5 6 5 5 5 5 6 6 5 5 6 5 5 6 5 5 6 5 6 5 6 5 6 5 5 6 5 5 5 6 5 6 6 5 5 6 5 5 5 5 5 5 5 6 5 5 5 5 5 5 6 5 5 5 6 5 5 5 5 5 6 5 5 5 6 5 5 5 6 6 5 5 5 6 5 5 5 5 6 5 5 5 5 5 5 6 5 5 5 5 5 6 5 5 5 5 5 5 5 5 5 5 6 5 5 5 5 5 5 5 5 5 5 5 5 5 5 6 5 5 5 5 5 6 5 5 5 5 5 5 5 5 5 5 5 5 5 5 5 5 5 5 5 5 5 5 5 5 5 5 5 5 5 5 5 5 5 5 5 5 5 5 5 5 5 5 5 5 5 5 5 5 5 5 6 5 5 5 6 5 5 5 5 6 5 5 5 6 5 5 5 5 5 5 5 5 5 5 5 5 5 5 6 5 5 5 6 6 5 5 5 6 5 5 6 5 5 6 5 5 5 6 5 5 5 5 5 5 5 6 6 5 5 5 6 5 5 5 5 5 6 5 5 5 5 6 5 5 5 5 5 6 5 5 5 5 6 5 5 5 5 5 5 6 5 5 6 5 5 5 5 5 5 5 5 6 5 5 5 5 5 5 5 5 5 5 5 5 5 5 5 5 6 5 5 6 5 5 5 6 5 5 5 5 6 5 5 5 6 5 5 5 5 5 6 6 5 5 5 5 5 5 5 5 5 5 5 5 5 5 5 5 5 5 5 5 5 6 5 5 5 5 5 6 6 5 5 5 5 6 5 5 5 6 5 6 5 5 6 5 5 5 5 6 5 5 5 6 6 5 6 6 5 5 6 5 5 5 6 5 5 5 6 5 6 5 6 5 5 5 6 5 6 6 5 5 5 5 5 5 5 5 5 5 5 5 5 5 5 5 6 5 6 5 6 5 6 6 5 5 5 6 5 5 5 5 6 5 5 5 5 6 5 5 5 5 5 5 5 5 6 6 5 5 6 6 5 5 5 5 5 5 5 5 5 5 5 5 5 5 5 6 5 5 5 5 6 5 5 5 5 5 5 5 5 5 5 5 5 5 5 6 5 6 5 5 5 5 6 5 5 5 5 5 5 6 5 5 6 5 5 5 5 5 5 5 5 5 5 5 5 5 5 5 5 5 5 5 5 5 5 5 5 5 5 6 5 5 5 5 5 5 5 5 5 5 5 5 6 5 5 5 5 5 6 5 5 5 6 5 5 5 5 5 6 6 5 5 6 5 5 5 5 5 5 5 5 5 5 5 6 5 5 6 5 5 5 5 5 5 5 5 5 5 5 5 5 5 5 5 5 6 5 5 5 5 5 5 5 5 5 5 5 5 5 5 5 5 6 5 5 5 5 6 5 5 5 5 6 5 5 5 6 5 6 5 5 5 5 6 5 5 5 5 5 5 5 5 5 5 5 6 5 5 5 5 5 5 6 5 5 5 5 5 5 5 5 5 5 5 5 5 5 5 5 5 5 6 5 5 5 5 5 5 5 6 5 5 5 5 5 5 5 5 5 5 5 5 5 5 5 5 5 5 5 5 5 5 5 5 5 5 5 5 5 5 5 5 5 5 5 5 6 5 5 5 5 5 6 5 5 5 5 5 5 5 5 5 5 5 5 5 6 5 5 5 5 6 5 5 5 6 5 5 5 5 5 5 5 5 5 5 5 5 5 5 5 5 5 5 5 5 5 5 5 5 5 5 5 5 6 5 5 6 5 5 6 5 5 5 5 6 5 5 5 5 5 5 5 5 5 5 5 5 5 
</DataArray>
<DataArray type="Float64" Name="stress" NumberOfComponents="9" format="ascii">
4433.7074411566136 -3802.0644484183395 0 -3802.0644484183395 -0.82573152091936208 0 0 0 0 -1.6144750219536945 -3060.3409128646272 0 -3060.3409128646272 3722.0073301948796 0 0 0 0 560.61221949204628 -768.82877821297734 0 -768.82877821297734 401.28955063905596 0 0 0 0 3047.8891118224274 -1486.2428423363053 0 -1486.2428423363053 -418.56348654984322 0 0 0 0 186.5540683864092 -636.41186315901359 0 -636.41186315901359 -74.655740760354092 0 0 0 0 -4.4654914072639258 -5.114650767101125 0 -5.114650767101125 1.7747071832442316 0 0 0 0 731.51580381765962 -249.80540289529745 0 -249.80540289529745 -139.84452520872583 0 0 0 0 -278.19284903537482 -1011.7781991345983 0 -1011.7781991345983 -387.208477838416 0 0 0 0 942.40428365433763 464.07498103171383 0 464.07498103171383 -1505.6968876362953 0 0 0 0 -23.95730004934012 -850.73745780349418 0 -850.73745780349418 -293.08523622994835 0 0 0 0 586.84975368261803 -967.1550899232825 0 -967.1550899232825 -744.108100604426 0 0 0 0 3767.7380355889909 -81.390148584614508 0 -81.390148584614508 -1486.7332502118079 0 0 0 0 106.37397209490928 -22.320491511878259 0 -22.320491511878259 1.7989249817990505 0 0 0 0 199.96517873022822 -1186.2219925108147 0 -1186.2219925108147 -867.39652757655131 0 0 0 0 796.00009221626533 -1333.8430515229848 0 -1333.8430515229848 1645.6696183097083 0 0 0 0 -186.94985753926449 -1344.8242600154117 0 -1344.8242600154117 4613.889330816648 0 0 0 0 40.786750013538267 -9.4090525673845491 0 -9.4090525673845491 2.6503578026505288 0 0 0 0 16.289905216239276 -407.8876525028536 0 -407.8876525028536 2.2993819338662433 0 0 0 0 444.1357617907488 -586.43830583045201 0 -586.43830583045201 63.404692326090299 0 0 0 0 113.98851289512822 -355.74750300115556 0 -355.74750300115556 -463.088013497867 0 0 0 0 168.669078402163 -147.51252913021017 0 -147.51252913021017 319.0215098408371 0 0 0 0 137.1772410786125 -40.453718243884737 0 -40.453718243884737 3.3431401019506026 0 0 0 0 -3646.3587643319042 298.29717522599094 0 298.29717522599094 571.08377229548933 0 0 0 0 -822.05281151576378 -207.59859113767891 0 -207.59859113767891 57.5601623046241 0 0 0 0 -845.05479647402535 -1112.1628862537036 0 -1112.1628862537036 -237.67551351283328 0 0 0 0 -649.61354637581098 -1032.2087502793584 0 -1032.2087502793584 -1058.700177447754 0 0 0 0 -1128.9597020889632 454.16490822948981 0 454.16490822948981 -153.81493533767934 0 0 0 0 -18.047461120779019 -24.637912061158715 0 -24.637912061158715 13.43522746589646 0 0 0 0 -236.49238416893058 -249.38763497060427 0 -249.38763497060427 34.814133336534724 0 0 0 0 28.196237069502786 -6.064656826582322 0 -6.064656826582322 -14.325610886253912 0 0 0 0 -2202.4708215172723 -478.27273765723658 0 -478.27273765723658 20.325866869927268 0 0 0 0 -152.65277155539661 -1525.3100725831609 0 -1525.3100725831609 -939.69254618519335 0 0 0 0 -70.041247886314522 -232.0641147444403 0 -232.0641147444403 -860.81969963037409 0 0 0 0 -1017.070326696281 -1091.4007798853891 0 -1091.4007798853891 3815.4012974915677 0 0 0 0 2.245333487669086 -16.785033866392553 0 -16.785033866392553 -16.664916184028499 0 0 0 0 -1005.2404276276793 -1235.5010842667616 0 -1235.5010842667616 730.10947735386435 0 0 0 0 -2437.1649222731248 136.56812511277894 0 136.56812511277894 297.8299972898094 0 0 0 0 -2571.8348707623081 -779.94293850343092 0 -779.94293850343092 846.11563067854149 0 0 0 0 -993.37190644515795 -1054.9496655476978 0 -1054.9496655476978 282.9725867363486 0 0 0 0 -1513.8841494690569 -727.43560851465736 0 -727.43560851465736 228.29460813125479 0 0 0 0 -567.23249840189237 315.42546059728193 0 315.42546059728193 -202.06455170171103 0 0 0 0 -931.68655006855261 -374.49677410739241 0 -374.49677410739241 437.49278476578183 0 0 0 0 45.260137048288016 -195.46547193691367 0 -195.46547193691367 -68.56522148224758 0 0 0 0 90.18562574326856 -86.57007370995251 0 -86.57007370995251 40.141459871439054 0 0 0 0 -83.324944605876226 -223.30278660879412 0 -223.30278660879412 -58.99912746361224 0 0 0 0 -81.902679790218826 -116.59072442920296 0 -116.59072442920296 103.29964562465102 0 0 0 0 -78.152206422848394 -123.02734694897663 0 -123.02734694897663 -49.55024806415895 0 0 0 0 -14.348580108783608 -71.035049760216737 0 -71.035049760216737 -29.556120488844385 0 0 0 0 -93.95531083685637 -205.83377652997297 0 -205.83377652997297 29.154712466232013 0 0 0 0 65.856004557633952 -97.493495798885888 0 -97.493495798885888 16.555559026026742 0 0 0 0 -234.53163755382411 -706.93405092606554 0 -706.93405092606554 -674.88640220058733 0 0 0 0 -245.81998818245484 -837.19289216348261 0 -837.19289216348261 -696.27063704104512 0 0 0 0 -908.49572863218782 -1290.0946567554347 0 -1290.0946567554347 -1199.0706201969297 0 0 0 0 7.5608137468191217 -69.287568131415355 0 -69.287568131415355 -67.704474622167425 0 0 0 0 14.863328926833447 -10.218036324567763 0 -10.218036324567763 11.24057377313153 0 0 0 0 -172.3587327436253 474.68184187203587 0 474.68184187203587 203.83726279772964 0 0 0 0 775.71431640965238 -263.71670980586623 0 -263.71670980586623 -565.71987968859321 0 0 0 0 -87.425683168650721 -279.93516388516582 0 -279.93516388516582 145.02917680231621 0 0 0 0 49.249645439645974 -216.4059796075162 0 -216.4059796075162 -314.5682865424169 0 0 0 0 -35.228679776453646 -386.47320827086514 0 -386.47320827086514 -74.789294282425544 0 0 0 0 12.726042405164321 -44.928688497582527 0 -44.928688497582527 34.644584659593136 0 0 0 0 -378.82285775059427 -731.78699145771679 0 -731.78699145771679 -409.30778207676485 0 0 0 0 -417.40923521199147 -573.3857378361281 0 -573.3857378361281 -196.47493811359163 0 0 0 0 50.491477036557626 -388.74823035155714 0 -388.74823035155714 -500.537052329586 0 0 0 0 -29.921140818929416 -404.84512161475868 0 -404.84512161475868 -125.59651787042094 0 0 0 0 -244.11972829833394 -550.0782797339125 0 -550.0782797339125 -368.72396872533136 0 0 0 0 -130.93725562165491 -327.69521087726753 0 -327.69521087726753 -165.94959110006494 0 0 0 0 -232.69468518717622 -507.05495271385007 0 -507.05495271385007 -569.59512584464392 0 0 0 0 362.66464181794436 159.67859829950612 0 159.67859829950612 -249.21685418687412 0 0 0 0 -313.62348025251413 -439.76016674334824 0 -439.76016674334824 -195.51024456653977 0 0 0 0 -8.4189369643319765 -4.2681744722391102 0 -4.2681744722391102 -2.2482913957727533 0 0 0 0 -24.942425413843239 -49.333720540506647 0 -49.333720540506647 -45.465191456049638 0 0 0 0 -62.940172043920029 -254.18164957709087 0 -254.18164957709087 -73.684972773789923 0 0 0 0 -32.746347666434303 -153.63667679816717 0 -153.63667679816717 -3.4872617668006569 0 0 0 0 36.40946440686821 -89.130205572684645 0 -89.130205572684645 70.378962157010392 0 0 0 0 157.54329696168134 -216.53898335012855 0 -216.53898335012855 99.304892733503948 0 0 0 0 63.278110315062804 -30.537631361636159 0 -30.537631361636159 -61.604291413066676 0 0 0 0 65.307070400613128 -68.393363778719532 0 -68.393363778719532 -15.215147764151823 0 0 0 0 60.78583516429353 -70.438788712228416 0 -70.438788712228416 -23.109845478014904 0 0 0 0 -17.602987865108275 -19.983343021805524 0 -19.983343021805524 -13.967366764645647 0 0 0 0 -707.55773840486654 -652.28317000838797 0 -652.28317000838797 -458.63602876744699 0 0 0 0 -93.269396624803562 -69.677638840224233 0 -69.677638840224233 30.463440663245194 0 0 0 0 -747.66796682254062 -577.85139379191969 0 -577.85139379191969 -268.7942067279655 0 0 0 0 -317.47167893026199 -363.28160091127211 0 -363.28160091127211 -514.52406782552134 0 0 0 0 -743.74172864315915 -633.93613625213038 0 -633.93613625213038 -677.18558863410726 0 0 0 0 -577.07369356820709 -459.85245465382468 0 -459.85245465382468 -269.98819946536969 0 0 0 0 -649.54903544898843 -404.35219094913919 0 -404.35219094913919 -312.46948177347076 0 0 0 0 22.569591137398959 -63.564721292436673 0 -63.564721292436673 46.987937248024593 0 0 0 0 -556.68290208195685 -455.38434542623872 0 -455.38434542623872 -502.86770040181 0 0 0 0 162.22846689241123 32.558925985882524 0 32.558925985882524 -26.559000370769354 0 0 0 0 -612.77132819264079 -524.8587101917874 0 -524.8587101917874 -302.80254026022158 0 0 0 0 11.109761187169113 -2.6350698179822132 0 -2.6350698179822132 -11.019182610338305 0 0 0 0 -474.07533303576201 -305.93261090425221 0 -305.93261090425221 -58.19742495068931 0 0 0 0 -89.390952942660078 -514.41383209424384 0 -514.41383209424384 -309.65592831811409 0 0 0 0 4.7171581443812443 -46.556466068596905 0 -46.556466068596905 6.2018684236350055 0 0 0 0 -157.78324804468866 -167.03736018337804 0 -167.03736018337804 2.3502527985110646 0 0 0 0 -276.8807181964803 -246.22907736444176 0 -246.22907736444176 -138.61961980998603 0 0 0 0 -82.009254958871082 -91.622987902359625 0 -91.622987902359625 3.6157032771526474 0 0 0 0 -33.970668502015542 -344.72338287362891 0 -344.72338287362891 -62.327443324815249 0 0 0 0 44.897622955133556 -57.075065004191856 0 -57.075065004191856 -114.23612386577588 0 0 0 0 -24.131859848997635 -30.225572234619676 0 -30.225572234619676 -39.407181625613646 0 0 0 0 72.104303674510447 -124.3708767857679 0 -124.3708767857679 -23.695608266971249 0 0 0 0 -120.64317182141531 -123.0789523289568 0 -123.0789523289568 19.574683147016913 0 0 0 0 -29.188197598559782 -135.0286664989253 0 -135.0286664989253 8.2576919111452298 0 0 0 0 23.231475823995424 -234.85195449407183 0 -234.85195449407183 151.5855864455807 0 0 0 0 402.42374288968858 -158.62696437996055 0 -158.62696437996055 -118.09280877790115 0 0 0 0 -93.982415038100953 -86.406042525796693 0 -86.406042525796693 250.56901645669132 0 0 0 0 260.38366999084974 -284.73196099222969 0 -284.73196099222969 88.680455372814322 0 0 0 0 221.73899565183092 -37.148566520700115 0 -37.148566520700115 88.292815296008484 0 0 0 0 484.79844085226068 -133.67771270097001 0 -133.67771270097001 138.54437662363125 0 0 0 0 458.58298560479307 -263.11865210373799 0 -263.11865210373799 89.62477617074137 0 0 0 0 -14.782359933522116 -21.603305864100321 0 -21.603305864100321 -27.712551499802316 0 0 0 0 -4.0427707702046405 -4.4505573156587843 0 -4.4505573156587843 1.9207193948125223 0 0 0 0 400.4381378578255 -389.00234911563166 0 -389.00234911563166 251.69247784546678 0 0 0 0 527.48356383440114 -304.74465124383823 0 -304.74465124383823 6.9373092372261453 0 0 0 0 73.800853896085755 -441.29963245335966 0 -441.29963245335966 251.33135880138434 0 0 0 0 460.55898276506923 -331.24080911903002 0 -331.24080911903002 -2.7684970986811095 0 0 0 0 2.9551921075788279 -598.57707514743277 0 -598.57707514743277 407.60204232235264 0 0 0 0 893.57264571303676 -490.29776897900956 0 -490.29776897900956 158.10247216912103 0 0 0 0 92.190154103489476 -158.61738479238193 0 -158.61738479238193 245.35031983433873 0 0 0 0 458.72851174732205 -54.682119202276226 0 -54.682119202276226 18.707667612223304 0 0 0 0 544.7840826929023 -509.25117653912821 0 -509.25117653912821 166.1332788587024 0 0 0 0 587.68713923546602 -370.85867506702925 0 -370.85867506702925 97.183449719285818 0 0 0 0 -4.9501388485513758 -6.715000368263361 0 -6.715000368263361 -0.38855534355474219 0 0 0 0 57.94193109103071 7.0782277805701597 0 7.0782277805701597 82.947736654547043 0 0 0 0 3.1924804463097303 -11.688216854573795 0 -11.688216854573795 7.4416267647510494 0 0 0 0 11.752116487155945 -108.93111113188934 0 -108.93111113188934 306.8571871072636 0 0 0 0 21.764844546289169 -153.40528659033589 0 -153.40528659033589 306.6368741740007 0 0 0 0 17.525675355257874 -50.396658132165328 0 -50.396658132165328 7.6300991836046919 0 0 0 0 116.08169586508302 -61.288699450560671 0 -61.288699450560671 54.274766355927568 0 0 0 0 -2.7588037054772485 -6.5721941680802161 0 -6.5721941680802161 1.3062209283790764 0 0 0 0 82.998106199534959 -134.54783685003349 0 -134.54783685003349 -368.26019183910103 0 0 0 0 33.465834668371826 -120.90491500744247 0 -120.90491500744247 292.77055533716339 0 0 0 0 -7.4060141892448712 -1.9066278841988975 0 -1.9066278841988975 5.8532307681272755 0 0 0 0 -19.660764117084909 -110.14235085633118 0 -110.14235085633118 310.44661384271603 0 0 0 0 -109.43763114331523 -203.66927742847474 0 -203.66927742847474 294.36664545125677 0 0 0 0 73.235980820330951 -246.41548701560532 0 -246.41548701560532 39.400425332802115 0 0 0 0 88.183730834680318 -58.531374118454551 0 -58.531374118454551 103.74133787601022 0 0 0 0 84.674218928394112 -261.49845420676866 0 -261.49845420676866 -225.59670609765453 0 0 0 0 -1.3723618572403211 -131.40413900467684 0 -131.40413900467684 -66.682657468118123 0 0 0 0 58.593752819440851 -147.46436443855055 0 -147.46436443855055 -63.380564588675043 0 0 0 0 110.3606189526181 -114.72728536900104 0 -114.72728536900104 0.032049259476480074 0 0 0 0 -28.007238434744067 -80.488973329032888 0 -80.488973329032888 43.120417350830394 0 0 0 0 -26.080995193983199 -101.97362111181928 0 -101.97362111181928 -56.412127117422642 0 0 0 0 -94.173048758515506 -72.594396390137263 0 -72.594396390137263 -133.55459634360159 0 0 0 0 -86.13332386611728 -130.86138664437749 0 -130.86138664437749 -59.403111260791775 0 0 0 0 0.34954117870802293 -150.41746747106572 0 -150.41746747106572 -173.92759800504427 0 0 0 0 -42.935879731652676 -54.896683204249712 0 -54.896683204249712 -230.03103366750292 0 0 0 0 -81.505576684590778 -112.19057330988289 0 -112.19057330988289 -75.517932013917743 0 0 0 0 3.1658423976151369 -9.7877656151733419 0 -9.7877656151733419 11.196580299679567 0 0 0 0 -85.183184396577417 -91.992632218461949 0 -91.992632218461949 -79.576869433396496 0 0 0 0 -82.138163106850698 -115.84145411204372 0 -115.84145411204372 0.019460203460766934 0 0 0 0 -87.228521896297025 -81.358165031309909 0 -81.358165031309909 -0.13977770625206176 0 0 0 0 -0.43931259369708187 -3.0964606347016286 0 -3.0964606347016286 6.5556470840856491 0 0 0 0 127.45819176951773 -14.002220082271378 0 -14.002220082271378 -16.85066716466099 0 0 0 0 -23.61419020757603 -8.8787312137137633 0 -8.8787312137137633 65.255167209805222 0 0 0 0 -33.512444062678696 -50.016421035604253 0 -50.016421035604253 32.12658542097779 0 0 0 0 -21.15978200046186 -2.4236403973834513 0 -2.4236403973834513 0.28804737310353445 0 0 0 0 -55.475066641229205 -29.01918134096195 0 -29.01918134096195 225.69647614507994 0 0 0 0 -15.049293090094579 59.338866527978098 0 59.338866527978098 354.59126533303061 0 0 0 0 -16.648150966982939 -81.530824146284431 0 -81.530824146284431 134.595157383068 0 0 0 0 -52.654669400741113 -94.974258114190889 0 -94.974258114190889 300.97471930043685 0 0 0 0 -6.9294584230102032 -44.598040929005833 0 -44.598040929005833 30.498348480636416 0 0 0 0 -9.5351612979575293 -22.276999673529644 0 -22.276999673529644 196.40301108290441 0 0 0 0 9.3064817032427527 35.327719124470605 0 35.327719124470605 145.29990036034542 0 0 0 0 -27.97535401028864 -48.65052739955938 0 -48.65052739955938 88.209585417560106 0 0 0 0 24.489596660161908 -2.335628518250644 0 -2.335628518250644 20.006907517478709 0 0 0 0 27.908468582900241 162.40455834631575 0 162.40455834631575 380.04219540512531 0 0 0 0 -66.524760441374383 9.4755914459274209 0 9.4755914459274209 389.03006421377358 0 0 0 0 -148.46161048769136 -39.244546032874496 0 -39.244546032874496 317.1751275973802 0 0 0 0 -39.219396748096017 -70.5869140066375 0 -70.5869140066375 10.982146561534755 0 0 0 0 -135.09698437179031 -91.904618837521411 0 -91.904618837521411 271.06579374577268 0 0 0 0 -103.15540004319337 -42.661179704853566 0 -42.661179704853566 127.99000919191167 0 0 0 0 -11.58456760912668 16.510132061288459 0 16.510132061288459 222.1219730211451 0 0 0 0 -131.87448708160082 -55.753885495883878 0 -55.753885495883878 202.4802960602392 0 0 0 0 -14.581645773148921 -36.930035383116774 0 -36.930035383116774 153.88412546129257 0 0 0 0 -32.550662485708017 -109.62823306527571 0 -109.62823306527571 100.8160611645726 0 0 0 0 -17.824595774008117 1.145677760421961 0 1.145677760421961 16.972691092391198 0 0 0 0 11.368985096196411 -79.291072604915826 0 -79.291072604915826 161.85077928154533 0 0 0 0 28.790230119637272 -110.08803192557389 0 -110.08803192557389 83.686283521470614 0 0 0 0 54.045890427369159 -50.527725001244107 0 -50.527725001244107 135.49149045741069 0 0 0 0 105.2888312805444 -104.02571123637608 0 -104.02571123637608 12.0711740268016 0 0 0 0 5.2859573678579181 -130.88585620891536 0 -130.88585620891536 70.791523711319314 0 0 0 0 -34.017280844564084 -133.81897099807975 0 -133.81897099807975 59.010617764608469 0 0 0 0 11.682535728730727 -126.65133773327398 0 -126.65133773327398 56.257278897566721 0 0 0 0 50.330621505490853 -150.84561287926044 0 -150.84561287926044 -26.581260936858598 0 0 0 0 569.96387740026694 -190.35137230662804 0 -190.35137230662804 -248.1701592951722 0 0 0 0 306.26517753797816 58.107848060579272 0 58.107848060579272 -35.861125135241309 0 0 0 0 45.033636904292507 -158.42238474317128 0 -158.42238474317128 -28.819634063831472 0 0 0 0 44.762240450276295 -863.3880710688245 0 -863.3880710688245 -1.2577334534726106 0 0 0 0 0.13319872791117859 -3.1021549242078095 0 -3.1021549242078095 -7.1556596046444838 0 0 0 0 -574.72610145500585 212.43270277639022 0 212.43270277639022 20.836341167014325 0 0 0 0 -752.95360072341282 -332.87272051439504 0 -332.87272051439504 175.38084848187282 0 0 0 0 20.319078032298421 -239.29344378417954 0 -239.29344378417954 12.195726615900639 0 0 0 0 -234.85081894402947 124.03598267197094 0 124.03598267197094 -86.526123923715204 0 0 0 0 -38.641526643361431 -16.392092000496632 0 -16.392092000496632 -62.699097552511375 0 0 0 0 -211.88785733073018 -190.78869035287062 0 -190.78869035287062 47.981832961755572 0 0 0 0 -39.219341529358644 -149.97694414536818 0 -149.97694414536818 43.019887599744834 0 0 0 0 -178.36697488048321 -119.56457705849971 0 -119.56457705849971 109.00339221628383 0 0 0 0 -20.982776029326487 -66.945834749378264 0 -66.945834749378264 125.5456255672616 0 0 0 0 -183.06726472681476 -5.4178792748316482 0 -5.4178792748316482 130.04550109128468 0 0 0 0 -32.949868535011774 -116.13684589465265 0 -116.13684589465265 86.059451976776472 0 0 0 0 -10.834554646338802 -442.64133361120184 0 -442.64133361120184 -0.20883601788609948 0 0 0 0 921.51757002394879 -214.17876611130487 0 -214.17876611130487 39.033957871288294 0 0 0 0 -49.7532393495203 -953.22475645561644 0 -953.22475645561644 578.66483221318049 0 0 0 0 642.76185869626352 -1555.6024048931577 0 -1555.6024048931577 207.58180154951697 0 0 0 0 858.16650529383332 -420.93615285027772 0 -420.93615285027772 261.40401919718715 0 0 0 0 -899.31246245096554 -764.43595608064788 0 -764.43595608064788 20.073749438366576 0 0 0 0 -24.443514772271101 -73.780630017455366 0 -73.780630017455366 -23.471131796999234 0 0 0 0 -13.810053352557873 -11.379779400219093 0 -11.379779400219093 6.3156384289221137 0 0 0 0 -64.53499597114569 16.155378926414414 0 16.155378926414414 113.92760843152064 0 0 0 0 -2764.5395769497263 -103.31220063593355 0 -103.31220063593355 486.93308681896269 0 0 0 0 179.51604475887143 99.74242877902725 0 99.74242877902725 40.37592123565264 0 0 0 0 3.8348814898289447 -3.5672730229092338 0 -3.5672730229092338 -1.0038107191795618 0 0 0 0 84.33270221202838 -1444.0626810346803 0 -1444.0626810346803 -2041.5896172697539 0 0 0 0 120.21722914717975 -1104.5179556739167 0 -1104.5179556739167 -471.33482442727836 0 0 0 0 -232.75582153091091 -741.28783944349561 0 -741.28783944349561 -351.13743110763608 0 0 0 0 -133.05322004065238 -705.5319986078357 0 -705.5319986078357 -1082.6457492664922 0 0 0 0 56.281990063696867 8.9286396201787284 0 8.9286396201787284 -218.02786639616534 0 0 0 0 -2984.6678180935196 -463.28214217615459 0 -463.28214217615459 -3.4239831456798129 0 0 0 0 -6.0623207318847676 -9.5565652161723165 0 -9.5565652161723165 -17.061422877528287 0 0 0 0 236.34346812769945 26.292594016224029 0 26.292594016224029 -2035.7329409555373 0 0 0 0 -566.68752686019434 -214.12661183847013 0 -214.12661183847013 -13.334239211748354 0 0 0 0 -728.41181542405684 -86.510917183870333 0 -86.510917183870333 13.386090839019744 0 0 0 0 144.55779677003829 -442.72137989133103 0 -442.72137989133103 -128.93666531358031 0 0 0 0 56.292920896609928 -102.37302120259154 0 -102.37302120259154 42.052428699522807 0 0 0 0 35.659746564735542 -214.22618919126398 0 -214.22618919126398 -105.12455920949287 0 0 0 0 9.8983892431801053 -43.396321515162072 0 -43.396321515162072 -35.694418096323034 0 0 0 0 -75.479952577347547 -100.38619846828084 0 -100.38619846828084 11.789729159934097 0 0 0 0 -96.851350411649037 -233.77596571261483 0 -233.77596571261483 -217.72185863004415 0 0 0 0 -349.37273301024834 -477.62807004703063 0 -477.62807004703063 -197.01797469983285 0 0 0 0 11.883027603788264 -47.515959379609434 0 -47.515959379609434 25.787539983469514 0 0 0 0 -38.571926144344616 -305.00190290511819 0 -305.00190290511819 -262.25806330944033 0 0 0 0 -766.01254250120837 -360.57398337817722 0 -360.57398337817722 40.308690610932899 0 0 0 0 -579.51274234576704 -241.04490534967044 0 -241.04490534967044 15.983187529302086 0 0 0 0 -454.4648271128317 -103.78690822710632 0 -103.78690822710632 -50.789102259455831 0 0 0 0 -399.74186827467929 -335.03927860484691 0 -335.03927860484691 -92.999927875111098 0 0 0 0 59.92458246955357 -61.145625093166018 0 -61.145625093166018 -92.858437973154651 0 0 0 0 -312.29173848523351 -290.04200572804257 0 -290.04200572804257 83.348195606224181 0 0 0 0 30.781103023051401 -431.3139215001429 0 -431.3139215001429 -435.19803600725572 0 0 0 0 -404.44028127265119 -369.38044888537115 0 -369.38044888537115 -294.27509945636848 0 0 0 0 -194.39801694501693 -544.63368837676262 0 -544.63368837676262 -483.61898456516792 0 0 0 0 -227.09645113488114 -772.44754525137887 0 -772.44754525137887 -656.2662210027047 0 0 0 0 -1003.1681565808394 -568.61397609028791 0 -568.61397609028791 -136.75464217400076 0 0 0 0 -143.55761873209849 -700.5916134542349 0 -700.5916134542349 -650.42547199889668 0 0 0 0 4.0711066033982206 -654.26427118940046 0 -654.26427118940046 -1018.729689960921 0 0 0 0 -1306.218324981819 -1783.907098273703 0 -1783.907098273703 -1415.266056091612 0 0 0 0 588.11336081021 -669.69950930430787 0 -669.69950930430787 -2063.7692381029919 0 0 0 0 696.00849450107216 354.98692061480506 0 354.98692061480506 -753.62997714002267 0 0 0 0 265.52326637758233 -269.26070285324386 0 -269.26070285324386 -573.85276031552348 0 0 0 0 44.457943847111892 -234.6177286172242 0 -234.6177286172242 -377.24779730198497 0 0 0 0 28.29991286893241 -32.096862591236459 0 -32.096862591236459 31.560509517545427 0 0 0 0 28.713648247910896 -81.412432742879901 0 -81.412432742879901 -62.319623472940293 0 0 0 0 -15.965845427810564 -58.373380981734954 0 -58.373380981734954 52.631693770246784 0 0 0 0 12.945147727070434 -35.110606069953064 0 -35.110606069953064 26.604074769158615 0 0 0 0 7.6606635097996332 -82.943984282930614 0 -82.943984282930614 5.1817539864860009 0 0 0 0 -125.24680362261279 -183.0715419385524 0 -183.0715419385524 -62.490797573045711 0 0 0 0 20.741834613767594 -38.579182412191784 0 -38.579182412191784 42.666750535935762 0 0 0 0 -249.83305065946479 -413.43332720515173 0 -413.43332720515173 -295.07247983869456 0 0 0 0 230.46164861358375 -975.35302043113552 0 -975.35302043113552 -1194.6052940654918 0 0 0 0 -6.0660951034697064 -534.66156243222576 0 -534.66156243222576 -564.33550710891723 0 0 0 0 264.53682609727548 -410.34719237250101 0 -410.34719237250101 -515.25204290628608 0 0 0 0 45.036253100832255 -293.6569174373044 0 -293.6569174373044 -573.02144207188394 0 0 0 0 293.5762755919859 408.24485950026792 0 408.24485950026792 885.8253820167738 0 0 0 0 359.0691522884008 368.33613930569845 0 368.33613930569845 107.2454163718503 0 0 0 0 -842.12767890078248 -1981.8974238277297 0 -1981.8974238277297 -951.47399145750387 0 0 0 0 -7.4293738383116192 -5.9561104280056725 0 -5.9561104280056725 -6.8453466402999084 0 0 0 0 1372.9605135142338 233.55156545736827 0 233.55156545736827 -1525.2925588141825 0 0 0 0 -120.39137654792285 -1232.5402652516641 0 -1232.5402652516641 -1297.5039289964297 0 0 0 0 -706.35957552125183 -461.62810444523711 0 -461.62810444523711 -138.06130704653333 0 0 0 0 -1429.237120114718 -877.64109454472418 0 -877.64109454472418 -355.12902285081509 0 0 0 0 8.4777215729170052 -22.533790930195408 0 -22.533790930195408 -3.7553615297696297 0 0 0 0 225.98108077018696 -444.72486446492258 0 -444.72486446492258 -419.84339138123323 0 0 0 0 42.272535870867216 -63.845359326034902 0 -63.845359326034902 34.969061475624187 0 0 0 0 -50.526992570390576 300.73734486713511 0 300.73734486713511 -51.279934292293547 0 0 0 0 17.528165276539426 -116.98109396061517 0 -116.98109396061517 -71.485507121942121 0 0 0 0 125.9104220687077 345.88002817456436 0 345.88002817456436 786.4379127973516 0 0 0 0 -1408.3977740170667 -2101.0244095934941 0 -2101.0244095934941 -146.49381068928051 0 0 0 0 -508.50939473829931 -568.68304933891704 0 -568.68304933891704 21.163390072535549 0 0 0 0 -437.41228889457125 -413.83745062038361 0 -413.83745062038361 218.51146509395039 0 0 0 0 25.803306045184399 -97.614376947054552 0 -97.614376947054552 58.472681756364182 0 0 0 0 21.272804116568295 -78.950096505112015 0 -78.950096505112015 54.036616174475057 0 0 0 0 -0.94967137142521096 -59.816478385168011 0 -59.816478385168011 42.781870181119302 0 0 0 0 -12.398790500303079 -38.413480671890198 0 -38.413480671890198 15.371035099081269 0 0 0 0 38.024935754132457 -90.137461691789213 0 -90.137461691789213 59.918832651565026 0 0 0 0 42.54802804402425 -73.553525160088611 0 -73.553525160088611 46.24960925464984 0 0 0 0 7.479257133541978 -44.638661266726558 0 -44.638661266726558 90.379260969401003 0 0 0 0 -25.260179625339617 -30.510596685614956 0 -30.510596685614956 31.422589598965374 0 0 0 0 20.107697871186247 -78.196562751887541 0 -78.196562751887541 50.023636054655071 0 0 0 0 4.3289105645744712 -67.162985085466062 0 -67.162985085466062 57.223090144718299 0 0 0 0 -657.56822233757703 -301.95890641153164 0 -301.95890641153164 238.30771718290634 0 0 0 0 -456.31414380422939 -763.54775133154544 0 -763.54775133154544 -51.435167387302499 0 0 0 0 -812.93960783920193 -389.43850082565041 0 -389.43850082565041 226.53213495224918 0 0 0 0 -294.94336452972493 -291.05098306158834 0 -291.05098306158834 211.09170820242434 0 0 0 0 -483.36701206590806 -371.08496593110249 0 -371.08496593110249 184.42567980964304 0 0 0 0 -559.71913756387585 -209.56788974864139 0 -209.56788974864139 257.12118194029608 0 0 0 0 -437.87189046365165 -242.69250958155135 0 -242.69250958155135 254.58951314794103 0 0 0 0 -466.7234697173044 -272.43657673237976 0 -272.43657673237976 306.52792778392904 0 0 0 0 -382.24896643916145 -343.74153802656565 0 -343.74153802656565 23.53994647005311 0 0 0 0 -395.12808988194956 -359.15330953056946 0 -359.15330953056946 293.89497589281382 0 0 0 0 -252.51738144426781 -362.06747629489109 0 -362.06747629489109 153.30767012017895 0 0 0 0 295.00029428166454 -360.35659810885772 0 -360.35659810885772 227.61316160788556 0 0 0 0 -98.220196949347155 -348.48840038574417 0 -348.48840038574417 229.97426024121569 0 0 0 0 -265.48040431050322 -411.32592198163184 0 -411.32592198163184 555.30521849588695 0 0 0 0 -62.493136262870394 -750.99563795755967 0 -750.99563795755967 138.01377023768146 0 0 0 0 8.378607231229239 -96.276118254645496 0 -96.276118254645496 -105.6105806435161 0 0 0 0 192.82853933417937 -668.70148261189752 0 -668.70148261189752 937.95484219019272 0 0 0 0 285.65569416440121 -146.71060169894918 0 -146.71060169894918 642.683830188922 0 0 0 0 20.960497301679538 -84.57211799002414 0 -84.57211799002414 -128.27632659208638 0 0 0 0 -21.947828086437937 -18.802002014763445 0 -18.802002014763445 17.076280119546425 0 0 0 0 79.257701034948695 -106.39125236500695 0 -106.39125236500695 1181.0449253161059 0 0 0 0 204.8285001165932 -346.6449843205919 0 -346.6449843205919 370.69195599928207 0 0 0 0 193.28537029183644 -527.10171353744954 0 -527.10171353744954 -114.27256082512758 0 0 0 0 35.002400042532827 -630.84367748747536 0 -630.84367748747536 384.76814423782344 0 0 0 0 143.61506903405825 -401.77761440937684 0 -401.77761440937684 297.6421321306334 0 0 0 0 -78.558349470142275 -630.2718863911432 0 -630.2718863911432 -111.92561421367839 0 0 0 0 83.011730650694517 -728.521577148289 0 -728.521577148289 -241.33836903896008 0 0 0 0 -27.207513246612507 -552.7692438292288 0 -552.7692438292288 -13.089284794252308 0 0 0 0 -330.84004334759811 -516.21669520620981 0 -516.21669520620981 112.47397689512582 0 0 0 0 -360.60923444470973 -694.61642693661634 0 -694.61642693661634 -54.329707072334713 0 0 0 0 -7.2922802532120841 -837.82579590432579 0 -837.82579590432579 -187.75805223440693 0 0 0 0 7.2591430491302162 -808.73988296106108 0 -808.73988296106108 -263.176656451692 0 0 0 0 66.949940070684534 -788.96136431407285 0 -788.96136431407285 -255.79573322452597 0 0 0 0 17.075945413293084 -867.27391580827316 0 -867.27391580827316 -122.51570406037354 0 0 0 0 -87.473071507512941 -99.699947964875719 0 -99.699947964875719 139.1014098112646 0 0 0 0 -337.28095115690667 -441.69032428503124 0 -441.69032428503124 51.749870260522584 0 0 0 0 -4.4263845330061962 -31.707867582337258 0 -31.707867582337258 40.297236927766903 0 0 0 0 -493.54107388599368 -604.27389028349717 0 -604.27389028349717 -62.558402403039508 0 0 0 0 -481.92945025813242 -1116.1924938843431 0 -1116.1924938843431 -875.37096554538584 0 0 0 0 -618.39446670604229 -370.51474494377544 0 -370.51474494377544 -444.27862463491329 0 0 0 0 -2033.1874524906743 -1522.6988645527163 0 -1522.6988645527163 -335.74060907115927 0 0 0 0 -16.451245140334663 -95.112554046402892 0 -95.112554046402892 4.0889003095553562 0 0 0 0 -2.4421475897599585 -45.646495377132794 0 -45.646495377132794 -9.2768472268502933 0 0 0 0 422.72888963499281 43.896622768086672 0 43.896622768086672 -424.99634668260114 0 0 0 0 -324.09821394213941 -647.70756630843243 0 -647.70756630843243 -274.54610719261336 0 0 0 0 -87.778089676874515 -919.00756823606753 0 -919.00756823606753 -294.6724814680274 0 0 0 0 349.34339857377927 -620.89278086134436 0 -620.89278086134436 -482.01979089334054 0 0 0 0 411.00041524320841 249.52002532233018 0 249.52002532233018 -1432.8072007101146 0 0 0 0 -9.1051824281481117 -1.4281362844493515 0 -1.4281362844493515 -30.772671705846221 0 0 0 0 -504.34785547519277 -297.16672498777189 0 -297.16672498777189 693.08568053708586 0 0 0 0 25.673096146257478 -87.960472743163535 0 -87.960472743163535 -93.57409312037916 0 0 0 0 451.17854291718686 -374.4167775354581 0 -374.4167775354581 223.71682495623827 0 0 0 0 -131.72343538266432 -63.072558950821985 0 -63.072558950821985 368.18712499417597 0 0 0 0 -525.8022541983155 -106.56684050112381 0 -106.56684050112381 115.22749881850905 0 0 0 0 -805.32694252050715 -573.8672581739811 0 -573.8672581739811 -296.30906467896421 0 0 0 0 -1068.3251042589836 -614.99164006488718 0 -614.99164006488718 -540.62181348228478 0 0 0 0 -724.0973002416722 -757.73731197080633 0 -757.73731197080633 19.320092634525281 0 0 0 0 36.219247647091066 -74.959313643288226 0 -74.959313643288226 61.501749464204238 0 0 0 0 37.713981977168089 -81.601670567641293 0 -81.601670567641293 -133.24539202278558 0 0 0 0 -3180.7730753053911 -2775.3148256769055 0 -2775.3148256769055 742.3182326752576 0 0 0 0 -13.957319388136966 -655.30442771200615 0 -655.30442771200615 -1143.9195278962434 0 0 0 0 -1006.238478004685 -828.62318162633528 0 -828.62318162633528 -271.86435362443444 0 0 0 0 -263.48357544823375 -333.8193984259633 0 -333.8193984259633 -281.24860350694507 0 0 0 0 -203.11908728048729 -231.56852044180414 0 -231.56852044180414 -199.71349164890125 0 0 0 0 -159.40395296277711 -224.96369415814115 0 -224.96369415814115 -384.40136588944279 0 0 0 0 -362.62296479982615 -320.42117499694723 0 -320.42117499694723 -128.89530082300189 0 0 0 0 -446.08133768566768 -569.338680210858 0 -569.338680210858 -358.07953275679756 0 0 0 0 -693.72457272672909 -379.82461247470201 0 -379.82461247470201 -168.85732917769928 0 0 0 0 -616.79963008636059 -522.04136560790039 0 -522.04136560790039 -72.177807910105912 0 0 0 0 40.179399012356299 -49.491636462896246 0 -49.491636462896246 55.263557873023672 0 0 0 0 -611.71576747875952 -646.16378942985466 0 -646.16378942985466 -285.23016784407082 0 0 0 0 -412.6899430897538 -323.14846366173515 0 -323.14846366173515 -109.108114800154 0 0 0 0 -216.66715312498854 -421.80852796966792 0 -421.80852796966792 -287.35187041912286 0 0 0 0 -224.91988136808504 -317.67016944049101 0 -317.67016944049101 -77.959943252266385 0 0 0 0 104.42462684356724 -289.84876976934902 0 -289.84876976934902 -196.62277190269378 0 0 0 0 287.47212133652647 -244.59319639061869 0 -244.59319639061869 -168.59653619379969 0 0 0 0 -45.304101267887745 -175.66425678119413 0 -175.66425678119413 -57.595289125514682 0 0 0 0 63.795309606473893 -309.03360095650714 0 -309.03360095650714 -9.16497857356444 0 0 0 0 68.747840195142999 -343.82476183419476 0 -343.82476183419476 -153.32793586104526 0 0 0 0 152.60723612955189 -311.55457918986212 0 -311.55457918986212 210.29504868958611 0 0 0 0 106.46227603330044 -214.78552315500565 0 -214.78552315500565 11.310393360530725 0 0 0 0 213.4543592720438 -348.30826090379378 0 -348.30826090379378 -32.561296753701754 0 0 0 0 -151.86730433018238 -285.93742231203214 0 -285.93742231203214 -126.18611916954978 0 0 0 0 -131.7384516762686 -326.69008115510223 0 -326.69008115510223 -292.70645969783072 0 0 0 0 -108.31021108533605 -146.34387760482787 0 -146.34387760482787 -231.02699185686652 0 0 0 0 -134.57631834081258 -110.79034545639297 0 -110.79034545639297 -65.044182623416418 0 0 0 0 186.04128386703087 -187.42328731770976 0 -187.42328731770976 -83.01192214115872 0 0 0 0 25.39231228143035 -84.111941146020399 0 -84.111941146020399 -38.469192759133875 0 0 0 0 24.501289247564273 -278.2550232920039 0 -278.2550232920039 41.662019198876806 0 0 0 0 -72.720161028031725 -35.637449442438083 0 -35.637449442438083 -56.638404637080384 0 0 0 0 1.8784913966374006 -369.31296427477355 0 -369.31296427477355 -2.1312105685246934 0 0 0 0 45.714336235033556 -74.050681772634746 0 -74.050681772634746 38.198073884217649 0 0 0 0 20.51229188972502 -108.34462905104738 0 -108.34462905104738 -158.77526224328903 0 0 0 0 39.235601246589795 -45.35351552341308 0 -45.35351552341308 -234.30557682222934 0 0 0 0 79.097289922239725 -241.95717832356604 0 -241.95717832356604 -345.72355673669517 0 0 0 0 8.2214841560557375 -69.371977269693332 0 -69.371977269693332 -62.812396185369749 0 0 0 0 -63.144640060869278 -49.369762771151727 0 -49.369762771151727 235.24377615481353 0 0 0 0 -45.655965135694714 -292.90315518336865 0 -292.90315518336865 50.676316366232641 0 0 0 0 -11.834088817660813 -361.21239008622615 0 -361.21239008622615 109.55966509752034 0 0 0 0 158.42887149859598 -149.24937932531066 0 -149.24937932531066 48.772005727310898 0 0 0 0 2.414529150323915 -10.537883087253078 0 -10.537883087253078 13.84571263104651 0 0 0 0 158.42887149879243 -149.2493793251997 0 -149.2493793251997 48.772005727223586 0 0 0 0 158.42887149851595 -149.2493793250942 0 -149.2493793250942 48.772005727223586 0 0 0 0 -102.79921943695808 -17.482639078676584 0 -17.482639078676584 -19.100052454974502 0 0 0 0 -140.38595180044649 -186.06860828415665 0 -186.06860828415665 47.069553586341499 0 0 0 0 -319.38945301630883 -380.77876871834087 0 -380.77876871834087 108.31987015616096 0 0 0 0 -607.47023871479905 -236.52496547687406 0 -236.52496547687406 41.726479449032922 0 0 0 0 -178.38988111678918 193.58376699780274 0 193.58376699780274 522.56347408809233 0 0 0 0 275.7237796378904 -724.35881763328871 0 -724.35881763328871 123.64247397088184 0 0 0 0 -82.591746840851556 -341.20240774641752 0 -341.20240774641752 -147.4013185534568 0 0 0 0 -322.7299552806362 -77.625074907940871 0 -77.625074907940871 184.69765185028655 0 0 0 0 -478.74460565687332 -209.4110653582029 0 -209.4110653582029 192.14161614609475 0 0 0 0 -247.0070011150965 12.745722564155585 0 12.745722564155585 -20.161150097628706 0 0 0 0 -177.04326409822534 -156.45299671693647 0 -156.45299671693647 57.069070640951395 0 0 0 0 -316.28670388761384 -131.51507882520673 0 -131.51507882520673 -30.860674196992477 0 0 0 0 -349.27020792712574 -133.37937808181596 0 -133.37937808181596 66.874748043590444 0 0 0 0 -560.6993344683433 -250.31308817359604 0 -250.31308817359604 -42.871868736122451 0 0 0 0 -463.41584567357131 -22.474475233730118 0 -22.474475233730118 12.162493751871807 0 0 0 0 -279.97341385258187 -346.86670361835422 0 -346.86670361835422 -374.42880021174642 0 0 0 0 -738.11377099582751 -391.16559878299086 0 -391.16559878299086 -343.67292198506766 0 0 0 0 -551.52461261595454 -353.641935958045 0 -353.641935958045 -1840.2643354925094 0 0 0 0 -530.71480548934778 -565.42402791710629 0 -565.42402791710629 -1034.2228439836472 0 0 0 0 -525.87879770244763 -600.07484642502823 0 -600.07484642502823 -1010.6967688369659 0 0 0 0 -705.71215006084458 -268.11563562475294 0 -268.11563562475294 -84.849483106037951 0 0 0 0 1781.4083238229796 -560.51604092638809 0 -560.51604092638809 -273.56958764688898 0 0 0 0 2.5382648925142917 -9.189934497629821 0 -9.189934497629821 1.0185602289178348 0 0 0 0 -323.16421495530813 -195.40730781906313 0 -195.40730781906313 -278.23043204960049 0 0 0 0 -1366.0053397429874 -1074.918076531907 0 -1074.918076531907 -918.83379030328797 0 0 0 0 0.99157319816662692 -0.73900116987240949 0 -0.73900116987240949 -2.5410079772091194 0 0 0 0 2629.4677211916332 -140.60361230289254 0 -140.60361230289254 -1120.0016369065779 0 0 0 0 695.05916533395066 -53.322662401176785 0 -53.322662401176785 93.876630436128835 0 0 0 0 280.35096208456525 -717.23992839119273 0 -717.23992839119273 -43.301408889266895 0 0 0 0 716.94543131042155 -241.78519018607039 0 -241.78519018607039 -38.345299329703266 0 0 0 0 2.8176634526602555 -10.898502567185716 0 -10.898502567185716 19.509625654886264 0 0 0 0 -196.23890264696092 -34.445320772229024 0 -34.445320772229024 1.6570817074862134 0 0 0 0 895.93671757749416 -399.071088544335 0 -399.071088544335 -151.59249193288997 0 0 0 0 60.451487707978231 -900.93953545918703 0 -900.93953545918703 -334.97661820348731 0 0 0 0 147.73761454124178 -603.99855516774187 0 -603.99855516774187 -128.09969408396398 0 0 0 0 -411.95055841894646 -933.17811794501176 0 -933.17811794501176 -156.25060627449056 0 0 0 0 -570.23682526089033 -676.17178281886663 0 -676.17178281886663 -87.318334492287249 0 0 0 0 -375.96400549695682 -819.2901191255005 0 -819.2901191255005 -588.776081961827 0 0 0 0 -375.32940517518728 -753.61980634307838 0 -753.61980634307838 -225.18848465465271 0 0 0 0 -263.02422153881344 -540.447381361304 0 -540.447381361304 -221.8597604051065 0 0 0 0 274.90779780309822 -806.60233110475019 0 -806.60233110475019 -428.34939389600913 0 0 0 0 720.46443660846853 -205.44298538528164 0 -205.44298538528164 -768.80214322479515 0 0 0 0 -274.11152263537861 -624.17426070656848 0 -624.17426070656848 -760.35007318977296 0 0 0 0 -1213.0616475795541 -812.19616501757264 0 -812.19616501757264 -460.85450231379218 0 0 0 0 -853.14289133610146 -958.62855765888162 0 -958.62855765888162 -1464.7830001866023 0 0 0 0 -825.11893201920611 -701.80406988083996 0 -701.80406988083996 -705.61093411267575 0 0 0 0 -2411.6101800723409 -1700.1700076273664 0 -1700.1700076273664 -875.59613747365074 0 0 0 0 -1197.1624739548133 -1501.4097466681669 0 -1501.4097466681669 -2216.6433902614008 0 0 0 0 -2006.3747893280233 -1085.7264752244992 0 -1085.7264752244992 -32.932274329759821 0 0 0 0 -1772.7107277613613 -673.13499107690768 0 -673.13499107690768 7.4717569170607021 0 0 0 0 -1090.1916928527644 -517.02169792712812 0 -517.02169792712812 -565.93668403652555 0 0 0 0 -1364.1618052639533 -403.4577773393903 0 -403.4577773393903 -407.91106652772578 0 0 0 0 -850.72405020795122 -986.19096864344101 0 -986.19096864344101 -429.7246544028385 0 0 0 0 -1816.1328683020402 -491.89860201115516 0 -491.89860201115516 310.4859204118402 0 0 0 0 -0.34370112850458473 -247.25816904746003 0 -247.25816904746003 311.34045979281655 0 0 0 0 207.75364691161667 -113.54968201208976 0 -113.54968201208976 -206.09947989554894 0 0 0 0 245.08270024193916 -449.07754284976909 0 -449.07754284976909 305.30796759476652 0 0 0 0 463.17248079180717 -353.81462972916779 0 -353.81462972916779 -246.40902944545451 0 0 0 0 -22.357550618708274 -41.431709585420606 0 -41.431709585420606 -40.203084985488402 0 0 0 0 335.5668409121572 -88.358459257720824 0 -88.358459257720824 -123.49199601254804 0 0 0 0 -1.8208571353461593 -944.03351212569396 0 -944.03351212569396 -259.81305747717124 0 0 0 0 -5.9582775537275552 -3.8673889012955556 0 -3.8673889012955556 -3.502229456840098 0 0 0 0 15.383491786167724 606.68452435119252 0 606.68452435119252 -1635.4972384851244 0 0 0 0 173.30740416240587 -214.47211262383644 0 -214.47211262383644 -221.50726900076552 0 0 0 0 -9.828218301317861 -13.025407929240828 0 -13.025407929240828 -16.05375387990432 0 0 0 0 127.74571751434996 -354.57908856722497 0 -354.57908856722497 87.157434781394841 0 0 0 0 107.47745359664077 -505.88267597890444 0 -505.88267597890444 338.46590317672235 0 0 0 0 144.24459155793738 -162.62950317508603 0 -162.62950317508603 -221.45358623094216 0 0 0 0 89.556624215925694 154.35339187461068 0 154.35339187461068 -661.64990879985999 0 0 0 0 253.45211422275315 -191.64549128836734 0 -191.64549128836734 -261.24184867125587 0 0 0 0 178.92246558212355 -200.95010595536223 0 -200.95010595536223 -262.38634755264502 0 0 0 0 -81.013193969614804 134.7457949240852 0 134.7457949240852 -218.45240426740202 0 0 0 0 184.0243968499417 -170.22968962063169 0 -170.22968962063169 -236.19563289514917 0 0 0 0 335.33641900369548 -338.09724984449713 0 -338.09724984449713 -149.42956201098423 0 0 0 0 340.02649034233764 -108.42301592334115 0 -108.42301592334115 -250.46208988831495 0 0 0 0 1.4681147421617879 -5.8412053469922398 0 -5.8412053469922398 -2.8489178504865436 0 0 0 0 34.403688071470242 3.6801460110582411 0 3.6801460110582411 -9.8221028097323142 0 0 0 0 -68.317421994230244 -38.205868981178355 0 -38.205868981178355 -22.715392861311557 0 0 0 0 -61.49432127608452 -75.979994963396166 0 -75.979994963396166 119.03967815437318 0 0 0 0 -116.57595094357384 -99.220102376842988 0 -99.220102376842988 77.326801010218333 0 0 0 0 -3.3289548621876293 -4.2453462809959746 0 -4.2453462809959746 -3.3907959974756068 0 0 0 0 -37.035227784013841 -232.191832514407 0 -232.191832514407 -381.45932831801474 0 0 0 0 -47.4241923237538 -26.690550658604835 0 -26.690550658604835 4.2405507285945703 0 0 0 0 -94.637987892900128 -88.891598416099441 0 -88.891598416099441 -95.884749304066645 0 0 0 0 -43.905391592299566 -60.671688289978192 0 -60.671688289978192 -40.72355747432448 0 0 0 0 -137.01366210260312 -262.05292782766355 0 -262.05292782766355 -244.38578584883362 0 0 0 0 5.6212437999542431 -28.941187176045062 0 -28.941187176045062 -32.93838939900732 0 0 0 0 -12.471840880694799 -260.7138098495343 0 -260.7138098495343 -214.7533705993992 0 0 0 0 -145.1002429895525 -196.80909812743812 0 -196.80909812743812 -236.81687131500803 0 0 0 0 94.509550406015478 -124.36583696937305 0 -124.36583696937305 -277.3609993720238 0 0 0 0 -41.46708082355326 -159.69927606256579 0 -159.69927606256579 -237.45266428511241 0 0 0 0 -3.3453225159557007 -59.842653011554759 0 -59.842653011554759 -3.3453928414342045 0 0 0 0 453.97980739819468 -157.42781327187549 0 -157.42781327187549 -189.50932957589976 0 0 0 0 124.52006899353 -322.67620570691361 0 -322.67620570691361 -151.8072922422798 0 0 0 0 247.91401961847441 -107.27052038805778 0 -107.27052038805778 -81.764303292904515 0 0 0 0 -116.670206244773 -95.426273652890814 0 -95.426273652890814 -50.488696595326473 0 0 0 0 -56.462922831756259 -75.967675804594762 0 -75.967675804594762 -24.422784343190131 0 0 0 0 -116.81948479404673 -71.237093598210777 0 -71.237093598210777 -32.914206157409353 0 0 0 0 -22.213964224502945 -49.955681275305551 0 -49.955681275305551 -26.172879290840456 0 0 0 0 -49.613208702125121 -75.47041038252064 0 -75.47041038252064 -35.086630374949891 0 0 0 0 -5.7787829757578493 -84.919662396699181 0 -84.919662396699181 -29.510173124697872 0 0 0 0 -34.636110316379927 -100.51582307459466 0 -100.51582307459466 -30.407639928802382 0 0 0 0 -92.722630581323756 -122.87105861045711 0 -122.87105861045711 -28.847018330867286 0 0 0 0 -93.145836938070715 -121.19124698203814 0 -121.19124698203814 -28.427409840121982 0 0 0 0 -70.646395905102395 -60.947159192987158 0 -60.947159192987158 23.527673046794575 0 0 0 0 470.5517067926703 -245.41791329864645 0 -245.41791329864645 -111.56844942553289 0 0 0 0 255.09016712469747 -90.239789010607637 0 -90.239789010607637 47.689028637192678 0 0 0 0 256.17184288410135 -67.426989325964314 0 -67.426989325964314 280.95049130055122 0 0 0 0 419.02818438525719 -383.87646972471703 0 -383.87646972471703 -65.637083020294085 0 0 0 0 277.63354483456351 -335.42703873774735 0 -335.42703873774735 12.712828332325444 0 0 0 0 303.66952307301108 -429.0041190196207 0 -429.0041190196207 293.41968939092476 0 0 0 0 410.26967719889944 -343.73555704802857 0 -343.73555704802857 -131.44013212504797 0 0 0 0 211.06924339451507 -329.45746900700033 0 -329.45746900700033 22.867406185716391 0 0 0 0 48.968955929429285 -77.317722382977081 0 -77.317722382977081 -145.83275558186142 0 0 0 0 98.885888779186644 -207.08110744085207 0 -207.08110744085207 -290.97373051911563 0 0 0 0 78.619174728609323 -103.24911114583125 0 -103.24911114583125 33.768868088045878 0 0 0 0 278.0904152666335 -257.22286587467534 0 -257.22286587467534 -111.84138583873573 0 0 0 0 53.69801592460135 -66.317940269741484 0 -66.317940269741484 -174.59822530638485 0 0 0 0 -0.04020547776372041 -34.116089993141841 0 -34.116089993141841 -26.814290541675561 0 0 0 0 -167.30467618032708 -429.31559431766436 0 -429.31559431766436 -342.62470805479097 0 0 0 0 4.2318754816148498 -110.90993630488643 0 -110.90993630488643 -31.840449667358342 0 0 0 0 -22.459398612962104 -105.89563017644105 0 -105.89563017644105 -31.197444872883352 0 0 0 0 -112.54108336326317 -136.18582346715993 0 -136.18582346715993 -160.98596195263963 0 0 0 0 -4.2988017188390586 -85.01000769885718 0 -85.01000769885718 -96.489256252244445 0 0 0 0 -12.478374064201489 -79.016218330070842 0 -79.016218330070842 -37.823903361313569 0 0 0 0 -44.098203576510571 -87.680715149403397 0 -87.680715149403397 -100.80335185446944 0 0 0 0 -180.82756747001986 -306.37007252218928 0 -306.37007252218928 -577.61320001068816 0 0 0 0 -116.21144809457473 -480.54372406602488 0 -480.54372406602488 -358.38463000951742 0 0 0 0 -274.93807752670546 -456.88728627436285 0 -456.88728627436285 57.710236637743947 0 0 0 0 -299.8402903227543 -314.33712484023636 0 -314.33712484023636 -323.02884611285117 0 0 0 0 978.69071221727063 -63.102078688520123 0 -63.102078688520123 -161.70339977894582 0 0 0 0 -394.81367738792324 -433.73844910241132 0 -433.73844910241132 258.3725145952485 0 0 0 0 -3.517643324227663 -4.2255098604510692 0 -4.2255098604510692 10.000628133220431 0 0 0 0 132.44023425068008 -183.47014513160684 0 -183.47014513160684 -198.50809299450339 0 0 0 0 61.880559670797084 -268.36119244273868 0 -268.36119244273868 -134.21246377113857 0 0 0 0 212.47999787129811 -231.18396961441977 0 -231.18396961441977 -235.44218333758181 0 0 0 0 -123.82693196064793 -207.60114429434179 0 -207.60114429434179 -153.99816761983675 0 0 0 0 -35.641508523426467 -63.801253565753427 0 -63.801253565753427 -74.34978234955679 0 0 0 0 -130.21026589418761 -173.10656153483433 0 -173.10656153483433 -256.24818228827462 0 0 0 0 -41.768842258617951 -78.018907029776074 0 -78.018907029776074 -27.263368824520683 0 0 0 0 -19.165782646902727 -45.903820281883981 0 -45.903820281883981 -74.020425342262229 0 0 0 0 -98.245890837555635 -566.27712172210067 0 -566.27712172210067 -39.321571010019397 0 0 0 0 675.28869133171975 -231.25807710342633 0 -231.25807710342633 -1415.9441296582008 0 0 0 0 1503.2323843749764 -1103.9426505323572 0 -1103.9426505323572 -917.58454008727858 0 0 0 0 -7.9245173033327774 -33.542187683849761 0 -33.542187683849761 -83.505581200794609 0 0 0 0 -706.14478425729612 140.39183279848294 0 140.39183279848294 690.748538740605 0 0 0 0 113.30409415342729 -364.13400951314907 0 -364.13400951314907 -96.101390501844435 0 0 0 0 -155.49103800978628 -441.95553450989246 0 -441.95553450989246 63.690241228505329 0 0 0 0 -9.9701194947265321 -545.60307257228851 0 -545.60307257228851 -258.25702500545594 0 0 0 0 474.43818679573451 -795.88779612692542 0 -795.88779612692542 -323.87996747643774 0 0 0 0 -11.246149802114815 -764.70348573290175 0 -764.70348573290175 196.90301832448677 0 0 0 0 -233.40110987695516 -524.91340463232336 0 -524.91340463232336 -9.6347775627509691 0 0 0 0 399.46429816445743 -163.35324402295373 0 -163.35324402295373 -94.431763481705275 0 0 0 0 -319.90382533325464 -519.07596224601002 0 -519.07596224601002 -8.1878138536158076 0 0 0 0 -258.29886394168716 -519.00360984825966 0 -519.00360984825966 66.978541987964491 0 0 0 0 -200.49475712033018 -542.90125152443034 0 -542.90125152443034 -11.746882900435594 0 0 0 0 -206.59098396587069 -516.29984997137217 0 -516.29984997137217 -4.4971317053496023 0 0 0 0 -177.49915625920403 -642.8530771847436 0 -642.8530771847436 -306.44346395286993 0 0 0 0 -295.28926228359342 -519.64284729318024 0 -519.64284729318024 -190.30855120679189 0 0 0 0 -218.09755700612732 -564.00153480804147 0 -564.00153480804147 -179.96858325737412 0 0 0 0 -246.50300535136194 -636.92137154144802 0 -636.92137154144802 -249.75096378004673 0 0 0 0 -211.95774831232848 -474.63659867146998 0 -474.63659867146998 -493.64277744940773 0 0 0 0 -387.02046537960996 -273.07617509465854 0 -273.07617509465854 -148.5838371670543 0 0 0 0 -406.97855925284966 -719.29233143239981 0 -719.29233143239981 -867.60489535864326 0 0 0 0 -472.08114501374803 -711.2923465230524 0 -711.2923465230524 -560.7690174998279 0 0 0 0 -425.79465999668173 -574.05410738816863 0 -574.05410738816863 -784.92653762066038 0 0 0 0 -191.63390010652802 -985.77151985428281 0 -985.77151985428281 -1395.693359472265 0 0 0 0 -182.64674697580631 -1144.7237275224834 0 -1144.7237275224834 -1493.8687733519691 0 0 0 0 393.72276219137711 -1068.8344406589458 0 -1068.8344406589458 -1492.7805487533187 0 0 0 0 -935.55096482665977 -891.06991648633993 0 -891.06991648633993 -1132.4143814863564 0 0 0 0 -341.17207483618404 -588.28637218786753 0 -588.28637218786753 -1031.7978754143187 0 0 0 0 298.52266127630719 81.015915172785753 0 81.015915172785753 -68.781868590209342 0 0 0 0 324.5865508276438 -421.50178132816745 0 -421.50178132816745 -1739.798295633489 0 0 0 0 221.87727691614418 -377.40464903936299 0 -377.40464903936299 -673.61799980977594 0 0 0 0 471.55756294714956 -959.55433229674691 0 -959.55433229674691 -1933.6051763828291 0 0 0 0 862.69479868991766 -1358.1674843009459 0 -1358.1674843009459 -1553.2774095427012 0 0 0 0 838.02411108293745 -1610.6507303268882 0 -1610.6507303268882 -3931.1826075335302 0 0 0 0 -62.591704236285295 -1756.8489121104094 0 -1756.8489121104094 -3129.0392390898123 0 0 0 0 -61.753594378547859 -2013.5334009439794 0 -2013.5334009439794 45.386763035814511 0 0 0 0 486.64873099818942 453.1151376778289 0 453.1151376778289 -3159.4413865235292 0 0 0 0 -4.2341661082367636 -15.415862294527699 0 -15.415862294527699 -35.565354775961339 0 0 0 0 1075.5179631691717 894.78668334257236 0 894.78668334257236 -206.4649604702463 0 0 0 0 -370.80834326500189 644.39607974361752 0 644.39607974361752 -2370.4624568995641 0 0 0 0 -11.471450630072979 -26.642354958826616 0 -26.642354958826616 -28.525094194477589 0 0 0 0 601.6932653132244 982.26454295834264 0 982.26454295834264 -1883.248930626105 0 0 0 0 -637.62900763850121 -96.247372928302866 0 -96.247372928302866 -545.31217169744195 0 0 0 0 201.35927038408408 -226.63312156918983 0 -226.63312156918983 560.34097267093603 0 0 0 0 286.76284052875417 -968.97980045537406 0 -968.97980045537406 646.14556090287806 0 0 0 0 -127.82482809823705 -498.81501969356032 0 -498.81501969356032 -1237.4796296524291 0 0 0 0 -5.8692251221139031 -8.163390280876115 0 -8.163390280876115 -11.2672304986055 0 0 0 0 0.96537418113439344 -840.99296095704631 0 -840.99296095704631 1135.3248378117169 0 0 0 0 4.8605963890440762 315.30140173592372 0 315.30140173592372 -5868.190588719699 0 0 0 0 -0.5438236781192245 -1749.1377143447098 0 -1749.1377143447098 -3382.688331254958 0 0 0 0 431.14737017230073 -1757.6516145375572 0 -1757.6516145375572 -3210.27858324927 0 0 0 0 810.13499052224506 -311.07060284608087 0 -311.07060284608087 -1731.6084924343741 0 0 0 0 0.3203599193948321 -1227.4768118306347 0 -1227.4768118306347 -383.65682440710225 0 0 0 0 1242.7292661736101 -2085.1756736554735 0 -2085.1756736554735 132.66747383416805 0 0 0 0 565.82275340083652 -79.404001297315517 0 -79.404001297315517 1356.6982779620885 0 0 0 0 101.95497258356772 -1369.3656392050834 0 -1369.3656392050834 1657.4183787994989 0 0 0 0 348.68548747377372 -1260.4210574924532 0 -1260.4210574924532 -432.82518156118749 0 0 0 0 -1132.0878257696422 -2538.6204001917604 0 -2538.6204001917604 -526.40659761642746 0 0 0 0 85.300316058739554 254.93048653353617 0 254.93048653353617 -997.53790068574745 0 0 0 0 299.88911573574296 121.60923731963703 0 121.60923731963703 800.72747619218535 0 0 0 0 -1656.8989665895351 -1303.2590326659774 0 -1303.2590326659774 590.7915147675958 0 0 0 0 -821.25127737148432 -553.31835760970353 0 -553.31835760970353 4637.4025383211847 0 0 0 0 612.22390178433852 -515.1009771371173 0 -515.1009771371173 -2029.8718962832845 0 0 0 0 22.24980526556692 -11.179456656318095 0 -11.179456656318095 3.5642560111535033 0 0 0 0 -304.86183691666156 -408.87151809769102 0 -408.87151809769102 -597.37346038571559 0 0 0 0 -519.26386370157707 -716.34973990070284 0 -716.34973990070284 -661.53920051317255 0 0 0 0 -208.53723171043748 0.62583929458196508 0 0.62583929458196508 -1229.1056807226705 0 0 0 0 -42.55948888338753 -607.08946816898242 0 -607.08946816898242 -410.36463577913673 0 0 0 0 350.21734546600783 -491.2536456399921 0 -491.2536456399921 -411.53015699961543 0 0 0 0 -1049.5620729860384 -939.18662396739091 0 -939.18662396739091 -32.578569603552751 0 0 0 0 3.1806017805352553 -6.6253304904024617 0 -6.6253304904024617 -3.9740185413952247 0 0 0 0 601.31760554267385 -204.76807547003773 0 -204.76807547003773 -232.88788840411144 0 0 0 0 -936.49621740756265 -698.74939361692304 0 -698.74939361692304 179.71760830147832 0 0 0 0 -0.24394803211907856 -847.23588088120232 0 -847.23588088120232 430.32995826665865 0 0 0 0 559.97317930936697 -880.55688036097854 0 -880.55688036097854 -1558.2180397228367 0 0 0 0 678.11559867857432 -1349.130541317787 0 -1349.130541317787 20.093640832921665 0 0 0 0 159.49379450516426 -446.56697688168424 0 -446.56697688168424 -102.36352421512856 0 0 0 0 222.87046144191117 -443.48507946509926 0 -443.48507946509926 -433.92761498624168 0 0 0 0 399.29167334102385 -832.68393931861647 0 -832.68393931861647 132.91460458552319 0 0 0 0 0.54917389014288387 -524.85325922766242 0 -524.85325922766242 -103.37078399282473 0 0 0 0 75.624001069183578 -484.62908662204791 0 -484.62908662204791 -84.170426637199853 0 0 0 0 -0.0073555826529627666 -469.37828592087135 0 -469.37828592087135 -64.192320685957384 0 0 0 0 85.796149146335665 -436.61629367682394 0 -436.61629367682394 -130.5658463280779 0 0 0 0 72.550325695381616 -444.59436481340163 0 -444.59436481340163 -98.989057084831984 0 0 0 0 67.409097503201338 -197.9022395758293 0 -197.9022395758293 -82.320948659598798 0 0 0 0 4.6151748867282834 -8.3703525803452976 0 -8.3703525803452976 -6.2304512055142425 0 0 0 0 -263.57820996690134 -358.87983460806754 0 -358.87983460806754 -64.407427840142191 0 0 0 0 -86.314212343888357 -439.21638456635628 0 -439.21638456635628 6.2817303761403309 0 0 0 0 -268.51610272063408 -201.61577200060128 0 -201.61577200060128 -194.69899665963021 0 0 0 0 -819.64116285447381 -352.04600892910821 0 -352.04600892910821 171.69594619028067 0 0 0 0 -336.87895870915963 -508.07132257733065 0 -508.07132257733065 170.95340051055246 0 0 0 0 -104.56002419113793 -471.17602259029991 0 -471.17602259029991 285.71318530220015 0 0 0 0 -306.56809616769897 -235.35731006607239 0 -235.35731006607239 15.942831925711971 0 0 0 0 46.846292431611801 -342.3033376937201 0 -342.3033376937201 6.3219492483494832 0 0 0 0 0.011474509825347923 -444.36205227654318 0 -444.36205227654318 279.95694297995942 0 0 0 0 4.5488912843138678 -418.53614872277103 0 -418.53614872277103 23.656770748228155 0 0 0 0 -8.910181047511287 -366.45679534149167 0 -366.45679534149167 -94.919857144144771 0 0 0 0 -559.70711453355034 -1672.0099461015161 0 -1672.0099461015161 589.5506367127673 0 0 0 0 -9.6262729325711689 -10.412263761911163 0 -10.412263761911163 -0.31873233551490898 0 0 0 0 935.00736243886058 -1737.0762303149713 0 -1737.0762303149713 268.4306650122744 0 0 0 0 105.83731636047014 186.08992621657671 0 186.08992621657671 217.31212004789631 0 0 0 0 347.25166401047318 -12.870489815690235 0 -12.870489815690235 -70.472057475606562 0 0 0 0 915.74491211105487 -8.3569388030264236 0 -8.3569388030264236 -69.693990015162854 0 0 0 0 177.61448797694175 -302.77924227874246 0 -302.77924227874246 1409.8691792917234 0 0 0 0 701.33735106171298 -225.84389012715656 0 -225.84389012715656 398.09121617290657 0 0 0 0 -134.9744988878665 -122.01932583263624 0 -122.01932583263624 860.36175898235888 0 0 0 0 -136.38347486456041 -158.72914685207434 0 -158.72914685207434 362.9274307598389 0 0 0 0 434.78719604313665 48.76277991684583 0 48.76277991684583 213.74922950667678 0 0 0 0 -242.55431002017576 368.16298601867675 0 368.16298601867675 64.447816001567844 0 0 0 0 2.62863048272024 -4.8774751328802495 0 -4.8774751328802495 -4.0839429367861442 0 0 0 0 -1369.8137636630854 -163.48764104965812 0 -163.48764104965812 631.07584647018484 0 0 0 0 -225.83127197069552 513.07866454520718 0 513.07866454520718 -1047.8327921462769 0 0 0 0 -229.69000944453001 -791.99609590711225 0 -791.99609590711225 -1501.2185341698496 0 0 0 0 -35.186234890265041 -370.23218321272543 0 -370.23218321272543 -593.39806251434493 0 0 0 0 290.11339818032138 -278.63340218501617 0 -278.63340218501617 -526.12025079240993 0 0 0 0 31.1733759411145 -499.16750463126664 0 -499.16750463126664 -532.79206025511303 0 0 0 0 -121.44100948391133 -589.33582380795997 0 -589.33582380795997 -346.361144704455 0 0 0 0 -355.18344726681244 -108.42741624661721 0 -108.42741624661721 52.15593892774632 0 0 0 0 -292.23693123029079 -720.31269262731075 0 -720.31269262731075 -617.85628210796585 0 0 0 0 -365.73365080516669 411.81364724040031 0 411.81364724040031 -427.86259080346645 0 0 0 0 -850.63299135507259 -531.71592037662595 0 -531.71592037662595 -304.48738351818611 0 0 0 0 19.224893139400621 -22.370325958064882 0 -22.370325958064882 -20.701385128438858 0 0 0 0 134.18940054261475 -13.917197975475574 0 -13.917197975475574 -318.67771012362937 0 0 0 0 205.63460454007145 492.86191033127034 0 492.86191033127034 -947.84267256283783 0 0 0 0 1722.8211431782111 314.24548156783931 0 314.24548156783931 -1294.5925652900842 0 0 0 0 1523.3352474955464 -864.17486608619629 0 -864.17486608619629 -889.49986474215257 0 0 0 0 -2.1028595007572903 -5.247700081488972 0 -5.247700081488972 -6.3810022830761568 0 0 0 0 845.18066808555159 -718.51032305131957 0 -718.51032305131957 -456.0855690077733 0 0 0 0 1327.2652265715587 -232.84436322829788 0 -232.84436322829788 -658.25154918358021 0 0 0 0 220.6470604048227 -101.98681134870276 0 -101.98681134870276 -604.0834576763009 0 0 0 0 406.03067744988948 -517.20956470062993 0 -517.20956470062993 295.20070912336814 0 0 0 0 181.55327519486519 -95.687084242199731 0 -95.687084242199731 35.413435156378739 0 0 0 0 85.466407501135109 -258.60044671912419 0 -258.60044671912419 -94.120479556557257 0 0 0 0 -77.262441538448911 -271.03921147220535 0 -271.03921147220535 -45.786720362186315 0 0 0 0 6.978650267537887 -374.39840026414367 0 -374.39840026414367 -165.71579590506735 0 0 0 0 194.98119257751387 -241.03527341761219 0 -241.03527341761219 -71.842232245289779 0 0 0 0 -12.744243673107121 -178.30172712166677 0 -178.30172712166677 -64.408538176678121 0 0 0 0 104.47630160159315 -132.09701837239845 0 -132.09701837239845 233.29338248094427 0 0 0 0 123.92493607028155 -74.141039009220549 0 -74.141039009220549 64.002959923069284 0 0 0 0 178.75623888098977 -100.06825100837821 0 -100.06825100837821 18.490408976482414 0 0 0 0 292.02813236709335 -218.60502915253892 0 -218.60502915253892 -70.171736225282075 0 0 0 0 6.9547600577946014 -19.447261140463247 0 -19.447261140463247 9.1180438331157916 0 0 0 0 16.153080992851756 -160.6301796169173 0 -160.6301796169173 264.16793783137109 0 0 0 0 186.13650335854618 -252.44779379597458 0 -252.44779379597458 117.85774249233509 0 0 0 0 -22.539697790949475 -94.196623998062336 0 -94.196623998062336 48.564031554700534 0 0 0 0 45.507154396706028 -143.2679908477985 0 -143.2679908477985 10.297764914343134 0 0 0 0 140.16210144892398 -51.956796509665082 0 -51.956796509665082 1.9793194427300023 0 0 0 0 167.57987762021367 -255.47721079526309 0 -255.47721079526309 -249.73200775119767 0 0 0 0 553.83933547697961 -496.55422793549951 0 -496.55422793549951 704.53384625693434 0 0 0 0 251.22777568612946 -101.43011850002222 0 -101.43011850002222 191.59168635180686 0 0 0 0 -5.1437115199466916 -31.895523846118408 0 -31.895523846118408 6.6301279216847888 0 0 0 0 337.67609212167736 155.40291886499472 0 155.40291886499472 163.79329551552655 0 0 0 0 -290.86824307229836 120.7688372519624 0 120.7688372519624 189.31197454556241 0 0 0 0 -809.63719677313929 103.2854550476186 0 103.2854550476186 798.31552005646518 0 0 0 0 -1361.2375640085083 -973.26107609022074 0 -973.26107609022074 -0.050766935659339651 0 0 0 0 -873.1960469482292 -780.61786282851244 0 -780.61786282851244 -87.795473203033907 0 0 0 0 -450.70007683848962 -348.59216101458878 0 -348.59216101458878 -26.947412959008943 0 0 0 0 -627.30117719928967 -444.44971924711717 0 -444.44971924711717 225.8936485824961 0 0 0 0 -148.14437817950966 -206.73635190469213 0 -206.73635190469213 16.852829358307645 0 0 0 0 -251.16468958550831 -369.75598678828101 0 -369.75598678828101 -72.458750494377455 0 0 0 0 -392.09094775922131 -498.92623716402886 0 -498.92623716402886 -134.73946991300909 0 0 0 0 -609.87866476346971 -551.18621122289915 0 -551.18621122289915 23.828287258336786 0 0 0 0 180.36854181456147 -240.37034180363116 0 -240.37034180363116 -110.98828355384467 0 0 0 0 292.2041980779685 -112.48480150564345 0 -112.48480150564345 -65.926910841430072 0 0 0 0 252.81804956255655 -108.9396165964863 0 -108.9396165964863 -57.774787262664177 0 0 0 0 -186.30012364790309 -150.87131307055824 0 -150.87131307055824 -53.473935507878195 0 0 0 0 -113.14924010628602 -583.97232525185518 0 -583.97232525185518 -607.59432683656632 0 0 0 0 -191.71999784791842 -229.64969103102339 0 -229.64969103102339 -40.661043893669557 0 0 0 0 243.30923420950421 -696.46253498462102 0 -696.46253498462102 -61.376573671732331 0 0 0 0 90.13048043200979 -170.71813068687698 0 -170.71813068687698 84.469234385280288 0 0 0 0 -125.12001263385173 -310.89279660752072 0 -310.89279660752072 1147.9772445632298 0 0 0 0 5.7106291221139145 4.6261051043062196 0 4.6261051043062196 -1.5543807040325248 0 0 0 0 79.441176989785163 -387.88794811592379 0 -387.88794811592379 49.534754897948005 0 0 0 0 18.926275514095323 -360.17260762923615 0 -360.17260762923615 -966.96830527384736 0 0 0 0 81.247399722924456 6.0772799185215263 0 6.0772799185215263 -434.93096742478156 0 0 0 0 -184.34517288663483 -813.97120078276203 0 -813.97120078276203 1434.2133335152976 0 0 0 0 568.06374843116282 -667.55560416581739 0 -667.55560416581739 -1048.8031069644348 0 0 0 0 75.725894357650759 -30.245146264386904 0 -30.245146264386904 6.5362421487756279 0 0 0 0 508.86013549759809 -811.34095397832243 0 -811.34095397832243 -959.82826868162374 0 0 0 0 465.39428708245759 -1110.5273827455903 0 -1110.5273827455903 -1736.8933173662372 0 0 0 0 554.97654279248673 -488.86320295542828 0 -488.86320295542828 -1289.6237397180885 0 0 0 0 533.87053716320224 -852.76499621849234 0 -852.76499621849234 -949.53378240579332 0 0 0 0 -2371.5755283949547 -889.50349159265897 0 -889.50349159265897 -365.67490503189038 0 0 0 0 30.731937928576372 -15.114270826714176 0 -15.114270826714176 -18.209546823512397 0 0 0 0 -1605.9127343973814 -2245.0719276480631 0 -2245.0719276480631 -2529.9884815786208 0 0 0 0 -832.3827853014518 -1179.9905383484438 0 -1179.9905383484438 -1159.2782634838368 0 0 0 0 -747.09755369526101 -926.18836071682745 0 -926.18836071682745 -361.50218711103662 0 0 0 0 -1497.0991987541065 -1728.6634524087028 0 -1728.6634524087028 -895.56203976206598 0 0 0 0 -179.63725480946596 394.45865591132315 0 394.45865591132315 -43.861620302895972 0 0 0 0 -1565.0585839640698 -571.61079506469832 0 -571.61079506469832 372.59873747854726 0 0 0 0 376.48808707506396 350.54720646986243 0 350.54720646986243 -1583.4054694539591 0 0 0 0 -159.29357396805426 -220.98198970543308 0 -220.98198970543308 235.08460829961405 0 0 0 0 148.27542263145733 -1258.810085093126 0 -1258.810085093126 -2491.3034647043678 0 0 0 0 -732.83165490758256 -1723.9823346152734 0 -1723.9823346152734 -1806.7521305234841 0 0 0 0 -1616.8197143536454 -331.04122820136945 0 -331.04122820136945 -1562.8382205558592 0 0 0 0 -587.69589387485757 -533.65323989427998 0 -533.65323989427998 -3005.1718740940123 0 0 0 0 -321.81796121527441 -921.6988396248853 0 -921.6988396248853 -2060.772401427108 0 0 0 0 -565.22828687980655 -710.1991882064176 0 -710.1991882064176 -1630.9013786977339 0 0 0 0 -788.34489056214807 -1544.1618069803953 0 -1544.1618069803953 -1577.3183131355836 0 0 0 0 -684.02735369192669 -1321.1862203733908 0 -1321.1862203733908 -954.20715041659787 0 0 0 0 -597.56068409018917 -1128.3845585311647 0 -1128.3845585311647 -995.01757298417215 0 0 0 0 -352.0308772724311 -990.56859067690675 0 -990.56859067690675 -1030.9228479055455 0 0 0 0 -393.39101438671059 -1161.7505975958629 0 -1161.7505975958629 -1506.1400942704495 0 0 0 0 -320.52259474869697 -1027.7066422015432 0 -1027.7066422015432 -1474.548205197847 0 0 0 0 -332.12512026810145 -744.16155766354132 0 -744.16155766354132 -1646.848406989564 0 0 0 0 -323.63775443704799 -895.01027960588999 0 -895.01027960588999 -1405.7517452100874 0 0 0 0 750.08845106275112 -378.37391444267269 0 -378.37391444267269 -1245.3773338605679 0 0 0 0 453.71361084052478 -660.91696218634752 0 -660.91696218634752 -1234.7912301745382 0 0 0 0 276.93552051360894 -607.39933504894725 0 -607.39933504894725 -1188.6038701167781 0 0 0 0 192.80275261090719 -396.86815119431139 0 -396.86815119431139 -1226.2948638916423 0 0 0 0 115.13440665748203 -903.11393727450923 0 -903.11393727450923 -1470.5543541236111 0 0 0 0 250.40215534508752 -581.64363932140986 0 -581.64363932140986 -1154.5120397372229 0 0 0 0 -169.56891984178947 -785.69549066840773 0 -785.69549066840773 -826.18651070039778 0 0 0 0 -197.79413590641707 -700.98561631014127 0 -700.98561631014127 -1004.341502323703 0 0 0 0 -511.30387329365476 -776.31557822350078 0 -776.31557822350078 -825.37342247218476 0 0 0 0 -170.41591846410302 -603.44195675556693 0 -603.44195675556693 -928.29062641237397 0 0 0 0 -5.2233392152920715 -348.51225561062529 0 -348.51225561062529 -687.4374296694441 0 0 0 0 -221.18188824753452 -325.78685642562232 0 -325.78685642562232 -395.41300950363802 0 0 0 0 -320.71449001600558 -517.569231002366 0 -517.569231002366 -730.38939012300216 0 0 0 0 -353.74719419868779 -552.35725383710451 0 -552.35725383710451 -674.75654606615717 0 0 0 0 -313.37784510401252 -563.72723941188451 0 -563.72723941188451 -679.4612876917181 0 0 0 0 -764.35558421163296 -1005.8162990466553 0 -1005.8162990466553 -747.75187439328874 0 0 0 0 -931.7466209528211 -779.04681429872289 0 -779.04681429872289 -536.32264050123558 0 0 0 0 -565.75158196809934 -780.05481100677571 0 -780.05481100677571 -552.77335310015405 0 0 0 0 339.93512720699073 -172.28757628845051 0 -172.28757628845051 -70.723596394265769 0 0 0 0 -412.69697130707209 -892.5817187862267 0 -892.5817187862267 -398.3610042450191 0 0 0 0 -155.09456488047726 -361.5623537357751 0 -361.5623537357751 -452.41295142243325 0 0 0 0 44.471746143953396 -7.8772427883749714 0 -7.8772427883749714 -30.790566955297805 0 0 0 0 -301.16550061077578 -798.75224104216613 0 -798.75224104216613 -400.62923386739567 0 0 0 0 60.435289061395451 -523.55602892970273 0 -523.55602892970273 -308.72569072849001 0 0 0 0 -529.49870212894166 -746.91740705637494 0 -746.91740705637494 -474.59857126914721 0 0 0 0 -670.96151356451446 -959.81722610304132 0 -959.81722610304132 -364.02446086430427 0 0 0 0 -582.69768561200908 -1029.0109043921202 0 -1029.0109043921202 -587.4454313297756 0 0 0 0 -680.23217875417322 -828.49732153792866 0 -828.49732153792866 -192.12508086070011 0 0 0 0 -538.62981495841814 -778.66194861254735 0 -778.66194861254735 -302.88413327827584 0 0 0 0 -946.53857223171508 -1070.6721908826003 0 -1070.6721908826003 -339.65172352461377 0 0 0 0 -600.96385009289952 -911.24532204052957 0 -911.24532204052957 -396.7836055784137 0 0 0 0 -613.32406784134218 -1007.9759421714771 0 -1007.9759421714771 -600.07999073415704 0 0 0 0 -624.43745276189293 -1049.4075686846772 0 -1049.4075686846772 -657.39300957285741 0 0 0 0 -376.8563605164818 -1006.8297322957005 0 -1006.8297322957005 -1034.8450891977282 0 0 0 0 -679.82916835509241 -894.50948239042191 0 -894.50948239042191 -627.44928617717233 0 0 0 0 -826.15524403283962 -763.73926561064127 0 -763.73926561064127 -1109.6678207969671 0 0 0 0 -993.2445500543181 -41.933895936073895 0 -41.933895936073895 -1954.9353393864367 0 0 0 0 -349.76236434259772 -90.423757566975837 0 -90.423757566975837 -1094.2718489900944 0 0 0 0 -433.7322840311972 -116.88449920996209 0 -116.88449920996209 -1188.0267443330958 0 0 0 0 -608.43485937557125 -537.49714888152084 0 -537.49714888152084 -1403.6234027139144 0 0 0 0 81.255718045023968 -236.05898539084956 0 -236.05898539084956 -1290.2829776943981 0 0 0 0 11.92845151021902 -385.1119997848873 0 -385.1119997848873 -1432.7986312073372 0 0 0 0 524.58491503084952 -31.826896684280655 0 -31.826896684280655 -1151.5387138085935 0 0 0 0 12.230248675114126 -356.66040157195675 0 -356.66040157195675 -723.92555365414592 0 0 0 0 118.39053697786585 -122.29843501104551 0 -122.29843501104551 -1110.0861308210078 0 0 0 0 309.17310795247613 -263.57498612040945 0 -263.57498612040945 -1073.6292760551369 0 0 0 0 74.881594259830308 -114.59862092054391 0 -114.59862092054391 -748.95750878965919 0 0 0 0 34.964716091017181 -301.17732040325973 0 -301.17732040325973 -1070.286217918052 0 0 0 0 -187.62080327785225 -305.44193233423721 0 -305.44193233423721 -648.43318281705797 0 0 0 0 -43.920347520834184 -58.986511210150638 0 -58.986511210150638 -309.30778832029318 0 0 0 0 45.005607230850728 -159.96593123628554 0 -159.96593123628554 -513.22626155015678 0 0 0 0 104.34187891731563 36.735649096182897 0 36.735649096182897 -604.32323514494419 0 0 0 0 82.176316388879059 -160.88576608625954 0 -160.88576608625954 -934.40185625545564 0 0 0 0 -28.178637263146811 -36.473040142147511 0 -36.473040142147511 -1034.8808252261806 0 0 0 0 -140.5950686975084 -316.59848221506218 0 -316.59848221506218 -1110.2160935344582 0 0 0 0 -308.9631806239413 -502.18813553029941 0 -502.18813553029941 -790.90797339062556 0 0 0 0 -127.60172274481738 -138.16998582769884 0 -138.16998582769884 -921.50557738429052 0 0 0 0 147.38403816291975 -289.96998473732947 0 -289.96998473732947 -838.84703869884834 0 0 0 0 740.55004969981383 -249.07461754816177 0 -249.07461754816177 -622.37894887580842 0 0 0 0 -3.8869186272204388 -235.07859723667207 0 -235.07859723667207 -596.27399010876979 0 0 0 0 151.88849690545612 -461.83319785951244 0 -461.83319785951244 -815.74112845367927 0 0 0 0 -338.01773615319689 -500.78002928072965 0 -500.78002928072965 -397.49346729530953 0 0 0 0 -334.6789559074823 -587.84327599235257 0 -587.84327599235257 -726.58570875077567 0 0 0 0 -438.22310358627874 -557.80179040436633 0 -557.80179040436633 -605.58007176498359 0 0 0 0 -366.61769219829876 -536.856419368145 0 -536.856419368145 -797.18367041836609 0 0 0 0 -603.14389377833868 -767.79769317118553 0 -767.79769317118553 -768.6514886632358 0 0 0 0 -959.80489553789084 -482.12414410028578 0 -482.12414410028578 -915.70752758035087 0 0 0 0 -354.51163428972359 -411.60075758735184 0 -411.60075758735184 -965.45746326242806 0 0 0 0 -19.002363908468396 -62.15337616949364 0 -62.15337616949364 41.266127370894537 0 0 0 0 -27.31411821599977 -36.041785231416725 0 -36.041785231416725 -26.621195156760223 0 0 0 0 -26.277998134501104 -25.05989060931833 0 -25.05989060931833 15.145300839061676 0 0 0 0 -263.61579751619865 -502.61655492001591 0 -502.61655492001591 -628.81938069610624 0 0 0 0 -440.9104427856073 -404.36596511247626 0 -404.36596511247626 -532.88273173000562 0 0 0 0 125.30753091027145 -255.56959748741065 0 -255.56959748741065 -675.93302014202345 0 0 0 0 -5.2606370890529774 -2.896565304287833 0 -2.896565304287833 3.8211744563457444 0 0 0 0 586.87454327843443 -6.7042263158946298 0 -6.7042263158946298 -31.687887531159504 0 0 0 0 -3.0806598605254862 -10.805702765927293 0 -10.805702765927293 -4.2159003830508652 0 0 0 0 45.423602535462123 -337.69234930075982 0 -337.69234930075982 205.79552999802399 0 0 0 0 -10.10636670681194 -23.152161716159782 0 -23.152161716159782 -38.925910647619105 0 0 0 0 318.05728553813242 -171.30530282802647 0 -171.30530282802647 -127.69944443645363 0 0 0 0 133.72189937865915 -61.264813858975685 0 -61.264813858975685 70.059174346679356 0 0 0 0 -289.08041823416715 -408.62475546699716 0 -408.62475546699716 -52.153315208345703 0 0 0 0 181.62867170743266 -397.88753609410924 0 -397.88753609410924 20.653631565146497 0 0 0 0 -97.629094504402019 -175.03144144255566 0 -175.03144144255566 -35.646390216141299 0 0 0 0 157.63763792088139 137.63473324189181 0 137.63473324189181 0.075082939249114133 0 0 0 0 -310.00262149722721 -414.6918040582558 0 -414.6918040582558 -427.40516022926022 0 0 0 0 -313.42028944245249 -348.33460979925439 0 -348.33460979925439 -171.22996251273071 0 0 0 0 -490.42166065158381 -313.38888141795542 0 -313.38888141795542 126.15277785451326 0 0 0 0 -1105.5262425640904 -590.40464851697106 0 -590.40464851697106 45.72445537011663 0 0 0 0 -2.9264253634985096 -5.9297330302461262 0 -5.9297330302461262 -14.640407293258647 0 0 0 0 448.26564896168929 -454.28193849817217 0 -454.28193849817217 -804.41083766594238 0 0 0 0 -3085.6171456625743 -1137.8733124704304 0 -1137.8733124704304 -252.28870504715815 0 0 0 0 16.400324311689474 -359.25931825965381 0 -359.25931825965381 -84.0546220074757 0 0 0 0 -430.21505405791686 16.017929172383447 0 16.017929172383447 54.385368886278229 0 0 0 0 -7.988043933262901 -16.222845393365247 0 -16.222845393365247 -32.407051831796622 0 0 0 0 65.27268532209564 -177.10831819633131 0 -177.10831819633131 178.09799344637577 0 0 0 0 -192.03245898749446 -3.1513107427381328 0 -3.1513107427381328 199.02016650828591 0 0 0 0 -51.059121078375028 174.39909887351678 0 174.39909887351678 -105.06554108978889 0 0 0 0 -66.717832842448843 2.0379243476563715 0 2.0379243476563715 48.131644663575571 0 0 0 0 -53.919938986575289 30.989695514665073 0 30.989695514665073 -124.55498036895005 0 0 0 0 -72.872782566293608 -28.826236724446062 0 -28.826236724446062 37.905725368830645 0 0 0 0 -44.64345921453787 1.5251510115285782 0 1.5251510115285782 47.47436569412821 0 0 0 0 -626.89967862503545 -779.91999427828978 0 -779.91999427828978 -274.59447157579416 0 0 0 0 -441.89737277527456 -447.02643971449288 0 -447.02643971449288 -299.94106463857679 0 0 0 0 -403.16482415128849 -821.08923585508455 0 -821.08923585508455 -438.61117186496313 0 0 0 0 124.26485200865028 -122.79611279475313 0 -122.79611279475313 107.18092480897178 0 0 0 0 -88.378392014652491 -626.65545934350666 0 -626.65545934350666 -1180.4071125792834 0 0 0 0 -359.63487155850453 -822.9831296011107 0 -822.9831296011107 -1268.8420093392924 0 0 0 0 -733.03815384744667 -1514.8291503457876 0 -1514.8291503457876 -300.93584788444059 0 0 0 0 -521.04443466587691 -223.15365111303981 0 -223.15365111303981 203.98309873969993 0 0 0 0 -14.003228793165363 -25.540521995775549 0 -25.540521995775549 27.165816143027619 0 0 0 0 -628.87650115783617 -524.11715232197093 0 -524.11715232197093 -492.19980345419754 0 0 0 0 -517.23393354765722 -719.53042822891439 0 -719.53042822891439 -502.07892155713625 0 0 0 0 -713.45894167941879 -656.81664952115534 0 -656.81664952115534 -139.63195149679086 0 0 0 0 -545.05761629744666 -584.6327954746921 0 -584.6327954746921 -112.06505232620111 0 0 0 0 -546.45718674597629 -632.76905564930519 0 -632.76905564930519 -313.02223441045498 0 0 0 0 -655.27530390827451 -676.03093518716923 0 -676.03093518716923 -100.92232066182441 0 0 0 0 -470.01830774932751 -592.13019102164981 0 -592.13019102164981 -120.41815846800364 0 0 0 0 111.42398797494593 -127.28334164586411 0 -127.28334164586411 124.61881626456736 0 0 0 0 -550.30166103757801 -702.60399601495737 0 -702.60399601495737 -152.42551055002696 0 0 0 0 -8.9660537851159461 -637.46078065801703 0 -637.46078065801703 -304.28189026958808 0 0 0 0 -729.76607980285189 -853.61080181667967 0 -853.61080181667967 -271.49504266593431 0 0 0 0 -494.95027616547304 15.955013107432023 0 15.955013107432023 666.84239268130841 0 0 0 0 25.065060488734161 -1030.2532519968299 0 -1030.2532519968299 -59.172795497541301 0 0 0 0 -944.23767168192717 -1088.57718575527 0 -1088.57718575527 93.526730428769952 0 0 0 0 -79.403743768969434 -552.77229898785845 0 -552.77229898785845 -50.429450889358122 0 0 0 0 -55.488719371962361 -458.21381411699258 0 -458.21381411699258 -505.02452843786978 0 0 0 0 556.00174274644814 101.23164263977378 0 101.23164263977378 302.88370771630252 0 0 0 0 1010.73559909506 -573.30191609752364 0 -573.30191609752364 347.90001462365763 0 0 0 0 24.285553536406951 -739.43427813011294 0 -739.43427813011294 1307.3102034568728 0 0 0 0 0.23016809316666809 0.74047373911730574 0 0.74047373911730574 14.904580827922956 0 0 0 0 580.6507844334119 -72.079976712328062 0 -72.079976712328062 -6.5991924900881713 0 0 0 0 80.444262768112822 391.71759248378294 0 391.71759248378294 157.92439307420818 0 0 0 0 -160.56626308025443 -497.84572792379186 0 -497.84572792379186 304.18701403221166 0 0 0 0 -327.49777272034225 358.11459612460249 0 358.11459612460249 312.16285792444251 0 0 0 0 -1026.9531387108727 -652.15222518534028 0 -652.15222518534028 195.67479515686864 0 0 0 0 -221.27939746482298 -214.72406928208511 0 -214.72406928208511 -1.4553292463897378 0 0 0 0 116.52277752850725 -126.9873621660883 0 -126.9873621660883 124.63159718908889 0 0 0 0 -445.96378337667556 -84.537901960844465 0 -84.537901960844465 285.1307781177893 0 0 0 0 -318.98526760787354 13.193159842870955 0 13.193159842870955 503.91867511858072 0 0 0 0 -145.63523361203261 -383.63984990278277 0 -383.63984990278277 311.5141289185849 0 0 0 0 -227.38132615607174 100.74691087145038 0 100.74691087145038 165.88535403105925 0 0 0 0 -338.09462076663476 -70.851175243360558 0 -70.851175243360558 175.02244324992353 0 0 0 0 -306.75315379996027 -113.38607733625031 0 -113.38607733625031 161.77896795763809 0 0 0 0 -247.47813642612891 -27.710439190042962 0 -27.710439190042962 194.8469823418709 0 0 0 0 -153.80545866495231 -116.51358171044558 0 -116.51358171044558 157.47616409578768 0 0 0 0 -190.58669314272993 -52.405348347780091 0 -52.405348347780091 77.262243863369804 0 0 0 0 -96.981535881088348 -104.06265753482876 0 -104.06265753482876 87.114302883153869 0 0 0 0 -143.40031826114864 -139.01969378278591 0 -139.01969378278591 117.13935191874043 0 0 0 0 -161.65092471498065 -12.29235399881145 0 -12.29235399881145 127.5524825869652 0 0 0 0 -169.21843510718099 34.895472210248045 0 34.895472210248045 -0.89817120907537173 0 0 0 0 -115.99998692565714 -65.83014557367278 0 -65.83014557367278 21.673963595083478 0 0 0 0 36.346299153403379 172.9159694268601 0 172.9159694268601 -28.837291394687782 0 0 0 0 -103.94243350351462 -242.3923165834567 0 -242.3923165834567 80.552287146307208 0 0 0 0 1.1312802149588208 2.1643759993305594 0 2.1643759993305594 40.336714482348043 0 0 0 0 -764.88083475948224 -37.202934601064953 0 -37.202934601064953 390.5135304768628 0 0 0 0 214.40522296118797 -163.80292895790717 0 -163.80292895790717 -8.7018444288260071 0 0 0 0 610.05937854577496 -308.28293102179123 0 -308.28293102179123 -116.26515021908563 0 0 0 0 2.6451286862653518 6.3168639265508659 0 6.3168639265508659 7.0492418755253539 0 0 0 0 -335.16489603360242 -98.149671862614923 0 -98.149671862614923 -114.30797485356743 0 0 0 0 -201.58357428565796 3.8107446299691219 0 3.8107446299691219 -65.779680654857657 0 0 0 0 -104.87869116952788 -186.33010698609723 0 -186.33010698609723 -232.1954055869428 0 0 0 0 -115.28894426499392 -185.22679151022749 0 -185.22679151022749 -367.76164484018227 0 0 0 0 -337.17424806283088 -213.20178991362627 0 -213.20178991362627 -230.77729023226129 0 0 0 0 -628.69485466259357 -459.49313867929595 0 -459.49313867929595 -148.36780838840059 0 0 0 0 -538.55400777701288 -473.35954355844297 0 -473.35954355844297 -381.20547675807757 0 0 0 0 -1237.5021505150507 -552.56575763344881 0 -552.56575763344881 -69.504656669771066 0 0 0 0 -1596.4603914600084 -615.28527641192341 0 -615.28527641192341 62.757699787020101 0 0 0 0 -1179.9398548971512 -858.5525380695326 0 -858.5525380695326 -389.40934418642428 0 0 0 0 -1191.6020182865032 -840.19012075505452 0 -840.19012075505452 137.53964568665833 0 0 0 0 -150.07191766533651 -541.20168602545164 0 -541.20168602545164 -650.42798634176143 0 0 0 0 -836.93662291206419 -1323.4759555144155 0 -1323.4759555144155 -1218.5680597072205 0 0 0 0 -2543.2041561600636 -1621.898848822806 0 -1621.898848822806 -302.85035618171969 0 0 0 0 784.23366565927427 112.36243231664776 0 112.36243231664776 -210.45342183868343 0 0 0 0 -3.8323247537125837 1.4385237590960855 0 1.4385237590960855 -3.9861742869820205 0 0 0 0 -2845.4660228408175 -1156.1034125564911 0 -1156.1034125564911 -1296.4817497690674 0 0 0 0 -3529.0573027290229 -426.22921556437359 0 -426.22921556437359 806.96155038528377 0 0 0 0 -1283.2094248179055 -115.69912368609221 0 -115.69912368609221 269.23559485590886 0 0 0 0 22.160809775338333 -17.010581079716246 0 -17.010581079716246 -5.815771135046873 0 0 0 0 -491.25034366789441 -287.55768755364807 0 -287.55768755364807 162.29436964871275 0 0 0 0 189.15448140038643 -374.06429305455094 0 -374.06429305455094 -141.4335648515862 0 0 0 0 87.992990217085833 -123.44747702279727 0 -123.44747702279727 126.16914145700161 0 0 0 0 46.631120626911681 -122.48092990007765 0 -122.48092990007765 121.24963608678559 0 0 0 0 -190.34817136314814 -216.93941416861344 0 -216.93941416861344 128.33919894900646 0 0 0 0 14.809258884202077 -119.68625963701996 0 -119.68625963701996 126.41231606424211 0 0 0 0 -86.764559883973561 -169.28599015604414 0 -169.28599015604414 108.29651723873394 0 0 0 0 -160.09441670810338 -177.69477784609262 0 -177.69477784609262 130.49733880508575 0 0 0 0 -136.50735785829602 -176.10661401576363 0 -176.10661401576363 117.54409909883543 0 0 0 0 -436.61812066244602 -346.50193911042152 0 -346.50193911042152 274.15174728441343 0 0 0 0 -433.34830075275022 122.13353106369868 0 122.13353106369868 387.92440198041731 0 0 0 0 -32.043275581585476 -422.46974303064053 0 -422.46974303064053 -3.6823336656525498 0 0 0 0 -3.7136032324172845 0.11145757982630045 0 0.11145757982630045 3.6843269811075743 0 0 0 0 302.27128110591366 997.73192080963236 0 997.73192080963236 479.77678796407417 0 0 0 0 -2283.325545504922 -1299.54655680836 0 -1299.54655680836 -241.24419682809821 0 0 0 0 -1469.0223074323731 -866.39462600521802 0 -866.39462600521802 -647.97966352129879 0 0 0 0 -1314.1778890419228 -490.04837811410835 0 -490.04837811410835 -270.72357034462038 0 0 0 0 -1360.534371352318 -577.02691041065555 0 -577.02691041065555 -43.301492552549462 0 0 0 0 -1245.8724499938107 -524.36172786355019 0 -524.36172786355019 -39.257958002475789 0 0 0 0 -1304.315286108671 -598.87955947805312 0 -598.87955947805312 -164.01788304466754 0 0 0 0 -48.167673818169362 1.392533452437263 0 1.392533452437263 32.968510660939955 0 0 0 0 -1328.9500929694623 -518.11643667983299 0 -518.11643667983299 -110.60230742880958 0 0 0 0 -854.70913569819822 -453.31780388922198 0 -453.31780388922198 -110.86746919959842 0 0 0 0 -764.87873769410362 -169.69953216931935 0 -169.69953216931935 -28.707197053678101 0 0 0 0 -687.60488850108231 -403.9813161099737 0 -403.9813161099737 -83.280533911194652 0 0 0 0 -1104.8121646053332 -503.9905241963279 0 -503.9905241963279 -162.99961551261367 0 0 0 0 -1366.8452164911869 -401.03153896280855 0 -401.03153896280855 -17.134078933857381 0 0 0 0 -1616.2175389267213 -462.72139388405776 0 -462.72139388405776 -49.040638946404215 0 0 0 0 -2256.9507648689032 -517.39842494169716 0 -517.39842494169716 160.87826054834295 0 0 0 0 -1157.8836657616193 -458.89928364353545 0 -458.89928364353545 -260.59100686997408 0 0 0 0 -700.02025381090061 -286.6707288655889 0 -286.6707288655889 -123.24846377261565 0 0 0 0 -988.3863892761583 -209.74274228548893 0 -209.74274228548893 -65.999820663419086 0 0 0 0 -1154.7491171958427 -489.44494474008388 0 -489.44494474008388 -14.430089097208111 0 0 0 0 -450.37335079825425 -138.35577147277945 0 -138.35577147277945 -27.719875550377765 0 0 0 0 -278.2952548279718 -369.53351942989684 0 -369.53351942989684 90.59355443235836 0 0 0 0 -621.15962450484585 -502.97520859037832 0 -502.97520859037832 140.73305278897169 0 0 0 0 -263.71160509723813 -463.47540986119475 0 -463.47540986119475 482.0277498967771 0 0 0 0 -440.54735158437688 -348.9974175225143 0 -348.9974175225143 -175.46824739746626 0 0 0 0 -199.64114852338389 -364.5385122308362 0 -364.5385122308362 -83.069216838135617 0 0 0 0 -225.42367403377284 -62.481649201672553 0 -62.481649201672553 12.876377748383675 0 0 0 0 -710.71045496480656 -1378.454710454047 0 -1378.454710454047 222.9626712850004 0 0 0 0 -278.73270561103709 -1009.243941651308 0 -1009.243941651308 424.94612801460983 0 0 0 0 -840.5106583095403 -1001.8322274015936 0 -1001.8322274015936 869.04840537687414 0 0 0 0 -334.31569832062814 -403.83890734438319 0 -403.83890734438319 869.40977623904473 0 0 0 0 -666.36807586587383 -628.50839659836493 0 -628.50839659836493 461.83295388022088 0 0 0 0 -518.67423942373716 -740.34771040688065 0 -740.34771040688065 342.93711789260851 0 0 0 0 -608.943014164739 -657.17593510936422 0 -657.17593510936422 424.61252559680725 0 0 0 0 -573.02350140348426 -695.81893644781667 0 -695.81893644781667 245.30905290647206 0 0 0 0 -1117.583940975368 -607.72414206020767 0 -607.72414206020767 174.4792178923235 0 0 0 0 -700.85151294986281 -446.89885797548413 0 -446.89885797548413 174.7392613326665 0 0 0 0 -833.28288283845177 -339.8200254458643 0 -339.8200254458643 180.1936410748458 0 0 0 0 -1042.0085867289163 -134.2736359796254 0 -134.2736359796254 -10.100075116148219 0 0 0 0 -911.59620152680145 -407.48806478233018 0 -407.48806478233018 168.24296536904876 0 0 0 0 -812.28389045397489 -367.85228429569906 0 -367.85228429569906 128.65121717948932 0 0 0 0 -294.73899177717249 -582.27588722371729 0 -582.27588722371729 172.77864238858456 0 0 0 0 -434.49744743097108 -747.94314204747934 0 -747.94314204747934 31.571129791496787 0 0 0 0 -1.9004411514411927 -92.260671861780281 0 -92.260671861780281 187.24459452767121 0 0 0 0 -1161.9298861014031 -125.48696446000395 0 -125.48696446000395 264.83628865861101 0 0 0 0 -750.18088716818602 -54.494910680485191 0 -54.494910680485191 45.898816508864911 0 0 0 0 -1065.0140251252706 -108.55553538998356 0 -108.55553538998356 201.13741471557296 0 0 0 0 -1382.5719593492395 880.53043403776246 0 880.53043403776246 830.57785814614908 0 0 0 0 -881.59312971406325 -362.44771715442766 0 -362.44771715442766 233.9072643473919 0 0 0 0 -631.93161284676899 -681.22104959336139 0 -681.22104959336139 -298.03239545144606 0 0 0 0 -1963.0133948757139 45.256547538258019 0 45.256547538258019 183.60380399547284 0 0 0 0 39.257355961180053 -52.528013334526179 0 -52.528013334526179 20.295611122901562 0 0 0 0 -108.66609040237381 -197.94076544651034 0 -197.94076544651034 137.56460993238579 0 0 0 0 -46.015066892861682 -83.747359047882782 0 -83.747359047882782 6.1936572720625946 0 0 0 0 -732.39579363551456 -457.44010822187556 0 -457.44010822187556 502.15657519188244 0 0 0 0 278.18862525376608 266.73500253602833 0 266.73500253602833 -90.503620586812758 0 0 0 0 -501.31774734452483 -312.59401800238993 0 -312.59401800238993 225.44299712174688 0 0 0 0 7.0520543668616256 -20.64141268652412 0 -20.64141268652412 27.962327377862607 0 0 0 0 -387.97161319314182 10.241551524002716 0 10.241551524002716 134.26649347905186 0 0 0 0 86.657468786666868 -218.41819002192642 0 -218.41819002192642 -6.0040429139044136 0 0 0 0 -21.866020172135904 -384.5626110062658 0 -384.5626110062658 -52.733663499660906 0 0 0 0 -231.73321939253947 -162.55504165828461 0 -162.55504165828461 223.5881813793203 0 0 0 0 -243.06342389487691 -189.38561453139255 0 -189.38561453139255 269.4970349528885 0 0 0 0 -243.55731235007988 -197.41267858627543 0 -197.41267858627543 225.44603243691381 0 0 0 0 -1076.7732491493225 232.14616750984715 0 232.14616750984715 1341.6517047400266 0 0 0 0 -229.99699172162218 -154.46931780210434 0 -154.46931780210434 252.8919849130798 0 0 0 0 -7.87157776746011 -17.925900512861766 0 -17.925900512861766 36.872487640261667 0 0 0 0 -296.98891709855525 -83.704389810678549 0 -83.704389810678549 409.70128123852919 0 0 0 0 94.020489805589023 455.48415231026138 0 455.48415231026138 576.05145129391167 0 0 0 0 7.8839819366833694 -10.375997312669085 0 -10.375997312669085 24.14104639215239 0 0 0 0 -92.159133007193304 -94.326711512862857 0 -94.326711512862857 85.937905953687732 0 0 0 0 -212.3602596988494 -134.25423946613955 0 -134.25423946613955 91.234851050283396 0 0 0 0 -2.7754715437610571 -47.538719328044266 0 -47.538719328044266 60.766868689084802 0 0 0 0 -227.17104657636082 -37.720118204124446 0 -37.720118204124446 87.751771834356987 0 0 0 0 0.3638990146142973 -110.51594848846264 0 -110.51594848846264 156.30952036361953 0 0 0 0 162.38378727740201 -926.62725826039969 0 -926.62725826039969 257.05266909680358 0 0 0 0 -542.27364163950551 -593.67234420105524 0 -593.67234420105524 110.52736464788904 0 0 0 0 15.232598862976914 -83.466266849963617 0 -83.466266849963617 179.26880620386416 0 0 0 0 -1430.0336461571897 -310.61421813733432 0 -310.61421813733432 737.95876058435533 0 0 0 0 -785.83147952596482 104.10531209534383 0 104.10531209534383 703.50721986553981 0 0 0 0 -590.45535723984358 -439.36266375462583 0 -439.36266375462583 127.25546237952221 0 0 0 0 365.67883946253278 74.733020610263338 0 74.733020610263338 218.74827852287854 0 0 0 0 460.54365364907426 -678.86579487400013 0 -678.86579487400013 11.473064140984206 0 0 0 0 622.58509894665622 -970.37561541545438 0 -970.37561541545438 362.52448685388663 0 0 0 0 395.58344617573312 -672.4529239733165 0 -672.4529239733165 1496.362144150422 0 0 0 0 113.63603589353443 -287.75389126191294 0 -287.75389126191294 -231.2321458535007 0 0 0 0 -6.8307123380354113 -58.420807609803859 0 -58.420807609803859 -67.034269073021335 0 0 0 0 820.82802160451683 -230.59360727458625 0 -230.59360727458625 -363.3675915049098 0 0 0 0 1.3954874975559619 -8.6716724739977735 0 -8.6716724739977735 -5.9647231980126207 0 0 0 0 -4.0878524815205992 -52.535067329301157 0 -52.535067329301157 21.145257604347364 0 0 0 0 -9.5224027029325953 -143.45158221977908 0 -143.45158221977908 -244.93996053576848 0 0 0 0 -368.34836350913974 -670.93810214225232 0 -670.93810214225232 -482.43084702025953 0 0 0 0 668.36854406599377 -977.33284430413187 0 -977.33284430413187 390.80564658672665 0 0 0 0 -1.5770880141713377 -7.1006115467993993 0 -7.1006115467993993 -0.12169838529467825 0 0 0 0 -1477.5665545329539 -427.65405410570384 0 -427.65405410570384 -153.25989386208676 0 0 0 0 101.30656616734268 -1461.9397707627213 0 -1461.9397707627213 85.897465230082162 0 0 0 0 -38.980401228443952 -71.200773874552397 0 -71.200773874552397 38.656518009069259 0 0 0 0 -31.072442769237114 -60.32796443658242 0 -60.32796443658242 39.356013780546746 0 0 0 0 -27.219894504116382 -87.439916970422928 0 -87.439916970422928 56.439831508401767 0 0 0 0 -21.515980356344755 -28.671443799172209 0 -28.671443799172209 41.63026341031231 0 0 0 0 -51.244612173642963 -64.169900959868755 0 -64.169900959868755 59.654738893696049 0 0 0 0 -50.417765626378241 -57.954229268407289 0 -57.954229268407289 38.259538514443193 0 0 0 0 -45.384027453127601 -35.590775710373372 0 -35.590775710373372 43.590017690824766 0 0 0 0 -15.480652860202156 -9.782588439659321 0 -9.782588439659321 62.020424425598691 0 0 0 0 -289.93480850134802 -98.988736417366454 0 -98.988736417366454 153.33335132735374 0 0 0 0 -49.739779572671978 -14.569777883820279 0 -14.569777883820279 69.238221291670925 0 0 0 0 -6.5384548685175616 -4.9470569830706381 0 -4.9470569830706381 30.17258830076301 0 0 0 0 126.20619320965488 -165.39899721907204 0 -165.39899721907204 -5.5718653128133155 0 0 0 0 -153.84819294335102 -67.658866936034428 0 -67.658866936034428 99.430662917409791 0 0 0 0 -37.283181661361596 -111.79363068834937 0 -111.79363068834937 95.521777225155461 0 0 0 0 -137.69775102268613 -73.695286306090566 0 -73.695286306090566 94.867082109951298 0 0 0 0 -80.59071036032401 -165.91956333030248 0 -165.91956333030248 166.48911739298637 0 0 0 0 -128.11693632087554 -143.48290986775828 0 -143.48290986775828 117.13000123910751 0 0 0 0 -76.909377802454401 -135.09775768029067 0 -135.09775768029067 116.08971256690711 0 0 0 0 -65.431180348632722 -60.914030279855069 0 -60.914030279855069 8.2944588384835356 0 0 0 0 125.07797397206741 -302.81598632977875 0 -302.81598632977875 155.34680508373276 0 0 0 0 24.960972637607483 -195.8051042348477 0 -195.8051042348477 263.00815090766184 0 0 0 0 60.628443147703763 -108.75875095802724 0 -108.75875095802724 19.206514705192706 0 0 0 0 -4447.9697069320828 -5201.2032356256386 0 -5201.2032356256386 395.50425286974496 0 0 0 0 -28.384037169490853 -68.779746733915431 0 -68.779746733915431 5.5749440121299969 0 0 0 0 -109.87354627504828 -45.380300564993377 0 -45.380300564993377 106.08112165601779 0 0 0 0 34.135113859330886 -175.24263754221687 0 -175.24263754221687 306.59890787300014 0 0 0 0 -21.543830005726591 -59.576038440507133 0 -59.576038440507133 -8.4876101180947838 0 0 0 0 -139.36171655228827 -112.39312223604077 0 -112.39312223604077 339.64767350318397 0 0 0 0 -102.28188016991044 -198.51544894372572 0 -198.51544894372572 465.37889855092317 0 0 0 0 10.563882452144753 -316.23896514875378 0 -316.23896514875378 211.6110601820692 0 0 0 0 20.803260237356881 -297.11413299526976 0 -297.11413299526976 97.198112778671202 0 0 0 0 14.809447209379869 -177.69870418282153 0 -177.69870418282153 237.23419060089054 0 0 0 0 -68.088488607057343 20.847202994940687 0 20.847202994940687 132.16321374841692 0 0 0 0 1181.9265628386929 938.58200914254849 0 938.58200914254849 1532.8506174913782 0 0 0 0 16.386997217341559 -45.338390213761159 0 -45.338390213761159 72.909625449850864 0 0 0 0 1.8174062962643802 -114.54269610928168 0 -114.54269610928168 -68.762748416338582 0 0 0 0 68.721266278545954 -133.16349480850477 0 -133.16349480850477 206.09000526632371 0 0 0 0 -78.195520772997838 16.447206847413099 0 16.447206847413099 121.50281790707166 0 0 0 0 -736.98978839506162 603.61102717430413 0 603.61102717430413 269.91570328045509 0 0 0 0 -2.4144902012401417 -2.5072091466756774 0 -2.5072091466756774 7.4512211969030195 0 0 0 0 1416.7794715426644 -1109.7454927077338 0 -1109.7454927077338 1070.2995493046074 0 0 0 0 36.172163656854536 1569.5765087571954 0 1569.5765087571954 -3357.2310034519414 0 0 0 0 -9.3578490376173704 -25.275165804609294 0 -25.275165804609294 28.644384938036787 0 0 0 0 -9.5654078732053875 -19.482602550163648 0 -19.482602550163648 9.8172792476010677 0 0 0 0 377.04953684262 -254.75222694236902 0 -254.75222694236902 292.3067240899195 0 0 0 0 -1030.3113842809689 390.52577410630147 0 390.52577410630147 125.00543754239874 0 0 0 0 1160.4284635305739 -1304.6809736900079 0 -1304.6809736900079 946.65795603041556 0 0 0 0 -323.29233510327322 -76.121846147612928 0 -76.121846147612928 656.45473223662339 0 0 0 0 224.67651892491267 50.892840165534835 0 50.892840165534835 19.595184147872715 0 0 0 0 -29.115494813888574 -33.182410869098959 0 -33.182410869098959 -18.089491053731273 0 0 0 0 -40.828277420107042 -58.084621543159301 0 -58.084621543159301 19.774857888485712 0 0 0 0 913.11643075176107 -801.99324228447631 0 -801.99324228447631 127.41043139615431 0 0 0 0 492.88971235975623 -368.43926080555457 0 -368.43926080555457 394.79065533271478 0 0 0 0 326.09443329332862 -606.07675180666138 0 -606.07675180666138 512.18100519787549 0 0 0 0 415.05999254161725 -827.89056059819632 0 -827.89056059819632 1023.9015321093502 0 0 0 0 1287.4288272948761 -763.16806533799718 0 -763.16806533799718 151.21410873164859 0 0 0 0 382.32929274617345 -400.64164331178017 0 -400.64164331178017 220.79661215473402 0 0 0 0 158.80835588538321 -658.0141016442285 0 -658.0141016442285 497.4903383945516 0 0 0 0 944.11095252234372 -655.86036210070984 0 -655.86036210070984 -687.75130516940271 0 0 0 0 -0.28985209587931138 -27.735955583928956 0 -27.735955583928956 -43.949097178315483 0 0 0 0 -23.326162347686477 -922.60935448042096 0 -922.60935448042096 -711.94860264877536 0 0 0 0 404.97462739404 -553.60331557220161 0 -553.60331557220161 -646.40584852106622 0 0 0 0 -12.081459360721055 -592.69358375321644 0 -592.69358375321644 -347.06187589493129 0 0 0 0 559.29069094845909 -856.05041473414531 0 -856.05041473414531 -112.60081093295594 0 0 0 0 -842.71406984154601 -1327.8851898262251 0 -1327.8851898262251 -730.46215321855368 0 0 0 0 -123.99390141639742 -941.39569275639587 0 -941.39569275639587 -1152.8618118313825 0 0 0 0 -1261.8162268382148 -1875.3955666048346 0 -1875.3955666048346 -2332.4376059452516 0 0 0 0 -691.15932864684146 -861.6508301865706 0 -861.6508301865706 -591.04004271795702 0 0 0 0 -113.45415929333831 330.10781355904692 0 330.10781355904692 -948.8579904297294 0 0 0 0 -670.69042811273539 -111.71571082924675 0 -111.71571082924675 -442.5824515571403 0 0 0 0 332.96423171798233 -465.03370169708796 0 -465.03370169708796 505.46583168401412 0 0 0 0 327.55026895535411 232.54175440984909 0 232.54175440984909 644.95724589532392 0 0 0 0 -47.621710415696725 61.313413594572921 0 61.313413594572921 -118.0593853586106 0 0 0 0 305.13929831891437 -641.53230495658272 0 -641.53230495658272 -497.90829837915226 0 0 0 0 327.33264634304214 173.51906992442309 0 173.51906992442309 -292.10543217739632 0 0 0 0 561.29123571125092 277.10612623814995 0 277.10612623814995 -402.52610356253717 0 0 0 0 544.82524327927968 580.58115874074792 0 580.58115874074792 105.84238591344183 0 0 0 0 916.61777080610773 315.36644163944993 0 315.36644163944993 -82.625080094883742 0 0 0 0 -2.8197139766707551 528.18356990050052 0 528.18356990050052 811.20358900963129 0 0 0 0 477.53742594236974 165.91450315941802 0 165.91450315941802 446.47312941632845 0 0 0 0 11.32029846921796 664.99480416791812 0 664.99480416791812 -87.696617161343966 0 0 0 0 -265.81079354099347 121.43309096744269 0 121.43309096744269 157.62760591690676 0 0 0 0 -824.7165642650798 732.00602365248778 0 732.00602365248778 -508.63522031905813 0 0 0 0 343.92592008659267 538.94531906967859 0 538.94531906967859 149.67651248365107 0 0 0 0 -78.633260886279004 6.9749477220195786 0 6.9749477220195786 101.60558307602332 0 0 0 0 -77.225076922244625 -57.591839686872845 0 -57.591839686872845 107.31176684710226 0 0 0 0 -71.173937324114377 -59.236936522946053 0 -59.236936522946053 101.65333715773158 0 0 0 0 -71.281673003068136 -33.152890504007935 0 -33.152890504007935 28.883896769436639 0 0 0 0 -19.869645823077008 -85.241692263156438 0 -85.241692263156438 84.114764155063313 0 0 0 0 -118.93118587089702 -139.64444749562017 0 -139.64444749562017 -335.41297055397263 0 0 0 0 441.29777631754405 -142.39249545339635 0 -142.39249545339635 402.08715828642016 0 0 0 0 323.37038542260416 -235.23470145382817 0 -235.23470145382817 223.62691442869982 0 0 0 0 186.33587178087328 1.8396589911001229 0 1.8396589911001229 322.04166220132902 0 0 0 0 114.86652604127448 -557.48632327981522 0 -557.48632327981522 -13.180763863565517 0 0 0 0 -308.58408039365895 -803.61186246299985 0 -803.61186246299985 22.40682307730458 0 0 0 0 -116.45653549482813 -493.06387971585718 0 -493.06387971585718 23.564679584495025 0 0 0 0 -320.93730961432448 -669.15580744804902 0 -669.15580744804902 -387.74284745142722 0 0 0 0 102.616025667754 -602.34221677892856 0 -602.34221677892856 -87.494174872903386 0 0 0 0 597.41238594584865 -924.82505827893328 0 -924.82505827893328 1892.4353246545943 0 0 0 0 -24.331718789393449 -9.5894729488735493 0 -9.5894729488735493 22.409465886862748 0 0 0 0 -563.64845686021727 184.28585717842543 0 184.28585717842543 1261.2413301617717 0 0 0 0 -73.538985126724015 -39.719609322266137 0 -39.719609322266137 15.546152426211203 0 0 0 0 -128.56503083754797 18.909772171995428 0 18.909772171995428 131.56795927781059 0 0 0 0 -689.04366919978929 -528.75667662756769 0 -528.75667662756769 923.80213961436675 0 0 0 0 -432.13869495941617 -606.01553488830359 0 -606.01553488830359 -86.520513228875643 0 0 0 0 -659.6054489496164 -92.409638331941096 0 -92.409638331941096 485.01579600505465 0 0 0 0 -1468.1149070433748 -832.85502189946055 0 -832.85502189946055 176.32792130904909 0 0 0 0 -285.30393553292379 -497.46733481534829 0 -497.46733481534829 -338.51412044999597 0 0 0 0 -817.36602613411378 -781.80498645162879 0 -781.80498645162879 -401.96725457308958 0 0 0 0 -527.81435359810712 -742.63457389991527 0 -742.63457389991527 -169.36162777112622 0 0 0 0 -12.636962758318987 -658.03513494489289 0 -658.03513494489289 -249.27786031506548 0 0 0 0 -357.50304524472449 -336.62947086522399 0 -336.62947086522399 366.56006463437006 0 0 0 0 -279.90047739481088 -859.35260719685812 0 -859.35260719685812 -694.24995476522963 0 0 0 0 -698.44641763736945 -1276.8152279511141 0 -1276.8152279511141 -771.89323688312652 0 0 0 0 -299.68559287430253 -1116.7084721857609 0 -1116.7084721857609 -1413.648577220099 0 0 0 0 -3180.710414393805 -1505.717502666399 0 -1505.717502666399 -911.05204394028351 0 0 0 0 -551.16091483389027 -671.94305574393275 0 -671.94305574393275 -663.43387749574867 0 0 0 0 -1057.1610719661403 803.87127082198822 0 803.87127082198822 -2327.0935544697004 0 0 0 0 -3205.8350856646139 -902.90782278212578 0 -902.90782278212578 -203.40606411734097 0 0 0 0 -1599.4282687861123 -664.2627460531927 0 -664.2627460531927 -173.63389357283958 0 0 0 0 -21.448694753154996 -524.91486720604371 0 -524.91486720604371 -2796.9017435340584 0 0 0 0 -15.589053853475775 -15.888766021189468 0 -15.888766021189468 -4.1372945160619601 0 0 0 0 -43.580535382614471 -307.64512127217949 0 -307.64512127217949 -864.79662633043699 0 0 0 0 3.6527346991849186 -29.354538172215513 0 -29.354538172215513 14.218216928419256 0 0 0 0 -16.758737229014514 -62.916884701188792 0 -62.916884701188792 3.432802701602327 0 0 0 0 37.610390582613945 -33.188300247214158 0 -33.188300247214158 -6.9608182090221984 0 0 0 0 -24.26365363750665 -70.670774934802921 0 -70.670774934802921 -47.248462692188696 0 0 0 0 -25.614620422988082 -48.291609443514062 0 -48.291609443514062 0.13944583029024216 0 0 0 0 -45.403599473676877 -126.87714345004588 0 -126.87714345004588 -79.290997993010933 0 0 0 0 -92.757806344394339 -133.37995483942086 0 -133.37995483942086 -6.3893311265606485 0 0 0 0 -56.487401110469364 -86.853741566289273 0 -86.853741566289273 -11.462555927515012 0 0 0 0 29.706916894572601 -26.537007228638387 0 -26.537007228638387 13.237868687602006 0 0 0 0 -104.35794357166742 -689.31096967987287 0 -689.31096967987287 -1444.5994488615634 0 0 0 0 -842.44677532764035 -725.05939714142369 0 -725.05939714142369 -852.64499638093548 0 0 0 0 0.40965581490195291 -23.860970574810935 0 -23.860970574810935 18.590813999656049 0 0 0 0 -252.14867157585104 -461.2572887420647 0 -461.2572887420647 -758.81938917588013 0 0 0 0 30.591321382205933 -67.063112552462997 0 -67.063112552462997 18.382897463036187 0 0 0 0 -42.619141634175321 -178.50767277389104 0 -178.50767277389104 109.47644477506078 0 0 0 0 -86.963837364492065 -64.413074475048262 0 -64.413074475048262 198.62474784970695 0 0 0 0 21.601419539569179 -166.76008166998051 0 -166.76008166998051 27.332720290277678 0 0 0 0 -3.3384245308407117 -114.89851749145646 0 -114.89851749145646 -50.501612771821783 0 0 0 0 -71.249239422380924 -122.74243781390669 0 -122.74243781390669 68.218526283292249 0 0 0 0 -108.52471869683359 -128.3291005077499 0 -128.3291005077499 -51.510325637987194 0 0 0 0 -1.9614776359958341 -59.128578333655696 0 -59.128578333655696 -153.73742051679255 0 0 0 0 -65.04365367241553 -202.20222632018886 0 -202.20222632018886 -109.81432935348175 0 0 0 0 0.22141847189050168 -124.72552951820808 0 -124.72552951820808 -60.042178370516012 0 0 0 0 7.8001338882459095 -83.203266587543112 0 -83.203266587543112 -161.57736113887586 0 0 0 0 -524.33079049090156 183.49387970700809 0 183.49387970700809 1353.1954925141317 0 0 0 0 91.82232377625769 -183.05604817822177 0 -183.05604817822177 -265.4881950226154 0 0 0 0 13.373458162382462 -6.318153566884348 0 -6.318153566884348 4.0710408324491993 0 0 0 0 164.59387864809833 -312.57451975321237 0 -312.57451975321237 -35.343337128459098 0 0 0 0 216.69267247538664 -237.89036894532364 0 -237.89036894532364 -258.83784524745715 0 0 0 0 -338.66709824936697 -1521.5807753118006 0 -1521.5807753118006 -656.70765662854137 0 0 0 0 -803.0254703820101 -543.17709086238028 0 -543.17709086238028 -1475.1883941534852 0 0 0 0 0.9926648483669851 -580.79968821142938 0 -580.79968821142938 1657.1402543290678 0 0 0 0 -980.64489293913357 -1066.4201128531422 0 -1066.4201128531422 1391.6039133792783 0 0 0 0 -1058.5213945028954 -2009.4008171493879 0 -2009.4008171493879 -1219.3563496730094 0 0 0 0 583.12703545755357 -1998.4020410352578 0 -1998.4020410352578 -1450.0922216555773 0 0 0 0 -340.30869073580834 -959.76695131299493 0 -959.76695131299493 -923.49053457708578 0 0 0 0 -455.03416178878979 -889.12807741619326 0 -889.12807741619326 -314.8974081998399 0 0 0 0 -421.04350939996948 -1054.1816057398901 0 -1054.1816057398901 -870.823214918948 0 0 0 0 5.6923824127967464 -4.2189343298694553 0 -4.2189343298694553 -6.9115357787085046 0 0 0 0 -1082.0749477124773 -1223.6793657384742 0 -1223.6793657384742 -641.13209904293763 0 0 0 0 306.28625502050272 -98.71862972294366 0 -98.71862972294366 -59.012549955936265 0 0 0 0 -519.1770159117732 -935.27806319829506 0 -935.27806319829506 -1153.4131085265362 0 0 0 0 -506.72768081183312 -1229.6314644667327 0 -1229.6314644667327 -1562.5710497632581 0 0 0 0 -67.840576525071356 -11.322472724160914 0 -11.322472724160914 21.15641080582364 0 0 0 0 -417.40816244354937 -654.714488492903 0 -654.714488492903 -30.322938172397699 0 0 0 0 -459.85815455044212 -598.8316382714811 0 -598.8316382714811 -380.20287213551183 0 0 0 0 -542.12814697650902 -631.65104763903582 0 -631.65104763903582 -1.5330527874684776 0 0 0 0 -72.57024393856409 -295.4967966968743 0 -295.4967966968743 847.07436568768026 0 0 0 0 -216.72037125536008 -207.55414020258468 0 -207.55414020258468 817.9611850352594 0 0 0 0 30.462661469297018 -256.92736630753279 0 -256.92736630753279 665.60113226341946 0 0 0 0 -39.01803863152827 -13.799017210310083 0 -13.799017210310083 4.1787752370332072 0 0 0 0 -162.06100007696659 24.533858050306662 0 24.533858050306662 1085.0306496314297 0 0 0 0 -165.44338317944494 -135.08094982835792 0 -135.08094982835792 1498.5141939218265 0 0 0 0 -150.06256168914842 -408.35458388006919 0 -408.35458388006919 924.66543931860451 0 0 0 0 -610.11205964899273 -477.12693074512208 0 -477.12693074512208 880.54447575029553 0 0 0 0 670.76133965232293 -1982.9168694995724 0 -1982.9168694995724 -4463.8184399321344 0 0 0 0 -0.95701046839531045 -541.86793320945071 0 -541.86793320945071 -989.41028861644008 0 0 0 0 -11.144839463289372 -4.8294048535748928 0 -4.8294048535748928 0.42957897510834542 0 0 0 0 79.487463677491178 -101.04696736356163 0 -101.04696736356163 1094.5308118192188 0 0 0 0 -195.67765135574155 -3.6200129242570256 0 -3.6200129242570256 2424.7039202825144 0 0 0 0 -143.7613286729611 -193.93992492947109 0 -193.93992492947109 1178.4558790531428 0 0 0 0 19.272584811318666 -176.749627366602 0 -176.749627366602 1053.6847106187743 0 0 0 0 -55.001348258025246 -579.18639719476778 0 -579.18639719476778 1244.1491764127022 0 0 0 0 0.16379947352106683 -401.4171059677592 0 -401.4171059677592 663.71171905322626 0 0 0 0 122.51054917525471 -392.73016780930448 0 -392.73016780930448 626.78690798834214 0 0 0 0 -63.695557251856371 -408.90238188115381 0 -408.90238188115381 637.96139707808834 0 0 0 0 77.990453468781197 -261.79853709839153 0 -261.79853709839153 348.29734248698514 0 0 0 0 -302.3184376595018 -184.99991207434778 0 -184.99991207434778 621.0402482239806 0 0 0 0 -349.54483823940973 -487.69781822839286 0 -487.69781822839286 533.1120583621705 0 0 0 0 -38.686461810357287 -315.91596488681535 0 -315.91596488681535 290.60512636434942 0 0 0 0 -460.66051424246689 -353.83184892940881 0 -353.83184892940881 392.42018783240928 0 0 0 0 -341.08631115447497 -294.40745449720634 0 -294.40745449720634 338.94827985523079 0 0 0 0 -321.59699173845001 -386.83779316698428 0 -386.83779316698428 564.30305377432524 0 0 0 0 -999.94870211703528 136.74532487643592 0 136.74532487643592 380.36279256024545 0 0 0 0 -215.01557645265711 -282.44525042056011 0 -282.44525042056011 280.0966634086908 0 0 0 0 1273.9092848772416 -1306.8118720338243 0 -1306.8118720338243 1087.1512423556178 0 0 0 0 29.732535704853944 -539.86651069540312 0 -539.86651069540312 573.1616030090081 0 0 0 0 -11.768596671974478 -8.0076533400415428 0 -8.0076533400415428 12.607742966008743 0 0 0 0 -12.28301480441587 -360.7164695374704 0 -360.7164695374704 295.28146924692192 0 0 0 0 1152.4394620407111 -2046.4245762809987 0 -2046.4245762809987 1669.3602998486458 0 0 0 0 1117.5112509044993 -432.8516866971022 0 -432.8516866971022 686.41463949793979 0 0 0 0 -4.0200510253756647 -0.97511064293996697 0 -0.97511064293996697 12.282185106100059 0 0 0 0 -660.04378782055574 -292.15767916199911 0 -292.15767916199911 1043.1669331719168 0 0 0 0 -1042.9572354278789 543.28596161548012 0 543.28596161548012 279.4839201153809 0 0 0 0 -47.515322889928939 -51.616458842647262 0 -51.616458842647262 -128.89877142855585 0 0 0 0 -50.277206426777411 -80.656363463953312 0 -80.656363463953312 142.34623883230597 0 0 0 0 -212.35608154599322 -172.05370679619227 0 -172.05370679619227 35.56254484593228 0 0 0 0 -416.26415047489718 74.441061109842849 0 74.441061109842849 59.704978498921264 0 0 0 0 19.689636128721759 -24.692818421364791 0 -24.692818421364791 40.993396994454088 0 0 0 0 -97.597680118866265 -97.702874923194031 0 -97.702874923194031 103.08209871967483 0 0 0 0 -143.39785731692973 -29.025530666225677 0 -29.025530666225677 95.888475934458256 0 0 0 0 -102.35500690501067 -17.772691192376442 0 -17.772691192376442 47.315133338284795 0 0 0 0 -21.306158133836107 6.3303530605899141 0 6.3303530605899141 50.922417142687664 0 0 0 0 -146.85883688100148 4.6684845722556929 0 4.6684845722556929 122.62437370556654 0 0 0 0 -138.25199051992968 -25.142726736365148 0 -25.142726736365148 86.774538297433537 0 0 0 0 46.267855287194834 -355.75287509507234 0 -355.75287509507234 945.57050203721155 0 0 0 0 136.42894739581789 -424.54809185482156 0 -424.54809185482156 838.16343550997408 0 0 0 0 141.10494869254762 -366.7969685578646 0 -366.7969685578646 750.91528147357167 0 0 0 0 -10.493246408819687 -255.08297711553314 0 -255.08297711553314 797.39150564847478 0 0 0 0 -6.719945302835697 -4.2597734610273505 0 -4.2597734610273505 9.2295738469180009 0 0 0 0 -6.4621770019502378 1.6224409279938072 0 1.6224409279938072 31.276548103154454 0 0 0 0 1288.5071021784097 -1424.3544388083319 0 -1424.3544388083319 1072.690361431225 0 0 0 0 -570.20261859086168 -559.34512756900949 0 -559.34512756900949 -340.17654773432878 0 0 0 0 -550.95599331505764 -576.62821206666558 0 -576.62821206666558 -337.92370033834595 0 0 0 0 -429.97665101354505 -537.35939186086034 0 -537.35939186086034 -915.63068373655551 0 0 0 0 -720.83926328087705 -104.15982529295434 0 -104.15982529295434 -82.136209929762117 0 0 0 0 -515.22720306728479 -538.32697993326292 0 -538.32697993326292 -1008.2226839480104 0 0 0 0 -528.40773505483412 -312.35368506648229 0 -312.35368506648229 -1016.2085902371227 0 0 0 0 -592.44328151093805 -244.32260228427185 0 -244.32260228427185 -1091.5267423028854 0 0 0 0 -703.23119046751617 -439.55452602138394 0 -439.55452602138394 -1028.555026427719 0 0 0 0 -980.53868584490556 -439.66746343180421 0 -439.66746343180421 -450.11166415171465 0 0 0 0 -534.87314839539067 -529.8998175600691 0 -529.8998175600691 -467.27494666154962 0 0 0 0 -459.28325494840192 -123.22927707589406 0 -123.22927707589406 -537.53900458217413 0 0 0 0 -683.03617389831015 -379.56684987111657 0 -379.56684987111657 -528.5486151559162 0 0 0 0 1584.8285193081124 -1394.3717565823281 0 -1394.3717565823281 -3110.5232546627594 0 0 0 0 -763.29034051765302 -648.6235935159275 0 -648.6235935159275 376.77838750466617 0 0 0 0 415.10132324405276 -911.35460592325398 0 -911.35460592325398 -27.07341618715418 0 0 0 0 -27.003098697059059 -180.43275442863066 0 -180.43275442863066 -75.863775053571388 0 0 0 0 -372.43490102373471 -9.7675147218542406 0 -9.7675147218542406 236.21088563975354 0 0 0 0 -313.54314909660752 -670.14611249882728 0 -670.14611249882728 -325.6037005961698 0 0 0 0 7.6813642076723312 -170.54187230289972 0 -170.54187230289972 -64.539859081816999 0 0 0 0 282.62803710975277 -130.48084129126073 0 -130.48084129126073 127.19730706415066 0 0 0 0 -452.41064212443234 -207.70656382133166 0 -207.70656382133166 557.56095076880592 0 0 0 0 5.0164036061469233 20.220759402827753 0 20.220759402827753 -298.47945268644253 0 0 0 0 -688.35883396906138 -29.847478593408596 0 -29.847478593408596 125.67154169712046 0 0 0 0 4.8875191092293164 -9.3289139325791552 0 -9.3289139325791552 -9.0065061275450944 0 0 0 0 5.7305920856667782 1.4541356791064572 0 1.4541356791064572 1.9504146499291437 0 0 0 0 -1015.3962041893392 -582.35746691676468 0 -582.35746691676468 -160.78027932723489 0 0 0 0 -463.0573621606618 -718.82423280135845 0 -718.82423280135845 -1104.4793895224284 0 0 0 0 -533.00398442381629 -400.88391067722114 0 -400.88391067722114 -1109.2018830761754 0 0 0 0 -879.94433214729634 -480.26023603572958 0 -480.26023603572958 -700.91718205538928 0 0 0 0 69.643092008129315 -869.75054987493786 0 -869.75054987493786 -908.29321450085263 0 0 0 0 139.9320880690575 -495.89122897278503 0 -495.89122897278503 -227.25392594450386 0 0 0 0 -714.28168233315955 -1228.3318944353814 0 -1228.3318944353814 -763.13728054127932 0 0 0 0 -231.30130633263389 -898.41516647426306 0 -898.41516647426306 -482.78929692813836 0 0 0 0 -245.17890595034646 -983.36364967246936 0 -983.36364967246936 -773.77048850923893 0 0 0 0 -556.65220883525126 -847.85253676845969 0 -847.85253676845969 -957.01063010797952 0 0 0 0 -631.19628482569897 -989.99057447211089 0 -989.99057447211089 -542.13626432749152 0 0 0 0 -549.95643234304043 -872.71706161987095 0 -872.71706161987095 -875.97097974142889 0 0 0 0 -698.66335125630758 -1120.6596537913429 0 -1120.6596537913429 -770.87752687211832 0 0 0 0 -717.86341136894043 -1201.4196479098391 0 -1201.4196479098391 -1107.8047599061429 0 0 0 0 -559.93658183377647 -927.64671192102105 0 -927.64671192102105 -1166.7728815479786 0 0 0 0 -569.98145007151561 -916.69780385360355 0 -916.69780385360355 -1170.8602840752574 0 0 0 0 -472.84032503801427 -632.68572439567652 0 -632.68572439567652 -1064.1656411831354 0 0 0 0 -467.15787163879668 -707.49954602268554 0 -707.49954602268554 -1496.3278922590252 0 0 0 0 -519.85578012760561 -731.7945123645768 0 -731.7945123645768 -1244.2644147014071 0 0 0 0 -405.84784049810332 -496.00667085964233 0 -496.00667085964233 -1262.3627569002565 0 0 0 0 -474.86299891413728 -500.78118986806658 0 -500.78118986806658 -921.8362090585324 0 0 0 0 -478.45394672236762 -591.03105830419918 0 -591.03105830419918 -1123.8029689319083 0 0 0 0 -718.92639017759234 -660.08691092854133 0 -660.08691092854133 -1566.5872330128732 0 0 0 0 -711.6681739313583 -213.08491619119013 0 -213.08491619119013 -1696.6992805502668 0 0 0 0 -476.87061775653046 -402.12679992061749 0 -402.12679992061749 -1586.905216933781 0 0 0 0 -564.93604808562759 -759.08264606923331 0 -759.08264606923331 -1387.2845310368502 0 0 0 0 -520.59091769976726 -701.58715969164768 0 -701.58715969164768 -2074.4505367736856 0 0 0 0 -882.13014798640768 -1216.9813640807697 0 -1216.9813640807697 -1629.2175020041395 0 0 0 0 -672.71536551799818 -1077.469713284343 0 -1077.469713284343 -1540.5693277282844 0 0 0 0 -675.20098406913166 -1097.6549844124238 0 -1097.6549844124238 -1417.5247132321056 0 0 0 0 -1034.953943172457 -1467.4847060188768 0 -1467.4847060188768 -1351.0754889831296 0 0 0 0 -1308.4034740551811 -1305.1182559557601 0 -1305.1182559557601 -847.7708502322057 0 0 0 0 -2219.0500828544509 -1407.1658968656702 0 -1407.1658968656702 -623.87837387423497 0 0 0 0 -1516.0461558512184 -1704.248514051138 0 -1704.248514051138 -1547.5884472589532 0 0 0 0 -1702.6260746242306 -1642.0403040417004 0 -1642.0403040417004 -1545.4570095722438 0 0 0 0 -3098.8657637809119 -1818.9560373423592 0 -1818.9560373423592 -1022.3785350188991 0 0 0 0 -3299.8123847135325 -2368.3245242913072 0 -2368.3245242913072 -2302.6172451819875 0 0 0 0 -1860.0562951853199 -2072.4783196429489 0 -2072.4783196429489 -2699.1181807421963 0 0 0 0 -2709.7247124746164 -1230.8881746878833 0 -1230.8881746878833 -302.07966237366782 0 0 0 0 -2137.775076803985 -1311.5005739631742 0 -1311.5005739631742 -855.39254868170246 0 0 0 0 -2191.7654177836157 392.39617349306354 0 392.39617349306354 193.79985278413733 0 0 0 0 -3930.1062952754905 -553.84244876141383 0 -553.84244876141383 -133.95686993825075 0 0 0 0 -8.0202681664717304 -7.6833149100936851 0 -7.6833149100936851 -6.4780026416290184 0 0 0 0 -1845.042402513569 -2298.3791349451494 0 -2298.3791349451494 -2152.3422096506183 0 0 0 0 375.65237805368088 -2156.6302469511356 0 -2156.6302469511356 -2353.3539418406872 0 0 0 0 -2561.7241614021459 -1241.6954147008801 0 -1241.6954147008801 -3630.4048860540352 0 0 0 0 -963.68371270544776 140.95195873119519 0 140.95195873119519 -2066.597377702652 0 0 0 0 -716.82863477320279 45.230305841483641 0 45.230305841483641 -2988.5281169216323 0 0 0 0 -679.22704170206725 -739.68692721450498 0 -739.68692721450498 -2477.384517632192 0 0 0 0 -1011.1774680101389 -350.70866192637186 0 -350.70866192637186 -1999.8930373040785 0 0 0 0 -983.51619619934718 -17.713099934800994 0 -17.713099934800994 -1761.4527457595832 0 0 0 0 -890.5888062573465 -1492.4729313572111 0 -1492.4729313572111 -2699.9000057955855 0 0 0 0 -889.18698768971535 -836.27724716543162 0 -836.27724716543162 -2186.8837407632091 0 0 0 0 -1016.9143419156903 -1619.4035890808937 0 -1619.4035890808937 -4352.6520670898026 0 0 0 0 -2804.4625459848721 -2056.2451490756357 0 -2056.2451490756357 -2587.0918302659848 0 0 0 0 -2839.0404219165193 -1329.904935742612 0 -1329.904935742612 -3623.7298732191412 0 0 0 0 -5.3165598455676317 28.720953636654656 0 28.720953636654656 -103.08803781326873 0 0 0 0 -81.188538232658175 -3.5685747831921617 0 -3.5685747831921617 -282.6955599166613 0 0 0 0 -1263.3586529893369 631.12365261804644 0 631.12365261804644 623.44296580864466 0 0 0 0 44.483686406158085 423.72889500945894 0 423.72889500945894 602.61396476122536 0 0 0 0 -3333.8272146720992 -1383.6407818049847 0 -1383.6407818049847 -402.92374075005137 0 0 0 0 -1323.6908063880237 -2228.8944463130338 0 -2228.8944463130338 -1692.62333871804 0 0 0 0 692.25966132851408 1093.6296914099948 0 1093.6296914099948 -1675.5515199187575 0 0 0 0 -1130.7687006912984 -3024.9116241144256 0 -3024.9116241144256 -3436.8644707924832 0 0 0 0 -34.22008404323234 -20.782239641239727 0 -20.782239641239727 24.40215022906996 0 0 0 0 -2971.5761028797187 -1300.806423868331 0 -1300.806423868331 241.26570655771502 0 0 0 0 -1673.2284108424792 450.21613403904121 0 450.21613403904121 -21.502111443944159 0 0 0 0 -1351.2966375330834 -95.676978363750095 0 -95.676978363750095 7.1687739337212406 0 0 0 0 -966.3593530186406 169.94079298073302 0 169.94079298073302 -715.78181493011652 0 0 0 0 -1268.6336505251129 -556.04601784809347 0 -556.04601784809347 249.43471406347817 0 0 0 0 -1108.8109102335784 -95.095340842352016 0 -95.095340842352016 -919.09848437368055 0 0 0 0 -1114.7650365305008 -409.30224159760814 0 -409.30224159760814 -544.24686894629849 0 0 0 0 -817.23686574315002 -439.55278411539985 0 -439.55278411539985 -1242.7091665982734 0 0 0 0 -1206.9537948147172 129.84362923391745 0 129.84362923391745 -1017.9367634939263 0 0 0 0 -1169.656044932337 -2139.9862393227086 0 -2139.9862393227086 -4274.0089585355054 0 0 0 0 -9.1206102908770816 -15.036529507823133 0 -15.036529507823133 -33.581927041042036 0 0 0 0 -1186.2065148823349 -2113.1272238341262 0 -2113.1272238341262 -3079.9029907537042 0 0 0 0 -283.65348046679901 -108.27917540721137 0 -108.27917540721137 -115.12338896517031 0 0 0 0 7.8996100376140248 -96.14113049554976 0 -96.14113049554976 203.35207644766234 0 0 0 0 -1050.6492288164009 -1045.0702251423231 0 -1045.0702251423231 -342.45665704963085 0 0 0 0 -3275.325456440326 971.28207716022018 0 971.28207716022018 1489.6574363566597 0 0 0 0 -29.097167408175512 -178.15099569510272 0 -178.15099569510272 -48.33123930195724 0 0 0 0 -1525.325128938478 -633.16303878849192 0 -633.16303878849192 -315.0437911119061 0 0 0 0 -2856.8555875494039 -1082.9620796016313 0 -1082.9620796016313 201.68767960032687 0 0 0 0 -1459.0765640189693 -850.11316082800886 0 -850.11316082800886 292.08720214552977 0 0 0 0 -700.08956392712935 -828.01343722809111 0 -828.01343722809111 -206.37329669834162 0 0 0 0 -1831.6911007115341 -816.82359168163566 0 -816.82359168163566 10.484964583654801 0 0 0 0 -1352.0050694498859 -1068.5929431526847 0 -1068.5929431526847 -1067.2809945630952 0 0 0 0 -1230.2340445652226 -719.88539570587113 0 -719.88539570587113 -318.29236008298085 0 0 0 0 -1982.3003487909236 -1197.4795152697952 0 -1197.4795152697952 309.47775160348829 0 0 0 0 -1826.8026681699721 -931.50002064466025 0 -931.50002064466025 356.01100796726678 0 0 0 0 -328.47874968096585 183.37292377300025 0 183.37292377300025 -155.77566752118855 0 0 0 0 -1538.9162015753864 -873.32845649479714 0 -873.32845649479714 271.56411791898427 0 0 0 0 12.997494895400969 -69.725514993341577 0 -69.725514993341577 174.8157372907288 0 0 0 0 -1156.5204259075217 -915.01601739720445 0 -915.01601739720445 -516.73364866465226 0 0 0 0 -16.115262939834409 -83.332046839318068 0 -83.332046839318068 -63.392955918008333 0 0 0 0 -1691.2560360806538 -1108.1998534649138 0 -1108.1998534649138 263.103370970588 0 0 0 0 14.926133173419117 -28.877348377934794 0 -28.877348377934794 -8.0471238225050516 0 0 0 0 -399.2652980479952 -662.95832419433634 0 -662.95832419433634 -1104.0861042699678 0 0 0 0 -950.70031279140676 -1117.0338528160344 0 -1117.0338528160344 -425.0446945229773 0 0 0 0 -619.3037351184139 -1246.9913957569102 0 -1246.9913957569102 -1877.8432923680709 0 0 0 0 1.1463291909575446 -15.484519934416159 0 -15.484519934416159 25.093429610841589 0 0 0 0 -1653.649023220165 -441.26572618386353 0 -441.26572618386353 435.62743512877182 0 0 0 0 -1384.2107616138128 -1457.0958852700776 0 -1457.0958852700776 -840.64497928836749 0 0 0 0 -1315.7562683362448 -1218.9046387169333 0 -1218.9046387169333 -582.58655713356029 0 0 0 0 -1617.20193002724 -1555.6281231467685 0 -1555.6281231467685 -870.01177199312951 0 0 0 0 -499.71681268575958 -594.15321870352386 0 -594.15321870352386 -1515.4350888092786 0 0 0 0 -603.57317211006739 -936.47545537924634 0 -936.47545537924634 -2218.5694400018524 0 0 0 0 -1808.4833742438204 -1468.5355691122622 0 -1468.5355691122622 -1172.1988673884839 0 0 0 0 -1537.6148509504392 -1248.672564700254 0 -1248.672564700254 -963.3342100194277 0 0 0 0 -1713.7303980621291 -738.27575849242794 0 -738.27575849242794 -1756.9810733060076 0 0 0 0 -1644.4734627022485 -1262.9390745415901 0 -1262.9390745415901 -2187.8306056385609 0 0 0 0 -1433.3230233713821 -768.18689012335744 0 -768.18689012335744 -256.29296518956153 0 0 0 0 -1707.0655495427454 -1792.3871600977041 0 -1792.3871600977041 -866.14891029182854 0 0 0 0 -550.97093280268018 -888.51229797296639 0 -888.51229797296639 -669.9098229792844 0 0 0 0 -99.316913445909449 130.24694760348649 0 130.24694760348649 -145.81818731548196 0 0 0 0 -543.10397887237923 -84.441013600940664 0 -84.441013600940664 155.67838795140688 0 0 0 0 -8.6948192922450005 -15.596289448141757 0 -15.596289448141757 -2.9534448077952877 0 0 0 0 266.23184585987838 45.286251012486105 0 45.286251012486105 -133.48298201559982 0 0 0 0 -12.41828663435601 -57.301633405555513 0 -57.301633405555513 121.49469178154264 0 0 0 0 -14.79315958525649 -159.9578082122971 0 -159.9578082122971 343.32099148425914 0 0 0 0 -51.142020466453687 -144.52294744716528 0 -144.52294744716528 419.92483939135855 0 0 0 0 39.774280015801423 -157.66697823816963 0 -157.66697823816963 -71.199353398649123 0 0 0 0 61.696591262687662 -15.69446425620481 0 -15.69446425620481 -778.8330317893251 0 0 0 0 178.58266124755028 -232.1831459955547 0 -232.1831459955547 -580.43315420141153 0 0 0 0 6.642735490938783 -18.827050049506241 0 -18.827050049506241 -100.70364906263421 0 0 0 0 -1.5134969907062441 -143.03344122842282 0 -143.03344122842282 -345.44270701442474 0 0 0 0 -204.27098480725545 -421.59486055938692 0 -421.59486055938692 -305.33121879620376 0 0 0 0 393.38102778791017 -98.015964302679095 0 -98.015964302679095 -372.28523169813707 0 0 0 0 528.8627256843306 -65.25286386068035 0 -65.25286386068035 -743.06299477640277 0 0 0 0 -2.9299300346061372 6.5645764347395676 0 6.5645764347395676 -34.094337302259476 0 0 0 0 -190.48041683384145 40.219299483299892 0 40.219299483299892 -305.96657327907633 0 0 0 0 34.343070594168239 -53.233394379902165 0 -53.233394379902165 -280.0427697292962 0 0 0 0 -406.96764705279293 -92.193090721375029 0 -92.193090721375029 -213.64334599178619 0 0 0 0 3.4276689963012359 -142.8949966361638 0 -142.8949966361638 -465.48308731158977 0 0 0 0 -139.82754375586046 -72.425057320626365 0 -72.425057320626365 -237.39800263683173 0 0 0 0 -139.57593209989156 0.63582687156738871 0 0.63582687156738871 -169.18873707305829 0 0 0 0 114.56127163795463 -51.759362090366267 0 -51.759362090366267 -625.16987293721468 0 0 0 0 252.23033467544519 60.517754623509973 0 60.517754623509973 -876.83119273650664 0 0 0 0 -195.4060983928066 347.66401134411353 0 347.66401134411353 -355.66955229623272 0 0 0 0 118.58897905796039 -84.852588358506182 0 -84.852588358506182 -497.65374744339715 0 0 0 0 37.014966031382748 -158.02527108411536 0 -158.02527108411536 -76.17120808820269 0 0 0 0 29.004808803105789 -153.51936779365269 0 -153.51936779365269 -547.49185710018355 0 0 0 0 22.499855823050893 -269.15886224482529 0 -269.15886224482529 678.39915951444891 0 0 0 0 181.95896666875342 -170.40555559227505 0 -170.40555559227505 -580.04569801220714 0 0 0 0 183.15809710698522 -144.96144934296899 0 -144.96144934296899 -615.59632788260933 0 0 0 0 312.65446760833947 -104.44081728755555 0 -104.44081728755555 -643.18448568011263 0 0 0 0 217.40276761225323 43.02869848382943 0 43.02869848382943 -365.08998922878527 0 0 0 0 -230.43009952971624 -812.09333599714591 0 -812.09333599714591 233.05636161236907 0 0 0 0 642.92661791114369 168.932484163357 0 168.932484163357 -485.32499029060818 0 0 0 0 -506.67734502126405 -1166.4858513049985 0 -1166.4858513049985 -824.74429918990063 0 0 0 0 330.01134563125379 -1082.2001422540125 0 -1082.2001422540125 -824.42301249561569 0 0 0 0 192.80619626786302 -45.310582793470758 0 -45.310582793470758 -1908.1858120624383 0 0 0 0 -314.39048844129138 623.54009534984834 0 623.54009534984834 -995.24148605002301 0 0 0 0 2.7707179680653908 8.133670266755118 0 8.133670266755118 -29.355548585037965 0 0 0 0 -627.58234465751593 -493.58534518922352 0 -493.58534518922352 -479.03675868121354 0 0 0 0 120.14238770972224 -185.70173098043051 0 -185.70173098043051 -935.67908994205936 0 0 0 0 108.82335633943694 -67.584026937374801 0 -67.584026937374801 -2119.8203319308523 0 0 0 0 -932.19296017228044 1151.2367965434678 0 1151.2367965434678 -1273.8477461499351 0 0 0 0 -1835.37413630425 0.67447280722262803 0 0.67447280722262803 -495.70806506468216 0 0 0 0 48.14811373174598 533.12361198625877 0 533.12361198625877 -1246.0389896902634 0 0 0 0 -178.1312554008764 266.63524421217153 0 266.63524421217153 -393.85283369477838 0 0 0 0 189.91873943411338 203.01308368007813 0 203.01308368007813 -575.2041971469589 0 0 0 0 232.29352464433032 156.82703770064109 0 156.82703770064109 -870.07476442892221 0 0 0 0 226.57060310036468 89.628330805651785 0 89.628330805651785 -655.1662762058404 0 0 0 0 275.82503883395111 -50.182265771778475 0 -50.182265771778475 -698.1674741440147 0 0 0 0 314.49854529020377 -18.525039964937605 0 -18.525039964937605 -892.71644183904118 0 0 0 0 182.41238566587708 -13.478687857750629 0 -13.478687857750629 -653.03539586155603 0 0 0 0 175.83997400604858 20.977130834144191 0 20.977130834144191 -747.90184687747387 0 0 0 0 43.920470633231162 -130.01457782178841 0 -130.01457782178841 -680.56110145523417 0 0 0 0 20.645092482192069 -47.264072860703862 0 -47.264072860703862 -117.30107118753762 0 0 0 0 68.488687584009313 -86.275025451657712 0 -86.275025451657712 -55.169342293360387 0 0 0 0 252.86060474815895 -105.70481103892143 0 -105.70481103892143 -681.46418312846799 0 0 0 0 284.59691586366353 6.2898379196640235 0 6.2898379196640235 -649.98141627982841 0 0 0 0 162.15945821399146 -400.11778203672293 0 -400.11778203672293 97.433490139821515 0 0 0 0 220.47570402656129 -364.74140576180798 0 -364.74140576180798 -639.52569831706751 0 0 0 0 181.82371783845883 -15.388752464845311 0 -15.388752464845311 -537.66304745840898 0 0 0 0 43.443993398614111 -108.85980266403203 0 -108.85980266403203 -59.116007984091993 0 0 0 0 6.5944049324722585 -52.329482641483423 0 -52.329482641483423 -98.242407156144168 0 0 0 0 -21.344626009027706 -48.438746813408216 0 -48.438746813408216 -52.317433263398016 0 0 0 0 12.354922939332027 -53.94648679234524 0 -53.94648679234524 -63.648107231812901 0 0 0 0 48.524590763372544 -61.12490243071079 0 -61.12490243071079 -97.781986729823984 0 0 0 0 19.798598966546706 -83.08172190089681 0 -83.08172190089681 -113.75596240255254 0 0 0 0 64.820106399449287 81.77088759245089 0 81.77088759245089 341.64017243970011 0 0 0 0 58.150208631661371 -483.70300730591407 0 -483.70300730591407 915.78596028544416 0 0 0 0 9.6462656163703286 -64.06260362900008 0 -64.06260362900008 -31.220446525643908 0 0 0 0 40.473997167697235 -46.812024570528592 0 -46.812024570528592 -142.72765707297367 0 0 0 0 39.446766358381865 -79.773948936108354 0 -79.773948936108354 -74.353244982557953 0 0 0 0 17.066348897475109 -182.174691144799 0 -182.174691144799 227.37390417622737 0 0 0 0 16.469648523814016 -59.346768914206933 0 -59.346768914206933 -51.433363960102994 0 0 0 0 10.818932668463759 -66.498755629805444 0 -66.498755629805444 -70.504784416218428 0 0 0 0 8.40517329396355 -33.834441036700966 0 -33.834441036700966 -53.333242116243085 0 0 0 0 35.538676090536285 -73.170168877236989 0 -73.170168877236989 -71.014905447441265 0 0 0 0 -72.199475696234003 -104.72373738407987 0 -104.72373738407987 97.289024354447974 0 0 0 0 32.70000095888463 -227.83708958791431 0 -227.83708958791431 164.6287208824906 0 0 0 0 -210.16152041572059 17.009889148144794 0 17.009889148144794 46.84459585361401 0 0 0 0 -726.6794614397877 -1089.4843291626385 0 -1089.4843291626385 -20.463224210980115 0 0 0 0 290.87962056336983 -1127.0676464901553 0 -1127.0676464901553 -546.6113719128698 0 0 0 0 535.37540855277621 -440.45572581609304 0 -440.45572581609304 -1230.289941477633 0 0 0 0 -67.313354087236803 107.34819095302373 0 107.34819095302373 -1023.6695001610969 0 0 0 0 324.12060789394309 -862.86140165179677 0 -862.86140165179677 -578.38131358826649 0 0 0 0 403.78963728992676 -402.54936592424838 0 -402.54936592424838 -1073.4975813090568 0 0 0 0 610.52827038866963 -75.232343915264209 0 -75.232343915264209 -512.65084006151301 0 0 0 0 -263.67734939150978 -781.67307524864736 0 -781.67307524864736 -1606.954853311152 0 0 0 0 -2410.0075066189311 568.63483989598171 0 568.63483989598171 553.65771395454067 0 0 0 0 -2269.5157001545304 -1840.1434268242156 0 -1840.1434268242156 -2068.9052815046307 0 0 0 0 -430.14021028537536 -1030.2243625267292 0 -1030.2243625267292 -1204.3253398510278 0 0 0 0 135.95011919390527 77.024028111511143 0 77.024028111511143 -1549.484353751177 0 0 0 0 -168.30629880061315 479.55500430848042 0 479.55500430848042 -2169.2409722332159 0 0 0 0 -34.829982251052343 -49.297480126920391 0 -49.297480126920391 -16.818444329803725 0 0 0 0 -1265.8305566370636 -128.92664516400328 0 -128.92664516400328 54.438621963607147 0 0 0 0 -301.49070928522269 -752.27283623062249 0 -752.27283623062249 -2891.8152551584935 0 0 0 0 1521.3135854621578 -136.72480011139123 0 -136.72480011139123 -1008.4733808010933 0 0 0 0 -34.551409147035884 -69.051701218315429 0 -69.051701218315429 -622.61652655170474 0 0 0 0 -2297.9393008377338 -4986.8237280418471 0 -4986.8237280418471 -1864.3797759935842 0 0 0 0 1550.0851988212744 -1358.8314876601471 0 -1358.8314876601471 -1142.8928176852351 0 0 0 0 -7.9402727764275127 -65.033957504696161 0 -65.033957504696161 -93.180789457473082 0 0 0 0 -420.70614149278845 6241.7097689165676 0 6241.7097689165676 78.541068370846915 0 0 0 0 37.467096700325811 0.94422114001662294 0 0.94422114001662294 -35.492710598797061 0 0 0 0 2795.1766373095888 1765.4323987948155 0 1765.4323987948155 -1589.9687747708667 0 0 0 0 627.86070030512928 54.177146604757581 0 54.177146604757581 153.51705360370397 0 0 0 0 -6.8889040794222538 -52.066886032630393 0 -52.066886032630393 -66.112083529870404 0 0 0 0 8918.0140483329014 -1694.9812009684392 0 -1694.9812009684392 84.115300008386839 0 0 0 0 -5716.2481048072805 -808.88924887274334 0 -808.88924887274334 219.37329113273881 0 0 0 0 -10.037510588212172 -73.442819638781657 0 -73.442819638781657 -80.458716630571871 0 0 0 0 54.656232639890135 -2.72449685129817 0 -2.72449685129817 -16.009215242513747 0 0 0 0 12.06762982214719 -41.756787725184822 0 -41.756787725184822 -94.616733765326785 0 0 0 0 290.65666951083813 220.07000369385059 0 220.07000369385059 211.97839457998634 0 0 0 0 552.17333786193194 -714.14907067904278 0 -714.14907067904278 815.17111775444937 0 0 0 0 770.07399601642101 -887.89474917961343 0 -887.89474917961343 953.39216523435607 0 0 0 0 6.8737667152196629 -9.7111484120922 0 -9.7111484120922 5.9455211927324854 0 0 0 0 557.82226475445532 -689.87511200228619 0 -689.87511200228619 912.97509243732202 0 0 0 0 -367.08993897217442 264.04079527499562 0 264.04079527499562 432.21187288127112 0 0 0 0 -203.56369466995238 -479.87963122616929 0 -479.87963122616929 7.6867806861555437 0 0 0 0 2077.3799394004745 -536.8126097786444 0 -536.8126097786444 -532.03933275657619 0 0 0 0 16.78060955654459 0.95420180023037915 0 0.95420180023037915 2.3690209589820483 0 0 0 0 118.40410718405474 -118.95451141471858 0 -118.95451141471858 408.17820627731271 0 0 0 0 1013.9646154327056 -1580.8351106998671 0 -1580.8351106998671 2021.8116350975833 0 0 0 0 105.70825234337826 -602.96820839055727 0 -602.96820839055727 787.5328148398039 0 0 0 0 122.61249422625406 -570.81540425663115 0 -570.81540425663115 306.21369310425507 0 0 0 0 1292.9926762572404 -88.891048839966061 0 -88.891048839966061 806.87056909652893 0 0 0 0 93.910999479863676 -1501.4713012061111 0 -1501.4713012061111 1644.5903234672005 0 0 0 0 -61.827849671099102 -965.20098819338455 0 -965.20098819338455 -99.309293087302649 0 0 0 0 338.40068425821664 -341.63589063124527 0 -341.63589063124527 7.6701488997205161 0 0 0 0 146.51409057812998 -119.64626792231866 0 -119.64626792231866 31.380945029198301 0 0 0 0 -67.985286732808163 -156.45641548319691 0 -156.45641548319691 205.50313832907705 0 0 0 0 307.84059216028254 -148.30440608193749 0 -148.30440608193749 496.65558142420923 0 0 0 0 220.29148455505492 -366.36656031992607 0 -366.36656031992607 98.292775725145475 0 0 0 0 899.34716596997896 -509.2474593328734 0 -509.2474593328734 227.09040974180971 0 0 0 0 557.85535096636158 -749.53355761995772 0 -749.53355761995772 892.28902722934436 0 0 0 0 553.52133134219912 -263.42246973636793 0 -263.42246973636793 39.724483041194617 0 0 0 0 318.65210068045417 -269.97784343209059 0 -269.97784343209059 271.8565131100695 0 0 0 0 498.78769385542546 -497.06312470464036 0 -497.06312470464036 413.8000547190386 0 0 0 0 602.30001559543416 -438.31454715523614 0 -438.31454715523614 132.84923155636352 0 0 0 0 555.51912537280441 -522.33044403705571 0 -522.33044403705571 400.03937170289282 0 0 0 0 690.98473358126648 -441.30346623048172 0 -441.30346623048172 408.84844624601828 0 0 0 0 496.34587975271279 -571.91508153575705 0 -571.91508153575705 1039.7486863974591 0 0 0 0 498.24376706820294 -618.13164397940091 0 -618.13164397940091 330.05398092659016 0 0 0 0 455.16411078658712 -524.39739933413512 0 -524.39739933413512 208.67225707517355 0 0 0 0 425.46214994416005 -550.63673604071118 0 -550.63673604071118 191.67094839041238 0 0 0 0 406.39558975918044 -578.23001335730805 0 -578.23001335730805 238.82557779824128 0 0 0 0 192.23224850661791 -444.05929516341712 0 -444.05929516341712 321.73147516337485 0 0 0 0 206.18114417584729 -232.67475505965558 0 -232.67475505965558 90.095733757254493 0 0 0 0 313.69307640333864 -354.04866539213253 0 -354.04866539213253 171.28606360785125 0 0 0 0 357.1379959986989 -351.35181134734557 0 -351.35181134734557 132.9117132070096 0 0 0 0 377.05286686227191 -326.13468603166984 0 -326.13468603166984 59.909628958252142 0 0 0 0 169.41449458336137 -111.44516239580116 0 -111.44516239580116 32.73917937267106 0 0 0 0 313.35147742125019 -163.75805145772858 0 -163.75805145772858 -24.125150104620843 0 0 0 0 107.5114527502883 -109.37167046290779 0 -109.37167046290779 88.30479519651999 0 0 0 0 140.45181259249512 -160.11966237609886 0 -160.11966237609886 -27.291439983582677 0 0 0 0 54.216937842829793 16.79371689051186 0 16.79371689051186 -90.080291400783608 0 0 0 0 14.104595131539099 -254.70158815622926 0 -254.70158815622926 -84.507153348240536 0 0 0 0 -46.621759100664349 -14.637004722459096 0 -14.637004722459096 -63.887060637382092 0 0 0 0 83.830572447337545 -393.59603900573711 0 -393.59603900573711 319.4072460791358 0 0 0 0 139.82401434930944 -367.45495214773109 0 -367.45495214773109 93.103154652249941 0 0 0 0 194.08208741994895 -282.67887053617596 0 -282.67887053617596 226.31199614006619 0 0 0 0 146.66829626077379 -569.7156643233684 0 -569.7156643233684 -100.84025820047464 0 0 0 0 536.45048935887462 -374.0969102179406 0 -374.0969102179406 -21.930963268532651 0 0 0 0 107.41858223509917 -386.47553374829295 0 -386.47553374829295 104.07503066684876 0 0 0 0 44.863813831660082 -123.14567727723625 0 -123.14567727723625 24.042923591099679 0 0 0 0 4.2260518738127502 -49.640283285458082 0 -49.640283285458082 -36.958956953492702 0 0 0 0 85.51011962773191 -262.35793359380477 0 -262.35793359380477 225.20929460323532 0 0 0 0 -11.264568942224969 -56.136870788923211 0 -56.136870788923211 101.08932372600952 0 0 0 0 79.59510056261297 -265.733898701812 0 -265.733898701812 337.45477684849175 0 0 0 0 -81.916659342303319 -253.03869334116462 0 -253.03869334116462 604.1365845938999 0 0 0 0 448.03205785108003 -748.31255288451212 0 -748.31255288451212 599.06819539196294 0 0 0 0 321.72740243512089 -562.35537770145311 0 -562.35537770145311 385.09715134555154 0 0 0 0 165.58470017669242 -442.73603690066375 0 -442.73603690066375 148.88818514627201 0 0 0 0 181.36991685193789 -509.18333474357496 0 -509.18333474357496 365.84261814670754 0 0 0 0 367.96001444660214 -642.82251599005394 0 -642.82251599005394 168.09315805387087 0 0 0 0 474.02085627767519 -583.6936893920647 0 -583.6936893920647 129.86229835996346 0 0 0 0 271.61146021247623 -551.61218473654299 0 -551.61218473654299 112.15774840710219 0 0 0 0 189.00707510670691 -632.93107178702485 0 -632.93107178702485 -291.47288424418366 0 0 0 0 138.82685533643962 -455.95420232982724 0 -455.95420232982724 169.70131870921614 0 0 0 0 141.62787795585234 -534.59120607491809 0 -534.59120607491809 -184.74192092307203 0 0 0 0 168.19698479831277 -704.88406804461192 0 -704.88406804461192 -27.04255028735497 0 0 0 0 80.550230536617164 -612.19196580352582 0 -612.19196580352582 -114.47994843108245 0 0 0 0 87.005234229101916 -840.75302439442748 0 -840.75302439442748 -694.74842831731075 0 0 0 0 -23.731962520928391 -987.03130450565368 0 -987.03130450565368 -714.50397770383279 0 0 0 0 -119.08953895174454 -1220.2110224643984 0 -1220.2110224643984 -721.34153043750848 0 0 0 0 -62.585657832572906 -1048.9166970617334 0 -1048.9166970617334 -606.5999392552294 0 0 0 0 -32.551929456130893 -1030.873109891676 0 -1030.873109891676 -315.89277564031863 0 0 0 0 184.96394416553812 -1036.6719633598659 0 -1036.6719633598659 -617.3755051308035 0 0 0 0 180.25128902985671 -1057.7175733178046 0 -1057.7175733178046 201.35889782124286 0 0 0 0 10.700025257483503 -503.33375367716963 0 -503.33375367716963 1423.9448372488259 0 0 0 0 -4.5865047770943193 -11.518979724692713 0 -11.518979724692713 6.330174597362884 0 0 0 0 -56.094333618068049 -1493.842157185285 0 -1493.842157185285 -2801.5249583009809 0 0 0 0 -631.87648734158938 -1017.2325042026278 0 -1017.2325042026278 -1528.0769088725065 0 0 0 0 -413.56974360357708 -1035.857415779974 0 -1035.857415779974 -1527.6790335147025 0 0 0 0 -274.20980360485919 -1303.2326303550981 0 -1303.2326303550981 -1145.7264658294589 0 0 0 0 261.89479804890289 -997.84129765269608 0 -997.84129765269608 -1625.3896124120474 0 0 0 0 78.481660364166601 -850.1130238514088 0 -850.1130238514088 -1361.9239420478334 0 0 0 0 238.35029157274289 -710.88724592670087 0 -710.88724592670087 -1188.9767739985255 0 0 0 0 -85.554759449410767 -1405.1713256256335 0 -1405.1713256256335 -1157.9198580227603 0 0 0 0 -4.2975210227377829 -22.833692572854488 0 -22.833692572854488 25.579329112762935 0 0 0 0 94.206701622293622 -54.002079107318423 0 -54.002079107318423 26.103045471580117 0 0 0 0 50.950392718681542 -32.076079347451014 0 -32.076079347451014 -1.7088735561264912 0 0 0 0 -12.805248612130526 -28.808505517066806 0 -28.808505517066806 56.42426414012516 0 0 0 0 -14.493633849800972 -83.480590457675135 0 -83.480590457675135 91.88626134498918 0 0 0 0 121.54956280058104 -207.20800560466159 0 -207.20800560466159 161.625630743496 0 0 0 0 -23.527551966360988 -299.78783718398336 0 -299.78783718398336 227.06864368122478 0 0 0 0 -9.9420388731814739 -20.86646188718052 0 -20.86646188718052 12.884377723061533 0 0 0 0 65.711908599165326 -224.23932726729254 0 -224.23932726729254 287.95866183919861 0 0 0 0 -536.35120186154018 -1215.984561543959 0 -1215.984561543959 -2031.6682496317517 0 0 0 0 -586.26083289693634 -1132.9481960461089 0 -1132.9481960461089 -1379.2941670255623 0 0 0 0 -474.59016314135806 -835.34082847412355 0 -835.34082847412355 -1498.2036734212743 0 0 0 0 -479.50003168248986 -818.56039533214198 0 -818.56039533214198 -1235.831064715625 0 0 0 0 -18.61390032127855 -23.386247173861989 0 -23.386247173861989 17.291034028353309 0 0 0 0 1.4717954484221991 -62.35761958459625 0 -62.35761958459625 -17.797077085469937 0 0 0 0 -434.36159192536434 -812.26605203831423 0 -812.26605203831423 -1239.6090415903527 0 0 0 0 -233.7766922406372 -465.0979999152878 0 -465.0979999152878 -825.24092543396546 0 0 0 0 -40.564533903947449 -12.255161814078747 0 -12.255161814078747 22.645813259921852 0 0 0 0 -1102.2973543815169 -830.380713370374 0 -830.380713370374 -968.17874334862609 0 0 0 0 -897.5255435432482 -980.32166013604729 0 -980.32166013604729 -970.31461745053821 0 0 0 0 -831.90441858467238 -990.60646441955214 0 -990.60646441955214 -981.86825436141226 0 0 0 0 -641.84862315950159 -670.93739909360011 0 -670.93739909360011 -946.20925827804513 0 0 0 0 -548.12834362691137 -788.93871689151365 0 -788.93871689151365 -961.34769232165127 0 0 0 0 -713.83352320715494 -834.99985461838514 0 -834.99985461838514 -838.76342667942663 0 0 0 0 -467.83157978454255 -506.8516978668049 0 -506.8516978668049 -688.62783824642247 0 0 0 0 -680.06171729633206 -1071.7416591907836 0 -1071.7416591907836 -1124.155600952552 0 0 0 0 -652.84937452756276 -1000.3070532050915 0 -1000.3070532050915 -1022.4984985839292 0 0 0 0 -779.66593058615399 -1104.0733034764453 0 -1104.0733034764453 -1088.4233578320127 0 0 0 0 -816.75224306430573 -1195.2211096992942 0 -1195.2211096992942 -1274.8954977323738 0 0 0 0 -716.98176642771432 -1204.6250929213638 0 -1204.6250929213638 -1199.0004432723654 0 0 0 0 -676.63090592555818 -1174.1998341357321 0 -1174.1998341357321 -1176.584395034366 0 0 0 0 -622.44459900817856 -1082.9143713965241 0 -1082.9143713965241 -1221.1427120585722 0 0 0 0 -671.11425663764567 -1190.9140209783145 0 -1190.9140209783145 -1134.4870384081078 0 0 0 0 -373.90660002560617 -1059.0788269461045 0 -1059.0788269461045 -1151.8928244765848 0 0 0 0 -649.04351743253937 -1220.6344566228363 0 -1220.6344566228363 -1139.0005075927038 0 0 0 0 -167.82213857618626 -562.83119565451125 0 -562.83119565451125 -1041.3719918315119 0 0 0 0 313.83984248894558 65.096776825153938 0 65.096776825153938 -273.08793398503622 0 0 0 0 -801.86649247317109 -1161.9016643175382 0 -1161.9016643175382 -1613.5082831147956 0 0 0 0 3.1710582805950764 3.2857420679803511 0 3.2857420679803511 -5.0946342804578535 0 0 0 0 12.591436445623799 -2.9177919850130536 0 -2.9177919850130536 -7.2672444717619555 0 0 0 0 -722.66679765720619 -1257.6002046337235 0 -1257.6002046337235 -1517.0631353958634 0 0 0 0 -707.6983065604727 -1034.2173490352316 0 -1034.2173490352316 -1346.6345480148666 0 0 0 0 -719.68156476234253 -1219.2267615595579 0 -1219.2267615595579 -1424.8804012447436 0 0 0 0 -938.66557559456851 -1310.9365100338255 0 -1310.9365100338255 -1337.1715268424923 0 0 0 0 -1031.527492671521 -1383.0100047603555 0 -1383.0100047603555 -1508.8662848210806 0 0 0 0 173.3736390388076 -679.70755140181791 0 -679.70755140181791 -2250.30626139776 0 0 0 0 -1394.1739468947562 -2031.280505325687 0 -2031.280505325687 -2086.6065815698967 0 0 0 0 -2304.9613935624948 -784.78544748949571 0 -784.78544748949571 -1101.2596714754 0 0 0 0 -1165.3750592737342 -1198.8151628810374 0 -1198.8151628810374 -1139.313249631392 0 0 0 0 1119.0594571308538 -585.48536049816539 0 -585.48536049816539 -654.88760608318262 0 0 0 0 254.25349750585156 -743.27595107376328 0 -743.27595107376328 -1169.4870273565248 0 0 0 0 333.42818151534266 -521.50442750910406 0 -521.50442750910406 -617.13274231764808 0 0 0 0 870.52868913564453 -762.96989263154683 0 -762.96989263154683 -1386.3220577118045 0 0 0 0 341.50695916237237 -1384.4283215247451 0 -1384.4283215247451 -1279.8855030470368 0 0 0 0 -491.36704550188733 -1192.6965189453331 0 -1192.6965189453331 -1339.3857755937006 0 0 0 0 -642.86807948191745 -1079.1125633427491 0 -1079.1125633427491 -1327.077224238863 0 0 0 0 -1353.8480027305195 -1180.3869039309102 0 -1180.3869039309102 -608.20366882846065 0 0 0 0 0.98529507030028896 0.45803979546249707 0 0.45803979546249707 -8.1817691847892036 0 0 0 0 1339.0029292401814 -699.10819677180552 0 -699.10819677180552 -928.11762622966307 0 0 0 0 135.04270291933062 -87.064871751197643 0 -87.064871751197643 -448.08541973224055 0 0 0 0 -731.98022596466762 -546.33928509823454 0 -546.33928509823454 -158.49815516106173 0 0 0 0 -45.259905769468787 116.32345206789478 0 116.32345206789478 -158.65154337631975 0 0 0 0 48.513953764741018 -22.506019744250807 0 -22.506019744250807 -72.534006321264314 0 0 0 0 87.140867203102971 -134.0822688936878 0 -134.0822688936878 -122.82033609689825 0 0 0 0 48.395733209203172 80.841981716988812 0 80.841981716988812 50.405746848215131 0 0 0 0 6.9322836953858982 -5.6944746855891566 0 -5.6944746855891566 -11.948729954845533 0 0 0 0 3.9586483928439975 -8.0525296669972803 0 -8.0525296669972803 10.350472299594927 0 0 0 0 938.85523710254347 129.38642169642844 0 129.38642169642844 28.678393389236589 0 0 0 0 615.7596991901919 -952.58548929044628 0 -952.58548929044628 479.19452135570828 0 0 0 0 140.67370462889266 -359.67559906482711 0 -359.67559906482711 947.80124519126548 0 0 0 0 -21.085566559635481 -256.93651591792877 0 -256.93651591792877 1333.3439186299111 0 0 0 0 1211.0243855885965 -1020.7781333846397 0 -1020.7781333846397 425.71074057824808 0 0 0 0 239.8770883269126 -457.71601217225543 0 -457.71601217225543 142.74993047714088 0 0 0 0 330.14857961722373 -716.11774926588987 0 -716.11774926588987 255.47842458773084 0 0 0 0 -354.49316462301613 -632.16822049555049 0 -632.16822049555049 898.37769943397143 0 0 0 0 -468.12226870689665 -319.26317517877942 0 -319.26317517877942 409.3765627774992 0 0 0 0 -294.25208231458237 -435.49733005018788 0 -435.49733005018788 465.46983308596828 0 0 0 0 -19.337129645407913 -272.02817929124285 0 -272.02817929124285 351.93073024405385 0 0 0 0 -266.76584196006297 -339.11773566003831 0 -339.11773566003831 273.33143342821131 0 0 0 0 -287.99503901100979 -208.02417757598232 0 -208.02417757598232 472.94149661644769 0 0 0 0 -268.02383602099712 -275.76205077537952 0 -275.76205077537952 231.18990787345683 0 0 0 0 -45.978745795786381 -218.47958562823987 0 -218.47958562823987 222.84622276172013 0 0 0 0 -119.27133499195043 -186.39704916441406 0 -186.39704916441406 209.08075945430755 0 0 0 0 -219.62700317613917 150.83746581406876 0 150.83746581406876 412.80042039314139 0 0 0 0 -706.34109361942865 -1156.2700250416892 0 -1156.2700250416892 -1614.8531788581213 0 0 0 0 -12.370503678293311 -6.0443012788261683 0 -6.0443012788261683 0.46704250745216669 0 0 0 0 -32.227732207514755 -8.3256037782299614 0 -8.3256037782299614 1.613416612428459 0 0 0 0 -286.09745788523901 -450.98773488420557 0 -450.98773488420557 -544.44110128550528 0 0 0 0 -77.096349088087663 -86.484968104945438 0 -86.484968104945438 355.71173501343583 0 0 0 0 -711.31264139424093 -888.61909152595763 0 -888.61909152595763 -196.26830201817938 0 0 0 0 -780.74095676293655 -111.19699342794775 0 -111.19699342794775 457.09915485326746 0 0 0 0 -21.725301440346811 -124.32743298423156 0 -124.32743298423156 -1013.3210422650154 0 0 0 0 -203.54952012396825 -908.75131953557866 0 -908.75131953557866 -983.7714506284974 0 0 0 0 -760.46738284811181 -942.30845435098126 0 -942.30845435098126 -662.8276608547385 0 0 0 0 -968.28388874213488 -668.94753367589874 0 -668.94753367589874 -805.42533316718618 0 0 0 0 -416.34191915996325 -678.66198142035319 0 -678.66198142035319 -807.77058421444963 0 0 0 0 -373.47863033692738 -628.71332275331588 0 -628.71332275331588 -890.71599708449503 0 0 0 0 -402.44370599472666 -433.65749272716585 0 -433.65749272716585 -455.39075134544692 0 0 0 0 -570.34221899715658 -695.17901854480806 0 -695.17901854480806 -596.94200762117543 0 0 0 0 -678.68002593928122 -848.47250366030494 0 -848.47250366030494 -506.97825249591187 0 0 0 0 -576.70353997604616 -773.09456393708388 0 -773.09456393708388 -464.30274529155577 0 0 0 0 -694.33365721469272 -970.63889484632818 0 -970.63889484632818 -709.31944347538592 0 0 0 0 -753.40523050976844 -1101.8660075477965 0 -1101.8660075477965 -621.84641039163398 0 0 0 0 -935.71213702039859 -937.94625396446645 0 -937.94625396446645 -400.29148798905953 0 0 0 0 -1103.754572129898 -1060.0610204104014 0 -1060.0610204104014 -487.67605813599221 0 0 0 0 -1113.2213014881845 -1082.451911177006 0 -1082.451911177006 -465.27377846634045 0 0 0 0 -951.34648552891576 -1271.2734869138258 0 -1271.2734869138258 -805.04869764739124 0 0 0 0 -842.47933607117648 -1159.8774941965967 0 -1159.8774941965967 -863.20868656717357 0 0 0 0 -1353.6540042572558 -1366.4848094895624 0 -1366.4848094895624 -799.57570108547225 0 0 0 0 -825.92053242604561 -1119.1355140923915 0 -1119.1355140923915 -622.49699411970505 0 0 0 0 -536.61888518341402 -1078.1644845980227 0 -1078.1644845980227 -693.06148327385745 0 0 0 0 -568.7503468640607 -1154.7098910749191 0 -1154.7098910749191 -839.64096259919461 0 0 0 0 -271.45628330079853 -1168.0478941266701 0 -1168.0478941266701 -759.93400815320138 0 0 0 0 -286.19598163443152 -1114.7010896249121 0 -1114.7010896249121 -583.85203866808661 0 0 0 0 -247.29579182021553 -1033.8290629826952 0 -1033.8290629826952 -990.33341027262463 0 0 0 0 -418.88443553294292 -1161.6233458855495 0 -1161.6233458855495 -732.91530518246873 0 0 0 0 -635.77170244185618 -1039.636831907359 0 -1039.636831907359 -661.99016328118307 0 0 0 0 -6.8608144609072141 -13.013042276242089 0 -13.013042276242089 -12.994138506223123 0 0 0 0 -105.54756037594234 -175.61569341219001 0 -175.61569341219001 -218.23658200709178 0 0 0 0 -75.599053096040734 -28.739830816659378 0 -28.739830816659378 -198.31614196207829 0 0 0 0 -9.4634427822189053 -46.15294687871878 0 -46.15294687871878 -97.035938522931048 0 0 0 0 -40.392792721298974 23.781362554680527 0 23.781362554680527 -293.2319853695044 0 0 0 0 49.070997908369463 167.30011126717727 0 167.30011126717727 -224.59171906052507 0 0 0 0 -94.890640462980627 -187.42441833730118 0 -187.42441833730118 -96.749652650178177 0 0 0 0 -13.217269192884125 -6.8796768670299855 0 -6.8796768670299855 -27.689145132899228 0 0 0 0 -268.58516549847081 232.220242683994 0 232.220242683994 -300.05585887645429 0 0 0 0 -1547.525850841962 -174.17711227256223 0 -174.17711227256223 7.0884113918145886 0 0 0 0 -1494.1252204670288 -990.90153942863981 0 -990.90153942863981 -259.77680437930394 0 0 0 0 -1746.6705224434891 -1313.1950673061365 0 -1313.1950673061365 -668.70166244187931 0 0 0 0 -2139.9620451442802 -743.95551812363556 0 -743.95551812363556 88.735774469867465 0 0 0 0 -1237.485459342754 -549.26999733599951 0 -549.26999733599951 -157.84383451624308 0 0 0 0 -1565.4376281206883 -931.61368376934115 0 -931.61368376934115 -308.05037711659679 0 0 0 0 -1099.1955837358523 -663.95412133184846 0 -663.95412133184846 -178.8710105366772 0 0 0 0 -975.92359784705786 -643.9989361888147 0 -643.9989361888147 -287.07760619344481 0 0 0 0 -234.25784426452265 1.9658988653754932 0 1.9658988653754932 -239.43153035919386 0 0 0 0 -539.83868187981716 -137.86353097733445 0 -137.86353097733445 -90.293642045930028 0 0 0 0 -558.2740758204618 -95.964310357980139 0 -95.964310357980139 -144.9835220005516 0 0 0 0 -1008.2888369117982 -297.71665080015691 0 -297.71665080015691 -124.0726530104148 0 0 0 0 -223.6483904637189 -100.33624849400076 0 -100.33624849400076 -242.49997608000035 0 0 0 0 -449.59696805510953 -245.74040501739182 0 -245.74040501739182 -242.53644064060063 0 0 0 0 -684.68544345888722 -179.56578730419278 0 -179.56578730419278 -136.00159023535434 0 0 0 0 -376.94772796181633 -419.03278733843035 0 -419.03278733843035 -351.00873442665761 0 0 0 0 -841.47828628570323 -615.77025463396421 0 -615.77025463396421 -304.80470005009556 0 0 0 0 -666.79632374953826 -509.43979079926794 0 -509.43979079926794 -269.92855853390301 0 0 0 0 -464.98498545983739 -375.92188280616392 0 -375.92188280616392 -294.87336654597311 0 0 0 0 -68.749997224503886 -83.243200193777739 0 -83.243200193777739 -284.67557622227582 0 0 0 0 16.28111461147455 -2.4471238924234058 0 -2.4471238924234058 -170.38240641550283 0 0 0 0 -239.11256681564828 -114.45545600449623 0 -114.45545600449623 -163.16103145952366 0 0 0 0 -82.976638565855865 -9.7671771562127105 0 -9.7671771562127105 -95.781959318526788 0 0 0 0 -3.8423729366010519 6.1825378257656496 0 6.1825378257656496 -9.3928929644721109 0 0 0 0 -71.658101207844084 5.1092980510220514 0 5.1092980510220514 -224.40684419644822 0 0 0 0 -151.189823602469 -99.117078929935815 0 -99.117078929935815 -205.89230884378776 0 0 0 0 -32.226983491502324 -56.609204690794286 0 -56.609204690794286 -183.21971239267441 0 0 0 0 -36.103198664059164 9.4983442733064294 0 9.4983442733064294 -160.85887156533863 0 0 0 0 -36.725664883379068 7.9601503217418212 0 7.9601503217418212 -98.347595611608085 0 0 0 0 -36.346880901081022 -11.730045865831926 0 -11.730045865831926 -67.185386448851204 0 0 0 0 -39.487872969728414 18.792106234235689 0 18.792106234235689 -15.624199217301793 0 0 0 0 -23.529131263654563 35.246466141074052 0 35.246466141074052 -73.701943669555476 0 0 0 0 -63.17556992110076 -58.608709817388444 0 -58.608709817388444 -65.031609718695108 0 0 0 0 -25.22075394197018 -5.9933984016480792 0 -5.9933984016480792 -34.415947074039565 0 0 0 0 -15.30058691494196 -10.701690819376381 0 -10.701690819376381 -12.310408702702262 0 0 0 0 -37.943918963703716 -10.897315431186172 0 -10.897315431186172 -45.469219206252916 0 0 0 0 -35.958586125011401 -15.603306554826787 0 -15.603306554826787 -49.930773314301916 0 0 0 0 -20.028626422910044 -10.268347168446859 0 -10.268347168446859 -10.717556894412013 0 0 0 0 -105.80144200513405 46.390820514996449 0 46.390820514996449 14.135961302003125 0 0 0 0 -49.726233213485102 -48.712686628772644 0 -48.712686628772644 -39.617413314645546 0 0 0 0 -81.09829763404332 -45.950708465248681 0 -45.950708465248681 -15.05013891231647 0 0 0 0 -57.316622135215667 -8.5850615342942689 0 -8.5850615342942689 -5.7509276685041826 0 0 0 0 -81.956607580835225 -74.559535814230912 0 -74.559535814230912 -40.350236985524589 0 0 0 0 -3.4629977471922802 1.385913402772097 0 1.385913402772097 1.2886578824309822 0 0 0 0 -67.735117406856489 -24.013511946301151 0 -24.013511946301151 -184.47288096148986 0 0 0 0 -138.56236910000825 -238.36978097884275 0 -238.36978097884275 -336.2876558028438 0 0 0 0 -148.71265509133764 -220.87533985925256 0 -220.87533985925256 -254.26772904055724 0 0 0 0 -241.81414117980057 -86.896365242231695 0 -86.896365242231695 7.3984558956872206 0 0 0 0 -46.34972206060727 -7.1950731705031359 0 -7.1950731705031359 2.7931533460908611 0 0 0 0 -38.721085675681024 -66.884148512821412 0 -66.884148512821412 95.822887237535724 0 0 0 0 -67.673242292691612 -47.916208744238247 0 -47.916208744238247 -15.415756329362921 0 0 0 0 -40.97222937396964 -29.164309186620812 0 -29.164309186620812 -29.611324911675183 0 0 0 0 -15.483681343139324 -69.932886813201549 0 -69.932886813201549 59.648300950866542 0 0 0 0 -52.583661226966797 -251.07904286850317 0 -251.07904286850317 77.700815737355697 0 0 0 0 65.413681612079927 -239.33790877416595 0 -239.33790877416595 -272.69002627527516 0 0 0 0 28.997407776688306 -284.62417304400151 0 -284.62417304400151 35.150339124978927 0 0 0 0 376.42954284347707 -102.65521332520439 0 -102.65521332520439 22.948540156172385 0 0 0 0 26.050366994788419 -417.65373421871845 0 -417.65373421871845 -2.7529216352513686 0 0 0 0 -129.93471617314663 -517.82700996980748 0 -517.82700996980748 289.35114083783265 0 0 0 0 -216.31393783098861 -196.03895722468587 0 -196.03895722468587 -80.923369312447903 0 0 0 0 -35.065459789138913 -134.3646872256686 0 -134.3646872256686 -300.66222766527062 0 0 0 0 -148.99892148830349 -151.34960451915686 0 -151.34960451915686 -92.909533276964794 0 0 0 0 33.093215569989297 -285.81965157896047 0 -285.81965157896047 -56.094866414028729 0 0 0 0 -175.73136654823634 -109.82649208441399 0 -109.82649208441399 237.41114320549968 0 0 0 0 -243.62469485127508 -267.52005656152869 0 -267.52005656152869 -125.23270023489749 0 0 0 0 -302.36766412324505 -369.97557832480743 0 -369.97557832480743 25.332210814471182 0 0 0 0 -295.40852345484018 -392.7446408997348 0 -392.7446408997348 99.812303909789989 0 0 0 0 -145.64627809354488 -110.63707686883936 0 -110.63707686883936 596.93919428581285 0 0 0 0 290.80654131088249 -763.35428533819868 0 -763.35428533819868 253.29373426084931 0 0 0 0 -483.57293209924433 -812.44083235707853 0 -812.44083235707853 -248.57246817275154 0 0 0 0 -552.09573163435925 -250.26072326562644 0 -250.26072326562644 -34.29484858878277 0 0 0 0 344.62511705189445 -369.01351562233322 0 -369.01351562233322 -898.71301793326711 0 0 0 0 -648.43924132050233 -908.17727129143168 0 -908.17727129143168 -371.35331549300463 0 0 0 0 -0.70127601036863219 -10.694646411379168 0 -10.694646411379168 -3.7054778250529381 0 0 0 0 -277.70794782016014 -33.063444248672567 0 -33.063444248672567 138.22134080240357 0 0 0 0 -61.262501018570219 -338.05975617434888 0 -338.05975617434888 -355.64038174102188 0 0 0 0 245.88383316464001 -224.77240284384425 0 -224.77240284384425 -309.9166257237157 0 0 0 0 153.49057530707842 -303.26138674426511 0 -303.26138674426511 -350.02533648637473 0 0 0 0 6.3400083850881614 -9.3889746870837882 0 -9.3889746870837882 26.121774644412255 0 0 0 0 978.57366336888572 95.148426695042872 0 95.148426695042872 -267.67029803047672 0 0 0 0 5.3091130310101491 -5.6968393206450827 0 -5.6968393206450827 4.0196591509587734 0 0 0 0 -380.54933738922682 -659.51801395312214 0 -659.51801395312214 512.89981218327011 0 0 0 0 420.05028363564509 -675.8942867560138 0 -675.8942867560138 78.032851618641871 0 0 0 0 -389.83416044670685 -278.04409628256468 0 -278.04409628256468 171.47303741928044 0 0 0 0 -292.9643618989212 -368.00712339302845 0 -368.00712339302845 242.27871029507514 0 0 0 0 -259.67052275541937 -437.44874030315623 0 -437.44874030315623 230.04132272901916 0 0 0 0 -121.38663759188785 -449.79588088994933 0 -449.79588088994933 -19.172090533475284 0 0 0 0 -118.6042249591992 -398.51591425966035 0 -398.51591425966035 -226.95576712229376 0 0 0 0 -245.21736132576734 -342.56609993668462 0 -342.56609993668462 -173.07154090448603 0 0 0 0 -255.61688093781959 -321.84207798835996 0 -321.84207798835996 56.993479600569117 0 0 0 0 -66.375086828984422 -486.19184588987628 0 -486.19184588987628 5.6382033996196697 0 0 0 0 -29.857374616327434 -570.25495966488597 0 -570.25495966488597 198.22592938897651 0 0 0 0 -133.15354789584671 -559.31305781113406 0 -559.31305781113406 256.06937849986207 0 0 0 0 -68.28222614758306 -469.41770830490896 0 -469.41770830490896 -257.71730302290962 0 0 0 0 -156.49196125178423 -461.10394866646675 0 -461.10394866646675 -18.550438898950233 0 0 0 0 -137.00716450783511 -532.23980536844465 0 -532.23980536844465 3.8095997835353046 0 0 0 0 -50.378170665997459 -352.42786385982981 0 -352.42786385982981 -215.77789638264221 0 0 0 0 -222.09948012389395 -226.38576228978764 0 -226.38576228978764 -567.91085231120087 0 0 0 0 -102.04984840756151 -548.57722738966913 0 -548.57722738966913 -485.11833752241364 0 0 0 0 -83.38436441273916 -431.28891361662318 0 -431.28891361662318 -259.87521924125758 0 0 0 0 -51.240400718395904 -401.84554048461359 0 -401.84554048461359 -369.14242439441296 0 0 0 0 -7.3268899560716818 -270.99337345228923 0 -270.99337345228923 -321.51528552113814 0 0 0 0 -7.2325755069650768 -276.30246441505005 0 -276.30246441505005 -614.77051329563801 0 0 0 0 0.35337933845489999 -243.97686803791657 0 -243.97686803791657 -48.452202607755339 0 0 0 0 -306.30777249180392 -238.58220715400603 0 -238.58220715400603 -328.9214765733268 0 0 0 0 4.4410894637617133 -17.716058887829305 0 -17.716058887829305 -71.768971928602923 0 0 0 0 -198.65761635388299 -295.35531883894691 0 -295.35531883894691 -284.86332427162415 0 0 0 0 -365.74892553617428 -465.94563585230571 0 -465.94563585230571 -179.36957773549079 0 0 0 0 -83.692746090637229 -405.58098029908433 0 -405.58098029908433 -225.578002598897 0 0 0 0 -88.310949642056585 -358.56168255849207 0 -358.56168255849207 -171.28469358756411 0 0 0 0 -72.522282257865299 -358.46677787548833 0 -358.46677787548833 -276.71198872615651 0 0 0 0 17.811419850140101 -64.474067494987125 0 -64.474067494987125 -45.823390405442439 0 0 0 0 -3.6782743604652843 -230.50964393789209 0 -230.50964393789209 -85.378835561281434 0 0 0 0 -111.87168573259146 -269.08264565261197 0 -269.08264565261197 -171.78597271608305 0 0 0 0 -188.26307376179284 -429.00457880003887 0 -429.00457880003887 -310.99835483515926 0 0 0 0 -513.70744957412171 -510.26742540982377 0 -510.26742540982377 304.75641847823863 0 0 0 0 3.5902864009576518 -239.99235248939505 0 -239.99235248939505 -107.62918011153484 0 0 0 0 647.57164045341051 -573.64339973493043 0 -573.64339973493043 -163.9152426468354 0 0 0 0 19.159809105788938 -64.551715021272258 0 -64.551715021272258 -104.01520748335389 0 0 0 0 69.498891281597025 -768.22659771153121 0 -768.22659771153121 272.54280436036061 0 0 0 0 643.10962247159478 -737.99557732425455 0 -737.99557732425455 -249.01107877728646 0 0 0 0 -210.15035514843657 -492.14622665110073 0 -492.14622665110073 142.47994475456653 0 0 0 0 -584.89888812791469 -534.82054173776851 0 -534.82054173776851 776.17337598890299 0 0 0 0 -120.86288548706943 -965.06933382368879 0 -965.06933382368879 121.18861474422738 0 0 0 0 -155.96401088833591 -476.40032681860612 0 -476.40032681860612 369.71071153800585 0 0 0 0 -66.858931341717835 -875.00107128726086 0 -875.00107128726086 -871.23621251789154 0 0 0 0 179.11094677557958 -286.57923023647163 0 -286.57923023647163 266.64444247542997 0 0 0 0 -858.35108062493964 -766.03041337164177 0 -766.03041337164177 256.3968404516927 0 0 0 0 -2083.256667103793 -2287.7009626529471 0 -2287.7009626529471 -1183.7846170003322 0 0 0 0 -651.61219701386653 -549.92884667136968 0 -549.92884667136968 -29.119161935057491 0 0 0 0 -614.16578652842145 854.12600608621142 0 854.12600608621142 503.10239775842638 0 0 0 0 -15.188311908114926 -11.573763378113199 0 -11.573763378113199 -6.2413899741306125 0 0 0 0 -1947.4144941320483 -1247.8381538915855 0 -1247.8381538915855 1342.936085530222 0 0 0 0 -7.4394498803485476 -468.59410479580401 0 -468.59410479580401 -2799.3163253319799 0 0 0 0 -196.72794481452729 108.99591084026906 0 108.99591084026906 -604.8678847556439 0 0 0 0 298.03086729050665 -322.74531976765138 0 -322.74531976765138 -298.99721059366129 0 0 0 0 772.91745306497251 702.16511821004315 0 702.16511821004315 -711.11402139806887 0 0 0 0 228.18887894145882 -737.7908457686608 0 -737.7908457686608 383.73958867054898 0 0 0 0 -221.61670421815506 200.9788285757968 0 200.9788285757968 -914.35543139016954 0 0 0 0 4.7147020884608395 -5.0754263421563337 0 -5.0754263421563337 -0.089626013568967267 0 0 0 0 -449.24815714299621 -191.65298555753543 0 -191.65298555753543 2131.3370054913212 0 0 0 0 -2228.1968093301402 -83.33304407230753 0 -83.33304407230753 -25.055736255191732 0 0 0 0 104.89841958574925 -443.86991756783391 0 -443.86991756783391 149.16460913556512 0 0 0 0 9.4305472316700616 -264.12479719323164 0 -264.12479719323164 423.98384480860841 0 0 0 0 -14.477213751646559 -461.43267790350365 0 -461.43267790350365 229.24188605263771 0 0 0 0 -35.386029493528675 -27.547922580559259 0 -27.547922580559259 -13.510915015314424 0 0 0 0 124.30856320893508 -367.79922731235274 0 -367.79922731235274 -238.126606952158 0 0 0 0 133.03370427362097 -468.26645000658755 0 -468.26645000658755 -39.658998567028902 0 0 0 0 164.63747175446042 -175.57238234377292 0 -175.57238234377292 -345.74163803083502 0 0 0 0 47.180783896968933 -160.85642843894311 0 -160.85642843894311 51.569017391295347 0 0 0 0 11.762149240785092 -12.772055124558506 0 -12.772055124558506 -1.4578581168692537 0 0 0 0 313.24922196607804 316.51899191549455 0 316.51899191549455 -572.52575692006212 0 0 0 0 -9.7090689747951728 -534.93660718234969 0 -534.93660718234969 102.14733085382613 0 0 0 0 13.412602250746232 -16.947595611534155 0 -16.947595611534155 -1.9488650924111681 0 0 0 0 -18.575667372218959 -391.8223658650677 0 -391.8223658650677 497.73823794907366 0 0 0 0 171.64707500058284 213.88640149706043 0 213.88640149706043 -148.85390406213264 0 0 0 0 -42.09394542076501 -32.233521924122329 0 -32.233521924122329 -16.566166858668197 0 0 0 0 -9.9175221133393734 -279.13627772001746 0 -279.13627772001746 68.587193441053387 0 0 0 0 2.3052918714449788 -168.91822648319067 0 -168.91822648319067 681.84843009145698 0 0 0 0 163.2070804447585 -303.07324578989937 0 -303.07324578989937 376.21840503351996 0 0 0 0 -65.340441423091761 -332.94593799489667 0 -332.94593799489667 376.63293394944299 0 0 0 0 52.370397792440826 -359.24277514519054 0 -359.24277514519054 173.95839588122908 0 0 0 0 28.066485158144587 -188.16740652752924 0 -188.16740652752924 176.31659268688236 0 0 0 0 -98.670456788129286 -282.07988137556822 0 -282.07988137556822 426.80325663658004 0 0 0 0 15.154369813241829 -327.91011802796857 0 -327.91011802796857 437.58481858006417 0 0 0 0 -69.401124267513524 -340.44680868607247 0 -340.44680868607247 808.03753479949955 0 0 0 0 -42.922912513428685 -31.425673796795763 0 -31.425673796795763 -3.8269067498001448 0 0 0 0 -53.461291434736381 -224.41937568712092 0 -224.41937568712092 587.56800614116946 0 0 0 0 79.015578248084694 -306.53164487374306 0 -306.53164487374306 615.62411525526113 0 0 0 0 0.39385260922909993 -324.70966615922589 0 -324.70966615922589 971.69208766560769 0 0 0 0 -15.535085862047481 -177.39243464641913 0 -177.39243464641913 829.08056657867564 0 0 0 0 148.21637273849956 -521.72066292885575 0 -521.72066292885575 623.99667073895398 0 0 0 0 100.75341421381199 -152.28102830598436 0 -152.28102830598436 932.8772398957808 0 0 0 0 267.03798768148317 -268.41553961106911 0 -268.41553961106911 191.91513421057607 0 0 0 0 68.067589739579944 -137.41614936059341 0 -137.41614936059341 163.71697262360249 0 0 0 0 214.18914130734629 -380.13765162142226 0 -380.13765162142226 181.30073164004716 0 0 0 0 45.792666980328704 -382.31282755149005 0 -382.31282755149005 389.85334725210851 0 0 0 0 26.402013432968033 -209.87834431236843 0 -209.87834431236843 360.34819842512661 0 0 0 0 29.146611283085804 -370.28154816423194 0 -370.28154816423194 72.135443311184645 0 0 0 0 -89.589238347824903 -124.72826110093592 0 -124.72826110093592 70.367362388700712 0 0 0 0 51.608141053990053 -213.05246886134708 0 -213.05246886134708 -83.204929248381049 0 0 0 0 217.00990418184665 -121.12217713292921 0 -121.12217713292921 -257.45299716066802 0 0 0 0 -321.62192056864342 -272.74041926924656 0 -272.74041926924656 541.67937072306086 0 0 0 0 188.21738360232393 -347.57483019347274 0 -347.57483019347274 -41.180785495467717 0 0 0 0 22.941962943322153 -217.78889546257361 0 -217.78889546257361 -95.218207968949955 0 0 0 0 -52.382100787819127 -541.83436758977041 0 -541.83436758977041 129.76626211663825 0 0 0 0 -223.92482354597632 -351.01203078276012 0 -351.01203078276012 173.94993016403168 0 0 0 0 -39.541247067198128 -464.78037165224669 0 -464.78037165224669 -36.162959426466841 0 0 0 0 -0.38138564808696174 -131.68180726761057 0 -131.68180726761057 -207.59434164025151 0 0 0 0 -830.35403091578337 373.90372788450986 0 373.90372788450986 241.07925897298992 0 0 0 0 -16.333341878780629 -28.327128543609433 0 -28.327128543609433 36.365354402268622 0 0 0 0 -64.065778735603089 -108.56480791261492 0 -108.56480791261492 109.09508217500843 0 0 0 0 -114.2617513856494 -182.48417340855576 0 -182.48417340855576 261.74339060617785 0 0 0 0 -23.58310460979294 -25.638529932196008 0 -25.638529932196008 21.652858618217046 0 0 0 0 118.08835131202068 -39.157232420624496 0 -39.157232420624496 -22.975028247969021 0 0 0 0 -47.786249507211323 -90.869069475404103 0 -90.869069475404103 70.378636435991211 0 0 0 0 -10.896707774242827 2.97456235941263 0 2.97456235941263 -1.4542137365610888 0 0 0 0 -249.87949899028899 132.42591643869491 0 132.42591643869491 -120.24920867868059 0 0 0 0 -1288.5322526811069 -982.56081396427544 0 -982.56081396427544 -436.39275012030589 0 0 0 0 68.961267464299453 -145.85081300783349 0 -145.85081300783349 -364.30311906505813 0 0 0 0 -111.01232461714244 -1305.5702142674527 0 -1305.5702142674527 -2804.0762841100077 0 0 0 0 -2422.3724399402231 -157.98644141276606 0 -157.98644141276606 360.96396833019389 0 0 0 0 -13.336986402204417 -11.753444235986365 0 -11.753444235986365 -13.161951446234525 0 0 0 0 -610.54411458383765 -146.0919830656585 0 -146.0919830656585 82.978555209287151 0 0 0 0 47.534372724880086 -250.35125572069546 0 -250.35125572069546 58.479605228181754 0 0 0 0 -23.005569676776901 -40.055003514960902 0 -40.055003514960902 -19.748879077126091 0 0 0 0 -84.637758531636791 -24.840661477457616 0 -24.840661477457616 19.296965480702966 0 0 0 0 8.5756660260693138 -36.448441797568137 0 -36.448441797568137 -19.577063501865481 0 0 0 0 89.815465483363369 -81.917313033954997 0 -81.917313033954997 11.697331742660026 0 0 0 0 0.77183826763632624 -28.885978836267654 0 -28.885978836267654 30.142479174215481 0 0 0 0 39.319187048313324 -70.268835068885892 0 -70.268835068885892 23.819258334697224 0 0 0 0 -59.186811037601728 -132.64815177125274 0 -132.64815177125274 -40.897129884295282 0 0 0 0 31.44393329802314 -4.4363375990512282 0 -4.4363375990512282 -35.861585552865549 0 0 0 0 -104.44381151298876 -87.879549793942715 0 -87.879549793942715 116.13179077282257 0 0 0 0 109.83664396383392 -242.66495615866006 0 -242.66495615866006 -5.4688543667616614 0 0 0 0 30.450485363530618 -15.106705949830285 0 -15.106705949830285 -41.632428560355464 0 0 0 0 61.696070455865993 -129.72900567405304 0 -129.72900567405304 121.14515671307163 0 0 0 0 88.426947367509456 -73.166520937873429 0 -73.166520937873429 -30.509356895941892 0 0 0 0 333.06709306324774 -77.505763393070083 0 -77.505763393070083 -30.806340593227105 0 0 0 0 -4.9414299778897259 -7.514792971536906 0 -7.514792971536906 -7.0353313710325835 0 0 0 0 17.196289233214657 -97.633943329934027 0 -97.633943329934027 140.33525165014726 0 0 0 0 41.146164699086512 -75.88367759394896 0 -75.88367759394896 36.373618340374378 0 0 0 0 374.71829454047838 47.292059425002662 0 47.292059425002662 -122.73175127027207 0 0 0 0 56.093635069186462 -64.332714593941105 0 -64.332714593941105 1.4492086710636869 0 0 0 0 12.696593192607338 -35.990612276215742 0 -35.990612276215742 0.63250448704833673 0 0 0 0 -40.679007796747101 -368.13020248122211 0 -368.13020248122211 199.6805386042688 0 0 0 0 13.867036245384746 -56.861892715664041 0 -56.861892715664041 29.107137219534366 0 0 0 0 13.020933127088938 -81.94554291638633 0 -81.94554291638633 51.393957597007102 0 0 0 0 -227.21076986500339 -341.27487617854058 0 -341.27487617854058 93.670212229524623 0 0 0 0 31.144160370992125 -106.58467430255881 0 -106.58467430255881 114.08877966563401 0 0 0 0 314.21583754089806 -279.90796528228384 0 -279.90796528228384 -347.94856293808334 0 0 0 0 -13.619692977699742 -202.25877845603827 0 -202.25877845603827 -135.21730343923264 0 0 0 0 10.369170720652619 -155.99960683804966 0 -155.99960683804966 75.265563635388389 0 0 0 0 -18.625155826942787 -28.015977501310289 0 -28.015977501310289 6.4853212419772603 0 0 0 0 219.54832906027332 588.73794488630938 0 588.73794488630938 -424.88295993152133 0 0 0 0 527.19534797224333 131.67790642427281 0 131.67790642427281 328.87163088810848 0 0 0 0 -786.55766023694014 152.86742648627842 0 152.86742648627842 -145.01468122581718 0 0 0 0 886.32435920359057 -2455.4404790761691 0 -2455.4404790761691 -4110.7273843544535 0 0 0 0 559.93229864166278 -2393.8204382719086 0 -2393.8204382719086 -547.18519427919819 0 0 0 0 3.7658516404044349 -356.20379427861917 0 -356.20379427861917 178.02035042631178 0 0 0 0 -12.214297136878827 -55.390208481441491 0 -55.390208481441491 -69.76051088840461 0 0 0 0 -363.66075191619166 106.75067756578937 0 106.75067756578937 1170.3657808249118 0 0 0 0 28.050567973015859 575.57099143466985 0 575.57099143466985 688.82195640791906 0 0 0 0 -577.29360742706922 -268.3471525007044 0 -268.3471525007044 512.81640184504795 0 0 0 0 68.094117049127817 431.93215051053267 0 431.93215051053267 120.36438047836418 0 0 0 0 -1423.4768448600607 -1063.7585358707693 0 -1063.7585358707693 -445.71333758052788 0 0 0 0 -292.21960947657499 -162.20298492658003 0 -162.20298492658003 -382.21672080083226 0 0 0 0 -624.82581877135817 112.23472902443973 0 112.23472902443973 216.03395298292162 0 0 0 0 569.43923539941898 451.24297192713493 0 451.24297192713493 9.282687004248146 0 0 0 0 46.038986981569906 108.61908159469021 0 108.61908159469021 26.92667552572675 0 0 0 0 -31.186160725021409 -36.777393076442081 0 -36.777393076442081 0.0020213573945682128 0 0 0 0 17.45594981841225 -87.322481262129259 0 -87.322481262129259 44.389965409740398 0 0 0 0 692.42691864883818 -103.57674422725904 0 -103.57674422725904 -43.022720901972207 0 0 0 0 52.017542205808297 -49.407915867352386 0 -49.407915867352386 -33.425758644149475 0 0 0 0 14.847411064725748 4.2313315300807517 0 4.2313315300807517 108.918594934883 0 0 0 0 152.31924580573468 -53.89909814517523 0 -53.89909814517523 20.030302084967843 0 0 0 0 49.40187353652189 -42.874556767864178 0 -42.874556767864178 18.54627103333749 0 0 0 0 -80.891817008178805 1.375165601106346 0 1.375165601106346 110.20657106827275 0 0 0 0 35.169709935304326 -22.074934959811742 0 -22.074934959811742 12.012827463517255 0 0 0 0 -4.2756250367019675 23.544702113420499 0 23.544702113420499 48.510160456586163 0 0 0 0 147.52663920412715 77.44932805621238 0 77.44932805621238 48.597578343309578 0 0 0 0 -113.43062707313948 212.44387911623198 0 212.44387911623198 54.63090022119377 0 0 0 0 -154.11928302297292 -197.32412633905756 0 -197.32412633905756 27.016209628207434 0 0 0 0 7.1958291540759092 -222.62866714643314 0 -222.62866714643314 -70.723050023683754 0 0 0 0 162.94320247196447 -88.427266361031798 0 -88.427266361031798 36.660234911723819 0 0 0 0 0.83251960007910242 1.4949579828972048 0 1.4949579828972048 1.7518168427804142 0 0 0 0 9.8240412540348032 0.76018143227028645 0 0.76018143227028645 6.8357486341888603 0 0 0 0 43.549713782927938 -62.598855749985887 0 -62.598855749985887 39.355740565501037 0 0 0 0 164.16067647177988 53.441733549823766 0 53.441733549823766 60.312436387859634 0 0 0 0 497.6418715524851 -145.15768410455712 0 -145.15768410455712 -61.598058343130106 0 0 0 0 227.77726002610507 -488.75847507838625 0 -488.75847507838625 128.47270707560892 0 0 0 0 165.79064261959866 -385.18412479845574 0 -385.18412479845574 -43.996299041275051 0 0 0 0 -4.302038723079022 -452.45020594062953 0 -452.45020594062953 -63.632443934426192 0 0 0 0 138.99393640077506 -294.07486332415829 0 -294.07486332415829 -180.11581479129381 0 0 0 0 3.2736860791628715 -503.19674969526386 0 -503.19674969526386 -381.58399113070845 0 0 0 0 -98.912566583323496 -380.43226865331781 0 -380.43226865331781 -157.13696085580159 0 0 0 0 253.84895977814449 -412.80770885809034 0 -412.80770885809034 -863.30428122929152 0 0 0 0 -639.63254313122161 -131.81730588718347 0 -131.81730588718347 18.390455196207768 0 0 0 0 45.288635617478576 -375.10786276477302 0 -375.10786276477302 -2487.7567706814079 0 0 0 0 -19.367607930694533 -2.389014644609631 0 -2.389014644609631 -0.25422523756930104 0 0 0 0 -159.77875445558311 -451.14812725676893 0 -451.14812725676893 1006.2016705528731 0 0 0 0 3.5585426766583623 569.96190821456457 0 569.96190821456457 475.73710948365624 0 0 0 0 -131.98682258465124 -153.28940739120299 0 -153.28940739120299 -829.63095228811835 0 0 0 0 -139.9328591015219 -350.50581912288908 0 -350.50581912288908 225.8749599653147 0 0 0 0 80.465560273078154 -183.60738629144907 0 -183.60738629144907 -952.28797945052793 0 0 0 0 -52.349236823299421 -28.311040245512075 0 -28.311040245512075 58.048211432813403 0 0 0 0 -43.38366010520258 -340.97974474538205 0 -340.97974474538205 -727.8430400678335 0 0 0 0 -42.491073678047542 -65.50312759148801 0 -65.50312759148801 337.10555535744061 0 0 0 0 -31.973008643628418 -114.58279714261153 0 -114.58279714261153 550.94918833536212 0 0 0 0 30.620519253393525 -215.99465251340601 0 -215.99465251340601 170.13501754481098 0 0 0 0 -32.575521617129965 -96.559143973117614 0 -96.559143973117614 16.415154936707154 0 0 0 0 -12.890779634387599 -51.253088688812937 0 -51.253088688812937 32.179045204821307 0 0 0 0 13.144057347824855 -291.90155451816827 0 -291.90155451816827 258.05526701675262 0 0 0 0 545.70392976224684 -105.10174401629774 0 -105.10174401629774 311.56757158448454 0 0 0 0 -1356.6613633783636 -260.97632565282402 0 -260.97632565282402 545.52568030518887 0 0 0 0 217.31327481753942 851.92573401637492 0 851.92573401637492 678.15491368831135 0 0 0 0 -3226.6074183652527 -53.283621103561018 0 -53.283621103561018 2142.0651205804606 0 0 0 0 -1176.1131588631542 -1778.0341843945207 0 -1778.0341843945207 -2052.4633291147184 0 0 0 0 260.28999591349566 -363.69409835437546 0 -363.69409835437546 -936.24369005917106 0 0 0 0 -153.62090699537657 -1183.051153406268 0 -1183.051153406268 -1136.6654914135434 0 0 0 0 -2.2861573924243999 -5.7775179917392165 0 -5.7775179917392165 -21.175342348222387 0 0 0 0 -1373.0546290167676 -1709.127615302772 0 -1709.127615302772 154.48614712653216 0 0 0 0 56.493999493630326 -662.14535246878222 0 -662.14535246878222 -5.4130188543931581 0 0 0 0 -501.26727235587896 -747.63233377448341 0 -747.63233377448341 533.1564480382367 0 0 0 0 -437.03657920473779 -638.08299364455161 0 -638.08299364455161 643.08038534915249 0 0 0 0 -172.45080300803238 -497.22960422684264 0 -497.22960422684264 281.07015266470262 0 0 0 0 -291.73908843043318 -690.836957306572 0 -690.836957306572 3.161510445017484 0 0 0 0 153.20189046399992 -27.182707253499757 0 -27.182707253499757 63.390889049187535 0 0 0 0 -11.97766048975609 -399.2727675960341 0 -399.2727675960341 -343.75746530274046 0 0 0 0 29.859339673813338 -258.11227121506454 0 -258.11227121506454 96.824318940402009 0 0 0 0 -78.634014367486088 -224.6946762947191 0 -224.6946762947191 108.29855982027948 0 0 0 0 -139.55833808377974 -286.7384644663216 0 -286.7384644663216 246.69695600069826 0 0 0 0 -199.47660513714072 -390.58460965658014 0 -390.58460965658014 68.205108178979572 0 0 0 0 -96.220626014073787 -176.36218828166602 0 -176.36218828166602 167.53421163265011 0 0 0 0 -190.00082519000716 -194.51542673011136 0 -194.51542673011136 219.50879684163374 0 0 0 0 -66.069353970320208 -163.20250522258902 0 -163.20250522258902 172.5851870191691 0 0 0 0 -14.457577713464531 -125.39941587715305 0 -125.39941587715305 167.12802306224103 0 0 0 0 -2.9573671690632182 -269.30187170133831 0 -269.30187170133831 -263.48903551611875 0 0 0 0 180.84795983691583 -901.34421961612679 0 -901.34421961612679 -405.70822133552429 0 0 0 0 4.5784496147482514 -147.0140409620231 0 -147.0140409620231 175.15090482432473 0 0 0 0 1.3749697047455811 -215.84969410046779 0 -215.84969410046779 103.80862688226625 0 0 0 0 -349.23556054742949 260.95080174972827 0 260.95080174972827 -388.45603567927174 0 0 0 0 -255.72408346583688 -671.75930560394045 0 -671.75930560394045 -186.6626793739706 0 0 0 0 -1546.3197913214535 -392.47820338747988 0 -392.47820338747988 796.68890116416151 0 0 0 0 -1247.9193999808631 -2142.7776825203619 0 -2142.7776825203619 -899.01359403313836 0 0 0 0 -10.20176422511804 -3.8810990994500685 0 -3.8810990994500685 -2.0597075025683296 0 0 0 0 -134.37743500877696 -63.46835145373916 0 -63.46835145373916 -136.89897735123304 0 0 0 0 259.199041274107 509.08387272145046 0 509.08387272145046 695.540024328031 0 0 0 0 754.5897708382472 -1012.7908311605643 0 -1012.7908311605643 465.05599020227601 0 0 0 0 -18.665233955602162 198.39923378897947 0 198.39923378897947 744.32476811022207 0 0 0 0 8.7149491293721155 -5.8843904551702977 0 -5.8843904551702977 5.260278414810216 0 0 0 0 1327.0330659925967 -375.00023004029936 0 -375.00023004029936 -157.41240266854675 0 0 0 0 121.11007506207534 -582.32049978241412 0 -582.32049978241412 896.63761345208331 0 0 0 0 -411.55763874087279 39.925068516560714 0 39.925068516560714 422.49506594866398 0 0 0 0 -15.297234660556569 -229.47259334518094 0 -229.47259334518094 -0.53851616021711379 0 0 0 0 -76.41851236945331 -21.917145224319029 0 -21.917145224319029 96.481193056300981 0 0 0 0 -5.2038905435287806 -14.415254659516002 0 -14.415254659516002 -1.0870371406674053 0 0 0 0 9.5797825682206934 -27.577700092114448 0 -27.577700092114448 12.501704969047239 0 0 0 0 -4.315795027956483 -114.32178218082117 0 -114.32178218082117 86.148909395605187 0 0 0 0 -30.227192758762612 142.45032819679363 0 142.45032819679363 -230.13535429126932 0 0 0 0 83.163688221895427 -223.82336467101413 0 -223.82336467101413 -50.601352495688843 0 0 0 0 672.69200825782173 164.29028188823577 0 164.29028188823577 4.6592784930689959 0 0 0 0 -335.29211516807482 -45.751473654727306 0 -45.751473654727306 -90.014833265042398 0 0 0 0 -35.200495028155274 -91.981097676703939 0 -91.981097676703939 183.90683807860478 0 0 0 0 -92.86149626437691 -98.629810490208911 0 -98.629810490208911 183.50352894503521 0 0 0 0 -66.018755289038381 -60.319307381258113 0 -60.319307381258113 207.43228846634156 0 0 0 0 -75.878633018350229 -84.709504489379469 0 -84.709504489379469 199.30803027749062 0 0 0 0 -45.298012024882453 -107.2559067555884 0 -107.2559067555884 153.3787809751833 0 0 0 0 -81.110654778301978 -252.5041774059282 0 -252.5041774059282 -74.423546310667007 0 0 0 0 30.591018103634269 -219.15434807644488 0 -219.15434807644488 -462.67046132880932 0 0 0 0 10.493803779773733 -86.6338452918244 0 -86.6338452918244 -95.149299007588297 0 0 0 0 -104.69827675590204 -112.93783858716779 0 -112.93783858716779 -218.76309574497282 0 0 0 0 -458.8447407586209 -129.40875031133328 0 -129.40875031133328 84.905279176338809 0 0 0 0 -144.15164287999505 -155.94854245500755 0 -155.94854245500755 150.73372512956848 0 0 0 0 27.452231527204866 -116.50474535096276 0 -116.50474535096276 100.7955231368995 0 0 0 0 -89.1369767211674 -44.080237826504124 0 -44.080237826504124 101.83007377565735 0 0 0 0 27.503309971709989 -103.87974993345726 0 -103.87974993345726 93.195894508877643 0 0 0 0 -254.2471260496759 -426.3491198392785 0 -426.3491198392785 1032.5678113577887 0 0 0 0 -117.85283410563716 -187.2277900261397 0 -187.2277900261397 60.438039979781024 0 0 0 0 -227.47694991267053 -133.8928789991478 0 -133.8928789991478 71.407881494436879 0 0 0 0 8.8478856533989472 -79.946006153842575 0 -79.946006153842575 138.28679264048748 0 0 0 0 -21.599685873556837 -12.59655714948974 0 -12.59655714948974 16.788397329667305 0 0 0 0 -347.44660370358906 -245.98293652373468 0 -245.98293652373468 180.17634559065482 0 0 0 0 -347.14835277765087 -237.13884681573836 0 -237.13884681573836 159.49606374790164 0 0 0 0 -391.27597939828411 -139.52134744517753 0 -139.52134744517753 207.13362237507681 0 0 0 0 -392.50577345190686 -127.66690365210161 0 -127.66690365210161 166.6223994271495 0 0 0 0 -240.02060109213562 127.65044785910868 0 127.65044785910868 -110.26857726689195 0 0 0 0 -120.87725095124733 -77.615484625539466 0 -77.615484625539466 69.400126045715297 0 0 0 0 28.367228696387567 -94.996384360336549 0 -94.996384360336549 115.25691840872082 0 0 0 0 -139.31480738784012 -132.22896313972524 0 -132.22896313972524 103.33922330912537 0 0 0 0 -540.19730332841573 -434.30281166228815 0 -434.30281166228815 329.88667134038042 0 0 0 0 -835.78337665824074 -118.66466838782071 0 -118.66466838782071 219.12858997337025 0 0 0 0 -391.24988882760226 111.22033044802811 0 111.22033044802811 33.571818852424144 0 0 0 0 25.733471937972354 -70.244427646393888 0 -70.244427646393888 60.547893408933305 0 0 0 0 12.065017118153506 -69.849033738103671 0 -69.849033738103671 78.231126329587937 0 0 0 0 -1260.8255732735997 553.88475776510313 0 553.88475776510313 -36.029508518695366 0 0 0 0 132.08290927614144 178.23645932020736 0 178.23645932020736 -498.68292997404933 0 0 0 0 -161.38866629848781 98.249379810105893 0 98.249379810105893 -361.62344844624749 0 0 0 0 -74.537904591914099 -9.9216538085285038 0 -9.9216538085285038 15.020724976402931 0 0 0 0 694.95310529704147 1215.3999133633115 0 1215.3999133633115 -440.56181874836329 0 0 0 0 1594.5801376734871 -718.91627491003965 0 -718.91627491003965 -58.24135455628857 0 0 0 0 -1101.0229080238933 -2295.8400889385957 0 -2295.8400889385957 3369.2018199374288 0 0 0 0 -1637.2325746025526 -882.63795879947429 0 -882.63795879947429 -244.37115188047756 0 0 0 0 24.727810794435904 -80.202594274136857 0 -80.202594274136857 85.039151157135734 0 0 0 0 2.6733697372692404 -92.818960227377829 0 -92.818960227377829 75.225400618772255 0 0 0 0 18.613400416037621 -87.082211392344107 0 -87.082211392344107 76.808530580194201 0 0 0 0 -12.58017513338163 -53.078027116862245 0 -53.078027116862245 17.02618741254966 0 0 0 0 23.400280343108534 -106.32262253636782 0 -106.32262253636782 83.467840848243213 0 0 0 0 -29.029938576335553 -131.55436583410483 0 -131.55436583410483 94.626379532011924 0 0 0 0 12.719658668356715 -138.89838205064007 0 -138.89838205064007 94.571487571600301 0 0 0 0 65.537557204140199 -120.10168396386538 0 -120.10168396386538 108.66385881748238 0 0 0 0 498.92113165300543 -348.21205337246647 0 -348.21205337246647 -1556.3014834949281 0 0 0 0 15.435788977460099 -83.994795316897665 0 -83.994795316897665 123.52425328293168 0 0 0 0 -13.210012370788007 -38.763865006259351 0 -38.763865006259351 106.60823211663001 0 0 0 0 -899.58130112685831 -323.97583955322625 0 -323.97583955322625 1915.1634162769478 0 0 0 0 505.12673898901267 -185.57527058164123 0 -185.57527058164123 101.91305579293112 0 0 0 0 141.30429392775022 293.82499048015779 0 293.82499048015779 528.53387644863687 0 0 0 0 1942.158157859687 -118.99892428731255 0 -118.99892428731255 -2979.3361138720647 0 0 0 0 3.8813305206433384 -4.8524039885693782 0 -4.8524039885693782 33.032842084748154 0 0 0 0 264.52840580535121 820.55301748053171 0 820.55301748053171 -970.78576169436565 0 0 0 0 20.915706894266009 -27.513335951912779 0 -27.513335951912779 14.123689048261326 0 0 0 0 -252.24690583596384 29.544930327348993 0 29.544930327348993 528.34240225514804 0 0 0 0 11.321465587356215 183.56492437234556 0 183.56492437234556 313.60388064786093 0 0 0 0 84.394567130802898 75.122690323463758 0 75.122690323463758 40.719748228555545 0 0 0 0 -24.058805037551792 -78.950712502439274 0 -78.950712502439274 27.251793392320906 0 0 0 0 -79.387038150058288 -106.08836597569825 0 -106.08836597569825 141.5773271478829 0 0 0 0 -10.404340935028813 -28.84877510446313 0 -28.84877510446313 164.53435580036603 0 0 0 0 -132.52455241937423 28.561900799235445 0 28.561900799235445 175.53220883346512 0 0 0 0 -75.455236997368047 -65.850699101982173 0 -65.850699101982173 151.96636291974573 0 0 0 0 -179.151506083821 -75.783279293755186 0 -75.783279293755186 223.58549878781196 0 0 0 0 -137.57688666453032 -23.604406779879355 0 -23.604406779879355 260.74652902488015 0 0 0 0 -239.73191149400373 -6.4064068697480252 0 -6.4064068697480252 330.08333279241924 0 0 0 0 -353.40387822660705 -10.998303722357377 0 -10.998303722357377 364.92887107428396 0 0 0 0 -462.60634960669267 -17.631371901312377 0 -17.631371901312377 432.90349136225996 0 0 0 0 -247.36249138051789 -214.8784840881417 0 -214.8784840881417 314.7213089762372 0 0 0 0 -597.16151037802047 -7.6395983738766517 0 -7.6395983738766517 192.25114564175601 0 0 0 0 -152.85717475226556 141.52947686892003 0 141.52947686892003 653.12522274744697 0 0 0 0 -137.98336167616071 25.420229986659251 0 25.420229986659251 1253.1734924364137 0 0 0 0 -97.814730000245618 -505.2788519632013 0 -505.2788519632013 1274.3020107989278 0 0 0 0 -172.02199147220381 -197.59563675695972 0 -197.59563675695972 154.07144670779235 0 0 0 0 -58.003006594095496 -480.51803385818494 0 -480.51803385818494 643.74465538344703 0 0 0 0 -47.991640949135018 -6.0231146281324186 0 -6.0231146281324186 -0.50771596030769217 0 0 0 0 373.36823982416536 -399.056407513046 0 -399.056407513046 -441.69873115621158 0 0 0 0 -128.28606026586431 -132.04736584732564 0 -132.04736584732564 80.613745038746856 0 0 0 0 -124.14677891024621 -235.34529266982281 0 -235.34529266982281 155.42781009792816 0 0 0 0 -17.287867750711257 -7.3438394061495842 0 -7.3438394061495842 -0.54254738882930553 0 0 0 0 1599.7811980019615 -1719.3372268735548 0 -1719.3372268735548 -2846.7024950307677 0 0 0 0 -578.10885641982895 34.258796713649645 0 34.258796713649645 111.64007592340931 0 0 0 0 -1338.566354903407 -80.276324291495257 0 -80.276324291495257 315.65841065248242 0 0 0 0 -382.35766557514216 -848.75134815869387 0 -848.75134815869387 -572.17358616058482 0 0 0 0 -2196.9827178239066 281.15453209567931 0 281.15453209567931 -849.91961509688554 0 0 0 0 -33.369673521297699 -3.2578530637858591 0 -3.2578530637858591 6.3615979733050949 0 0 0 0 -1261.5165799052775 -741.42774677602574 0 -741.42774677602574 177.89742870652117 0 0 0 0 -577.24671027160366 -540.41048058363958 0 -540.41048058363958 122.37181025685277 0 0 0 0 -428.91760156487726 -390.9971952461492 0 -390.9971952461492 227.9301793128252 0 0 0 0 -933.58779859406059 -387.41623690573033 0 -387.41623690573033 317.23744748430909 0 0 0 0 -705.93124730422278 -94.001717587132589 0 -94.001717587132589 311.88606125692604 0 0 0 0 -622.62249638403591 -184.08822488790611 0 -184.08822488790611 253.5515582980006 0 0 0 0 -490.72755004844657 -174.57185781326552 0 -174.57185781326552 301.64765910850838 0 0 0 0 -462.36948480213323 -298.17216505929537 0 -298.17216505929537 322.628025728176 0 0 0 0 -582.32336371819838 -144.62728876328038 0 -144.62728876328038 393.86756149417488 0 0 0 0 -355.48345588450297 -161.2116089622848 0 -161.2116089622848 327.85373951148358 0 0 0 0 -195.89296161120546 -172.56783765606269 0 -172.56783765606269 236.61738608649466 0 0 0 0 -305.54162789786642 -164.79083190600795 0 -164.79083190600795 312.82435632444685 0 0 0 0 -314.18194660733207 -359.95442956130137 0 -359.95442956130137 328.87796900080866 0 0 0 0 -340.39122723437868 -311.36343343194676 0 -311.36343343194676 244.63120730203809 0 0 0 0 -360.10271449852735 -314.51108713568829 0 -314.51108713568829 313.77874436035927 0 0 0 0 -526.47174501737027 -404.40957504569087 0 -404.40957504569087 265.5685435643536 0 0 0 0 -340.46864283736068 -339.88565300513801 0 -339.88565300513801 248.67157892222167 0 0 0 0 -360.90219148544202 -413.5288717614676 0 -413.5288717614676 279.60354708458181 0 0 0 0 -411.15275357892824 -448.33813189368811 0 -448.33813189368811 479.38563020975562 0 0 0 0 -447.0546742382503 -442.20137095711834 0 -442.20137095711834 561.68471440333451 0 0 0 0 -475.38934763005818 -386.6056836717944 0 -386.6056836717944 1052.1770463927533 0 0 0 0 -344.11936284142939 -97.961086456984049 0 -97.961086456984049 705.66038467292674 0 0 0 0 -287.92020619261893 -204.43826672555588 0 -204.43826672555588 450.536951893062 0 0 0 0 -319.34302137299892 -151.76723042991216 0 -151.76723042991216 405.02206487260992 0 0 0 0 -187.1978060068941 -21.316552739648614 0 -21.316552739648614 368.36206685668731 0 0 0 0 -136.36653929277963 -34.992079012590693 0 -34.992079012590693 230.4811172389891 0 0 0 0 -179.48693507396092 5.5821919887530385 0 5.5821919887530385 297.58203917025821 0 0 0 0 -22.87658885793644 -24.673237354145385 0 -24.673237354145385 59.651926452730549 0 0 0 0 -32.36620857140224 114.64508048447897 0 114.64508048447897 175.52409642384737 0 0 0 0 -153.54184628647636 -117.78699391647206 0 -117.78699391647206 89.475171909987694 0 0 0 0 -145.88357730925782 -58.816224459296791 0 -58.816224459296791 296.08527876195149 0 0 0 0 67.513400425028522 -81.119132120817085 0 -81.119132120817085 88.515539796330813 0 0 0 0 -92.626735904843372 -223.1014102580375 0 -223.1014102580375 235.77960571804942 0 0 0 0 -313.05819942005837 -454.50609554514813 0 -454.50609554514813 12.876794596202672 0 0 0 0 229.86219076488487 -302.72896189401217 0 -302.72896189401217 -118.70796206247178 0 0 0 0 -6.3552504401232 -35.521124839317054 0 -35.521124839317054 -52.960104217985645 0 0 0 0 -468.00281763589373 -133.49923713415046 0 -133.49923713415046 -78.772940824215766 0 0 0 0 -27.303700114305755 -6.1244732955177028 0 -6.1244732955177028 7.282052170083432 0 0 0 0 -31.061679979175096 -4.2116818236390827 0 -4.2116818236390827 -31.965319397495477 0 0 0 0 -0.69946594154258079 -2.8539203844095944 0 -2.8539203844095944 -12.782769591671581 0 0 0 0 42.012779176617187 24.24884596530319 0 24.24884596530319 15.523962068196852 0 0 0 0 -699.57878083140531 -167.49080735995085 0 -167.49080735995085 -30.049985063757049 0 0 0 0 -658.63577967755555 -133.51660189777613 0 -133.51660189777613 -2.4970623946865089 0 0 0 0 -0.76518513841438107 -47.313880850473652 0 -47.313880850473652 -11.675410918462148 0 0 0 0 -10.789224649153766 4.6491656978905667 0 4.6491656978905667 -28.298640325228916 0 0 0 0 13.955169495813607 -101.36935361630458 0 -101.36935361630458 37.187376437708735 0 0 0 0 -50.725432279814413 -16.234147739545733 0 -16.234147739545733 54.087647141539492 0 0 0 0 0.11434957736491924 -85.837798689135525 0 -85.837798689135525 64.138430967926979 0 0 0 0 -17.68548361480498 -51.698052896652371 0 -51.698052896652371 23.150647355068941 0 0 0 0 51.109610963205341 -71.647458451974671 0 -71.647458451974671 12.371112244472897 0 0 0 0 31.521663670915586 -106.62698085858938 0 -106.62698085858938 32.608161899348488 0 0 0 0 109.12692384676484 -137.11443825533934 0 -137.11443825533934 14.528652094915742 0 0 0 0 84.593797418907343 -108.57138417618989 0 -108.57138417618989 -7.5160848455852829 0 0 0 0 148.63276764037437 -30.51363852104987 0 -30.51363852104987 -27.005007591127651 0 0 0 0 -0.8419539877530724 -2.3494671769697462 0 -2.3494671769697462 -7.3654184919681711 0 0 0 0 -732.17541491818338 -214.67906229656728 0 -214.67906229656728 -78.473417491011787 0 0 0 0 1.124062277522146 4.9756709898989087 0 4.9756709898989087 -7.9315425637105363e-05 0 0 0 0 -18.196032516811101 -45.936791862419341 0 -45.936791862419341 19.902664137189277 0 0 0 0 4.4538245047078817 -24.611947147699539 0 -24.611947147699539 4.2935060494346544 0 0 0 0 26.737335008401715 -69.316060796692909 0 -69.316060796692909 -53.157022354658693 0 0 0 0 -1106.9734193610311 -387.0911963478211 0 -387.0911963478211 -123.07305485426332 0 0 0 0 1.1133974163472873 1.0215928304532369 0 1.0215928304532369 -5.7405848338057694 0 0 0 0 -1000.8791853964904 -321.90823311731401 0 -321.90823311731401 -164.69003612687811 0 0 0 0 194.24426250977194 -51.14954353041685 0 -51.14954353041685 -19.267687592946459 0 0 0 0 -2.4502937826384468 2.3730980443450029 0 2.3730980443450029 2.9183700029411739 0 0 0 0 -1.9692080492310229 2.9237983687564437 0 2.9237983687564437 -1.4517380585194815 0 0 0 0 -1891.1893113975166 -334.71258953562938 0 -334.71258953562938 428.62234724970767 0 0 0 0 83.914953006291398 -159.47259660000418 0 -159.47259660000418 23.929700511042029 0 0 0 0 -1194.4611903390178 -238.87114860564179 0 -238.87114860564179 -174.0854940082645 0 0 0 0 611.76781426811795 -42.465389915414562 0 -42.465389915414562 -61.057593694655225 0 0 0 0 -71.552050475424039 63.167497488902882 0 63.167497488902882 81.5044994980708 0 0 0 0 -1.1804236826348529 3.5631334839831936 0 3.5631334839831936 2.1570369865813745 0 0 0 0 251.72249276514049 -237.01007028913591 0 -237.01007028913591 20.040337246537092 0 0 0 0 417.92208872521587 -113.71339617553167 0 -113.71339617553167 0.080713642892078497 0 0 0 0 529.2448320364274 -142.2256211821732 0 -142.2256211821732 -1.7507644589641131 0 0 0 0 451.90433591266628 13.759272072449676 0 13.759272072449676 15.615672621061094 0 0 0 0 293.96375016476668 -204.31302818225231 0 -204.31302818225231 -11.944372951787955 0 0 0 0 200.13287603794015 -154.22471210690128 0 -154.22471210690128 24.457769843749702 0 0 0 0 144.77141052816296 -178.16622034634929 0 -178.16622034634929 18.114223826414673 0 0 0 0 182.6596037124109 -58.306222400045954 0 -58.306222400045954 -2.164595349211595 0 0 0 0 225.91100820762949 -101.59118552441942 0 -101.59118552441942 -8.7411695343907923 0 0 0 0 141.80558120601199 -174.32377639367041 0 -174.32377639367041 14.735917186771985 0 0 0 0 63.81853596527526 -235.57341995426941 0 -235.57341995426941 -3.440167785360245 0 0 0 0 74.428815449646208 -186.64505411796563 0 -186.64505411796563 39.242637125134934 0 0 0 0 159.8369476791122 -209.94695708559448 0 -209.94695708559448 32.669143824838102 0 0 0 0 85.480589991115266 -173.65320359247562 0 -173.65320359247562 73.159608682253747 0 0 0 0 85.444258559174614 -175.8554290622161 0 -175.8554290622161 13.341673569841078 0 0 0 0 -97.396293036217685 -275.23381790081476 0 -275.23381790081476 0.0667056586680701 0 0 0 0 -106.63398989571579 -159.6179585708378 0 -159.6179585708378 96.857031486084452 0 0 0 0 -51.32375678398239 -242.18648390997259 0 -242.18648390997259 44.871128891551052 0 0 0 0 -31.606553461620933 -178.30647790435614 0 -178.30647790435614 100.31165496874019 0 0 0 0 -215.7948450390686 -83.427728939394001 0 -83.427728939394001 293.76032849412877 0 0 0 0 -29.232148907751252 -158.29955743400205 0 -158.29955743400205 154.47955522063421 0 0 0 0 50.237069278344279 -185.49428709722997 0 -185.49428709722997 63.546234047535108 0 0 0 0 52.252239446868771 -179.00809051563556 0 -179.00809051563556 16.360666566462896 0 0 0 0 13.126217102719238 -167.1687743315415 0 -167.1687743315415 57.028284715081099 0 0 0 0 -21.001105034913053 -66.165491330826626 0 -66.165491330826626 131.53248806242482 0 0 0 0 -12.679227038242971 -133.50811741381767 0 -133.50811741381767 127.45522815425647 0 0 0 0 32.992083102551987 -114.14135627332143 0 -114.14135627332143 113.25824389829359 0 0 0 0 10.533106033341028 -135.16943487398385 0 -135.16943487398385 106.63703240308678 0 0 0 0 71.727298626193488 56.641244374626808 0 56.641244374626808 254.67112248993362 0 0 0 0 72.68433514981956 -92.098438019951459 0 -92.098438019951459 122.06841121142497 0 0 0 0 28.761784131958848 -99.12009769998258 0 -99.12009769998258 150.18288985931213 0 0 0 0 -216.52003826756118 -937.46304427515133 0 -937.46304427515133 -2069.9483655293079 0 0 0 0 -19.740196424615192 -4.2382873647876522 0 -4.2382873647876522 4.3214745508394969 0 0 0 0 -344.06595202077006 158.31084068570635 0 158.31084068570635 652.67194649147859 0 0 0 0 33.945570011470409 25.93995242236997 0 25.93995242236997 -860.59407567384187 0 0 0 0 -1463.4431456754101 -853.06232072597777 0 -853.06232072597777 7.4680433136709325 0 0 0 0 -1085.5083039857927 -525.72537195622135 0 -525.72537195622135 221.05992001917912 0 0 0 0 -552.04741417817422 -809.73085226200055 0 -809.73085226200055 -583.85439839598257 0 0 0 0 -591.49247058042965 -247.53856720784097 0 -247.53856720784097 243.05294318991037 0 0 0 0 -398.91379327478353 -113.51275227229053 0 -113.51275227229053 175.4806484526398 0 0 0 0 -724.73043788134964 -93.428072175527632 0 -93.428072175527632 557.80406613158993 0 0 0 0 -254.04802418302279 -155.06651393637003 0 -155.06651393637003 172.02633441836224 0 0 0 0 -360.52757807534363 -248.80210438648646 0 -248.80210438648646 74.373353085829876 0 0 0 0 -161.62061480724515 -227.39682102586085 0 -227.39682102586085 58.679810475499835 0 0 0 0 -529.60800410257798 -255.42846723175899 0 -255.42846723175899 130.82616307534045 0 0 0 0 -419.33631332727236 -194.55050110181037 0 -194.55050110181037 127.0352365814324 0 0 0 0 -185.70820353221643 -191.38090646154888 0 -191.38090646154888 21.490326470491709 0 0 0 0 -401.55268242012971 -293.81513308914873 0 -293.81513308914873 -0.0093562738475156948 0 0 0 0 -607.73298309134407 -251.58780254027806 0 -251.58780254027806 72.173869034246309 0 0 0 0 -521.90863537754922 -305.97655802947702 0 -305.97655802947702 51.488347185746534 0 0 0 0 -668.62097129246104 -352.18147267063614 0 -352.18147267063614 129.1163578669657 0 0 0 0 -678.70003676366468 -309.52240934428119 0 -309.52240934428119 150.47386788772565 0 0 0 0 -538.58882605803228 -80.317627068725415 0 -80.317627068725415 58.736845191917382 0 0 0 0 -1034.2923249488231 -79.713655733095948 0 -79.713655733095948 120.37700231635245 0 0 0 0 -687.78192625168595 -353.14516775883385 0 -353.14516775883385 -0.36835800713743083 0 0 0 0 304.92058656080189 -29.663437148170487 0 -29.663437148170487 -10.294308027107036 0 0 0 0 1.5330629736634478 0.77663366452779314 0 0.77663366452779314 -4.213444855411808 0 0 0 0 321.23453077462182 -121.03850473786588 0 -121.03850473786588 0.19652298380970024 0 0 0 0 1.3878642751368204 0.48345104339338718 0 0.48345104339338718 -7.2484128205693423 0 0 0 0 -113.40010820263706 -101.42019422148587 0 -101.42019422148587 -42.297762452653842 0 0 0 0 510.88841535336542 -181.30975580067025 0 -181.30975580067025 -269.25265807258256 0 0 0 0 -110.78706920828699 -109.7884315323754 0 -109.7884315323754 -64.944173556170426 0 0 0 0 21.397353952983394 11.615880071127322 0 11.615880071127322 0.46329418293316849 0 0 0 0 63.896883305715164 4.2332384684705175 0 4.2332384684705175 -11.346514140983345 0 0 0 0 -11.659883115418779 -123.68530487848329 0 -123.68530487848329 -166.704045616847 0 0 0 0 -42.142425865196856 -40.288568363146624 0 -40.288568363146624 -4.6536135672795353 0 0 0 0 -322.0044619745604 -195.61101172617055 0 -195.61101172617055 -68.505352503823815 0 0 0 0 -380.36848078072944 -358.04011518128391 0 -358.04011518128391 -43.268052092491416 0 0 0 0 -331.13425508567889 -396.34317715649377 0 -396.34317715649377 -72.833498075982789 0 0 0 0 -48.230866163401515 -30.270685173745733 0 -30.270685173745733 -7.600871185597498 0 0 0 0 -157.9786003782574 141.41528127901256 0 141.41528127901256 446.95931983232731 0 0 0 0 -12.839332229093998 245.04525938475854 0 245.04525938475854 61.960605422180379 0 0 0 0 5.8406648054078687 -94.038203339441679 0 -94.038203339441679 61.540085245214868 0 0 0 0 -42.729085545645376 -233.80098523910874 0 -233.80098523910874 -556.69787962583359 0 0 0 0 172.79778201147565 181.96215878338262 0 181.96215878338262 432.14120826183353 0 0 0 0 36.512181576283183 38.653817399725085 0 38.653817399725085 142.84995660703862 0 0 0 0 -3.7300471736234613 -70.503868987900205 0 -70.503868987900205 117.44498125456448 0 0 0 0 101.70347084736568 12.646313862991519 0 12.646313862991519 82.908898481400684 0 0 0 0 8.5249750304124063 -45.619449896675263 0 -45.619449896675263 14.337292802742645 0 0 0 0 -1.8523034157053431 -13.514343080374715 0 -13.514343080374715 -4.225533966310536 0 0 0 0 85.821666886389721 57.406714722135803 0 57.406714722135803 63.606626042630523 0 0 0 0 37.987262985727284 7.4742462575959507 0 7.4742462575959507 57.348943692108151 0 0 0 0 57.310653423133772 1.3428940653684549 0 1.3428940653684549 -18.861967377088149 0 0 0 0 22.457241665124457 12.602217489857139 0 12.602217489857139 41.672673111315817 0 0 0 0 102.28443912006333 -15.979031534021487 0 -15.979031534021487 34.510335081606172 0 0 0 0 -99.883524999324436 -708.43834084189439 0 -708.43834084189439 -157.95337901724997 0 0 0 0 -17.443129351274365 -615.74110805962846 0 -615.74110805962846 -506.96001543314196 0 0 0 0 -12.431458910526999 -718.08377258310793 0 -718.08377258310793 -109.60491907769028 0 0 0 0 35.798476446569111 -702.04536046955036 0 -702.04536046955036 124.52976313341787 0 0 0 0 64.631114052944213 -591.27872415426464 0 -591.27872415426464 -120.62071392481448 0 0 0 0 -317.96603657178275 -987.86687952031207 0 -987.86687952031207 -297.84667358795559 0 0 0 0 1.0341448465271288 -3.7741628281633552 0 -3.7741628281633552 -7.7120008019863917 0 0 0 0 -594.52521246995639 -571.64070547213487 0 -571.64070547213487 372.25477828517614 0 0 0 0 854.62967730982109 -748.85530002895393 0 -748.85530002895393 -407.31836077001026 0 0 0 0 169.52255598747502 -940.26894246829033 0 -940.26894246829033 -433.07461872482418 0 0 0 0 -303.23884691736248 -837.29459792350553 0 -837.29459792350553 -193.78571879985975 0 0 0 0 -271.29639632537692 -517.44889635960863 0 -517.44889635960863 -59.98620038779336 0 0 0 0 27.620119349113338 -574.89242072129855 0 -574.89242072129855 -50.9448860053526 0 0 0 0 38.761419568640804 -484.98990314405819 0 -484.98990314405819 -581.18670625507366 0 0 0 0 84.783866038844934 -608.32715114951134 0 -608.32715114951134 -318.66619309026282 0 0 0 0 -63.159387244964933 -307.12224905574112 0 -307.12224905574112 -302.83008642338427 0 0 0 0 -26.649302729518695 -243.33976668692776 0 -243.33976668692776 -585.50129711665795 0 0 0 0 -63.181907556216771 105.93692075370905 0 105.93692075370905 211.52579769362637 0 0 0 0 -1.1191522250837274 -5.0530512111957933 0 -5.0530512111957933 8.1272453706930321 0 0 0 0 -64.72197386956941 -481.33393565430742 0 -481.33393565430742 -109.60307968553388 0 0 0 0 -30.102828414778649 -41.526589439971303 0 -41.526589439971303 -9.8413352655055206 0 0 0 0 -40.027552522961741 -426.44935694696323 0 -426.44935694696323 -25.727115130895982 0 0 0 0 49.239296832090986 -245.31327617825445 0 -245.31327617825445 210.34515449640458 0 0 0 0 -32.649714235849387 -241.68240539188264 0 -241.68240539188264 647.62672840446612 0 0 0 0 11.748437320432764 -24.301368168558383 0 -24.301368168558383 -7.5810534846903579 0 0 0 0 -75.782435807903312 -225.17106426176906 0 -225.17106426176906 641.33561502289376 0 0 0 0 -124.76014872815904 -622.73982794042968 0 -622.73982794042968 -5.0410966226772871 0 0 0 0 11.760046252307802 -406.09033301600721 0 -406.09033301600721 65.994658641458955 0 0 0 0 69.609970441882979 -347.98950055785826 0 -347.98950055785826 334.84076256133267 0 0 0 0 -15.944623251925805 -476.70773432870919 0 -476.70773432870919 313.83960181861767 0 0 0 0 61.054974156086246 -434.85583158161899 0 -434.85583158161899 572.0738546923385 0 0 0 0 103.41351859093265 -200.01855751305993 0 -200.01855751305993 657.94970167428255 0 0 0 0 16.597552320276009 -212.72739311397891 0 -212.72739311397891 440.4690349384764 0 0 0 0 -21.81351463250212 -290.69735778015456 0 -290.69735778015456 708.33422566123772 0 0 0 0 141.08364108158275 -121.90636077430099 0 -121.90636077430099 688.24600503052352 0 0 0 0 16.863702615788497 -84.319895197011647 0 -84.319895197011647 973.86198131617857 0 0 0 0 -6.497067710472038 -243.10551035765093 0 -243.10551035765093 1129.2447913408541 0 0 0 0 68.274809375907353 -306.64513419088325 0 -306.64513419088325 828.82256016989413 0 0 0 0 74.329814256249165 -209.31943963814592 0 -209.31943963814592 868.85440481087426 0 0 0 0 188.2054085525815 -297.45111762656597 0 -297.45111762656597 919.75046742893755 0 0 0 0 186.33887982801957 -233.67716420142597 0 -233.67716420142597 886.72269754228182 0 0 0 0 -57.013775456573057 -387.60786970795016 0 -387.60786970795016 1516.3895232803079 0 0 0 0 188.07937283510546 -493.28332665336347 0 -493.28332665336347 637.70329700186267 0 0 0 0 -247.06865634139831 -483.68096491027973 0 -483.68096491027973 655.77667942483822 0 0 0 0 181.83979394883136 -398.93062073551118 0 -398.93062073551118 938.41016474443313 0 0 0 0 186.72434129430621 -404.37416857773496 0 -404.37416857773496 699.05324106545595 0 0 0 0 147.62847444347062 -289.11306219735707 0 -289.11306219735707 497.01337997667724 0 0 0 0 -312.79365359715302 -110.96697483223397 0 -110.96697483223397 691.37904556829017 0 0 0 0 -454.37651720166832 -648.81056024295685 0 -648.81056024295685 699.73941785274656 0 0 0 0 -474.88589404043341 -617.37179044809091 0 -617.37179044809091 1455.099363754387 0 0 0 0 -150.32479095310555 30.437360354771954 0 30.437360354771954 1146.4308337966795 0 0 0 0 -320.82916671519342 -219.35864054731792 0 -219.35864054731792 831.21412020816933 0 0 0 0 311.23924265732785 -210.71970469597727 0 -210.71970469597727 1132.4346824496461 0 0 0 0 -103.07520883881079 -437.28753006232728 0 -437.28753006232728 1024.6867458638008 0 0 0 0 -256.26242594489668 -187.26834866029094 0 -187.26834866029094 878.47940594126703 0 0 0 0 -497.94846948384657 -189.70849086495582 0 -189.70849086495582 644.7743590343307 0 0 0 0 -134.18906013949163 -334.24159383730148 0 -334.24159383730148 676.65356147303828 0 0 0 0 -430.10304445701695 -23.715230355766835 0 -23.715230355766835 801.12745736719808 0 0 0 0 -306.65227569190029 -75.111550182045903 0 -75.111550182045903 527.50100493858918 0 0 0 0 -503.21305363753345 69.337946099927649 0 69.337946099927649 509.1581184720053 0 0 0 0 -40.146685224142857 28.472703159131925 0 28.472703159131925 -84.696260502561927 0 0 0 0 -5.8940278158988804 -4.6064882328816452 0 -4.6064882328816452 -0.93570418772256403 0 0 0 0 -688.45554070665821 -300.55584285053192 0 -300.55584285053192 -84.91337983586709 0 0 0 0 -4.7016127240200589 -1.840794147975064 0 -1.840794147975064 0.2404637162585459 0 0 0 0 -146.94994114517976 126.95324888312825 0 126.95324888312825 343.82999625912635 0 0 0 0 -675.38167339503707 293.50369888771093 0 293.50369888771093 340.1683759035659 0 0 0 0 -276.06380207442999 -67.462184348332812 0 -67.462184348332812 346.31582479644567 0 0 0 0 -829.98356799643079 -260.22451229471335 0 -260.22451229471335 296.73676636326127 0 0 0 0 -389.92443738065049 -53.846914090681821 0 -53.846914090681821 -210.89310251915595 0 0 0 0 -426.03977480877074 -130.65267791731458 0 -130.65267791731458 226.37668149268575 0 0 0 0 -306.91842297534458 -90.655175109975971 0 -90.655175109975971 237.57041953643784 0 0 0 0 -255.32338699974207 -140.52799455772765 0 -140.52799455772765 -177.83457769206143 0 0 0 0 -495.11791721697591 -248.41830177057273 0 -248.41830177057273 -195.23116148849476 0 0 0 0 -480.38114973539632 -177.41484485027468 0 -177.41484485027468 -98.910308235965203 0 0 0 0 -3.1328212380732623 -1.3417327696983676 0 -1.3417327696983676 9.5155039319383832 0 0 0 0 -508.91685960889299 -222.4449927440437 0 -222.4449927440437 -92.941595930111362 0 0 0 0 -550.07424760489812 -125.32269867882133 0 -125.32269867882133 -68.642417963535991 0 0 0 0 -689.40571393635764 -81.43303171635489 0 -81.43303171635489 -82.351016799599165 0 0 0 0 -580.01314457642366 -163.01186772898654 0 -163.01186772898654 -35.608941275742836 0 0 0 0 -4.6324876012877212 -557.4174341133039 0 -557.4174341133039 501.74042908867159 0 0 0 0 -451.05243986294226 -162.33633174106944 0 -162.33633174106944 386.44217777055746 0 0 0 0 -2.7947210188230187 0.24661055704613943 0 0.24661055704613943 6.0026653086530359 0 0 0 0 242.05853765321262 -609.49026354780653 0 -609.49026354780653 -158.84614102807245 0 0 0 0 -317.96658721037966 -331.58105521979451 0 -331.58105521979451 -199.89133218144525 0 0 0 0 -2.3280966519032518 -567.02032185985081 0 -567.02032185985081 -226.78408617177047 0 0 0 0 -555.98831552184856 -524.58162305396399 0 -524.58162305396399 -177.10621462692507 0 0 0 0 -441.79635017927285 -329.6099120176732 0 -329.6099120176732 -221.80324759770701 0 0 0 0 -239.48548965867303 -451.18694690243865 0 -451.18694690243865 -123.50750498212437 0 0 0 0 -399.30099809768876 -463.60977224908129 0 -463.60977224908129 -71.499670641598641 0 0 0 0 -625.46243921548739 -273.06012273114175 0 -273.06012273114175 -124.59690583747215 0 0 0 0 -702.53447286773735 -212.90148276102263 0 -212.90148276102263 -49.175241376855411 0 0 0 0 -609.28829516044061 -111.80019323708257 0 -111.80019323708257 -4.427841313474346 0 0 0 0 -637.66477205744013 -198.16177809902001 0 -198.16177809902001 -63.931620965013281 0 0 0 0 -580.49767155118025 -160.84451139718294 0 -160.84451139718294 -40.879272370017134 0 0 0 0 -596.15397994771047 -183.96946008197847 0 -183.96946008197847 -37.606113304516839 0 0 0 0 -545.83750226059419 -221.26940436581208 0 -221.26940436581208 -113.1212203365576 0 0 0 0 -752.35209123842105 -457.27375378512079 0 -457.27375378512079 -112.58072875333892 0 0 0 0 -688.9826302440124 -229.30907068103261 0 -229.30907068103261 -91.841005952272099 0 0 0 0 -737.25839197909227 -270.68180305416172 0 -270.68180305416172 -100.2802418533829 0 0 0 0 -4.3802806456584449 -0.5196280628333767 0 -0.5196280628333767 9.1223181967607161 0 0 0 0 -4.6666520454633371 0.95033130683643208 0 0.95033130683643208 5.6580079190085257 0 0 0 0 -788.08070443040924 -321.6569330583734 0 -321.6569330583734 24.267138475377578 0 0 0 0 -1195.0680420527367 -365.43087363749964 0 -365.43087363749964 -112.33156797423726 0 0 0 0 -606.60569836912327 -311.75253919223178 0 -311.75253919223178 -117.89660566105158 0 0 0 0 -784.00767149771127 -314.86756655425415 0 -314.86756655425415 0.4097756833944004 0 0 0 0 -780.70417203794204 -342.16537508822512 0 -342.16537508822512 -0.44560400981572457 0 0 0 0 -632.78830789633321 -418.90264719595871 0 -418.90264719595871 0.12085678553557955 0 0 0 0 -786.78847074384248 -345.29045597661752 0 -345.29045597661752 40.769492712788633 0 0 0 0 -1114.4599958552972 -462.21087802191323 0 -462.21087802191323 -0.23890803979884367 0 0 0 0 -476.71752206081146 -345.30235267539865 0 -345.30235267539865 4.4129519470734522 0 0 0 0 -496.9608530194364 -413.82005766684597 0 -413.82005766684597 -87.784078331504134 0 0 0 0 -293.19518781700208 -461.39115551311261 0 -461.39115551311261 -0.14435011871682946 0 0 0 0 -166.55776880269241 -332.9264176816032 0 -332.9264176816032 26.26937801198801 0 0 0 0 -77.416263845850153 -449.84952785171845 0 -449.84952785171845 0.19088833044224884 0 0 0 0 -212.69648631797281 -514.6923705435911 0 -514.6923705435911 -10.628981113371992 0 0 0 0 -133.61007324082675 -588.23600806343165 0 -588.23600806343165 -2.0235554895916721 0 0 0 0 -157.66799682718511 -417.70006661886873 0 -417.70006661886873 153.91280733556778 0 0 0 0 -141.7002361141449 -719.5528354392809 0 -719.5528354392809 103.97047273896169 0 0 0 0 410.17594483538869 -577.68260345573799 0 -577.68260345573799 297.19503982164315 0 0 0 0 -2.8219847101803279 -8.4333636276553534 0 -8.4333636276553534 -11.304376200442732 0 0 0 0 328.3227548232062 -300.72622750670416 0 -300.72622750670416 241.5768885113248 0 0 0 0 -90.365939281600959 -413.94031383607762 0 -413.94031383607762 302.60117727640318 0 0 0 0 340.90843136732224 -358.14287713033264 0 -358.14287713033264 88.541793264346779 0 0 0 0 346.00975200378076 -308.62212528859163 0 -308.62212528859163 320.4097234721703 0 0 0 0 97.849416967417255 -385.06319922127295 0 -385.06319922127295 -33.861024375728448 0 0 0 0 117.79335256391823 -292.79467654923064 0 -292.79467654923064 184.82493668184907 0 0 0 0 376.95295990316629 -379.24167290529294 0 -379.24167290529294 -0.038642364714178257 0 0 0 0 416.7345357920783 -292.34800713063305 0 -292.34800713063305 189.32497422935558 0 0 0 0 1.1807447750122435 -2.211412129953942 0 -2.211412129953942 -5.8764516062922212 0 0 0 0 95.711207588632533 -632.6091411326197 0 -632.6091411326197 16.771785975608509 0 0 0 0 486.84376639920083 -267.78821829761728 0 -267.78821829761728 -0.012455810530809686 0 0 0 0 555.33422185191932 -433.5170179537381 0 -433.5170179537381 181.81613346830818 0 0 0 0 -40.223202058881725 -573.0389329536556 0 -573.0389329536556 -102.18309289592071 0 0 0 0 130.07715192284741 -361.7116169826113 0 -361.7116169826113 107.96533614382497 0 0 0 0 -712.92379628722301 -79.269237798886024 0 -79.269237798886024 331.5034070360125 0 0 0 0 -698.33802193594602 -253.18042266258271 0 -253.18042266258271 -0.16308923814613907 0 0 0 0 -620.84168604098772 -551.47390601244297 0 -551.47390601244297 245.53510978000122 0 0 0 0 -259.98482831268484 -105.34489641603432 0 -105.34489641603432 317.08975241181543 0 0 0 0 -386.26875166828722 -418.26507779714302 0 -418.26507779714302 456.3915208473918 0 0 0 0 148.7385709812188 -486.34910503168066 0 -486.34910503168066 117.09035140809101 0 0 0 0 -134.16347884995412 -432.25662432004174 0 -432.25662432004174 274.49248517478554 0 0 0 0 -121.3258765765022 -398.24412192047384 0 -398.24412192047384 339.68920505719143 0 0 0 0 -165.90219365682802 -319.61756892594849 0 -319.61756892594849 508.54742864114814 0 0 0 0 117.18092967982011 -355.23879232653417 0 -355.23879232653417 344.2763965834456 0 0 0 0 -166.1997890768489 -344.20345578431443 0 -344.20345578431443 477.21856124171245 0 0 0 0 -223.31232840458961 -343.34604224427312 0 -343.34604224427312 559.83746940392302 0 0 0 0 -252.08551424226789 -347.13724217712297 0 -347.13724217712297 561.63932685479449 0 0 0 0 -170.20264234299611 -330.22720659069455 0 -330.22720659069455 422.5944203803374 0 0 0 0 -215.13904483726765 -320.06380371678824 0 -320.06380371678824 648.20334046246717 0 0 0 0 86.653378153507219 -261.07141276370385 0 -261.07141276370385 512.01034873140452 0 0 0 0 -2.3229869462075001 -6.9273948559874157 0 -6.9273948559874157 -9.6147439184005634 0 0 0 0 128.98357627367113 -469.73785462490923 0 -469.73785462490923 515.82118912803708 0 0 0 0 5.8426900746017054 -230.0045232387929 0 -230.0045232387929 362.00831687582831 0 0 0 0 95.995242370243432 -282.84683398446941 0 -282.84683398446941 446.73331449182297 0 0 0 0 -56.073378423933718 -435.42440692202217 0 -435.42440692202217 338.87097114689823 0 0 0 0 485.8147457698401 -737.52246455791465 0 -737.52246455791465 438.49236324093363 0 0 0 0 90.599511100112977 -590.45112534159125 0 -590.45112534159125 -91.92688579109381 0 0 0 0 365.56514139835554 -228.94088081382506 0 -228.94088081382506 274.08007499358791 0 0 0 0 416.56682004238792 -472.11020922993339 0 -472.11020922993339 -419.93951650196686 0 0 0 0 -109.71681040960448 -545.74933659666567 0 -545.74933659666567 -294.69275276757253 0 0 0 0 -247.27195831951394 -461.3472082751905 0 -461.3472082751905 337.84383971292118 0 0 0 0 175.635145438172 -385.92188667642768 0 -385.92188667642768 -205.99965052318294 0 0 0 0 -174.31455130148424 -514.04301751233288 0 -514.04301751233288 22.431236051575979 0 0 0 0 -368.1884926498351 -444.52707547943282 0 -444.52707547943282 471.01230062431569 0 0 0 0 -86.09328804499637 -413.1087121243545 0 -413.1087121243545 -2.1251149887975771 0 0 0 0 -207.16975217858089 -752.58820306516282 0 -752.58820306516282 -836.88632694838452 0 0 0 0 -504.29511288223694 -593.61955403005413 0 -593.61955403005413 44.979990000574617 0 0 0 0 -280.57019678298821 -529.29257249298098 0 -529.29257249298098 26.517723438271787 0 0 0 0 -50.902099839343464 -438.55795360070624 0 -438.55795360070624 -821.18901013347204 0 0 0 0 -251.26410334831962 -284.83072276442545 0 -284.83072276442545 -1193.9667946930349 0 0 0 0 -137.91915615363723 -583.19036632826464 0 -583.19036632826464 -987.76693308065296 0 0 0 0 264.34137815553368 -539.23287103640178 0 -539.23287103640178 -3267.0370005259756 0 0 0 0 -6.3745976452532744 -10.070813648963508 0 -10.070813648963508 -2.1592197292607267 0 0 0 0 -348.35879817030218 -473.71879324766633 0 -473.71879324766633 2471.199251380116 0 0 0 0 -18.305161598672463 -25.327240649354223 0 -25.327240649354223 -4.1915061462616947 0 0 0 0 104.02862027807168 -191.54865568802052 0 -191.54865568802052 -1707.0837738976297 0 0 0 0 -233.92834557004971 -189.70356910387636 0 -189.70356910387636 2069.8993913548766 0 0 0 0 76.90499414882197 -313.8863543686748 0 -313.8863543686748 -729.8175159115417 0 0 0 0 -86.39507684793233 -357.40155873814547 0 -357.40155873814547 -713.693988805142 0 0 0 0 -27.363380864232369 -34.043386413885742 0 -34.043386413885742 -4.6602488603380863 0 0 0 0 -106.83873905036671 -366.64163556105632 0 -366.64163556105632 1562.4466140715049 0 0 0 0 101.80374023774402 -590.46679340922856 0 -590.46679340922856 -463.75020127353491 0 0 0 0 169.51742490912147 -464.44655880853679 0 -464.44655880853679 -845.67910923578893 0 0 0 0 -64.821146716537442 -217.44123772349849 0 -217.44123772349849 -752.96290476678405 0 0 0 0 241.26643865232927 -154.93154553051136 0 -154.93154553051136 -362.91551343962783 0 0 0 0 277.31072027895789 -261.85859525005799 0 -261.85859525005799 -222.42416126241733 0 0 0 0 177.49080033630707 -45.71369583793421 0 -45.71369583793421 -113.79674085284933 0 0 0 0 254.69075108313245 -92.921786334904027 0 -92.921786334904027 -95.407651989808073 0 0 0 0 133.61496454897861 -224.31766174538643 0 -224.31766174538643 -71.429886650788831 0 0 0 0 78.270708207801363 -290.05523022857233 0 -290.05523022857233 -141.79844398862042 0 0 0 0 183.52343087701502 -297.88163579371758 0 -297.88163579371758 -222.6738950512372 0 0 0 0 276.60821878431307 -352.94157292449381 0 -352.94157292449381 -658.6902212294226 0 0 0 0 -31.846245647437172 -759.88056164124282 0 -759.88056164124282 -428.27247085433191 0 0 0 0 -411.7573943664429 -1131.9942504197315 0 -1131.9942504197315 -1073.8425116253347 0 0 0 0 -1.9704615049486165 -290.87703081293148 0 -290.87703081293148 -448.1057297684165 0 0 0 0 718.56506835520486 27.530313104754896 0 27.530313104754896 -303.36353769496782 0 0 0 0 573.86169962789972 -246.68314987925805 0 -246.68314987925805 -571.18715044987039 0 0 0 0 211.24418696900102 -620.05730208085151 0 -620.05730208085151 5.185129724239232 0 0 0 0 55.83079626099061 -256.51242545954301 0 -256.51242545954301 -607.06840731896955 0 0 0 0 318.63853059448593 -252.90044748707442 0 -252.90044748707442 203.84506917968974 0 0 0 0 -164.6279229121028 -531.04167998531193 0 -531.04167998531193 616.67570777752553 0 0 0 0 782.03749291590066 -631.92524080572184 0 -631.92524080572184 501.58357627841178 0 0 0 0 566.64353966678027 -2.6977350714441855 0 -2.6977350714441855 870.89037780881335 0 0 0 0 151.29508920928492 -226.20737683796324 0 -226.20737683796324 450.87704652593675 0 0 0 0 785.4627832541571 -175.17007062982321 0 -175.17007062982321 -19.518194313859567 0 0 0 0 2143.3614676757425 -257.75242373422952 0 -257.75242373422952 -100.1709374745551 0 0 0 0 804.67541930649713 -773.91333926928928 0 -773.91333926928928 1306.0004671599017 0 0 0 0 575.38414435996674 -72.571534298564075 0 -72.571534298564075 1387.2881572528931 0 0 0 0 -174.61661977459153 -286.94928880850784 0 -286.94928880850784 1930.0179538417142 0 0 0 0 925.21964343249056 989.24045199812099 0 989.24045199812099 496.25161794311134 0 0 0 0 6.6570285663636355 -3.4380690641268643 0 -3.4380690641268643 -5.7560744501893453 0 0 0 0 2.2858929641230503 -20.358211509068269 0 -20.358211509068269 -5.4525452034181683 0 0 0 0 115.19350343341648 -637.92837064003106 0 -637.92837064003106 304.64959906929289 0 0 0 0 249.13322322286513 62.313894945698848 0 62.313894945698848 10.85578342032386 0 0 0 0 20.743875037175187 3.5392189001412362 0 3.5392189001412362 -5.3813723866976488 0 0 0 0 8.5523358957580058 -20.659203772258479 0 -20.659203772258479 -59.005644723918522 0 0 0 0 161.731113228092 93.385147545093787 0 93.385147545093787 304.53567732218653 0 0 0 0 788.41202622052549 353.27288997858022 0 353.27288997858022 -7.7782165438984521 0 0 0 0 385.6533047963967 100.42458609599271 0 100.42458609599271 -166.43372693928541 0 0 0 0 414.431244857602 47.191904958861414 0 47.191904958861414 -265.09957496053539 0 0 0 0 372.92428549462056 164.0566949074273 0 164.0566949074273 -47.403507014736533 0 0 0 0 124.1234131202873 140.01084241856006 0 140.01084241856006 64.13119277858641 0 0 0 0 195.28718166677709 61.695730242528953 0 61.695730242528953 -106.11468545551179 0 0 0 0 497.88526720753453 130.04524876648793 0 130.04524876648793 -199.82973839138867 0 0 0 0 83.924467987188109 -82.840808570872468 0 -82.840808570872468 -42.810524349100888 0 0 0 0 197.38663887089933 -86.438451750553213 0 -86.438451750553213 -64.211488730376004 0 0 0 0 198.21389356850909 20.565580240553572 0 20.565580240553572 -21.552729670889676 0 0 0 0 -6.1937673580105184 7.5566160903254058 0 7.5566160903254058 18.641852778499015 0 0 0 0 -6.4138273037460749 -47.862519354268443 0 -47.862519354268443 -40.289115178820794 0 0 0 0 -7.097587359832545 -27.188823983738757 0 -27.188823983738757 -7.4433613053616625 0 0 0 0 -12.07604899416765 -39.94698998023523 0 -39.94698998023523 -19.130874688024051 0 0 0 0 34.305019860495221 -31.600383940343818 0 -31.600383940343818 -10.858819033518643 0 0 0 0 11.537079187699419 -32.517548872900079 0 -32.517548872900079 -31.385108184476849 0 0 0 0 70.27958378927724 14.921799999909126 0 14.921799999909126 -34.13053233100436 0 0 0 0 8.8695078436212498 -41.524259359750431 0 -41.524259359750431 -30.194768518093042 0 0 0 0 28.980719924744335 -34.295435755535436 0 -34.295435755535436 -30.703065598674584 0 0 0 0 4.2252008554460758 -4.1445047283187648 0 -4.1445047283187648 -8.6100669837434793 0 0 0 0 595.02651255980118 -681.03221731755184 0 -681.03221731755184 503.34482897704584 0 0 0 0 583.6260546711942 -756.69336485667191 0 -756.69336485667191 512.0216022253735 0 0 0 0 562.3453067900482 -594.97475898111588 0 -594.97475898111588 520.60037911755353 0 0 0 0 632.40546369459116 -472.70330439376994 0 -472.70330439376994 234.63622505124658 0 0 0 0 489.16559710815699 -419.2756513771144 0 -419.2756513771144 287.15771305316593 0 0 0 0 95.922210833694407 -285.75542025404866 0 -285.75542025404866 517.53407880623126 0 0 0 0 463.65729713463952 -44.967992095567752 0 -44.967992095567752 587.12539704394294 0 0 0 0 188.69014954632257 -337.40300486243359 0 -337.40300486243359 763.03399359656032 0 0 0 0 718.08217940570103 -333.5549877796584 0 -333.5549877796584 450.66132693522377 0 0 0 0 740.18653853770229 -325.70491731449147 0 -325.70491731449147 381.38403286644825 0 0 0 0 1802.9198031592023 -26.885300934576662 0 -26.885300934576662 536.08155547245406 0 0 0 0 1484.4057164835249 -1004.1872423706809 0 -1004.1872423706809 507.41274385273573 0 0 0 0 1077.4052261053439 -574.89126698530163 0 -574.89126698530163 321.75198206987261 0 0 0 0 613.96159644148429 -518.20250605643378 0 -518.20250605643378 344.97545401263778 0 0 0 0 721.02217646004465 -444.78006153678143 0 -444.78006153678143 203.41548261302523 0 0 0 0 414.90199884209869 -289.91286681384372 0 -289.91286681384372 386.78195479333226 0 0 0 0 421.78159221891292 -265.2656394774167 0 -265.2656394774167 374.09108502819436 0 0 0 0 120.68675950354736 -387.22802066931035 0 -387.22802066931035 336.9221684133081 0 0 0 0 272.2789512586096 -336.09359401484835 0 -336.09359401484835 252.47114634310128 0 0 0 0 402.90212348091154 -507.54247702677822 0 -507.54247702677822 109.56467599468306 0 0 0 0 553.92721982027069 -384.48364662818494 0 -384.48364662818494 196.51296718002959 0 0 0 0 595.90688344089267 -516.10543760415021 0 -516.10543760415021 203.01030579538201 0 0 0 0 551.54684908319177 -405.59553740827687 0 -405.59553740827687 52.07239896513056 0 0 0 0 304.27488984317097 -536.8026673309505 0 -536.8026673309505 0.058401067930390127 0 0 0 0 620.62906862004456 -432.0369178220717 0 -432.0369178220717 100.91270389541751 0 0 0 0 611.27223701572802 -510.56594638615206 0 -510.56594638615206 168.49290998010838 0 0 0 0 538.38473300899295 -455.92879710779562 0 -455.92879710779562 95.100492563680746 0 0 0 0 625.83617829668947 -456.574205727964 0 -456.574205727964 0.0074509271507849917 0 0 0 0 596.26454451055906 -422.15816458927293 0 -422.15816458927293 97.597749461754574 0 0 0 0 591.64624600660864 -396.4239825365421 0 -396.4239825365421 86.454389618709683 0 0 0 0 564.26120277942391 -317.40512490553374 0 -317.40512490553374 92.66945720941294 0 0 0 0 616.56347770987486 -354.53431245501997 0 -354.53431245501997 0.14225431690283585 0 0 0 0 547.16050980397995 -342.02937419018417 0 -342.02937419018417 205.82660525028768 0 0 0 0 490.6030986989324 -373.95965409740484 0 -373.95965409740484 221.50606639432954 0 0 0 0 -15.419008611189867 -15.493113037221917 0 -15.493113037221917 -8.6179707070722316 0 0 0 0 -835.74766173843091 121.38011846991139 0 121.38011846991139 62.947097235548426 0 0 0 0 -73.725647077613758 -20.184453696285345 0 -20.184453696285345 39.079265047475928 0 0 0 0 -1.1885703179501803 2.7160117510466186 0 2.7160117510466186 -0.12424379407900688 0 0 0 0 -6.8081963855250081 -3.7753469002886391 0 -3.7753469002886391 -5.4608206514934636 0 0 0 0 11.274123502269504 -53.784369269837043 0 -53.784369269837043 0.014290302584413439 0 0 0 0 -2211.0576013968021 1240.6582071599696 0 1240.6582071599696 -491.2208775561885 0 0 0 0 -1184.5291776684135 -936.75587582277512 0 -936.75587582277512 -1.5895492160052527 0 0 0 0 -2620.8498731068103 -218.68692338668916 0 -218.68692338668916 717.63950371462852 0 0 0 0 -1143.1631909694261 -139.88363116601249 0 -139.88363116601249 321.62540404259926 0 0 0 0 -855.34995906482072 205.52553932549199 0 205.52553932549199 293.26965244946769 0 0 0 0 -1347.3797987919752 -178.51156373316189 0 -178.51156373316189 427.06398065591929 0 0 0 0 -1381.3915595134968 -80.162721728353063 0 -80.162721728353063 316.74780382937752 0 0 0 0 -1134.4554468303431 -493.63614553874504 0 -493.63614553874504 19.056939524918562 0 0 0 0 -1312.4030363059974 -306.95481141425262 0 -306.95481141425262 627.05750387688749 0 0 0 0 -864.95576046755741 -198.15404661274079 0 -198.15404661274079 93.613731403631391 0 0 0 0 -1021.5070938264325 -121.08467930824554 0 -121.08467930824554 -471.77237043829518 0 0 0 0 -936.83765130722895 -393.1439249918476 0 -393.1439249918476 368.51203088482725 0 0 0 0 -485.96286499522466 -262.4812199945809 0 -262.4812199945809 -131.94684705519467 0 0 0 0 -6.4153107116696049 -0.83548283592875805 0 -0.83548283592875805 -0.3224952468923874 0 0 0 0 -13.623856011256152 -12.544217299132185 0 -12.544217299132185 -5.1449098460194023 0 0 0 0 2.9898961035214597 -26.147591070679482 0 -26.147591070679482 -26.333018907465885 0 0 0 0 -214.3638438271737 -494.79986300926248 0 -494.79986300926248 -515.01683518358914 0 0 0 0 -147.17126098365407 115.77774383901851 0 115.77774383901851 -140.77541966125136 0 0 0 0 -42.44280394755333 -31.533481502177892 0 -31.533481502177892 -2.2341256841464201 0 0 0 0 -7.7312096415597118 -16.595059693700968 0 -16.595059693700968 -16.978700222580642 0 0 0 0 -8.4514863965487166 -14.450806046806974 0 -14.450806046806974 3.5897425133734941 0 0 0 0 -11.490879101035382 -13.680955637600164 0 -13.680955637600164 -0.75903998426883845 0 0 0 0 3.8213437536458486 -10.871907130416503 0 -10.871907130416503 -14.547818196549201 0 0 0 0 6.182397387259698 -40.775485806385404 0 -40.775485806385404 4.4932276118488517 0 0 0 0 -212.28742068152496 -198.99814505038376 0 -198.99814505038376 -4.3731165034987498 0 0 0 0 -414.58693421031057 1.3154087219736539 0 1.3154087219736539 73.53121096821269 0 0 0 0 948.86344431576617 -710.74776965312594 0 -710.74776965312594 170.23454626259627 0 0 0 0 928.6719456234523 -555.23596368441122 0 -555.23596368441122 95.613944541400997 0 0 0 0 1009.8210711622378 -560.06665404539672 0 -560.06665404539672 0.16671909953133848 0 0 0 0 911.66851513949041 -457.08432141777121 0 -457.08432141777121 -109.90164439953514 0 0 0 0 978.53036190893908 -646.00746776690357 0 -646.00746776690357 -0.30596929528110195 0 0 0 0 -681.21547928349719 678.42598500888926 0 678.42598500888926 444.83152950037038 0 0 0 0 0.53644720585265304 -0.39618661086576878 0 -0.39618661086576878 1.7375235935850242 0 0 0 0 1688.3852903128427 -901.09262351678626 0 -901.09262351678626 -25.894245501680416 0 0 0 0 22.19993024678115 -620.93722923841415 0 -620.93722923841415 670.70280430483399 0 0 0 0 619.69117352364265 -533.6313660164742 0 -533.6313660164742 0.31860334539669566 0 0 0 0 111.32902704885055 -392.1284164103854 0 -392.1284164103854 -17.618686252229963 0 0 0 0 -1253.9324484760182 -631.95613264474923 0 -631.95613264474923 574.26329980566516 0 0 0 0 -17.890750779566588 -523.76709812297486 0 -523.76709812297486 277.65938554609602 0 0 0 0 -739.11280334708863 -554.90595300562927 0 -554.90595300562927 514.90731093281647 0 0 0 0 73.39790393833573 -245.36084700084939 0 -245.36084700084939 368.1316964973521 0 0 0 0 69.843694238006719 -134.31810779320222 0 -134.31810779320222 69.442997752223164 0 0 0 0 -502.96195728931343 -309.50824906259368 0 -309.50824906259368 249.47941823468136 0 0 0 0 -308.90031905924297 -250.81951865047085 0 -250.81951865047085 192.69735910030431 0 0 0 0 -2.2182212158857908 -6.4457537666370044 0 -6.4457537666370044 3.3610757717298156 0 0 0 0 567.29633462014317 -628.80499992892146 0 -628.80499992892146 216.8557169646665 0 0 0 0 915.99882731419348 -1169.7890539174987 0 -1169.7890539174987 425.53002669377418 0 0 0 0 1530.9262822070195 61.549156963865244 0 61.549156963865244 -2.6283680777414702 0 0 0 0 841.54609203171276 -402.82922319743375 0 -402.82922319743375 56.192316281310923 0 0 0 0 768.99700507249509 -261.29898559841968 0 -261.29898559841968 -130.76415168761741 0 0 0 0 -18.008068781363448 -35.679009734662372 0 -35.679009734662372 -35.020642235122409 0 0 0 0 -7.8403701364113658 -75.339882762271372 0 -75.339882762271372 -31.978562488307944 0 0 0 0 -1.1763040252571955 -100.52772504248969 0 -100.52772504248969 -9.4607330670114607 0 0 0 0 -1.7109831314769082 -3.3219380301718004 0 -3.3219380301718004 3.6877386290221921 0 0 0 0 275.80317376699531 -476.74318114559719 0 -476.74318114559719 718.08604126468708 0 0 0 0 -3.0465706007620383 -11.563232281487387 0 -11.563232281487387 2.728674352379528 0 0 0 0 196.81450726073308 -175.53985554073006 0 -175.53985554073006 -250.29013505892362 0 0 0 0 -41.425690640477114 -47.627863402773073 0 -47.627863402773073 -15.16818420443451 0 0 0 0 -60.51681443383859 -77.832284688458458 0 -77.832284688458458 40.318965890153777 0 0 0 0 770.68409556397819 -334.93688793464389 0 -334.93688793464389 138.8153251587355 0 0 0 0 -20.550940423090822 -33.585639939347445 0 -33.585639939347445 -32.802377085573085 0 0 0 0 115.02214756803005 -62.980185754422564 0 -62.980185754422564 -88.089353422867134 0 0 0 0 2.7108230235194242 -31.509638321658272 0 -31.509638321658272 -77.476391794445419 0 0 0 0 838.21301229430537 -294.24823513634328 0 -294.24823513634328 109.5883477521129 0 0 0 0 775.40716565491311 -314.87739933776902 0 -314.87739933776902 171.52610628897673 0 0 0 0 -3.1335557536634298 -8.4112409522752785 0 -8.4112409522752785 0.043097894812149207 0 0 0 0 541.92021509387996 -395.07722847439436 0 -395.07722847439436 144.42176196764194 0 0 0 0 -494.17759533351636 -281.7808419396024 0 -281.7808419396024 124.93985293075093 0 0 0 0 -200.70465017976676 -455.10165288888675 0 -455.10165288888675 -11.350298399745952 0 0 0 0 -2274.6213590958141 -818.77779771198402 0 -818.77779771198402 -190.31547703364049 0 0 0 0 -1594.7750125406164 -323.45110050695075 0 -323.45110050695075 170.56297278807324 0 0 0 0 -2.0211399836980988 -4.2018226857783603 0 -4.2018226857783603 -0.69669591862259495 0 0 0 0 -1364.0636599719583 -1329.8768559658711 0 -1329.8768559658711 -1246.5611267437343 0 0 0 0 -13.069804360050881 0.60446905689150299 0 0.60446905689150299 0.25597504371594937 0 0 0 0 -1750.0701566997486 -1612.4746589651768 0 -1612.4746589651768 -1094.1587488372461 0 0 0 0 1119.5627831093407 -728.97307260058733 0 -728.97307260058733 -143.89880973217078 0 0 0 0 -190.44272234488744 -1359.3497497697826 0 -1359.3497497697826 -437.9143763664033 0 0 0 0 -2248.9543696789187 -1328.8964559474844 0 -1328.8964559474844 -383.82378879599855 0 0 0 0 -32.072610852734812 -164.83575651602501 0 -164.83575651602501 -68.035467476428181 0 0 0 0 -982.1078319598746 -603.45647194642515 0 -603.45647194642515 613.94917204824742 0 0 0 0 -310.44728093830054 -26.990853870738647 0 -26.990853870738647 662.93766576093185 0 0 0 0 549.17856263875728 -479.04196603765013 0 -479.04196603765013 -822.63430899343803 0 0 0 0 158.08534075043281 -167.88714769150829 0 -167.88714769150829 -317.85169905412477 0 0 0 0 -15.928386152700497 -75.010451859272592 0 -75.010451859272592 -53.692753413603043 0 0 0 0 549.21417554748405 -394.34590357430716 0 -394.34590357430716 -1270.3525671600946 0 0 0 0 18.433841994327054 -3.1179708113558746 0 -3.1179708113558746 -14.148580550340284 0 0 0 0 826.48698054908709 -823.86612429608795 0 -823.86612429608795 131.24368787856656 0 0 0 0 -36.092267483880278 -506.47267123874917 0 -506.47267123874917 -764.22352801964735 0 0 0 0 835.51114617384155 -758.68787461239845 0 -758.68787461239845 -1060.5936395200551 0 0 0 0 820.18014382864931 -331.93610862879723 0 -331.93610862879723 36.673017518827692 0 0 0 0 110.60488104572869 -322.78481612434553 0 -322.78481612434553 -85.261072679015342 0 0 0 0 0.28872794887865894 -237.57966205765842 0 -237.57966205765842 -270.68288373752148 0 0 0 0 139.78934006389136 -81.574000979823722 0 -81.574000979823722 -167.16761619626777 0 0 0 0 36.99951958844099 -133.68184714637323 0 -133.68184714637323 -59.442452039440155 0 0 0 0 206.88540599221596 -102.97210748470388 0 -102.97210748470388 -231.69741004679236 0 0 0 0 13.458224532738058 -15.967216662278531 0 -15.967216662278531 -56.531567400127301 0 0 0 0 19.036890654126182 -221.67784449295141 0 -221.67784449295141 -69.427342795534059 0 0 0 0 66.327923681164975 -126.0684257329267 0 -126.0684257329267 -334.59819347982557 0 0 0 0 9.0502466467733029 -120.45986404721043 0 -120.45986404721043 -39.154543567281507 0 0 0 0 -9.5899333359332104 -82.584863224070261 0 -82.584863224070261 -9.9858553313054017 0 0 0 0 43.018451695902172 -103.82086823898848 0 -103.82086823898848 24.852542447147101 0 0 0 0 -17.735563784983242 -150.31562145960197 0 -150.31562145960197 -206.26415750833985 0 0 0 0 -73.753007062259712 -22.496505180504755 0 -22.496505180504755 -11.213691074459348 0 0 0 0 -102.22366945226531 35.961215504990832 0 35.961215504990832 -127.85099800588796 0 0 0 0 -55.137162817005787 -1.0414676340685673 0 -1.0414676340685673 -1.4219893766243672 0 0 0 0 -14.274134860958057 -23.097085905595371 0 -23.097085905595371 -15.256228678775415 0 0 0 0 -15.94564235064172 -45.348978179186815 0 -45.348978179186815 -25.197383421007544 0 0 0 0 11.06459335260115 -49.553752067498863 0 -49.553752067498863 -59.979406974336598 0 0 0 0 -100.83087673040791 -117.95900226854428 0 -117.95900226854428 -109.66126042389078 0 0 0 0 -81.715432393044466 -60.537031427098555 0 -60.537031427098555 56.770849136988545 0 0 0 0 -902.20898848326033 243.03362844703952 0 243.03362844703952 135.51696047207224 0 0 0 0 -1233.6012923991402 -683.89404663756432 0 -683.89404663756432 42.809869810153032 0 0 0 0 -965.57105890126695 -625.89685313492373 0 -625.89685313492373 -16.451080286526121 0 0 0 0 -993.75484823786246 -554.16575368415215 0 -554.16575368415215 84.647455090569565 0 0 0 0 -453.71825395007181 -389.39081303615967 0 -389.39081303615967 -129.08686619785294 0 0 0 0 -599.45441790559562 -790.81628690747311 0 -790.81628690747311 -866.81569253909402 0 0 0 0 -515.8906372551719 -320.78829041671997 0 -320.78829041671997 -166.00491705452441 0 0 0 0 -30.975016710029308 7.2161811880064874 0 7.2161811880064874 -0.24645974856511543 0 0 0 0 -80.919461826633778 -65.609128589574539 0 -65.609128589574539 206.45807674952084 0 0 0 0 -91.310669707017951 -76.14053203977528 0 -76.14053203977528 264.30849702138221 0 0 0 0 -188.82130441159825 190.47899982123636 0 190.47899982123636 747.58922933309805 0 0 0 0 44.690718210316845 85.877150248103135 0 85.877150248103135 391.16446965449722 0 0 0 0 -131.25862698537821 -159.20385437273944 0 -159.20385437273944 322.75907560074847 0 0 0 0 -141.81252554102684 -121.75243145362219 0 -121.75243145362219 284.76965054236643 0 0 0 0 -184.00998249698023 -251.5474690337287 0 -251.5474690337287 221.30736222168616 0 0 0 0 -75.061150110705057 -59.347384707649326 0 -59.347384707649326 10.521051131887361 0 0 0 0 -28.848534943920164 -84.134673762471451 0 -84.134673762471451 -40.165569008789703 0 0 0 0 -128.71097836829722 -70.251236692703969 0 -70.251236692703969 22.109028486600437 0 0 0 0 -25.00295693451335 -207.83581108484941 0 -207.83581108484941 40.708582579909489 0 0 0 0 -23.012669485673996 -184.7023940000895 0 -184.7023940000895 -83.917473133330674 0 0 0 0 -64.903611501526029 -217.9151775209466 0 -217.9151775209466 145.09597038608626 0 0 0 0 -83.154123396157956 -209.22283907220117 0 -209.22283907220117 -246.61008387139009 0 0 0 0 -75.266474887321237 -180.19606662484148 0 -180.19606662484148 -165.42143953598134 0 0 0 0 -35.819477648740815 -155.97473196466683 0 -155.97473196466683 -63.233463262029034 0 0 0 0 -76.188175047453115 -266.40380410910075 0 -266.40380410910075 128.33901238345425 0 0 0 0 -160.6654038767374 -144.5669561777031 0 -144.5669561777031 -164.52641152644537 0 0 0 0 -187.45374606803671 -201.25979827126139 0 -201.25979827126139 -158.49919099942781 0 0 0 0 -33.027721431905263 -162.71260168710995 0 -162.71260168710995 -66.635461355313709 0 0 0 0 -185.81479225126532 -208.18124456301666 0 -208.18124456301666 -144.55299170609942 0 0 0 0 -168.08473126900208 -209.43945338942649 0 -209.43945338942649 -159.91524450309953 0 0 0 0 -142.84676249383483 -191.75581236240214 0 -191.75581236240214 -136.74446070765407 0 0 0 0 -120.92385674682737 -205.91729021391438 0 -205.91729021391438 -145.1464923065214 0 0 0 0 -143.5402124600223 -199.40364758982469 0 -199.40364758982469 -143.67912313429042 0 0 0 0 -137.52653046989872 -192.02626286592204 0 -192.02626286592204 -136.75482156372141 0 0 0 0 -119.39876042747346 -179.80290870102181 0 -179.80290870102181 -130.46368432167583 0 0 0 0 -82.445353950417484 -165.96476524477839 0 -165.96476524477839 -124.65313563647942 0 0 0 0 -126.39774811268217 -181.64926361397011 0 -181.64926361397011 -164.04491092407261 0 0 0 0 -106.30080903341877 -203.28982661112968 0 -203.28982661112968 -140.78971509563053 0 0 0 0 -8.4261562876636162 -263.68133111427596 0 -263.68133111427596 -101.43120203295257 0 0 0 0 -15.916246614952485 -67.330804010571143 0 -67.330804010571143 -46.086688589244233 0 0 0 0 96.625507607473992 -314.72356494973428 0 -314.72356494973428 -113.74691151224579 0 0 0 0 76.12046295197797 -268.88601972956531 0 -268.88601972956531 -206.34475841459061 0 0 0 0 38.164926040190039 -206.38585015615172 0 -206.38585015615172 -87.493577579400153 0 0 0 0 -258.81726671273873 -213.06930287132968 0 -213.06930287132968 -143.75052941238391 0 0 0 0 -136.51633970969124 -307.48603306859877 0 -307.48603306859877 -76.193637849384686 0 0 0 0 -268.7578223603341 -396.46648579301473 0 -396.46648579301473 -119.82991802638571 0 0 0 0 -60.782080546319776 -395.83148500016614 0 -395.83148500016614 -292.91856437534443 0 0 0 0 -448.69028136902125 -419.90496143344899 0 -419.90496143344899 3.2007776666941936 0 0 0 0 98.691020919082803 -158.21324018594169 0 -158.21324018594169 -267.6377613645891 0 0 0 0 -24.755286566308826 -66.706124886058603 0 -66.706124886058603 54.755931248259969 0 0 0 0 -213.62868587886624 -220.55363288708395 0 -220.55363288708395 -156.50492815749021 0 0 0 0 -206.4321720382286 -227.67063182780112 0 -227.67063182780112 -182.6251082647359 0 0 0 0 -212.97362260932277 -247.31210416972317 0 -247.31210416972317 -118.33559780159339 0 0 0 0 -181.70261110634601 -206.44323887906648 0 -206.44323887906648 -155.15451880217006 0 0 0 0 -46.567050443147309 -222.51303651343551 0 -222.51303651343551 -161.24335464109208 0 0 0 0 -156.25630120795904 -245.19257616514005 0 -245.19257616514005 -165.87827296087198 0 0 0 0 -35.79939510645724 -48.864026375393465 0 -48.864026375393465 -62.939234048981035 0 0 0 0 39.777091181149444 -506.41718541721639 0 -506.41718541721639 75.681529475528805 0 0 0 0 -137.85790299961809 -277.40613268102607 0 -277.40613268102607 -135.26557837919609 0 0 0 0 -61.81557247712044 -387.25511933428788 0 -387.25511933428788 -93.320405602026767 0 0 0 0 9.8617787475232035 -343.60218578734566 0 -343.60218578734566 -54.276604011556628 0 0 0 0 -38.181467342440214 -46.358705576362524 0 -46.358705576362524 -65.430550446942405 0 0 0 0 53.620203633778146 -514.0830505625172 0 -514.0830505625172 17.693765125117352 0 0 0 0 -94.67343913136574 -486.65788840021742 0 -486.65788840021742 161.26936306549396 0 0 0 0 -94.085173090929175 -505.2464801356989 0 -505.2464801356989 325.90110404991719 0 0 0 0 -148.25883904856164 -391.78701992618517 0 -391.78701992618517 163.67520737053474 0 0 0 0 -94.615368760089041 -313.81740176174208 0 -313.81740176174208 172.52697297614941 0 0 0 0 8.0117048352949496 -342.14339946498148 0 -342.14339946498148 -34.030748633093026 0 0 0 0 -247.84249025821919 -757.33501660748152 0 -757.33501660748152 352.78200593643123 0 0 0 0 -131.24688716231321 -712.97947598433348 0 -712.97947598433348 329.89517652275754 0 0 0 0 -221.3829356906499 -561.12534649188456 0 -561.12534649188456 304.69031586597339 0 0 0 0 -120.9142445833786 -628.88391399198554 0 -628.88391399198554 321.66835503214679 0 0 0 0 4.6517603197717108 -590.45785303815865 0 -590.45785303815865 219.35490385216144 0 0 0 0 26.889422765438212 -800.97907020441471 0 -800.97907020441471 277.51269295426391 0 0 0 0 98.906995992641896 -689.22490452302554 0 -689.22490452302554 170.40919410603419 0 0 0 0 43.010274362128257 -651.19618955626265 0 -651.19618955626265 189.31975160692673 0 0 0 0 272.08978089660377 -516.56840487724003 0 -516.56840487724003 70.448604896308098 0 0 0 0 -34.124244436224558 -47.496877554354924 0 -47.496877554354924 -66.232201981726405 0 0 0 0 270.84273802093958 -486.30460083225125 0 -486.30460083225125 -80.733543581383856 0 0 0 0 656.05657047141722 -734.36500905679441 0 -734.36500905679441 -76.427367191037774 0 0 0 0 789.85483709222171 -376.55394172723027 0 -376.55394172723027 162.98751710507713 0 0 0 0 147.37002740720345 -552.89689451981758 0 -552.89689451981758 614.17070676422099 0 0 0 0 309.18266524441424 -911.41644928838923 0 -911.41644928838923 388.96821632080173 0 0 0 0 -140.36941780429333 -821.58845568358447 0 -821.58845568358447 314.10993732231327 0 0 0 0 91.679033167696616 -742.92812398254591 0 -742.92812398254591 119.84767231313526 0 0 0 0 -62.717695300729247 -662.87223251409705 0 -662.87223251409705 241.04764963974594 0 0 0 0 -114.77250773673586 -789.16000200020699 0 -789.16000200020699 -47.09635020818132 0 0 0 0 -215.29310775785416 -728.26477158962916 0 -728.26477158962916 325.51955522275239 0 0 0 0 -91.94423844418634 -169.50881667370777 0 -169.50881667370777 -213.83661462426244 0 0 0 0 -88.680614366472582 -189.70966921404033 0 -189.70966921404033 -211.20526393871842 0 0 0 0 -49.817612189304782 -143.15612478995536 0 -143.15612478995536 -156.39320481132017 0 0 0 0 -68.991508824066841 -205.99532398310112 0 -205.99532398310112 -159.21265541928733 0 0 0 0 -127.8407394062524 -192.827417401606 0 -192.827417401606 -146.64002348195936 0 0 0 0 -164.85081128883758 -200.04530227626674 0 -200.04530227626674 -148.01595435087256 0 0 0 0 -92.569206855987431 -213.46891146049529 0 -213.46891146049529 -148.45552572239376 0 0 0 0 -130.27272328820254 -176.22752748313724 0 -176.22752748313724 -180.81594154162303 0 0 0 0 -173.40600301299128 -207.187206037539 0 -207.187206037539 -181.42017669247321 0 0 0 0 -137.34599281564078 -263.19116929838947 0 -263.19116929838947 -347.79738760062901 0 0 0 0 6.6114973655188578 -9.7484973177872689 0 -9.7484973177872689 -8.0751762415600261 0 0 0 0 -33.791173793100484 -53.14615457005312 0 -53.14615457005312 -57.340147181254224 0 0 0 0 378.36324940870327 -228.65135063501884 0 -228.65135063501884 -452.42084551920198 0 0 0 0 223.05166456074221 -762.96607783009313 0 -762.96607783009313 1213.7304174550018 0 0 0 0 824.90852508487296 -918.25949431157551 0 -918.25949431157551 490.18077019028715 0 0 0 0 35.694110189739149 -272.69451056483376 0 -272.69451056483376 1424.6080968497881 0 0 0 0 180.46375021943823 -589.04791160336754 0 -589.04791160336754 612.9935965194561 0 0 0 0 -2.0538754934241297 -91.612453610217926 0 -91.612453610217926 581.06252466970909 0 0 0 0 -7.7178846596098367 -6.3364165298500694 0 -6.3364165298500694 15.153177172969293 0 0 0 0 -20.778162243557745 -304.91609110445461 0 -304.91609110445461 292.73423158899004 0 0 0 0 -26.523057338679905 -50.4101550834732 0 -50.4101550834732 19.349184711866165 0 0 0 0 -81.737664021929959 -72.11701728929711 0 -72.11701728929711 181.98001288251544 0 0 0 0 -81.53755638475559 -34.553612109773894 0 -34.553612109773894 58.143376881296717 0 0 0 0 -60.929279823358229 -95.985799503720955 0 -95.985799503720955 -9.3005407808341261 0 0 0 0 -4.8431473505625036 -133.039065270008 0 -133.039065270008 -71.850681797808647 0 0 0 0 -12.612184589428523 -44.312600893350123 0 -44.312600893350123 29.483687761743603 0 0 0 0 -21.882957142377563 -198.7968430222445 0 -198.7968430222445 50.300571741539898 0 0 0 0 -59.215685737653985 -202.8087703589481 0 -202.8087703589481 96.293949617727776 0 0 0 0 -2.1643527376581915 -217.54241191398251 0 -217.54241191398251 30.137577695779328 0 0 0 0 -92.460017713732668 -116.7141521185149 0 -116.7141521185149 -20.731365388517588 0 0 0 0 -8.1261271736257186 -178.56864296614367 0 -178.56864296614367 -14.896668763234629 0 0 0 0 -42.430156004008467 -122.15284233372073 0 -122.15284233372073 -40.173031525869789 0 0 0 0 -153.96770583038597 -129.19284167763453 0 -129.19284167763453 -20.2046087598128 0 0 0 0 -77.547335505754745 -147.20269340927189 0 -147.20269340927189 -139.39542611553406 0 0 0 0 -41.858868596158572 -184.21447120121593 0 -184.21447120121593 -102.17546651932571 0 0 0 0 -24.847207106509529 -83.417403932725065 0 -83.417403932725065 21.545573934268688 0 0 0 0 -16.752393403512542 -168.21333645207778 0 -168.21333645207778 3.0425423957349267 0 0 0 0 -35.888579635083673 -95.2567839703255 0 -95.2567839703255 24.10705653710113 0 0 0 0 -49.16532432400912 -137.31156249074897 0 -137.31156249074897 -49.032505372807719 0 0 0 0 -71.271438458687044 -204.67937484795038 0 -204.67937484795038 -217.29066333973606 0 0 0 0 -146.07860732318295 -164.61881765001181 0 -164.61881765001181 -145.36215283797355 0 0 0 0 -38.72056044889905 -161.20009596792443 0 -161.20009596792443 -130.60181772106444 0 0 0 0 59.725601788482891 -189.28309662128322 0 -189.28309662128322 -156.08277149051719 0 0 0 0 114.14188189536799 -14.421123605643515 0 -14.421123605643515 55.75503455728176 0 0 0 0 -6.9696231009851495 -23.794674015931697 0 -23.794674015931697 11.748635852256996 0 0 0 0 -141.75107413771366 -169.01000579512402 0 -169.01000579512402 -70.976044459181139 0 0 0 0 45.825882125041971 15.446500750964333 0 15.446500750964333 318.75133913132595 0 0 0 0 -34.055337742727716 -311.09391609007434 0 -311.09391609007434 412.18958222435322 0 0 0 0 -7.3744349813932786 -373.99283986561932 0 -373.99283986561932 46.427615886562307 0 0 0 0 -67.797773768725165 -251.10991441954684 0 -251.10991441954684 -30.636513934521645 0 0 0 0 -135.23170818882136 -293.90749802819482 0 -293.90749802819482 22.631721393438056 0 0 0 0 -72.227952228437061 -194.15132467304647 0 -194.15132467304647 -95.151659777708119 0 0 0 0 -76.711262240030919 -219.79544000919122 0 -219.79544000919122 -127.05595005737996 0 0 0 0 -87.001503834304458 -180.61684429516026 0 -180.61684429516026 -97.464077851487673 0 0 0 0 -18.080148400893449 -162.43266320759722 0 -162.43266320759722 -17.357146519236267 0 0 0 0 -4.1835158172494715 -59.282658948172326 0 -59.282658948172326 21.245675153897196 0 0 0 0 61.089009263632761 -105.43142939522659 0 -105.43142939522659 -110.20688484185666 0 0 0 0 -1.9828233513522164 -39.834302733767295 0 -39.834302733767295 -79.495936471456929 0 0 0 0 73.677698440480526 -127.91799891079336 0 -127.91799891079336 -73.296825391778839 0 0 0 0 52.641179664075025 -57.464773174899165 0 -57.464773174899165 -123.65478676793282 0 0 0 0 81.762124329310609 -117.75543195363935 0 -117.75543195363935 -65.794649931041931 0 0 0 0 15.89020470164397 -1.7262109430215542 0 -1.7262109430215542 -58.731352249830778 0 0 0 0 -7.9958976865582372 -176.99954523512042 0 -176.99954523512042 -24.248377041163621 0 0 0 0 82.845221568048146 -218.7311585761563 0 -218.7311585761563 -13.373981163425924 0 0 0 0 -55.724666379217524 -50.30339353931231 0 -50.30339353931231 33.176582609744401 0 0 0 0 116.86673169182541 42.882063288874633 0 42.882063288874633 -208.19407656296153 0 0 0 0 212.73368192141061 -112.70839048059861 0 -112.70839048059861 -126.4532731274594 0 0 0 0 9.1289138851507659 -1.221138178440885 0 -1.221138178440885 -9.0989521706950995 0 0 0 0 -223.30457132562697 -107.23002187702878 0 -107.23002187702878 -46.816151971521322 0 0 0 0 -22.203734957255612 -49.269943299784345 0 -49.269943299784345 -64.872464274637153 0 0 0 0 -345.93182225605688 -176.75307158981013 0 -176.75307158981013 -85.256811655457568 0 0 0 0 -324.08722264097469 -186.94335017532649 0 -186.94335017532649 -113.62868431065726 0 0 0 0 -231.73962591736654 -240.28265154471956 0 -240.28265154471956 -82.866522319694923 0 0 0 0 -263.38760939271992 -231.01307981154969 0 -231.01307981154969 -63.375881232961547 0 0 0 0 -4.2155343220601935 -57.883924826150178 0 -57.883924826150178 -6.7550792400870705 0 0 0 0 23.15811194483409 -38.791184686906263 0 -38.791184686906263 -2.0999824929904207 0 0 0 0 -101.00351678569041 -94.504262293321517 0 -94.504262293321517 -79.872591679959442 0 0 0 0 -352.93473468405568 -324.97658602616139 0 -324.97658602616139 90.334019973084651 0 0 0 0 -417.33889915432087 -362.23581676901449 0 -362.23581676901449 -64.357460688430365 0 0 0 0 -349.89155791870758 -525.88611042880802 0 -525.88611042880802 -198.08706662222539 0 0 0 0 -171.60572114700926 -366.80872745031593 0 -366.80872745031593 -67.118022083907817 0 0 0 0 -367.35397026819942 -466.95830679709252 0 -466.95830679709252 91.22907844436304 0 0 0 0 -285.91662646956388 -490.38263035694945 0 -490.38263035694945 -739.25742124485987 0 0 0 0 353.30340493830647 -122.52054057353598 0 -122.52054057353598 -94.58823946179109 0 0 0 0 5.9954423786162572 -1.0914480711003756 0 -1.0914480711003756 -1.384574820117507 0 0 0 0 -10.38730581808602 -106.16918600399458 0 -106.16918600399458 -15.042297779509681 0 0 0 0 57.275061288266443 -332.92534691662877 0 -332.92534691662877 -226.36628830941663 0 0 0 0 65.307567687398887 -142.3038157639221 0 -142.3038157639221 100.42054416716564 0 0 0 0 41.830478843410447 -133.70980810460242 0 -133.70980810460242 24.425605500728125 0 0 0 0 49.44194143417144 -114.22162713691432 0 -114.22162713691432 74.036410241213161 0 0 0 0 37.105379231593609 -52.749335054046881 0 -52.749335054046881 51.051744454564869 0 0 0 0 -78.358974221470362 -199.72228650466423 0 -199.72228650466423 -130.83015036401775 0 0 0 0 -152.42248520808903 -121.9794643872392 0 -121.9794643872392 22.659606027867994 0 0 0 0 -95.045951801560932 -114.47392154575573 0 -114.47392154575573 4.2367411319937673 0 0 0 0 -84.977361273653514 -91.005447102132166 0 -91.005447102132166 57.335223639471224 0 0 0 0 -37.624707221955759 -153.86224487239087 0 -153.86224487239087 21.943375989227206 0 0 0 0 -22.203841366091638 -125.34951345373702 0 -125.34951345373702 102.26802763082378 0 0 0 0 -18.759174850579257 -98.414016221819111 0 -98.414016221819111 31.976235759197152 0 0 0 0 -282.46143260833924 1450.2757311114983 0 1450.2757311114983 67.238300717843231 0 0 0 0 -35.156184683088213 -218.99699368287111 0 -218.99699368287111 769.14694723240973 0 0 0 0 257.1902849633625 232.54574120038887 0 232.54574120038887 -181.89889566348575 0 0 0 0 492.18719746015267 -1277.7534460671159 0 -1277.7534460671159 57.372277667338494 0 0 0 0 819.24596247083537 -798.62818405697908 0 -798.62818405697908 501.11655975405301 0 0 0 0 -94.793178040254134 -72.398110858859582 0 -72.398110858859582 -64.233660724872607 0 0 0 0 18.624355461648321 -9.2267084677997957 0 -9.2267084677997957 -17.204989945912445 0 0 0 0 2265.6265919124126 13.044188909552759 0 13.044188909552759 -480.54658859984193 0 0 0 0 1509.3933464838483 1814.4104109545588 0 1814.4104109545588 -764.54154370725155 0 0 0 0 99.194093210855499 -444.27175069006626 0 -444.27175069006626 387.54159742295451 0 0 0 0 64.261181548115928 -288.41313752199312 0 -288.41313752199312 167.97149430523859 0 0 0 0 99.998781957872779 -424.75921318379005 0 -424.75921318379005 102.27278936526272 0 0 0 0 28.045455926228897 -394.57201896065089 0 -394.57201896065089 138.41289445376606 0 0 0 0 15.532008578768 -302.71144356984587 0 -302.71144356984587 -25.914247620996321 0 0 0 0 -42.636898423923412 -373.10883059764456 0 -373.10883059764456 -71.276566311047645 0 0 0 0 -80.57494249138108 -305.35472182827652 0 -305.35472182827652 -137.06582666918985 0 0 0 0 -194.28691328978675 -53.363902682416665 0 -53.363902682416665 -89.691458890214562 0 0 0 0 -335.37969193176832 -118.67382048537547 0 -118.67382048537547 -84.022293024405371 0 0 0 0 207.70998533672537 -144.15023607113108 0 -144.15023607113108 -71.969399223169603 0 0 0 0 -263.94568502457696 136.05000687621941 0 136.05000687621941 -91.992170091310982 0 0 0 0 793.5551604431239 -72.468003284819133 0 -72.468003284819133 -64.619209970900556 0 0 0 0 6.5432719342829841 -160.49853834203532 0 -160.49853834203532 86.471655510378696 0 0 0 0 5.1491705624730457 -141.49665284998628 0 -141.49665284998628 75.424111859469122 0 0 0 0 31.747000354786177 -76.120305111850939 0 -76.120305111850939 78.228580271160382 0 0 0 0 -914.53335796177998 205.32370178177007 0 205.32370178177007 266.96713376523985 0 0 0 0 -353.85517162257565 -22.34899986775963 0 -22.34899986775963 -5.6917325622926001 0 0 0 0 -350.15731453758099 20.8026743278906 0 20.8026743278906 -59.298679402592825 0 0 0 0 -26.53011888827524 -177.54079147912933 0 -177.54079147912933 -72.509444881868504 0 0 0 0 -204.45628197498445 -667.85770460074127 0 -667.85770460074127 122.23693388592801 0 0 0 0 11.023077400984192 -23.74624528040134 0 -23.74624528040134 4.4383997674913189 0 0 0 0 -455.42531849641819 -22.438894098275341 0 -22.438894098275341 -60.718475491587014 0 0 0 0 190.76115181390924 -78.334158646823198 0 -78.334158646823198 -991.47176080141799 0 0 0 0 47.431930500207017 -92.292280612168014 0 -92.292280612168014 -101.11204783087513 0 0 0 0 31.850654946360009 9.4916377846166142 0 9.4916377846166142 -266.3710562686756 0 0 0 0 48.50024676877365 -1182.1683183161076 0 -1182.1683183161076 -879.27656838069106 0 0 0 0 -247.08140751216069 628.86599677764661 0 628.86599677764661 -905.26222843023425 0 0 0 0 -535.7797255651235 -495.64428955639551 0 -495.64428955639551 -216.36081044271123 0 0 0 0 -84.788286012182652 -587.60387314448599 0 -587.60387314448599 -633.60200566469575 0 0 0 0 -560.59155023893982 -116.28254850296071 0 -116.28254850296071 -52.699692004425742 0 0 0 0 112.16596639445197 -155.33619081858706 0 -155.33619081858706 176.2720119138703 0 0 0 0 7.6877682761090504 -92.592052248547631 0 -92.592052248547631 113.04450518833531 0 0 0 0 24.672314553386968 -147.29817512212685 0 -147.29817512212685 42.597558155706793 0 0 0 0 35.010465934830883 -47.536573613090383 0 -47.536573613090383 -31.120614547377926 0 0 0 0 15.538122607580192 -139.66163716319716 0 -139.66163716319716 133.45616001998133 0 0 0 0 86.094902098624857 -176.90150797309616 0 -176.90150797309616 106.86377938185433 0 0 0 0 90.525515516718315 -151.81038226472447 0 -151.81038226472447 65.782009703025324 0 0 0 0 63.106999110685138 -158.95466636386118 0 -158.95466636386118 -29.119487738134922 0 0 0 0 10.332910816397796 -72.588284799413785 0 -72.588284799413785 -61.410711102260535 0 0 0 0 74.487551461913881 -135.08850337164586 0 -135.08850337164586 -48.538178209229955 0 0 0 0 129.53487413824769 -292.29158582439413 0 -292.29158582439413 -31.86157145955076 0 0 0 0 60.025157461517665 -129.28771165448416 0 -129.28771165448416 -50.756096448210883 0 0 0 0 24.723482874832914 -142.27803224875612 0 -142.27803224875612 -47.271740010520944 0 0 0 0 34.459651630249368 -148.55661485886958 0 -148.55661485886958 -32.75802502802253 0 0 0 0 -167.93163228771687 -437.468551047451 0 -437.468551047451 102.57568641571561 0 0 0 0 57.105504165274397 -319.8506201159762 0 -319.8506201159762 -33.917558936038404 0 0 0 0 -656.35975006547051 56.306386782045593 0 56.306386782045593 295.78148885897826 0 0 0 0 17.084228144873535 -70.303843451088127 0 -70.303843451088127 -5.9776756758890315 0 0 0 0 -13.042034071178932 -342.25390676766983 0 -342.25390676766983 -43.913111860660138 0 0 0 0 156.21570402224097 -258.23253503299202 0 -258.23253503299202 254.01959716774581 0 0 0 0 39.067493387328128 -77.70853193403201 0 -77.70853193403201 -72.668744914277227 0 0 0 0 -76.726940286858735 -267.26400985774853 0 -267.26400985774853 482.94742780021625 0 0 0 0 -28.033368830219842 -499.4642283176363 0 -499.4642283176363 139.93035623859032 0 0 0 0 151.88068113658983 -533.25501701941539 0 -533.25501701941539 1001.7771669940848 0 0 0 0 51.754022394928143 -56.107208606234053 0 -56.107208606234053 543.09447144565638 0 0 0 0 -1.3337913519465849 15.054371106085505 0 15.054371106085505 2.7650612494667257 0 0 0 0 -343.40612525194683 -421.1689139940936 0 -421.1689139940936 988.89428918185877 0 0 0 0 537.07536827147305 -723.68608308990952 0 -723.68608308990952 780.87783731607487 0 0 0 0 -210.80482165986177 -427.95285354394582 0 -427.95285354394582 625.48797388085222 0 0 0 0 -237.57956274869684 -527.27144462025171 0 -527.27144462025171 122.85833882170846 0 0 0 0 114.28923662138914 -179.46546619717265 0 -179.46546619717265 -34.395642250456149 0 0 0 0 34.993027916139908 -588.8040153637121 0 -588.8040153637121 1186.2275369863492 0 0 0 0 296.29335851549513 -132.56393456608203 0 -132.56393456608203 764.74159642297309 0 0 0 0 -203.39574358330719 -805.16914071881911 0 -805.16914071881911 513.95594335207716 0 0 0 0 -138.61877241062757 -181.40148176949879 0 -181.40148176949879 650.08292016579071 0 0 0 0 -22.962045160738384 -169.10854394662499 0 -169.10854394662499 -69.686270614051892 0 0 0 0 147.60524353034998 -52.661441390930122 0 -52.661441390930122 109.51848952693399 0 0 0 0 -158.30979105913866 -174.98437732899038 0 -174.98437732899038 295.54004994038405 0 0 0 0 -12.944480698704041 -160.61238086137749 0 -160.61238086137749 -66.444844266572673 0 0 0 0 17.849640005446417 -243.19700606758124 0 -243.19700606758124 82.764448682519287 0 0 0 0 -172.2286123294798 -310.49579465758143 0 -310.49579465758143 160.09976261731936 0 0 0 0 48.012247154834768 -401.72723226892413 0 -401.72723226892413 183.82689504534937 0 0 0 0 51.770787577323063 -374.33822838884225 0 -374.33822838884225 -183.56587306658548 0 0 0 0 98.650670635021015 -314.74558934156812 0 -314.74558934156812 -116.38968794354878 0 0 0 0 -38.306826842196458 -128.30455921471008 0 -128.30455921471008 -42.702867545853792 0 0 0 0 -48.861552856318191 -163.25328865348581 0 -163.25328865348581 -39.058998037502704 0 0 0 0 -149.09509332363086 -226.44341065423941 0 -226.44341065423941 -147.58823343337281 0 0 0 0 54.440075544556748 -265.71493691038631 0 -265.71493691038631 92.892454939817981 0 0 0 0 14.327323223973877 -188.24793605837937 0 -188.24793605837937 -80.756324610135721 0 0 0 0 51.596447160034586 -193.72472479665885 0 -193.72472479665885 -57.800255941096111 0 0 0 0 -0.74184487384627573 -164.06817313690408 0 -164.06817313690408 -65.705350720156275 0 0 0 0 -41.285510173185621 -109.64700149507043 0 -109.64700149507043 -59.972233452466128 0 0 0 0 -24.967291755441693 -185.25996605703767 0 -185.25996605703767 -148.41909182753989 0 0 0 0 -28.658682768447761 -205.72630630606363 0 -205.72630630606363 -104.82257486596063 0 0 0 0 0.62978451333401608 -200.63633705685788 0 -200.63633705685788 -150.7625525912872 0 0 0 0 -35.822951720156198 -245.41472296346546 0 -245.41472296346546 -131.2966021571483 0 0 0 0 2.2234002299628628 -287.86866559954797 0 -287.86866559954797 -96.842026909707783 0 0 0 0 -7.5377118178948876 -421.55539186604437 0 -421.55539186604437 2.8512391336207656 0 0 0 0 13.440111410913232 -376.64429702804046 0 -376.64429702804046 -71.390013140349765 0 0 0 0 -35.285833614125295 -432.89549820020511 0 -432.89549820020511 102.94199884310365 0 0 0 0 -85.51166402967749 -490.8808966927711 0 -490.8808966927711 -141.53306844926556 0 0 0 0 -20.696510687754198 -340.45257431698701 0 -340.45257431698701 -144.0311956039659 0 0 0 0 58.37896371543502 -348.80640844717891 0 -348.80640844717891 -168.4318394883594 0 0 0 0 91.481507345884893 -177.78983331795826 0 -177.78983331795826 -304.64391578013601 0 0 0 0 78.831950077990768 -358.79593409223889 0 -358.79593409223889 -328.43527991173323 0 0 0 0 55.204581079764466 -164.40315801338147 0 -164.40315801338147 -24.316067610721802 0 0 0 0 55.628789181506363 -233.37967045913138 0 -233.37967045913138 -140.32481958117569 0 0 0 0 21.168208500719629 -127.44142015322723 0 -127.44142015322723 -4.4484024959529052 0 0 0 0 -11.383460392506095 -218.1537833425682 0 -218.1537833425682 -241.90196095217334 0 0 0 0 -119.79319534514798 -66.001959551591426 0 -66.001959551591426 -147.99436541298928 0 0 0 0 0.043830658556544222 -102.94453402866202 0 -102.94453402866202 -297.69915472020512 0 0 0 0 -107.514775548334 -150.75085205660434 0 -150.75085205660434 3.2040125425555743 0 0 0 0 -1.7974809424464411 -7.1717974475880055 0 -7.1717974475880055 7.3057498959908003 0 0 0 0 52.940525581405382 -50.879676882876083 0 -50.879676882876083 -25.959168588204193 0 0 0 0 27.310026159975678 27.279594187653856 0 27.279594187653856 -254.53688173823639 0 0 0 0 -129.15930466889404 -29.921061841239862 0 -29.921061841239862 18.608133944042493 0 0 0 0 112.73661973257549 -64.315708571048162 0 -64.315708571048162 -182.16278923788923 0 0 0 0 131.30191886068496 -139.1169591580765 0 -139.1169591580765 -30.845528849662514 0 0 0 0 41.116416443758112 -40.613850386764483 0 -40.613850386764483 -3.7335344984122827 0 0 0 0 15.840360040128871 -159.34527179500219 0 -159.34527179500219 52.213865900106612 0 0 0 0 -53.195439057476591 -79.534711116295881 0 -79.534711116295881 -25.700067293412758 0 0 0 0 -279.35828772792593 312.90306114390842 0 312.90306114390842 615.29834196445881 0 0 0 0 284.1350016600627 81.313462480495218 0 81.313462480495218 -132.34443710724008 0 0 0 0 -11.488946122204595 -5.7929536548895442 0 -5.7929536548895442 -5.2369800721551201 0 0 0 0 110.14054135268816 -246.30873095577044 0 -246.30873095577044 -72.253569265056285 0 0 0 0 -58.712148148725561 -76.716488300374536 0 -76.716488300374536 -42.35848546335194 0 0 0 0 572.65336547335028 -563.2011985033605 0 -563.2011985033605 -679.08039560228644 0 0 0 0 90.111216217126639 -315.1666514104254 0 -315.1666514104254 1141.5458235380065 0 0 0 0 -125.68176292272983 -362.30610811975203 0 -362.30610811975203 1695.3900334452919 0 0 0 0 296.41173671093384 -1887.8994526895576 0 -1887.8994526895576 -398.2362613628793 0 0 0 0 8.2833043357984479 2.56381752805828 0 2.56381752805828 -0.53039776003183192 0 0 0 0 -125.27299668698106 -177.14926877483958 0 -177.14926877483958 -247.31777699280792 0 0 0 0 -11.603302141360473 7.3593048815382645 0 7.3593048815382645 0.87655074478243478 0 0 0 0 -683.22819979759515 -1105.2944064653129 0 -1105.2944064653129 -588.86483594821766 0 0 0 0 -812.30469097691093 -178.05790139568762 0 -178.05790139568762 70.518383664952125 0 0 0 0 -11.19566752124183 -7.1395454687733775 0 -7.1395454687733775 -5.2952865010545906 0 0 0 0 -4.8786842817207798 704.969518517697 0 704.969518517697 -1210.5083390573382 0 0 0 0 207.75637973153789 -792.14241602033508 0 -792.14241602033508 52.627636712393723 0 0 0 0 -190.82921772130067 -519.01087193723652 0 -519.01087193723652 95.486807657507597 0 0 0 0 852.98754223345895 -86.318656580377137 0 -86.318656580377137 -716.74354274012148 0 0 0 0 -7.5596923347620759 -162.46397981701739 0 -162.46397981701739 -39.319006523030112 0 0 0 0 14.241596986204968 -161.37499585488695 0 -161.37499585488695 -39.270895885034406 0 0 0 0 -0.09460257830505725 -177.11730920364062 0 -177.11730920364062 -79.237612311739213 0 0 0 0 0.0029916020866949111 -172.31400735161878 0 -172.31400735161878 6.8235030819487292 0 0 0 0 -49.511461417813308 -78.962167620149188 0 -78.962167620149188 -42.108461322414655 0 0 0 0 787.84237020440924 -83.944532854846329 0 -83.944532854846329 -445.23403008826426 0 0 0 0 284.26110282819718 -348.02701428020373 0 -348.02701428020373 117.39459036582411 0 0 0 0 -3.1441745385004083 -39.666270365042237 0 -39.666270365042237 -64.59659309509334 0 0 0 0 163.22064468963072 -254.67190479784767 0 -254.67190479784767 243.53471020897268 0 0 0 0 1.9433694070903584 -375.51583561126608 0 -375.51583561126608 -336.9136637277843 0 0 0 0 46.975952383538242 -56.661646324108006 0 -56.661646324108006 -131.08790540743939 0 0 0 0 1.3483255296283687 -5.684516707074124 0 -5.684516707074124 -12.366237556910448 0 0 0 0 -0.3500265375341769 -6.9859458588024381 0 -6.9859458588024381 -1.7859514506342862 0 0 0 0 477.89394947460096 -359.55093391847913 0 -359.55093391847913 5.0609348917205352 0 0 0 0 -79.763119861672749 -86.121529689204181 0 -86.121529689204181 -20.667050749296322 0 0 0 0 -8.6413903022639147 -18.729388210434195 0 -18.729388210434195 -39.090245757638797 0 0 0 0 -5.5111056882963894 -265.93342894524727 0 -265.93342894524727 -242.49392179492861 0 0 0 0 490.95893470862939 -412.58044399828213 0 -412.58044399828213 126.70273467496736 0 0 0 0 556.36523717110686 -523.54326129745459 0 -523.54326129745459 0.17498285073088482 0 0 0 0 -7.157938179605793 -3.5126645065054163 0 -3.5126645065054163 0.11660412001322129 0 0 0 0 968.04562349422486 -326.26940276936512 0 -326.26940276936512 4.5327409833262209 0 0 0 0 -3.1780946517167195 -7.1874659703294697 0 -7.1874659703294697 -10.044403508010475 0 0 0 0 -17.921159001096385 -67.63155950869259 0 -67.63155950869259 0.050998387991536651 0 0 0 0 -5848.3332686758658 -5302.6961333539366 0 -5302.6961333539366 70.039032935016408 0 0 0 0 345.69398836587789 -598.14477913045266 0 -598.14477913045266 -0.057008376768935456 0 0 0 0 132.36081354226917 -564.59537871267821 0 -564.59537871267821 175.36964612317388 0 0 0 0 445.03558939375216 -491.1531441533225 0 -491.1531441533225 100.22647842139122 0 0 0 0 316.95470487177954 -566.5746703199402 0 -566.5746703199402 241.5110677627672 0 0 0 0 359.95546615534113 -507.08998656370386 0 -507.08998656370386 98.053491316921281 0 0 0 0 333.61296096729529 -485.89179765340123 0 -485.89179765340123 200.45596194826066 0 0 0 0 216.58728387992596 -347.30584718931641 0 -347.30584718931641 790.93681275201379 0 0 0 0 361.26474972299184 -665.281707660135 0 -665.281707660135 388.56626512351795 0 0 0 0 245.39164101799543 -339.29301348530862 0 -339.29301348530862 314.64773107074143 0 0 0 0 223.66121023817686 -343.88568510301411 0 -343.88568510301411 324.23916540719802 0 0 0 0 299.32519250627956 -437.45319873013068 0 -437.45319873013068 375.81944155503879 0 0 0 0 436.51992173751933 253.61601342003269 0 253.61601342003269 313.87370208286302 0 0 0 0 63.394861312575813 -26.766263498867374 0 -26.766263498867374 -24.93739296335994 0 0 0 0 350.52945277956314 -805.0307521345967 0 -805.0307521345967 -1742.606631730072 0 0 0 0 943.69601266403333 802.98039777594386 0 802.98039777594386 -1670.7345980554528 0 0 0 0 135.58775273435458 -761.74164106298122 0 -761.74164106298122 1326.190174726129 0 0 0 0 23.780718191832307 -22.132729270912847 0 -22.132729270912847 -5.5533439340862287 0 0 0 0 -1233.9639450961258 -1468.0015376909068 0 -1468.0015376909068 -1587.4687008186884 0 0 0 0 -724.73906445034663 -203.74613606090134 0 -203.74613606090134 -136.62619867629837 0 0 0 0 444.28679954470135 87.463602371237357 0 87.463602371237357 -1053.4409639957157 0 0 0 0 321.50943832940538 -71.737617078528274 0 -71.737617078528274 -1227.2102944748403 0 0 0 0 8.3531799197536429 -20.52988494846619 0 -20.52988494846619 -6.3376547934650205 0 0 0 0 -281.40195993619272 -1168.939354322938 0 -1168.939354322938 2084.4799333502015 0 0 0 0 -487.07434210367501 -138.33830766797473 0 -138.33830766797473 510.61868134952601 0 0 0 0 296.25228872997104 -201.85925466883054 0 -201.85925466883054 472.57625215922599 0 0 0 0 497.15290262040799 -778.87643012012995 0 -778.87643012012995 627.57046080063446 0 0 0 0 280.73205290504848 -398.18642210698454 0 -398.18642210698454 379.01256418284902 0 0 0 0 112.45635027288517 -588.96314357266237 0 -588.96314357266237 167.34735731715045 0 0 0 0 -977.88399575328367 296.43226655405124 0 296.43226655405124 159.11176652149879 0 0 0 0 167.18227460879643 -342.94739208560713 0 -342.94739208560713 41.080165993975243 0 0 0 0 -534.9787282578618 -703.41772589399625 0 -703.41772589399625 -0.27721856576681603 0 0 0 0 208.39397237167577 -329.36737682998501 0 -329.36737682998501 -0.012968808703590184 0 0 0 0 359.40970773087429 -189.30405069231165 0 -189.30405069231165 128.12551592444652 0 0 0 0 382.66082750457281 -258.10422298422782 0 -258.10422298422782 0.38776198455220817 0 0 0 0 -0.1857286995685854 -2.7051975466019798 0 -2.7051975466019798 -5.4118557783590404 0 0 0 0 -343.23782629024936 -112.52436651271273 0 -112.52436651271273 160.0354281590844 0 0 0 0 262.07040338293882 -446.04820826666401 0 -446.04820826666401 198.32000989827793 0 0 0 0 -7.3703980519071024 -5.6871077673735897 0 -5.6871077673735897 -12.651343095718516 0 0 0 0 -146.05480237695156 -86.446659791647107 0 -86.446659791647107 30.76403439725982 0 0 0 0 114.96685660601361 -71.070311381394276 0 -71.070311381394276 25.628894871319062 0 0 0 0 -9.8859495998070201 -1.8844172830461048 0 -1.8844172830461048 -5.3481100852258123 0 0 0 0 -194.73910466136294 -201.84142677437194 0 -201.84142677437194 73.635739408549853 0 0 0 0 -81.507884061807999 -205.29963965315255 0 -205.29963965315255 73.709324695122632 0 0 0 0 171.68664532620278 465.18286336949313 0 465.18286336949313 1323.7762770008412 0 0 0 0 1.3487311144708656 -6.243410929728185 0 -6.243410929728185 -1.4259697402856659 0 0 0 0 -628.7420341608231 -1480.9062834612705 0 -1480.9062834612705 2976.5412560789555 0 0 0 0 -652.34711954457453 -192.16247192380251 0 -192.16247192380251 896.94163122698228 0 0 0 0 89.198683598153366 -1395.8630464993767 0 -1395.8630464993767 -506.18086501420476 0 0 0 0 10.995451488454023 2.5727670217114564 0 2.5727670217114564 0.8110308832620845 0 0 0 0 90.344327911349296 -126.89884107259147 0 -126.89884107259147 162.93479969841405 0 0 0 0 -542.36578059803287 403.6318567762064 0 403.6318567762064 -272.57571589533472 0 0 0 0 83.216934201889671 -104.20863220715546 0 -104.20863220715546 -402.09722686931491 0 0 0 0 30.068571747018723 -263.43795915611554 0 -263.43795915611554 -270.39458596460463 0 0 0 0 76.06830338590953 -75.936120523143472 0 -75.936120523143472 -76.190925099625019 0 0 0 0 -568.74751898780232 262.28299926772888 0 262.28299926772888 -700.91883865988348 0 0 0 0 710.56773312401492 16.838637153166928 0 16.838637153166928 -717.85033218481112 0 0 0 0 750.83022179207182 -90.07582957673003 0 -90.07582957673003 -2570.5129045612921 0 0 0 0 57.377603547036415 -440.7899916000315 0 -440.7899916000315 -794.23850442483672 0 0 0 0 -293.84192095570324 -174.7006277151886 0 -174.7006277151886 96.713735496508889 0 0 0 0 126.64163078903221 40.429493956966326 0 40.429493956966326 -564.45106103374565 0 0 0 0 -136.34610374621116 340.63369980774587 0 340.63369980774587 -725.84803805456613 0 0 0 0 152.94241030389094 -83.149485789996106 0 -83.149485789996106 -542.83790400599537 0 0 0 0 -16.74225730894608 -28.141173875089933 0 -28.141173875089933 -18.227848114988603 0 0 0 0 39.874469906495506 -132.233805431566 0 -132.233805431566 -74.43569855458918 0 0 0 0 21.284252161552899 -12.230817746111086 0 -12.230817746111086 -12.115998806904059 0 0 0 0 44.625017515412765 -201.35240901760699 0 -201.35240901760699 365.04926756466739 0 0 0 0 139.02165220626921 -203.89784977164527 0 -203.89784977164527 237.1218834259198 0 0 0 0 34.745226534533344 -10.660635480423821 0 -10.660635480423821 -9.7609993654632206 0 0 0 0 141.89694473860436 -86.268679627624806 0 -86.268679627624806 -136.34876529187386 0 0 0 0 40.353970869298792 -146.83006841488532 0 -146.83006841488532 186.60727768462675 0 0 0 0 -34.836921130227495 -39.572331317385334 0 -39.572331317385334 -18.929704148696487 0 0 0 0 75.297802033921471 -210.9656609823287 0 -210.9656609823287 195.63108480695519 0 0 0 0 69.297823939821683 -180.06199939149337 0 -180.06199939149337 140.1855342129129 0 0 0 0 70.350344456401217 -184.97826173316389 0 -184.97826173316389 136.06515626859618 0 0 0 0 105.8545374252426 -216.51291820848564 0 -216.51291820848564 88.54082047866541 0 0 0 0 74.261313289389363 -246.80394419239747 0 -246.80394419239747 227.6710933528957 0 0 0 0 -6.9369894816918531 -130.53739484534162 0 -130.53739484534162 62.292603507041349 0 0 0 0 101.92843728687149 -169.6833813914709 0 -169.6833813914709 88.726624213674768 0 0 0 0 3.4484017176534394 -61.235960432944125 0 -61.235960432944125 11.199861286739754 0 0 0 0 -14.765679542619807 -40.34672564450581 0 -40.34672564450581 8.026841177344636 0 0 0 0 35.014008223443227 -107.82940632311751 0 -107.82940632311751 69.81571110104943 0 0 0 0 3.1089421647762947 -24.069653734416733 0 -24.069653734416733 26.79606899353881 0 0 0 0 97.101667067880044 -228.9865660667565 0 -228.9865660667565 267.7716855169565 0 0 0 0 75.524346725935175 -177.18961491355003 0 -177.18961491355003 138.57462410914013 0 0 0 0 91.976933329453061 -115.92205051832025 0 -115.92205051832025 113.05187380892238 0 0 0 0 53.993037004285725 -166.63424826037954 0 -166.63424826037954 -57.472218921284366 0 0 0 0 78.643512164155254 -181.46686419920297 0 -181.46686419920297 135.3677119212698 0 0 0 0 99.3741848048885 -157.60493403993314 0 -157.60493403993314 68.811038004641887 0 0 0 0 27.774883584439522 -50.272113811544841 0 -50.272113811544841 112.23578420521517 0 0 0 0 39.934246076218642 -94.611604463764337 0 -94.611604463764337 55.353668302929009 0 0 0 0 3.531075177830644 -60.516038075904362 0 -60.516038075904362 27.554780599399237 0 0 0 0 30.869370965513212 -82.563521542970761 0 -82.563521542970761 16.976163320434352 0 0 0 0 39.172733064566273 -381.76334984372079 0 -381.76334984372079 429.5052237392083 0 0 0 0 388.46079864821513 -406.80908304256445 0 -406.80908304256445 -62.301026575856667 0 0 0 0 0.98498220393742031 -1.4974207712946281 0 -1.4974207712946281 -1.22012641048277 0 0 0 0 61.812868629698642 -188.14870503115526 0 -188.14870503115526 -529.77599944161557 0 0 0 0 -584.5048012614352 360.52385460452206 0 360.52385460452206 1068.295181712645 0 0 0 0 -50.545381055708276 -326.78750506893994 0 -326.78750506893994 -287.58115687788813 0 0 0 0 -93.075175459205639 -452.27054885848338 0 -452.27054885848338 462.04998248783522 0 0 0 0 -321.43657567464106 -159.95760465635249 0 -159.95760465635249 148.78521939823986 0 0 0 0 -215.41875064252054 -424.84004101316077 0 -424.84004101316077 219.446218388126 0 0 0 0 35.975347525527468 -305.76006463752128 0 -305.76006463752128 31.119930520602793 0 0 0 0 -12.100604760037868 -58.464397468166183 0 -58.464397468166183 28.89028702832104 0 0 0 0 52.401704689080361 46.639732788738911 0 46.639732788738911 -270.60886436918372 0 0 0 0 24.798057126607716 -38.474212507535405 0 -38.474212507535405 47.799115955967409 0 0 0 0 -104.3162251479007 -322.89456274839904 0 -322.89456274839904 954.92829500640801 0 0 0 0 -75.529311818405404 -244.64962294676661 0 -244.64962294676661 288.24626438074483 0 0 0 0 70.828186266437115 -171.31471223049266 0 -171.31471223049266 317.98540976733784 0 0 0 0 -65.014777298914851 -83.520162949775113 0 -83.520162949775113 298.38526080088923 0 0 0 0 -74.937683694603038 -156.90753908728948 0 -156.90753908728948 210.62843035420519 0 0 0 0 35.419489364037872 -86.591495686676353 0 -86.591495686676353 157.26174906975939 0 0 0 0 -190.46228112916288 107.91389420299674 0 107.91389420299674 319.61736923002172 0 0 0 0 15.242228299874114 -123.49216712218185 0 -123.49216712218185 46.459412205425906 0 0 0 0 1.3627848570311869 1.2093553913954764 0 1.2093553913954764 20.254771996232478 0 0 0 0 2637.0947798694178 -1395.9365446435368 0 -1395.9365446435368 -24.691374619083945 0 0 0 0 1125.6943529607961 -419.18323131976649 0 -419.18323131976649 198.66981570210191 0 0 0 0 852.7855074229301 -770.72201213837252 0 -770.72201213837252 86.79553005337948 0 0 0 0 -113.30443060591642 -381.32538245565956 0 -381.32538245565956 -15.408423277869588 0 0 0 0 23.74841756319492 -14.919544052289638 0 -14.919544052289638 -20.786315431888056 0 0 0 0 -117.36934810654202 12.702338660790701 0 12.702338660790701 -226.58532155377907 0 0 0 0 1054.5378084355907 -590.37123496416461 0 -590.37123496416461 -189.6378974710824 0 0 0 0 61.213601970147636 -80.936576137485545 0 -80.936576137485545 -11.704638494839116 0 0 0 0 26.762836876239106 -26.94934623024416 0 -26.94934623024416 -30.695659093727443 0 0 0 0 193.55726995204168 -239.36209617387067 0 -239.36209617387067 90.398411591449985 0 0 0 0 40.991898222176985 -3.514207797729604 0 -3.514207797729604 -64.622915441721943 0 0 0 0 -410.46914526930777 648.45011416087073 0 648.45011416087073 113.24010011430983 0 0 0 0 263.13794339445303 -221.50958616833668 0 -221.50958616833668 138.26293075445574 0 0 0 0 -317.27079356876493 -1425.8427443330365 0 -1425.8427443330365 1838.1541971479019 0 0 0 0 155.72355264054204 -162.5610921686457 0 -162.5610921686457 70.059944240405457 0 0 0 0 0.73345166898658931 -18.634624635828921 0 -18.634624635828921 -54.719077376844439 0 0 0 0 259.74009090774052 -169.25981845999195 0 -169.25981845999195 -1.3093846724805189 0 0 0 0 576.32098823139677 -277.75581743306248 0 -277.75581743306248 74.252058732672594 0 0 0 0 1058.5880711507416 875.96262582743657 0 875.96262582743657 -689.07615604101738 0 0 0 0 33.142956208334738 -11.862551301727663 0 -11.862551301727663 -87.493719465407196 0 0 0 0 445.60946373790648 -459.04938996710553 0 -459.04938996710553 -89.371896103722975 0 0 0 0 51.061861312722613 -69.085733331539814 0 -69.085733331539814 171.00122132877004 0 0 0 0 -0.28134025578185629 -34.171776367506922 0 -34.171776367506922 -0.20708546301813158 0 0 0 0 108.20902997874055 -94.302704415028529 0 -94.302704415028529 -240.36393297469476 0 0 0 0 104.69619305136257 -62.277540585478164 0 -62.277540585478164 -11.777765529812314 0 0 0 0 -12.850991741960826 -5.3024509426370372 0 -5.3024509426370372 -0.43381162191911926 0 0 0 0 63.786771975632291 233.93611849252193 0 233.93611849252193 471.52723063134181 0 0 0 0 -1.4959315387110337 3.7229813978834727 0 3.7229813978834727 -6.7908310041360096 0 0 0 0 75.179456306912471 -449.05885448803019 0 -449.05885448803019 1268.0382488187315 0 0 0 0 -2.8138227087283383 -12.01494349140637 0 -12.01494349140637 17.077164351536396 0 0 0 0 777.12663180817617 -1093.2643517700926 0 -1093.2643517700926 -773.16088171524461 0 0 0 0 201.51453678243706 -199.65657446956902 0 -199.65657446956902 85.33982851728797 0 0 0 0 20.983697357597123 -40.545158431470725 0 -40.545158431470725 -34.937287772809242 0 0 0 0 -57.269634983822471 -96.311229238606757 0 -96.311229238606757 103.50318669568514 0 0 0 0 40.48368904665324 -70.947013497448381 0 -70.947013497448381 -63.775247080262119 0 0 0 0 109.86404108624265 -336.85059328584612 0 -336.85059328584612 -179.02918029989814 0 0 0 0 632.64990489562297 -824.17609702717436 0 -824.17609702717436 247.5463809366629 0 0 0 0 223.3456617136253 -385.03983719595271 0 -385.03983719595271 -206.41601859279035 0 0 0 0 -166.06855737051774 -234.71418837733745 0 -234.71418837733745 293.74297367774125 0 0 0 0 209.66511144782999 -516.05713655187719 0 -516.05713655187719 -95.907768555538496 0 0 0 0 115.12017177962775 -164.43975213135707 0 -164.43975213135707 159.6864975910679 0 0 0 0 290.52263213920924 -273.02355594261735 0 -273.02355594261735 -0.63157930760644376 0 0 0 0 124.37237189525331 -445.16996693695546 0 -445.16996693695546 -133.868316324646 0 0 0 0 343.39991704413842 -813.65759896283271 0 -813.65759896283271 907.62977964250604 0 0 0 0 -16.043672145873927 -38.524571818545496 0 -38.524571818545496 17.294500913290278 0 0 0 0 561.211902429568 -204.62578985525761 0 -204.62578985525761 -10.40700799721526 0 0 0 0 0.95292194741961112 -31.709174392440289 0 -31.709174392440289 12.38422616627696 0 0 0 0 101.21990432090388 -135.33629244726762 0 -135.33629244726762 259.1752991926769 0 0 0 0 64.429571384142037 -219.29983619126142 0 -219.29983619126142 315.06550927794888 0 0 0 0 66.135295270690676 -133.05081837663579 0 -133.05081837663579 311.00784662691876 0 0 0 0 35.610624570858789 -45.933671552619728 0 -45.933671552619728 12.392545631373139 0 0 0 0 612.78374196004006 149.27029221072735 0 149.27029221072735 -107.31796848298109 0 0 0 0 -70.810834403790068 -95.928850145879551 0 -95.928850145879551 411.15065484150546 0 0 0 0 -23.337097479481599 -115.29895360916271 0 -115.29895360916271 314.92792786878999 0 0 0 0 -37.928441143885721 -159.41408664420305 0 -159.41408664420305 399.80148594558705 0 0 0 0 -84.527289828940411 -138.29465019666532 0 -138.29465019666532 500.71974296105327 0 0 0 0 -28.027624933645711 -253.29993517154071 0 -253.29993517154071 306.15139758154328 0 0 0 0 220.34170114453445 -265.75796303161405 0 -265.75796303161405 213.11549644611659 0 0 0 0 -49.49313030653866 -497.0754135499883 0 -497.0754135499883 19.988340772790252 0 0 0 0 -219.08976750118745 -329.43055013422418 0 -329.43055013422418 479.55405721225543 0 0 0 0 -129.64308146812255 -674.40331415232504 0 -674.40331415232504 -626.74958668574254 0 0 0 0 -192.59730548711741 -287.43183665995093 0 -287.43183665995093 -0.31583642493933439 0 0 0 0 -422.90020046320569 221.54046584667594 0 221.54046584667594 -406.28835113040986 0 0 0 0 148.24608315767546 -166.50528717158886 0 -166.50528717158886 -64.252957364937174 0 0 0 0 -1.7287247422079304 -3.6607215913795272 0 -3.6607215913795272 -6.2841662440272898 0 0 0 0 -585.93025957074133 -95.711738803627668 0 -95.711738803627668 556.1800066389842 0 0 0 0 -410.97517405026701 589.34297504392998 0 589.34297504392998 -60.488179903710261 0 0 0 0 2.9694548792753608 0.19882707589515292 0 0.19882707589515292 -2.6164393236892352 0 0 0 0 616.82469254055468 -709.72042587368924 0 -709.72042587368924 -0.9754590516428937 0 0 0 0 -1048.2486875890027 -566.83271387792774 0 -566.83271387792774 1604.3536807395576 0 0 0 0 -3.9734374930929448 -3.8081596361261916 0 -3.8081596361261916 0.27443181928742888 0 0 0 0 1803.5610927185044 2168.9280996713787 0 2168.9280996713787 3688.9074029128533 0 0 0 0 373.76230363652576 -790.4741816882597 0 -790.4741816882597 498.59443423539324 0 0 0 0 291.60271042787372 -33.040067687225019 0 -33.040067687225019 -192.1529227749852 0 0 0 0 1645.6275020124449 -1381.9462122921395 0 -1381.9462122921395 -3306.6806039130606 0 0 0 0 -19.132971871972103 -14.21920445102964 0 -14.21920445102964 -7.0065269786396129 0 0 0 0 -613.9996528167685 -125.48714500402275 0 -125.48714500402275 200.85947860633314 0 0 0 0 1331.4647261681239 864.38413769709587 0 864.38413769709587 214.91873899500933 0 0 0 0 -75.476645123315393 722.84732037578942 0 722.84732037578942 1525.5017340427839 0 0 0 0 10.988456884230288 -9.1340035490596279 0 -9.1340035490596279 15.341516025504234 0 0 0 0 168.58039442173322 -265.14563869914855 0 -265.14563869914855 -169.26736765910755 0 0 0 0 700.88716980362369 22.670918183255708 0 22.670918183255708 -189.80362620472442 0 0 0 0 -147.82681052736007 -356.55002648793743 0 -356.55002648793743 3.8861060579074547 0 0 0 0 19.01470800867537 42.742858888232149 0 42.742858888232149 -12.938410784583539 0 0 0 0 7.8764460039019468 -275.38012559333583 0 -275.38012559333583 113.05879000766436 0 0 0 0 -24.785109013842884 -417.60115561502607 0 -417.60115561502607 -272.86006683923188 0 0 0 0 -21.86985010270908 -35.658722016476901 0 -35.658722016476901 -21.040128698688079 0 0 0 0 -114.22237628232688 -166.51525726220279 0 -166.51525726220279 304.33428293771976 0 0 0 0 -0.046029106914289741 -10.811444937479507 0 -10.811444937479507 -4.8720028210602777 0 0 0 0 -16.464584347282653 -62.037387864053017 0 -62.037387864053017 296.37843885334769 0 0 0 0 47.320490358382813 -386.85278024791114 0 -386.85278024791114 -130.47558541918988 0 0 0 0 -157.25046577453031 224.40167683262553 0 224.40167683262553 -125.4189789235927 0 0 0 0 -276.22616637076135 -147.56620110847871 0 -147.56620110847871 341.27502466344959 0 0 0 0 244.39058817343903 -421.28215360372997 0 -421.28215360372997 197.91734656991321 0 0 0 0 -13.317638758139481 -12.255368358979922 0 -12.255368358979922 -15.141230970970071 0 0 0 0 51.51294605145813 -174.38188541233831 0 -174.38188541233831 110.78206847453839 0 0 0 0 38.878961055928812 -120.19697136986724 0 -120.19697136986724 -0.016188313398743048 0 0 0 0 121.97681031738466 -62.288915847137105 0 -62.288915847137105 32.624380139168352 0 0 0 0 123.15374304563738 -103.63514579222829 0 -103.63514579222829 0.17232447987771593 0 0 0 0 3.2588324864387204 2.5054711924886206 0 2.5054711924886206 -2.0505278424300286 0 0 0 0 -351.86077556584496 58.817146915280318 0 58.817146915280318 46.634386957099196 0 0 0 0 -132.49637656581763 -142.14864370485884 0 -142.14864370485884 -0.15240457925047735 0 0 0 0 -31.229355244522594 -35.220818679041258 0 -35.220818679041258 49.197684234241024 0 0 0 0 74.314852492967475 -130.88665217148809 0 -130.88665217148809 -11.996037280448945 0 0 0 0 -75.93214006270864 -52.893732448166702 0 -52.893732448166702 3.8120527277351357 0 0 0 0 -153.35354853743047 -17.715579240662919 0 -17.715579240662919 68.78870225630817 0 0 0 0 -48.065974367913441 -128.29092637059512 0 -128.29092637059512 112.6355223986975 0 0 0 0 -70.726693508200697 -26.393346520053456 0 -26.393346520053456 88.22319860800053 0 0 0 0 -128.67294288204721 142.50519868636911 0 142.50519868636911 101.38970390925533 0 0 0 0 -177.53068031117436 169.0306831517446 0 169.0306831517446 810.0742028033128 0 0 0 0 -30.316434352187486 -32.771921655730338 0 -32.771921655730338 -8.6817150744833498 0 0 0 0 163.13762424842571 -236.73695118415344 0 -236.73695118415344 -3.2048345614457503 0 0 0 0 -23.836103782891541 -33.241813419408686 0 -33.241813419408686 28.323352673036368 0 0 0 0 -46.745181723075802 -53.357726480011479 0 -53.357726480011479 21.428938793913403 0 0 0 0 -48.963232136768056 -262.71048211024026 0 -262.71048211024026 127.29859672604653 0 0 0 0 -47.283416166467873 -123.31276946103526 0 -123.31276946103526 61.174269058770733 0 0 0 0 -27.16350718306677 -59.074384008123204 0 -59.074384008123204 -55.340878982781817 0 0 0 0 -76.32101736520417 -58.574309786214144 0 -58.574309786214144 82.055847886360425 0 0 0 0 -59.440067065792391 -149.33533903927309 0 -149.33533903927309 -221.16984040176612 0 0 0 0 -13.601334787544658 -8.4788405166448229 0 -8.4788405166448229 4.050309307325108 0 0 0 0 -261.58784952151473 -177.02608050493291 0 -177.02608050493291 32.21593710439447 0 0 0 0 -263.15757083735662 -4.3812143638060661 0 -4.3812143638060661 56.023913136446936 0 0 0 0 -17.224488497861671 -47.705335199585534 0 -47.705335199585534 64.779463372320947 0 0 0 0 -87.57179095663929 25.443096044241486 0 25.443096044241486 61.087694857124006 0 0 0 0 45.593746525220922 -168.12372596019122 0 -168.12372596019122 -155.7286410008528 0 0 0 0 -88.328892907156842 -157.44410955862259 0 -157.44410955862259 33.910775566651864 0 0 0 0 -100.20303346161381 -260.99525923733017 0 -260.99525923733017 -37.738441908339155 0 0 0 0 -19.883783081202466 -69.271179646363123 0 -69.271179646363123 66.846958073367034 0 0 0 0 -14.899574489842053 -82.671329016142408 0 -82.671329016142408 -61.427334204781801 0 0 0 0 223.34567655231876 -25.85279266737416 0 -25.85279266737416 -95.268832181347534 0 0 0 0 -0.68965601764980988 -45.332149864880165 0 -45.332149864880165 -26.843808583912221 0 0 0 0 -26.128689915669383 -69.064425198055687 0 -69.064425198055687 -16.40920690909843 0 0 0 0 42.610415027156705 -146.2599410663388 0 -146.2599410663388 -110.76296941030887 0 0 0 0 28.936018852022244 -82.312688029654964 0 -82.312688029654964 5.3748511624580715 0 0 0 0 41.627489018220132 -68.593778843867767 0 -68.593778843867767 38.986578774360964 0 0 0 0 78.233525691262912 -158.8993380273896 0 -158.8993380273896 199.75914922414813 0 0 0 0 56.576191831278265 -112.43686582773807 0 -112.43686582773807 74.735069687667419 0 0 0 0 61.845834227948217 -90.706068501029222 0 -90.706068501029222 6.7338452508520277 0 0 0 0 7.8481702751014382 -14.980353488419496 0 -14.980353488419496 -29.155199146422092 0 0 0 0 15.759993645966347 1.563760796975771 0 1.563760796975771 -17.875995266897462 0 0 0 0 -4.8562455852224957 -27.467211842391407 0 -27.467211842391407 273.65282057339209 0 0 0 0 4.5492234642588301 -72.273534050375929 0 -72.273534050375929 33.957181965466589 0 0 0 0 -69.568205384261091 -232.85032579741892 0 -232.85032579741892 9.5399575529445428 0 0 0 0 8.3204300062207039 -129.89602696216025 0 -129.89602696216025 21.991378398350207 0 0 0 0 87.039942001574673 -238.56300254969392 0 -238.56300254969392 139.07170269463677 0 0 0 0 64.655844323118799 -147.53944899691851 0 -147.53944899691851 -2.0033483198130853 0 0 0 0 119.05716161003511 -84.69424955183058 0 -84.69424955183058 45.036000072315801 0 0 0 0 67.965820108921449 -98.458338959171215 0 -98.458338959171215 40.412928425370524 0 0 0 0 279.12507323821774 -128.80035210541973 0 -128.80035210541973 -92.033571309497347 0 0 0 0 8.9240670036923859 -28.361262043460705 0 -28.361262043460705 25.509800435362024 0 0 0 0 116.23295590177077 -63.920982434201505 0 -63.920982434201505 29.594735926337307 0 0 0 0 34.310919288254809 -27.113412068662001 0 -27.113412068662001 -60.022583267476875 0 0 0 0 -15.453074608686109 -22.859489477955812 0 -22.859489477955812 -3.8234553287000494 0 0 0 0 229.64674765960081 -245.77342402086651 0 -245.77342402086651 -47.078158915101085 0 0 0 0 117.03055406769272 -87.020531147456495 0 -87.020531147456495 127.32972788851475 0 0 0 0 143.8439025945554 -0.17113535980752204 0 -0.17113535980752204 -27.088873232161859 0 0 0 0 123.33784576872131 -124.45054476387304 0 -124.45054476387304 67.616615308972541 0 0 0 0 125.37168600933364 -86.367653556713776 0 -86.367653556713776 29.633355805592146 0 0 0 0 81.560557288874406 -51.928158710506978 0 -51.928158710506978 -58.099204329802888 0 0 0 0 104.37888176785782 -121.7398677226447 0 -121.7398677226447 125.5333702283624 0 0 0 0 -4.1196666436667613 -19.639347214381168 0 -19.639347214381168 6.0637438554848302 0 0 0 0 -192.7182491223939 351.193887483656 0 351.193887483656 -322.4120648331882 0 0 0 0 -88.106014459306607 -181.89102273049502 0 -181.89102273049502 80.223499535568408 0 0 0 0 -524.6822932473151 -281.04867725614167 0 -281.04867725614167 57.738581031328067 0 0 0 0 92.981669293934829 -7.3043400543392636 0 -7.3043400543392636 -130.50467770671821 0 0 0 0 -15.610665402451446 -4.9403653655145234 0 -4.9403653655145234 12.905719210567554 0 0 0 0 -188.65521726613224 -430.42919975752011 0 -430.42919975752011 -105.8502680517704 0 0 0 0 -192.91367496899329 -334.46731367836765 0 -334.46731367836765 601.38802585695521 0 0 0 0 -272.46333736466477 -551.88662858473253 0 -551.88662858473253 18.695464012518642 0 0 0 0 -43.49452789730276 -254.39751730232092 0 -254.39751730232092 104.33100187553646 0 0 0 0 154.66974894606392 -294.58497825132508 0 -294.58497825132508 69.214631610157085 0 0 0 0 8.931030762176988 -124.27265375172294 0 -124.27265375172294 46.060547524451977 0 0 0 0 11.933306350780185 -377.41182462064899 0 -377.41182462064899 21.164766647387296 0 0 0 0 -61.469010916780007 -82.014977182965396 0 -82.014977182965396 19.77751257615347 0 0 0 0 4.8625686034305886 -82.330030539776331 0 -82.330030539776331 -43.931450992453108 0 0 0 0 -276.78216411790345 -63.067765410341963 0 -63.067765410341963 -204.32589629126596 0 0 0 0 7.5508962032104137 -17.973994684540656 0 -17.973994684540656 -17.262612707533677 0 0 0 0 19.769461968331598 -136.95170275929559 0 -136.95170275929559 -535.35072458835566 0 0 0 0 -270.52685258010752 -439.12315416277124 0 -439.12315416277124 -149.85422040513367 0 0 0 0 -39.296491453613271 -224.54512881359551 0 -224.54512881359551 -31.801595054610516 0 0 0 0 -39.559679715540142 -57.254531643561293 0 -57.254531643561293 -46.966967706077298 0 0 0 0 -183.35607192834141 -534.40336583257886 0 -534.40336583257886 -465.49539247556822 0 0 0 0 -920.12949868416763 404.36094348255574 0 404.36094348255574 -460.24820525386895 0 0 0 0 -1012.3727561098349 -364.60749646453041 0 -364.60749646453041 237.20673706796879 0 0 0 0 -320.64545589542831 -843.27180399061035 0 -843.27180399061035 119.73100873544172 0 0 0 0 1.8006027113697201 -302.69898628369401 0 -302.69898628369401 -164.22209560518968 0 0 0 0 105.3786752347894 -106.55508458487526 0 -106.55508458487526 64.417454152112342 0 0 0 0 316.00689757734654 -184.51106215042091 0 -184.51106215042091 -49.748439244562178 0 0 0 0 -43.177670108387247 -310.63422428749618 0 -310.63422428749618 45.455148380064202 0 0 0 0 -90.595829924277496 -224.75363533109339 0 -224.75363533109339 -76.411441931184527 0 0 0 0 -710.21063080753083 -350.09967062147916 0 -350.09967062147916 -5.8158095853650593 0 0 0 0 -711.37116847201833 -375.42508350522985 0 -375.42508350522985 235.90072992396017 0 0 0 0 -154.20723089235253 106.15266814886854 0 106.15266814886854 211.95754631384625 0 0 0 0 110.17260753133451 -97.008111230403301 0 -97.008111230403301 12.659422005235683 0 0 0 0 1122.5504917957005 197.0204628053616 0 197.0204628053616 -701.62756673779222 0 0 0 0 272.75277477886993 -223.44639902639028 0 -223.44639902639028 -256.02443986608705 0 0 0 0 -676.16331251305382 580.67626917537018 0 580.67626917537018 771.18975101910473 0 0 0 0 -8.0686475802138489 -4.8366488075255631 0 -4.8366488075255631 5.2613415280883942 0 0 0 0 -89.705019780929433 -28.105574208406324 0 -28.105574208406324 124.35851871706836 0 0 0 0 -325.05987745392486 -476.61195396504081 0 -476.61195396504081 131.7828440288431 0 0 0 0 827.35850038626813 672.46343767082726 0 672.46343767082726 1214.7419369933195 0 0 0 0 383.39916331368022 -1116.4979005101281 0 -1116.4979005101281 1551.4969128658704 0 0 0 0 377.29942451690613 -472.13375445567249 0 -472.13375445567249 -531.62789332335524 0 0 0 0 107.28355767359608 -697.39154733748001 0 -697.39154733748001 -230.6745005017292 0 0 0 0 1014.9632664783712 -733.01916516276106 0 -733.01916516276106 -513.41630218434148 0 0 0 0 -20.432355443188385 -7.2137332432891554 0 -7.2137332432891554 7.3625704155518008 0 0 0 0 -926.66804522188613 -111.71507099842711 0 -111.71507099842711 152.18379454933165 0 0 0 0 -11.717575920978561 134.3470808581169 0 134.3470808581169 -499.90253031052998 0 0 0 0 92.774073307350591 -249.77409745672912 0 -249.77409745672912 -891.41778447353863 0 0 0 0 177.46112987431115 -777.74632493378158 0 -777.74632493378158 -572.539555454121 0 0 0 0 245.84201219119859 -641.68708366262581 0 -641.68708366262581 -312.76092411219724 0 0 0 0 1374.4267170595122 -35.570655492108926 0 -35.570655492108926 -131.76167019705372 0 0 0 0 1034.995188877012 -816.85438367215829 0 -816.85438367215829 -638.22807934125012 0 0 0 0 28.1218259112986 -17.879365209587007 0 -17.879365209587007 11.04140260841767 0 0 0 0 -53.85111061000498 -68.544403200918168 0 -68.544403200918168 2009.6454904019447 0 0 0 0 -67.77710161122377 103.51706418535014 0 103.51706418535014 681.53549430387648 0 0 0 0 -255.56338403736299 -386.00867241165543 0 -386.00867241165543 1311.3918831970514 0 0 0 0 -262.60626867644896 -298.34214229300778 0 -298.34214229300778 554.63331053552247 0 0 0 0 -178.11548301301082 -244.81246371776433 0 -244.81246371776433 579.03031125675625 0 0 0 0 4.3015906242944766 -63.556168533397795 0 -63.556168533397795 81.276435876752657 0 0 0 0 75.267492767310273 -53.736953692325699 0 -53.736953692325699 41.882273052421141 0 0 0 0 -80.084520018077455 -283.71041589815468 0 -283.71041589815468 46.710270089111873 0 0 0 0 -81.288771769337473 -166.35098579708756 0 -166.35098579708756 15.702556094624015 0 0 0 0 -95.14818967859901 -313.06511503634829 0 -313.06511503634829 177.33755052363995 0 0 0 0 -174.01498252673809 -243.92147850764013 0 -243.92147850764013 232.16513523516915 0 0 0 0 -152.54424671652669 -393.83659094014729 0 -393.83659094014729 449.09100150013182 0 0 0 0 -224.52568749652528 -550.78847618859072 0 -550.78847618859072 539.96438981988467 0 0 0 0 -268.49741187755717 -456.95371838881692 0 -456.95371838881692 422.52907895111639 0 0 0 0 -269.2103013860351 -448.58783612336902 0 -448.58783612336902 774.38424763725197 0 0 0 0 -143.37740813642449 -661.62188842430987 0 -661.62188842430987 636.65930325974114 0 0 0 0 -258.25327595058479 -569.24730924835603 0 -569.24730924835603 562.55278014489886 0 0 0 0 -302.47997829408268 -698.57793879422024 0 -698.57793879422024 491.87333972297347 0 0 0 0 -330.73539790540235 -667.6484560770441 0 -667.6484560770441 470.74436413839067 0 0 0 0 -270.90062059881166 -662.32180011722085 0 -662.32180011722085 451.93779670674849 0 0 0 0 -262.49969712684833 -663.01924880493789 0 -663.01924880493789 360.02941991712214 0 0 0 0 -523.32036014385812 -696.93541408103192 0 -696.93541408103192 358.37835214238237 0 0 0 0 -373.24332624494855 -438.01945017581602 0 -438.01945017581602 254.41356064676802 0 0 0 0 -689.71571350556042 -491.64405044562045 0 -491.64405044562045 169.21154894930078 0 0 0 0 -654.75135944482463 -537.12243768912776 0 -537.12243768912776 219.62217569357017 0 0 0 0 -393.52394853357691 -816.36458918383141 0 -816.36458918383141 281.97189353546855 0 0 0 0 -372.36373131546134 -688.8781721136329 0 -688.8781721136329 199.56993244976911 0 0 0 0 -832.77419685584027 -878.53805699085933 0 -878.53805699085933 127.1409556303779 0 0 0 0 -12.617632029214292 -58.753119340675767 0 -58.753119340675767 -13.993695981906058 0 0 0 0 -610.70474612351973 -68.234596105499804 0 -68.234596105499804 132.96548210571018 0 0 0 0 -22.755461706838105 -184.28229834905142 0 -184.28229834905142 150.40597259631613 0 0 0 0 -391.94397197017679 -460.93541002202255 0 -460.93541002202255 329.30691461667811 0 0 0 0 -153.08352664676931 -445.27933935654983 0 -445.27933935654983 328.61896472162334 0 0 0 0 113.32219151102618 0.84385907858177234 0 0.84385907858177234 9.3115415020874934 0 0 0 0 -52.377123511629179 -143.21277702166662 0 -143.21277702166662 126.89157836778031 0 0 0 0 361.93862045819697 -217.39262716599114 0 -217.39262716599114 117.98099306211066 0 0 0 0 267.98087424157711 -130.04486870831352 0 -130.04486870831352 77.504920527484501 0 0 0 0 105.88251824780309 -659.82299910386064 0 -659.82299910386064 494.35648255052365 0 0 0 0 -94.680743898967194 -512.33762716937372 0 -512.33762716937372 601.67141706152324 0 0 0 0 233.82814367751416 -770.69193992546207 0 -770.69193992546207 803.52914505743684 0 0 0 0 944.30462494197127 -1480.8683198918297 0 -1480.8683198918297 1551.9955153530354 0 0 0 0 211.92486400868438 -644.74245598795414 0 -644.74245598795414 739.77317351658712 0 0 0 0 1595.0003153488215 -565.87840813289949 0 -565.87840813289949 188.099529831361 0 0 0 0 2535.6805601177693 438.54233873546218 0 438.54233873546218 -137.47263975729948 0 0 0 0 -693.20500042433559 310.0551214173538 0 310.0551214173538 304.04258847778692 0 0 0 0 132.71844806411536 657.35115681929892 0 657.35115681929892 106.72501942320196 0 0 0 0 -828.68896891957411 -211.80249308156453 0 -211.80249308156453 215.27422084214777 0 0 0 0 52.451375129501685 -499.22705593007413 0 -499.22705593007413 245.98693569182433 0 0 0 0 -328.00935349335487 -579.9395970441692 0 -579.9395970441692 268.64499439187057 0 0 0 0 -277.17822521280323 0.89014339432651468 0 0.89014339432651468 294.28988675928304 0 0 0 0 -359.67803735276539 -127.43426197336521 0 -127.43426197336521 167.51753908416867 0 0 0 0 -321.63873978426273 74.666324645200802 0 74.666324645200802 196.52025208047417 0 0 0 0 448.88552008480474 37.543551704502534 0 37.543551704502534 57.905770659141126 0 0 0 0 135.79962321894709 405.31059318335247 0 405.31059318335247 252.15497663854512 0 0 0 0 50.528263537053135 132.20867930862914 0 132.20867930862914 155.37981650625261 0 0 0 0 18.436046689239447 46.049973877874436 0 46.049973877874436 63.590944322557789 0 0 0 0 -107.34527226892988 33.724212104145408 0 33.724212104145408 94.315338193759089 0 0 0 0 -200.66026790403703 -72.134775374557648 0 -72.134775374557648 178.79979320951134 0 0 0 0 -112.39353406575447 2.2168432516047005 0 2.2168432516047005 121.92575046901766 0 0 0 0 -150.77983610417868 -17.653174892075185 0 -17.653174892075185 111.64367697120724 0 0 0 0 -70.825338225564337 -21.023765985964928 0 -21.023765985964928 74.630539260600926 0 0 0 0 -63.499604595228448 15.104824880367232 0 15.104824880367232 76.568609114106948 0 0 0 0 36.305335291079246 -4.2106142855482176 0 -4.2106142855482176 35.110453646819224 0 0 0 0 -12.845846962038195 -27.9032612545343 0 -27.9032612545343 26.194724962162582 0 0 0 0 4.937844350875821 38.72902870937105 0 38.72902870937105 81.825844936098292 0 0 0 0 -198.26064586706343 66.727816023074411 0 66.727816023074411 14.378380367706995 0 0 0 0 -1022.4810570858535 -258.58492610548274 0 -258.58492610548274 44.155119483448289 0 0 0 0 858.75252642622218 -35.79558401023678 0 -35.79558401023678 -104.13661585540103 0 0 0 0 -307.34329694897315 19.187363826029468 0 19.187363826029468 188.15076944830071 0 0 0 0 -35.495197731719344 -57.402690706565778 0 -57.402690706565778 71.772879456526852 0 0 0 0 -45.856719453633559 -343.03387858122369 0 -343.03387858122369 -150.18921341269743 0 0 0 0 8.8642505877630811 -14.523447369770217 0 -14.523447369770217 12.544571753030567 0 0 0 0 311.31854605364788 -75.35446833046808 0 -75.35446833046808 -18.548536429480009 0 0 0 0 -25.015950446894891 -66.242351361791947 0 -66.242351361791947 58.706595406134653 0 0 0 0 -193.71088323020376 -218.33271493510256 0 -218.33271493510256 136.24560343191115 0 0 0 0 70.78362877300242 -182.25264417497237 0 -182.25264417497237 63.168218072540185 0 0 0 0 -150.40806711941696 -89.415360145124396 0 -89.415360145124396 160.39071632534615 0 0 0 0 -187.89965472707991 -47.146439061896672 0 -47.146439061896672 115.18095813856053 0 0 0 0 -122.66604849322175 -59.290715795110373 0 -59.290715795110373 95.972476508104592 0 0 0 0 -184.35062876780285 -129.26751841095029 0 -129.26751841095029 103.95211213732546 0 0 0 0 -53.616861424998206 -186.85619936896546 0 -186.85619936896546 51.917543075884169 0 0 0 0 -214.67690792655776 -265.20932366657871 0 -265.20932366657871 31.77687712959596 0 0 0 0 114.73098721255519 -56.774080713501462 0 -56.774080713501462 -47.455428191978172 0 0 0 0 111.06086791524285 -85.493428341879735 0 -85.493428341879735 38.869645917264279 0 0 0 0 3.9684019578330947 -6.8522100457928801 0 -6.8522100457928801 5.8534486618855368 0 0 0 0 -139.12316045086482 -269.03959815669077 0 -269.03959815669077 293.59988941079064 0 0 0 0 -36.844953015768759 -65.149504480073176 0 -65.149504480073176 45.325111339466204 0 0 0 0 48.954671507831563 -29.412148817604148 0 -29.412148817604148 1.5787291824645564 0 0 0 0 113.62739715891075 -173.02745482745377 0 -173.02745482745377 326.38743789471482 0 0 0 0 -15.10098068387444 -38.479137884200668 0 -38.479137884200668 94.513807557596294 0 0 0 0 -85.853285605669953 -104.94579582761799 0 -104.94579582761799 43.940337343068677 0 0 0 0 -166.6684608790747 -83.763508916623323 0 -83.763508916623323 71.584207446881919 0 0 0 0 -127.56900102033978 -90.022922908949113 0 -90.022922908949113 122.85256823190139 0 0 0 0 234.59193265312933 -544.68372013582848 0 -544.68372013582848 446.29672806687086 0 0 0 0 -66.822646159382998 -78.436765414599648 0 -78.436765414599648 63.868545465056457 0 0 0 0 303.87965140707092 -380.32423580196337 0 -380.32423580196337 463.26909541471923 0 0 0 0 95.724230325777171 -417.59990678396207 0 -417.59990678396207 480.99152190989116 0 0 0 0 210.98465687179851 -228.89825713798382 0 -228.89825713798382 298.00235532705847 0 0 0 0 -75.524403099698247 -104.65332800704346 0 -104.65332800704346 124.3419905165938 0 0 0 0 -153.02346112933793 -17.807132057612741 0 -17.807132057612741 96.482335259850231 0 0 0 0 194.61087526171468 -172.6858050797382 0 -172.6858050797382 135.78366742256912 0 0 0 0 179.5480489017209 -230.70308040712553 0 -230.70308040712553 -87.166205527035345 0 0 0 0 28.679311563901138 -198.03172926111438 0 -198.03172926111438 454.55393560160155 0 0 0 0 92.333779275941197 -277.12092951632803 0 -277.12092951632803 162.53670460138528 0 0 0 0 66.275026417302797 -120.06406015390257 0 -120.06406015390257 153.10031672038895 0 0 0 0 60.680043998872861 -109.74902739749814 0 -109.74902739749814 64.017773816747649 0 0 0 0 -63.25100952743378 84.582636942555837 0 84.582636942555837 -162.88763046807071 0 0 0 0 -127.44034076770185 -160.81211587497819 0 -160.81211587497819 71.021318741295545 0 0 0 0 0.32822104715160094 -266.53030508649681 0 -266.53030508649681 9.1621445806704287 0 0 0 0 133.18918162295449 -276.24279694952747 0 -276.24279694952747 6.1841167846432654 0 0 0 0 234.82770740732667 -37.218064517372113 0 -37.218064517372113 -550.46154438343365 0 0 0 0 1.1990288022126094 3.2546983801266123 0 3.2546983801266123 0.26415709284356659 0 0 0 0 173.86803306534421 -237.15231328980735 0 -237.15231328980735 -242.81431208740833 0 0 0 0 94.267067943503207 -53.23192278865281 0 -53.23192278865281 -47.014162582534482 0 0 0 0 127.51496535798651 -205.8798897481538 0 -205.8798897481538 -5.3663872755278135 0 0 0 0 185.28882176242769 -224.31940513660811 0 -224.31940513660811 84.896454583482409 0 0 0 0 116.0218098288824 -243.5451705658179 0 -243.5451705658179 349.0544525844598 0 0 0 0 137.178433350462 -254.61000803882052 0 -254.61000803882052 271.05825988743891 0 0 0 0 120.23280872564646 -283.78228574235982 0 -283.78228574235982 265.02132447741315 0 0 0 0 124.40206968114944 -138.75565879291389 0 -138.75565879291389 201.33786581244203 0 0 0 0 164.16610108685563 -325.24792232268373 0 -325.24792232268373 401.56351976604492 0 0 0 0 311.71860742667923 -375.06268587020168 0 -375.06268587020168 475.75216601317516 0 0 0 0 365.98727003806562 -348.98989862305461 0 -348.98989862305461 313.98005106500932 0 0 0 0 106.55291021292214 -226.97900936214864 0 -226.97900936214864 358.29583846200694 0 0 0 0 182.3030349697292 -199.63869705079469 0 -199.63869705079469 334.27567820105469 0 0 0 0 295.84133488973021 -200.44850484317431 0 -200.44850484317431 307.98291797516868 0 0 0 0 -32.58937270854949 -232.55158082312482 0 -232.55158082312482 382.16723327504587 0 0 0 0 105.07947107452492 -234.29983020659802 0 -234.29983020659802 352.64888807757234 0 0 0 0 532.48363067913306 -431.00032649213972 0 -431.00032649213972 136.64198571960515 0 0 0 0 -4.8327810465942846 -9.0814359134148503 0 -9.0814359134148503 -14.177898005306218 0 0 0 0 251.03215896798793 -207.76799702599237 0 -207.76799702599237 85.197181855037343 0 0 0 0 -2691.5722312655562 102.16438712440868 0 102.16438712440868 597.06982597156457 0 0 0 0 1694.625286482049 -932.12935425853084 0 -932.12935425853084 -900.93635052822356 0 0 0 0 -598.53519928139576 -2155.4451697547847 0 -2155.4451697547847 2124.9537657825749 0 0 0 0 680.21214505957232 -992.71708485591455 0 -992.71708485591455 -196.50410994280537 0 0 0 0 693.02160332130734 -761.95930027971917 0 -761.95930027971917 -467.93619322258019 0 0 0 0 4.3940493435503498 -36.711052835313694 0 -36.711052835313694 -47.570683326333807 0 0 0 0 -44.456048845670011 -153.04367291559902 0 -153.04367291559902 132.27057804798096 0 0 0 0 -773.28449454494694 -454.99519458424766 0 -454.99519458424766 -52.156155269112787 0 0 0 0 172.00092606065027 -84.26032519491082 0 -84.26032519491082 -4.5222532436964684 0 0 0 0 144.31329088823441 -156.76350946105913 0 -156.76350946105913 -21.623107738741965 0 0 0 0 1480.237067007125 -1116.8823234285592 0 -1116.8823234285592 -448.00151747004566 0 0 0 0 20.056422458235488 -2.8380224509452603 0 -2.8380224509452603 -0.39203179973334557 0 0 0 0 846.24894582890556 -177.09101208599895 0 -177.09101208599895 -405.75637848851329 0 0 0 0 528.92580176584306 -949.72115366800426 0 -949.72115366800426 1520.4729152351138 0 0 0 0 1841.3837405501472 -1331.8630780192398 0 -1331.8630780192398 269.57671245274832 0 0 0 0 214.25248666945845 -727.02553341966996 0 -727.02553341966996 311.47088446421094 0 0 0 0 -92.293667852009094 -119.13409941689497 0 -119.13409941689497 106.59904744589585 0 0 0 0 437.95220592803526 -526.47193451623571 0 -526.47193451623571 692.60333991334483 0 0 0 0 0.78436295866497829 -14.203816662277518 0 -14.203816662277518 65.498352685506177 0 0 0 0 887.7179495182063 -659.91187855885073 0 -659.91187855885073 357.38965245344662 0 0 0 0 -35.256488993982202 -80.01581848407659 0 -80.01581848407659 116.36435658740811 0 0 0 0 35.573666319309268 -103.57729051916976 0 -103.57729051916976 56.254877377010416 0 0 0 0 25.847190396118094 -125.10274460643268 0 -125.10274460643268 52.609265897015575 0 0 0 0 39.981369713466847 -110.43944976515195 0 -110.43944976515195 60.401392439409392 0 0 0 0 13.759495885955403 -164.11253536690492 0 -164.11253536690492 13.135267486912198 0 0 0 0 -129.8264214064111 -289.50117242330452 0 -289.50117242330452 -44.005946269171545 0 0 0 0 7.1639739927122719 -125.55491246072779 0 -125.55491246072779 27.985372198745608 0 0 0 0 0.42370244096673559 -107.71518825229577 0 -107.71518825229577 59.225630359374918 0 0 0 0 47.674827252310934 -105.61419144440151 0 -105.61419144440151 -1.5214895466961025 0 0 0 0 36.658123604458524 -111.11493290540238 0 -111.11493290540238 58.798299284972018 0 0 0 0 50.144991587090772 -130.54723792472214 0 -130.54723792472214 86.712267882598098 0 0 0 0 0.48758878605440259 -96.395029123494169 0 -96.395029123494169 121.23355564006852 0 0 0 0 232.33857310401072 -170.46997711138101 0 -170.46997711138101 299.75657762669289 0 0 0 0 51.740003292643451 -96.418834636973486 0 -96.418834636973486 28.278425440281737 0 0 0 0 18.543804383312818 -119.4322197145375 0 -119.4322197145375 113.44214631752402 0 0 0 0 5.0249132273449675 -11.698619695114132 0 -11.698619695114132 40.192410705227317 0 0 0 0 -5.9783456599689089 -94.662765044398839 0 -94.662765044398839 94.676148533588275 0 0 0 0 -6.6407926216552369 -110.84560545938621 0 -110.84560545938621 91.890950987028191 0 0 0 0 10.556196650897618 -51.184334252626286 0 -51.184334252626286 131.36069202500948 0 0 0 0 -533.49419775619754 85.460657293704571 0 85.460657293704571 707.73096747053387 0 0 0 0 28.094565738264919 -89.773141195400171 0 -89.773141195400171 39.83368295765694 0 0 0 0 405.30933109940815 -354.5968944597189 0 -354.5968944597189 9.202300898024987 0 0 0 0 81.665591156575829 -87.214981310389703 0 -87.214981310389703 56.120680810216072 0 0 0 0 116.40165091872041 -248.44129681931372 0 -248.44129681931372 -140.93124683147471 0 0 0 0 -7.0074583732261999 -19.192121331463142 0 -19.192121331463142 5.6817990875708553 0 0 0 0 -257.53582388238283 -96.706858751625987 0 -96.706858751625987 287.71018167699731 0 0 0 0 -58.31362966861343 -197.16395964816911 0 -197.16395964816911 84.95971717617067 0 0 0 0 -29.347591562749585 -246.19935748775242 0 -246.19935748775242 101.66678401699755 0 0 0 0 -48.12977315306307 -239.54015368418732 0 -239.54015368418732 111.48870379988512 0 0 0 0 -66.73318870705333 -56.401386953988151 0 -56.401386953988151 -20.239789688741524 0 0 0 0 -11.016082426765593 -94.305323936848879 0 -94.305323936848879 43.841003687932414 0 0 0 0 -3.4242198879655916 -206.16910251147056 0 -206.16910251147056 66.735492729240832 0 0 0 0 56.293936285845774 -106.41525279858357 0 -106.41525279858357 40.269560413752785 0 0 0 0 -18.176873736199923 -58.644254417798948 0 -58.644254417798948 148.1371750152648 0 0 0 0 -5.0865354328489047 -209.78669407828784 0 -209.78669407828784 81.378120141016552 0 0 0 0 -36.781368679445563 -56.877417365747725 0 -56.877417365747725 98.471508720317814 0 0 0 0 68.714794706189423 -140.31270706145733 0 -140.31270706145733 68.305580494226888 0 0 0 0 22.564150818914641 -84.937056788388873 0 -84.937056788388873 95.188218692695955 0 0 0 0 -26.070252186909784 -165.544463946615 0 -165.544463946615 61.987259281013394 0 0 0 0 -22.006410821370082 -90.638641164972796 0 -90.638641164972796 70.337660265009617 0 0 0 0 -63.825333252887503 -214.0068623325642 0 -214.0068623325642 62.693367873172974 0 0 0 0 -51.577157699188319 -142.47830652122138 0 -142.47830652122138 41.334968847222626 0 0 0 0 -80.15917985260603 -195.72008943086257 0 -195.72008943086257 6.88170272919524 0 0 0 0 -67.119849969574716 -91.617256024197559 0 -91.617256024197559 20.451680234516971 0 0 0 0 -87.636879355126439 -203.8997829283594 0 -203.8997829283594 -26.642629027774092 0 0 0 0 -82.73648448381573 -119.96410560559889 0 -119.96410560559889 -104.70142168167513 0 0 0 0 -75.638134126973455 -42.25320326758083 0 -42.25320326758083 -196.15676390659064 0 0 0 0 -40.466858271189267 -167.76710502634523 0 -167.76710502634523 -5.3722478784184204 0 0 0 0 -64.69326136347081 -175.97111842528466 0 -175.97111842528466 115.99314199175569 0 0 0 0 89.512075706239557 -159.03624005529855 0 -159.03624005529855 -28.296520564450475 0 0 0 0 -51.996767345823173 -160.06624336364075 0 -160.06624336364075 -14.973814174067229 0 0 0 0 -40.601232574396988 -54.762122136368561 0 -54.762122136368561 -11.073793295954573 0 0 0 0 69.389826150028966 -217.59166133157851 0 -217.59166133157851 26.978953043195361 0 0 0 0 28.513338685217832 -285.09643631984648 0 -285.09643631984648 167.57001044887875 0 0 0 0 22.444292029218161 -69.705822387985478 0 -69.705822387985478 51.606974024769499 0 0 0 0 -18.358319716906408 -85.120616949978285 0 -85.120616949978285 35.681886834177931 0 0 0 0 26.646310719135101 32.840863052875775 0 32.840863052875775 170.98626350834093 0 0 0 0 -8.7488364198507043 -82.228339931418304 0 -82.228339931418304 8.1578797918409691 0 0 0 0 -55.721476625126712 -72.944938536160208 0 -72.944938536160208 49.672325680198355 0 0 0 0 61.098912636987734 -334.36279802182435 0 -334.36279802182435 -326.87435126042692 0 0 0 0 -269.39254827107652 -283.59376169278767 0 -283.59376169278767 249.09293748240452 0 0 0 0 -14.103358718784875 -332.83650363070046 0 -332.83650363070046 -461.33686667308211 0 0 0 0 149.8787156829203 -109.21091469813837 0 -109.21091469813837 -751.75453135097632 0 0 0 0 -3.0780268682876226 4.2023322538598222 0 4.2023322538598222 0.027593826556046253 0 0 0 0 5.5041915954789147 -16.90410324469849 0 -16.90410324469849 402.37789992366106 0 0 0 0 -22.962310581380734 38.393350055805058 0 38.393350055805058 -221.91705155084492 0 0 0 0 -150.73208856489509 -204.14381803486322 0 -204.14381803486322 166.31994174288889 0 0 0 0 79.124721621083154 19.263519404195904 0 19.263519404195904 265.74555592268007 0 0 0 0 46.551364675193327 -14.497962135919806 0 -14.497962135919806 246.78630251711002 0 0 0 0 -25.384901912955684 -101.06309492390574 0 -101.06309492390574 183.44024536176585 0 0 0 0 -40.902125355351018 -98.628552940892405 0 -98.628552940892405 227.02185764605747 0 0 0 0 78.32183328436804 -71.004042770502565 0 -71.004042770502565 288.51728023662872 0 0 0 0 -64.633110860975989 -62.38255079416092 0 -62.38255079416092 54.45425141172683 0 0 0 0 -124.15933114573272 -66.22014308712096 0 -66.22014308712096 103.74949261249276 0 0 0 0 -20.048663505003788 -112.95387209433466 0 -112.95387209433466 90.225297420009156 0 0 0 0 -35.899650442923303 -103.28945868022129 0 -103.28945868022129 201.51378664335789 0 0 0 0 -77.081247521447949 -138.74172453138453 0 -138.74172453138453 188.90983302408131 0 0 0 0 -91.103051711688749 -88.87324914635974 0 -88.87324914635974 128.02164518348218 0 0 0 0 -93.906973951219697 -79.583913514001324 0 -79.583913514001324 100.1524015472387 0 0 0 0 -95.553888663445832 -102.6527278001231 0 -102.6527278001231 137.64604635630531 0 0 0 0 -126.33444486462395 -74.393220719008241 0 -74.393220719008241 199.37772721859801 0 0 0 0 -212.60283119545784 -45.656491116300458 0 -45.656491116300458 190.19139791187627 0 0 0 0 113.99040743254591 -44.973778741055867 0 -44.973778741055867 121.85170236963313 0 0 0 0 -15.608614253799033 -30.199152284170992 0 -30.199152284170992 30.799773387695183 0 0 0 0 -120.05968991675763 -12.982071370250196 0 -12.982071370250196 169.27408646127151 0 0 0 0 -169.52877418321441 -160.06959360990732 0 -160.06959360990732 221.21368192779482 0 0 0 0 24.982722583736177 -131.48335267161929 0 -131.48335267161929 166.27040220465278 0 0 0 0 -131.33106850559318 -31.115777574672197 0 -31.115777574672197 102.51159013311018 0 0 0 0 -97.782423693133751 -70.155502572917612 0 -70.155502572917612 147.92508665568312 0 0 0 0 173.71968971913157 -324.42321166128454 0 -324.42321166128454 164.95853984780842 0 0 0 0 -50.922821172978729 -116.44987037441751 0 -116.44987037441751 310.7857602264703 0 0 0 0 -86.514038321372936 -48.367536268495314 0 -48.367536268495314 156.1319525372819 0 0 0 0 -124.03339964665065 -64.103196333891901 0 -64.103196333891901 150.10145754384575 0 0 0 0 -109.54058834729949 -71.731916602264391 0 -71.731916602264391 147.86474930981785 0 0 0 0 -97.819578944356181 -67.752877716571675 0 -67.752877716571675 140.80044333242404 0 0 0 0 -106.99703344071168 -70.415210427468992 0 -70.415210427468992 143.17215250300069 0 0 0 0 -111.95104476128472 -73.903367256039928 0 -73.903367256039928 142.86312637755054 0 0 0 0 -108.0874972276215 -82.427619399153627 0 -82.427619399153627 121.77809114595584 0 0 0 0 -105.56668841978535 -71.700879181051278 0 -71.700879181051278 96.202589111824636 0 0 0 0 -100.20900639011234 -74.832171139529237 0 -74.832171139529237 61.922007844383188 0 0 0 0 -120.52880238678335 -66.665880100714276 0 -66.665880100714276 108.16544795516529 0 0 0 0 -111.1016260348224 -64.019424143208198 0 -64.019424143208198 70.752234847022919 0 0 0 0 -76.552469700953225 -63.316157873512566 0 -63.316157873512566 65.221481640975981 0 0 0 0 16.637440390316669 -36.070003472819877 0 -36.070003472819877 82.229696011911244 0 0 0 0 -107.01703595669824 -75.703883709051297 0 -75.703883709051297 58.961735852717538 0 0 0 0 -129.97277982917149 -85.76975355653849 0 -85.76975355653849 75.907388224284659 0 0 0 0 -102.95778744461131 -77.986254772018583 0 -77.986254772018583 59.918118312954903 0 0 0 0 4.0203126726386103 -35.221267741313767 0 -35.221267741313767 72.582697595325868 0 0 0 0 -137.70058597122261 -11.926141339747119 0 -11.926141339747119 85.918277023287374 0 0 0 0 -131.02659575437428 -70.38762944066184 0 -70.38762944066184 70.44163293067686 0 0 0 0 -81.428409181502246 -53.403707898500187 0 -53.403707898500187 74.405769831722012 0 0 0 0 -113.26256512671534 -90.285315675992024 0 -90.285315675992024 66.773940418279381 0 0 0 0 -74.765955358838767 -66.89664890587801 0 -66.89664890587801 59.813717546112514 0 0 0 0 -140.07659498152498 -54.680661607591901 0 -54.680661607591901 42.89982879179297 0 0 0 0 -95.538014743156964 -62.444655034691095 0 -62.444655034691095 69.721566506092131 0 0 0 0 -60.155823890945555 -59.419753013181264 0 -59.419753013181264 42.901074103842802 0 0 0 0 0.92919074599558371 -13.41532580352461 0 -13.41532580352461 14.280239695558137 0 0 0 0 -50.493332909494228 -72.72680901188005 0 -72.72680901188005 72.086342104816026 0 0 0 0 -214.49969354405766 -107.57394897800259 0 -107.57394897800259 76.711638458742527 0 0 0 0 -152.67123434593668 -64.8212842696812 0 -64.8212842696812 2.4088670361343247 0 0 0 0 -60.450997292587999 -3.839292297796419 0 -3.839292297796419 30.037202086648904 0 0 0 0 -47.224045563372783 -13.857638692155888 0 -13.857638692155888 27.405297777400847 0 0 0 0 -59.459005556349211 -39.647856931489045 0 -39.647856931489045 5.9367636379822102 0 0 0 0 -86.830357502913103 -53.021373307026806 0 -53.021373307026806 42.845101973289275 0 0 0 0 -153.68305268092081 -42.218104377345298 0 -42.218104377345298 48.029684542656469 0 0 0 0 -32.068508837313857 -75.195923181141552 0 -75.195923181141552 107.86805524168631 0 0 0 0 -34.306960619578604 -59.395496478595305 0 -59.395496478595305 67.393209980335087 0 0 0 0 -40.889223281992599 -63.648123114391638 0 -63.648123114391638 77.506743260964868 0 0 0 0 -47.873184869473107 -16.474223247757436 0 -16.474223247757436 -6.6982449751461246 0 0 0 0 -54.533569624400116 -84.158133794298919 0 -84.158133794298919 66.188273038995703 0 0 0 0 -81.878188915383362 -57.609474490380308 0 -57.609474490380308 65.854283943001064 0 0 0 0 -58.92244245649411 -59.328043506100983 0 -59.328043506100983 63.294365396009596 0 0 0 0 -46.396461155163706 -78.144550961653295 0 -78.144550961653295 57.101937428480596 0 0 0 0 -40.744372432571254 -95.826912996035389 0 -95.826912996035389 61.998748800047906 0 0 0 0 -94.081518842693185 -95.3235728901127 0 -95.3235728901127 70.312097026282572 0 0 0 0 -95.098195410770131 -120.61926917142409 0 -120.61926917142409 135.83982984970498 0 0 0 0 -88.751223044964718 -175.73581096744601 0 -175.73581096744601 60.156326406693552 0 0 0 0 -75.57750852011668 -104.86853877698013 0 -104.86853877698013 173.12158985938004 0 0 0 0 -80.843023299750712 -98.84543499582378 0 -98.84543499582378 166.23368208413012 0 0 0 0 16.815359935892047 24.77791405361495 0 24.77791405361495 -105.65415295268758 0 0 0 0 -198.34435695363209 -255.72936929570278 0 -255.72936929570278 87.083797819643223 0 0 0 0 -126.40361675330496 -161.51026280700898 0 -161.51026280700898 -256.36912924257922 0 0 0 0 -47.310317053284962 -216.35255768790375 0 -216.35255768790375 -197.74003733111022 0 0 0 0 -183.34889619307069 -308.16505716978645 0 -308.16505716978645 -295.73344662270392 0 0 0 0 -3.5273159617324552 -5.6334280773019714 0 -5.6334280773019714 -5.8277670868358769 0 0 0 0 -49.476860590002616 -121.09526981280214 0 -121.09526981280214 11.613366181583842 0 0 0 0 -15.622046293108724 -39.392770276775991 0 -39.392770276775991 0.40895649598678574 0 0 0 0 -29.928593328135321 -144.78130333936861 0 -144.78130333936861 36.240965507065994 0 0 0 0 -18.25049881299492 -18.031308538531448 0 -18.031308538531448 3.0352082670378877 0 0 0 0 -31.835839714287431 -60.739501731422934 0 -60.739501731422934 -16.992625809230958 0 0 0 0 -26.793417192726224 -16.022187615987193 0 -16.022187615987193 -4.8892736816879676 0 0 0 0 -26.9377864459384 -25.209152598054061 0 -25.209152598054061 9.0242024199615116 0 0 0 0 -39.049059547760407 -4.927997575576228 0 -4.927997575576228 30.24978334933985 0 0 0 0 -5.0714978829782922 -16.67490054807422 0 -16.67490054807422 2.8263264603010612 0 0 0 0 -4.6009872690483462 -16.418828980931721 0 -16.418828980931721 -8.7815119604056235 0 0 0 0 -15.421535324346337 -4.2053353308420043 0 -4.2053353308420043 0.70310089870186232 0 0 0 0 1.756772498231669 -10.233420321978713 0 -10.233420321978713 4.5747207161930419 0 0 0 0 -7.372079524298897 -21.075777690937684 0 -21.075777690937684 2.2300086696923245 0 0 0 0 -19.981076877826126 -22.570464522737893 0 -22.570464522737893 7.5002355010656174 0 0 0 0 0.0024716644402360544 -21.6083567411697 0 -21.6083567411697 6.98535303362587 0 0 0 0 -10.649717373948079 -17.543776899248769 0 -17.543776899248769 36.621453032275895 0 0 0 0 -5.4927724377164395 1.4462630995691939 0 1.4462630995691939 -0.78736466768761204 0 0 0 0 436.29310394986533 163.89868953404948 0 163.89868953404948 -1935.8561090874573 0 0 0 0 754.77870096793049 -913.66671367258823 0 -913.66671367258823 -831.90870005535544 0 0 0 0 42.715122852765489 -227.80575119217974 0 -227.80575119217974 -714.61150339997403 0 0 0 0 -102.56518012011657 -422.73535182073465 0 -422.73535182073465 -260.71759493154241 0 0 0 0 18.088057501183357 -248.13315963411878 0 -248.13315963411878 -200.93786015910155 0 0 0 0 -194.22980636521243 -363.72435494427191 0 -363.72435494427191 300.64283325865108 0 0 0 0 61.726935192738893 79.300814350026485 0 79.300814350026485 280.35535354798367 0 0 0 0 -81.051811718440149 387.11202534933545 0 387.11202534933545 1090.8612293373108 0 0 0 0 134.16530941896053 -245.09061934593228 0 -245.09061934593228 114.77302043799864 0 0 0 0 -0.42417039904103149 -186.24361857589247 0 -186.24361857589247 1168.7936387036461 0 0 0 0 -312.51604296398 -763.13803467488469 0 -763.13803467488469 913.05630679561 0 0 0 0 9.3043331082501481 -6.4371690266735868 0 -6.4371690266735868 5.7377232199380614 0 0 0 0 -6.8555188750615343 -4.9896128952859726 0 -4.9896128952859726 -7.5717672846949426 0 0 0 0 -17.105285015044501 -12.651769553915074 0 -12.651769553915074 20.104130583247752 0 0 0 0 0.41908297995814303 -12.490107732675408 0 -12.490107732675408 -0.55172789772041142 0 0 0 0 -29.333920601537102 -0.32898494788969401 0 -0.32898494788969401 8.0179224792227615 0 0 0 0 -42.939562242117972 -38.656989920949854 0 -38.656989920949854 24.81073321859003 0 0 0 0 -50.98657233393169 -46.644620089413365 0 -46.644620089413365 229.14646840827481 0 0 0 0 -62.681181352003478 -141.19522289831184 0 -141.19522289831184 148.49023139588826 0 0 0 0 1.8847904745603046 -7.2720262600191177 0 -7.2720262600191177 8.761196588029577 0 0 0 0 -163.20172938499309 -13.313024090162799 0 -13.313024090162799 38.774036286115006 0 0 0 0 32.522051145642763 -78.635008199962613 0 -78.635008199962613 164.21209120171989 0 0 0 0 17.814169920503616 -22.514701519351604 0 -22.514701519351604 20.141479052575505 0 0 0 0 14.280755273299292 -0.97501692203513812 0 -0.97501692203513812 214.33707515697097 0 0 0 0 -22.532903392653679 -45.458399337032461 0 -45.458399337032461 42.413569036216359 0 0 0 0 -24.436447414702855 -19.982476059218968 0 -19.982476059218968 16.164834925637649 0 0 0 0 8.5301984469988383 -39.587833405304991 0 -39.587833405304991 24.759334269951069 0 0 0 0 -20.010906676208833 -59.259342821969767 0 -59.259342821969767 42.914367846286041 0 0 0 0 -123.92403026911779 -17.951579749955272 0 -17.951579749955272 33.771578616564511 0 0 0 0 -29.747690792738751 -16.259426483489449 0 -16.259426483489449 36.902813787596585 0 0 0 0 -12.55178846178751 -61.714643191626237 0 -61.714643191626237 41.492503863759339 0 0 0 0 -13.418581732627757 -46.773684975086155 0 -46.773684975086155 17.209426984677634 0 0 0 0 -0.21845080087950919 -66.069532572779281 0 -66.069532572779281 9.667685357562732 0 0 0 0 21.13392476606532 -40.940916490901145 0 -40.940916490901145 34.145263847160095 0 0 0 0 21.055091955895477 -42.045096770027158 0 -42.045096770027158 43.676398813549895 0 0 0 0 29.454273294390759 -19.052481846770803 0 -19.052481846770803 6.258205235985784 0 0 0 0 -16.935977809768474 -7.2670830703200124 0 -7.2670830703200124 27.535580671081107 0 0 0 0 3.2208798446517903 -29.138292525654833 0 -29.138292525654833 41.417837130371481 0 0 0 0 0.22810959473815728 0.11952305078102654 0 0.11952305078102654 6.2979947324998733 0 0 0 0 -12.464097270712955 -25.625908235655515 0 -25.625908235655515 73.526411752638523 0 0 0 0 -20.568352139642229 -49.777153616174473 0 -49.777153616174473 1.5540354603094784 0 0 0 0 -9.9955420407641213 -17.93735175691836 0 -17.93735175691836 19.52667275730164 0 0 0 0 -0.21629929364000042 -26.053333212217566 0 -26.053333212217566 25.868088733608602 0 0 0 0 -19.939853610878345 -29.595240494170866 0 -29.595240494170866 41.662180644547334 0 0 0 0 114.05954711479717 -429.27841900295607 0 -429.27841900295607 333.1693912291712 0 0 0 0 116.69141674172715 -434.49334375562466 0 -434.49334375562466 343.06068476310975 0 0 0 0 0.044073766199289821 -461.88070766735291 0 -461.88070766735291 387.3888504099159 0 0 0 0 133.50065230886685 -584.41586380602166 0 -584.41586380602166 499.8212331327104 0 0 0 0 208.64128478015482 -491.8773059580235 0 -491.8773059580235 315.27265482921666 0 0 0 0 357.33842809239286 -431.92502648988375 0 -431.92502648988375 210.98974632767658 0 0 0 0 248.05598542689404 -326.1837555271286 0 -326.1837555271286 169.58884039589611 0 0 0 0 163.55340522056213 -335.09309098007725 0 -335.09309098007725 208.20851319998974 0 0 0 0 196.65909882494452 -223.82254682994835 0 -223.82254682994835 104.9269696933261 0 0 0 0 193.36447862120986 -357.85568369737302 0 -357.85568369737302 218.79818339717167 0 0 0 0 53.54288898350751 -282.74050334696994 0 -282.74050334696994 257.84021219964052 0 0 0 0 79.056599502586323 -185.40190042131007 0 -185.40190042131007 160.59886748547433 0 0 0 0 63.384339580588858 -304.96095685596811 0 -304.96095685596811 290.30204368618433 0 0 0 0 0.054643227209453471 -388.09585399652497 0 -388.09585399652497 324.65871779397276 0 0 0 0 52.62468532595085 -337.09711353947205 0 -337.09711353947205 370.87005074271656 0 0 0 0 -18.927833665635262 170.73949912136959 0 170.73949912136959 524.50904341623391 0 0 0 0 0.32196101374574937 -357.39840564445331 0 -357.39840564445331 394.82609597022019 0 0 0 0 -34.274301760218805 -279.93590886455058 0 -279.93590886455058 561.93187738050983 0 0 0 0 4.2115885011747878 -4.1514696447961796 0 -4.1514696447961796 -0.90950018482951123 0 0 0 0 -0.0095022786969706508 -9.3005610525364855 0 -9.3005610525364855 -3.9583388204046059 0 0 0 0 -1.9243004333839053 -31.120827106253273 0 -31.120827106253273 113.74134484719002 0 0 0 0 5.2958517562126701 -5.7414787296505665 0 -5.7414787296505665 3.6470202963415659 0 0 0 0 -31.254683434781327 -2.7998748760819581 0 -2.7998748760819581 111.78305393418123 0 0 0 0 -0.0069623790239760897 -16.24681314639265 0 -16.24681314639265 -7.5035270508378744 0 0 0 0 -10.872065733885393 -20.042661260136811 0 -20.042661260136811 -1.9876736329169944 0 0 0 0 -8.0232892859785352 -11.196584051969694 0 -11.196584051969694 -4.4037935119704343 0 0 0 0 -25.92964772641426 -13.571281282878772 0 -13.571281282878772 27.330828472273424 0 0 0 0 -0.92133313335943967 -9.7847100395010784 0 -9.7847100395010784 11.583550131485026 0 0 0 0 -27.002792852254061 0.72313977862359025 0 0.72313977862359025 84.189163482005824 0 0 0 0 -11.203560660229414 8.5382707216849667 0 8.5382707216849667 186.4750134815331 0 0 0 0 6.7468029807787389 -21.761019008350559 0 -21.761019008350559 75.400788180624659 0 0 0 0 -48.225535770936403 -74.732091673333343 0 -74.732091673333343 196.05927399760549 0 0 0 0 -68.895345811863081 -49.532470934191224 0 -49.532470934191224 297.43444820447621 0 0 0 0 -69.618820093965041 -185.20054193241231 0 -185.20054193241231 337.37045558743557 0 0 0 0 -11.412409257696709 -167.73057246429198 0 -167.73057246429198 241.31068223169132 0 0 0 0 -48.854956299568585 -113.66969184801746 0 -113.66969184801746 207.63656558014191 0 0 0 0 27.19579221951426 -8.0684588073745545 0 -8.0684588073745545 247.82562640950528 0 0 0 0 -194.23717323492747 -87.478802125326183 0 -87.478802125326183 251.53184007600794 0 0 0 0 -80.423450687900186 -99.976687858194055 0 -99.976687858194055 78.203716255738982 0 0 0 0 -130.3575625794474 -81.463700050589978 0 -81.463700050589978 102.83078794895118 0 0 0 0 -130.26468180809752 -88.184618969358326 0 -88.184618969358326 -71.997378107364057 0 0 0 0 -49.932107499978883 -54.481833353045886 0 -54.481833353045886 94.127143867532141 0 0 0 0 -84.898042814864311 -125.65195015115023 0 -125.65195015115023 206.16011184962554 0 0 0 0 -71.483623757318128 -64.811352308701316 0 -64.811352308701316 91.726387995891855 0 0 0 0 -70.090557065526809 -48.24565379046021 0 -48.24565379046021 19.49946409635595 0 0 0 0 -131.52293438648485 -39.956636635244649 0 -39.956636635244649 23.305045623594197 0 0 0 0 -120.18659478586051 -9.851256687179557 0 -9.851256687179557 59.544542522038682 0 0 0 0 -170.51485034963116 -15.952399915193382 0 -15.952399915193382 43.433952494524419 0 0 0 0 -95.182450475107544 -37.188676877789021 0 -37.188676877789021 37.263524985319236 0 0 0 0 -93.174649659866191 -13.232113678420546 0 -13.232113678420546 37.853404913112172 0 0 0 0 -54.384939518320607 8.1583678216629778 0 8.1583678216629778 72.62402354191363 0 0 0 0 -64.833079845702741 -16.418198342787946 0 -16.418198342787946 23.564040586199553 0 0 0 0 -125.7820880029758 -132.5371094162947 0 -132.5371094162947 107.21267056352008 0 0 0 0 -72.75856509713168 -116.82058816276717 0 -116.82058816276717 65.034061731084449 0 0 0 0 -125.74304989814846 -125.33344605881211 0 -125.33344605881211 80.768438303857693 0 0 0 0 -169.70587766697281 -144.14658590831823 0 -144.14658590831823 104.94732722056506 0 0 0 0 -102.55369053946924 -99.877777074158075 0 -99.877777074158075 22.442274169443408 0 0 0 0 -184.31281390588265 -74.429560466829571 0 -74.429560466829571 37.925795692488464 0 0 0 0 -31.524172271832214 -5.605967486289444 0 -5.605967486289444 17.068350142846612 0 0 0 0 -211.09468645323068 10.3315060027453 0 10.3315060027453 10.903083061981306 0 0 0 0 -152.33936979090504 111.45302435136546 0 111.45302435136546 102.85641037822643 0 0 0 0 -270.65388684155187 -60.604749131438439 0 -60.604749131438439 59.217593720495643 0 0 0 0 -256.35150724934647 -159.1763424356177 0 -159.1763424356177 268.80272083277578 0 0 0 0 -514.06011352548376 55.599685311455687 0 55.599685311455687 415.41481261781701 0 0 0 0 -609.60780292958952 -274.46985896633123 0 -274.46985896633123 258.41889511981026 0 0 0 0 -91.332506955222925 -104.15379008968739 0 -104.15379008968739 50.449047228306881 0 0 0 0 -75.201359109531694 -130.72865668207157 0 -130.72865668207157 61.800191644627631 0 0 0 0 -126.52786500520597 -83.295224330326164 0 -83.295224330326164 65.597478959942237 0 0 0 0 -265.65906151119998 -239.79926458038153 0 -239.79926458038153 178.72965574098635 0 0 0 0 -322.90826770428976 7.6433471798209212 0 7.6433471798209212 5.3112725107166625 0 0 0 0 -28.146490429266123 -27.363937764330331 0 -27.363937764330331 32.969265437219292 0 0 0 0 92.612833059858531 -134.16134563670494 0 -134.16134563670494 136.01035259943455 0 0 0 0 8.7591783858463828 -8.78218986061637 0 -8.78218986061637 3.6201381883055319 0 0 0 0 227.24896880681626 -302.51700193845318 0 -302.51700193845318 23.625006663467502 0 0 0 0 -82.518638042965563 -201.05310935060368 0 -201.05310935060368 147.5794369199474 0 0 0 0 -25.393782433683782 -23.241221689039179 0 -23.241221689039179 26.960100383120022 0 0 0 0 -377.7465084240539 -481.40717685682466 0 -481.40717685682466 56.765178503992502 0 0 0 0 -859.10274728602963 -465.55014241785102 0 -465.55014241785102 113.48513018965605 0 0 0 0 -437.91027584974654 205.15527506551007 0 205.15527506551007 -436.68317942468275 0 0 0 0 -446.24566062615486 -525.58526854647789 0 -525.58526854647789 -324.8261755456333 0 0 0 0 -503.48342709150165 340.00332486590924 0 340.00332486590924 42.979661078279605 0 0 0 0 -478.49297161877621 285.36419377950369 0 285.36419377950369 -300.36932839706424 0 0 0 0 -539.71441475540632 227.39815667241783 0 227.39815667241783 138.8958349772729 0 0 0 0 -521.77445955428993 200.62291471709614 0 200.62291471709614 -185.03653972863685 0 0 0 0 130.6560230760806 303.32624454506185 0 303.32624454506185 -6.1716245888965204 0 0 0 0 -200.13853053934872 -303.732628876729 0 -303.732628876729 -527.2911460193427 0 0 0 0 -234.48657538654516 -170.73905289795221 0 -170.73905289795221 88.605695175217988 0 0 0 0 7.6260694751459255 -5.2303982926953267 0 -5.2303982926953267 0.67355738395716003 0 0 0 0 -874.9757992021041 -84.590901522664353 0 -84.590901522664353 448.30901519293002 0 0 0 0 -370.33945758265327 -120.50764451627765 0 -120.50764451627765 453.60212149787185 0 0 0 0 -525.62776722555282 199.53550845467362 0 199.53550845467362 89.821076524822274 0 0 0 0 -28.078282996321832 -34.982125575055193 0 -34.982125575055193 50.799461844599961 0 0 0 0 -487.90416938078124 82.996294811535336 0 82.996294811535336 314.45377978944998 0 0 0 0 -611.70001799502643 260.93096055592468 0 260.93096055592468 274.81371157710964 0 0 0 0 -419.93545709727914 62.929135291215061 0 62.929135291215061 140.08832467344473 0 0 0 0 -533.15202419020352 193.41727627270484 0 193.41727627270484 92.789877276183688 0 0 0 0 -421.41280748238205 -132.63771055252801 0 -132.63771055252801 106.89999411998724 0 0 0 0 -388.88056666835928 19.2847114546596 0 19.2847114546596 -67.864536304434296 0 0 0 0 -386.76510418250746 -54.640635339965229 0 -54.640635339965229 266.47495484407409 0 0 0 0 -348.83300111100834 -52.355896205412137 0 -52.355896205412137 110.462223003502 0 0 0 0 -202.96063244834659 -156.35131649277173 0 -156.35131649277173 96.553808072581887 0 0 0 0 -316.07842864505801 16.406714369060865 0 16.406714369060865 27.494385198580858 0 0 0 0 -245.39609697964625 -138.39321678619308 0 -138.39321678619308 109.28118015244087 0 0 0 0 -182.45520660474722 -78.860644729269552 0 -78.860644729269552 99.247168932299246 0 0 0 0 -35.707343463378493 -164.78363410293605 0 -164.78363410293605 73.267261939685341 0 0 0 0 -192.76521213768501 -110.29977152862648 0 -110.29977152862648 143.58632888051216 0 0 0 0 100.02023113769246 -188.75753861976409 0 -188.75753861976409 139.08272050030791 0 0 0 0 -28.179920378170209 -85.729510133534859 0 -85.729510133534859 145.7829048784879 0 0 0 0 -11.616053311139694 -162.38091359033569 0 -162.38091359033569 237.22424705583217 0 0 0 0 -23.820546312781516 -112.02613221338652 0 -112.02613221338652 172.04805699449207 0 0 0 0 78.479308107407633 -141.68196863717299 0 -141.68196863717299 80.287096134030435 0 0 0 0 -36.374315364519134 -149.41950149925833 0 -149.41950149925833 132.5962532001231 0 0 0 0 64.567419951607008 -206.57021141345831 0 -206.57021141345831 188.81949751021421 0 0 0 0 267.76567561968113 -315.32044118468548 0 -315.32044118468548 143.32370542103126 0 0 0 0 144.63524465812952 -178.59938365427843 0 -178.59938365427843 85.636169664088811 0 0 0 0 120.64580466566258 -207.61749459414568 0 -207.61749459414568 74.05908916172848 0 0 0 0 -131.33244038515841 -158.47752874217986 0 -158.47752874217986 104.75427241646321 0 0 0 0 -141.53481571338489 -130.60620819313226 0 -130.60620819313226 44.129755218265927 0 0 0 0 -190.6421991266543 -120.15125420243567 0 -120.15125420243567 107.46495541879267 0 0 0 0 -210.16848616935022 -77.49477421735719 0 -77.49477421735719 86.735932257346576 0 0 0 0 -207.56176850611519 -81.362235068545488 0 -81.362235068545488 67.584330168494489 0 0 0 0 -34.384646083257394 -116.58669668342554 0 -116.58669668342554 75.088117513645557 0 0 0 0 -162.91111053746863 -150.86374917448757 0 -150.86374917448757 113.26274309193832 0 0 0 0 142.79862787025922 73.284606102502948 0 73.284606102502948 -694.53180876850092 0 0 0 0 -15.432187139830745 -34.006414152395507 0 -34.006414152395507 59.629276278942143 0 0 0 0 -1753.8271783216187 -426.2867951631315 0 -426.2867951631315 372.97282048687703 0 0 0 0 -211.00934925253387 -78.184581582292594 0 -78.184581582292594 69.03479084934952 0 0 0 0 -1160.5212343800231 357.63355009068346 0 357.63355009068346 -57.737199631174008 0 0 0 0 -197.68056805648666 -96.3975070515271 0 -96.3975070515271 29.233113073249115 0 0 0 0 -1378.9956786039693 -1273.7845982096278 0 -1273.7845982096278 -1492.3950396682449 0 0 0 0 -20.655867109603378 2.6601856366573884 0 2.6601856366573884 20.100438533496003 0 0 0 0 -6.736218139056291 -462.20094784047046 0 -462.20094784047046 -581.0245029853977 0 0 0 0 5.9952196301552476 -10.006490659090161 0 -10.006490659090161 4.9440431239744385 0 0 0 0 -1906.065139421873 48.11245368478194 0 48.11245368478194 -542.15021975659329 0 0 0 0 74.963416664635588 -769.61246398006324 0 -769.61246398006324 -1160.0418401604111 0 0 0 0 99.084248489671154 -987.56844113449188 0 -987.56844113449188 337.12988686691824 0 0 0 0 -434.27884469628043 -349.36158116566639 0 -349.36158116566639 -463.59048184809944 0 0 0 0 -119.40577097725196 -143.4142707699045 0 -143.4142707699045 25.125751110079541 0 0 0 0 -475.71876617346425 -311.09144964876214 0 -311.09144964876214 -343.04901223542493 0 0 0 0 -561.39484698370143 -244.21491896449334 0 -244.21491896449334 -302.23956299788551 0 0 0 0 -556.57963896141155 -262.93111602164026 0 -262.93111602164026 -304.41410575819827 0 0 0 0 -709.70226993144752 -376.91293316001463 0 -376.91293316001463 107.82669232548142 0 0 0 0 -699.3212382516067 -418.74767089366105 0 -418.74767089366105 -124.61725684329394 0 0 0 0 -156.64450646961632 -393.85209718400802 0 -393.85209718400802 -286.10735740656128 0 0 0 0 -409.93533238275268 -284.47911338580889 0 -284.47911338580889 -332.51972380699954 0 0 0 0 -447.11403698757931 -412.07011378590323 0 -412.07011378590323 -197.11212772592626 0 0 0 0 -409.15775960999781 -459.16793354729873 0 -459.16793354729873 -163.83128356310772 0 0 0 0 -422.77876224889769 -381.80772831850481 0 -381.80772831850481 26.071678394870105 0 0 0 0 -231.48866986978101 -398.79383987234178 0 -398.79383987234178 -44.102061186058563 0 0 0 0 -638.10291340709955 -343.89608227660756 0 -343.89608227660756 31.334290623671222 0 0 0 0 -642.81225342284506 -401.67543599678737 0 -401.67543599678737 -293.57814046993371 0 0 0 0 -390.8167007475422 -460.54460645546533 0 -460.54460645546533 -43.495256332254939 0 0 0 0 -310.05913900802625 -234.02693248364267 0 -234.02693248364267 96.329664789624076 0 0 0 0 -115.48946973524289 -319.38515359206394 0 -319.38515359206394 22.382062676450914 0 0 0 0 83.439240254869219 -92.170293670696992 0 -92.170293670696992 82.351888804725604 0 0 0 0 284.29289043313474 -301.57542387013291 0 -301.57542387013291 40.349008429117021 0 0 0 0 -115.70415332180335 -127.17944194635311 0 -127.17944194635311 41.845898887484822 0 0 0 0 -54.105436559359077 -171.90945393767288 0 -171.90945393767288 -241.21971889352426 0 0 0 0 -130.18911354729789 -480.72224098075685 0 -480.72224098075685 -6.0566761555273843 0 0 0 0 -215.10505125907912 -255.24979166280355 0 -255.24979166280355 237.19813215673275 0 0 0 0 -734.79473338335811 -72.090110053517492 0 -72.090110053517492 245.92983260750407 0 0 0 0 -515.23100437351968 -14.843246043106774 0 -14.843246043106774 157.3553104476523 0 0 0 0 -236.96780251080054 10.665290256805747 0 10.665290256805747 -140.81861103267147 0 0 0 0 -111.4494933917131 -116.30565099457502 0 -116.30565099457502 64.621651447522069 0 0 0 0 -18.890605962511813 -36.653711253384927 0 -36.653711253384927 59.992984662444201 0 0 0 0 152.06569245750143 -116.1026915900311 0 -116.1026915900311 87.346424383589692 0 0 0 0 -447.67810082944925 -61.808736034647154 0 -61.808736034647154 148.06526527079404 0 0 0 0 59.011832215444883 -168.35316776539185 0 -168.35316776539185 162.18175101153429 0 0 0 0 15.74128898834897 -247.40162885668769 0 -247.40162885668769 46.389549612831615 0 0 0 0 87.615042336230545 -134.43805420689614 0 -134.43805420689614 17.907897984958254 0 0 0 0 130.49371693142893 -113.77072662365754 0 -113.77072662365754 23.541130441353744 0 0 0 0 87.651101279741852 -144.83646138837821 0 -144.83646138837821 110.57027944923175 0 0 0 0 47.478117083839606 -80.842043258700869 0 -80.842043258700869 69.680779658367101 0 0 0 0 74.22537604723766 -187.49082682389599 0 -187.49082682389599 143.42596896987015 0 0 0 0 217.40825760636653 -211.43627844971525 0 -211.43627844971525 81.321577996826818 0 0 0 0 -97.676746230247772 -110.48404543095765 0 -110.48404543095765 98.896652141104767 0 0 0 0 27.644217409164185 -92.937401272585859 0 -92.937401272585859 58.766140616505908 0 0 0 0 -94.153084512079658 -120.90170046599815 0 -120.90170046599815 64.871132743872295 0 0 0 0 -77.547754649072886 -79.296164668365236 0 -79.296164668365236 80.488730025273981 0 0 0 0 -34.486298002011608 -124.29633225959697 0 -124.29633225959697 53.110218952449941 0 0 0 0 17.361161334985809 -62.990455465347623 0 -62.990455465347623 91.205410741938977 0 0 0 0 50.144626636964574 -59.197461785383766 0 -59.197461785383766 43.147447572048648 0 0 0 0 23.622648385411594 -74.428607286408806 0 -74.428607286408806 103.24259792106022 0 0 0 0 105.54909956143092 -79.389762401751796 0 -79.389762401751796 -13.044222183854799 0 0 0 0 -11.869590296267454 -28.424016411183402 0 -28.424016411183402 64.654781761694508 0 0 0 0 56.762062459558365 -67.003526161537593 0 -67.003526161537593 98.13100044913881 0 0 0 0 20.811377265083138 -57.947048474452458 0 -57.947048474452458 145.18346796477272 0 0 0 0 -53.293733768048696 -113.03090655089909 0 -113.03090655089909 180.39772047473525 0 0 0 0 -68.460990282590501 -104.30784103522456 0 -104.30784103522456 132.75666188664945 0 0 0 0 -68.371645954233827 -107.99815074153594 0 -107.99815074153594 82.093302155135461 0 0 0 0 -75.471628097817302 -147.07275205758197 0 -147.07275205758197 130.87691805274517 0 0 0 0 -75.19002735617687 -147.24070145443693 0 -147.24070145443693 104.04061615743558 0 0 0 0 -119.37110937239049 -102.9962025364548 0 -102.9962025364548 109.48570076712349 0 0 0 0 -26.507672836014535 -110.6471614192269 0 -110.6471614192269 86.836878729605814 0 0 0 0 -20.012882138849818 -29.539165772761862 0 -29.539165772761862 70.824325974954263 0 0 0 0 -35.873756874212802 12.753993514644232 0 12.753993514644232 10.251372581214262 0 0 0 0 -25.824249029508792 -17.996334078623477 0 -17.996334078623477 84.660086841658995 0 0 0 0 -20.935076154481806 -21.876215266260019 0 -21.876215266260019 17.1245406803741 0 0 0 0 1.4280622559017502 -4.6335374966520249 0 -4.6335374966520249 63.601217973591702 0 0 0 0 -51.047416081777612 -18.483061108739037 0 -18.483061108739037 28.772687769609163 0 0 0 0 -31.720832269114908 -34.962133547553094 0 -34.962133547553094 85.24824526883458 0 0 0 0 -21.089306630601641 -41.974320400488068 0 -41.974320400488068 59.290736767135968 0 0 0 0 -14.041726243114681 -39.468828517121437 0 -39.468828517121437 29.999266406593961 0 0 0 0 -24.352794648497365 -17.076388416575355 0 -17.076388416575355 52.657718952272262 0 0 0 0 -75.851955973805161 1.3397485897494334 0 1.3397485897494334 107.3032536454175 0 0 0 0 -14.580206961483555 -27.118184900076344 0 -27.118184900076344 29.8453728373795 0 0 0 0 -47.814001233244198 -177.16575009789449 0 -177.16575009789449 -153.59658963367474 0 0 0 0 -139.68485098266683 -155.67231580649423 0 -155.67231580649423 -135.0465399418099 0 0 0 0 -94.422199694206938 -18.644908982418201 0 -18.644908982418201 106.28412921892595 0 0 0 0 -118.50519704157341 -228.48805401227446 0 -228.48805401227446 -180.20047584067288 0 0 0 0 -216.15350337450218 -161.74331071739743 0 -161.74331071739743 -61.040210636436314 0 0 0 0 6.3503374525491552 -10.610841134420156 0 -10.610841134420156 4.3634811201420547 0 0 0 0 -145.20864189599524 -155.69961412192242 0 -155.69961412192242 68.480920552722637 0 0 0 0 -178.1085147697886 -275.64235398001256 0 -275.64235398001256 -91.196548523206275 0 0 0 0 -574.51690808519197 -356.09263545743579 0 -356.09263545743579 15.160391087430071 0 0 0 0 -515.70571338117588 -449.29121410706193 0 -449.29121410706193 -17.968316834686448 0 0 0 0 -950.11433434069477 -715.77396797579286 0 -715.77396797579286 -35.199485460958385 0 0 0 0 -678.09272920471267 -731.0079710641312 0 -731.0079710641312 -163.60133713381947 0 0 0 0 -884.32949352651849 -753.95022116195514 0 -753.95022116195514 -165.48253706100877 0 0 0 0 -156.86318118534109 -486.27374324183029 0 -486.27374324183029 -665.16536415872906 0 0 0 0 -291.41175433542958 -330.6167128536963 0 -330.6167128536963 -183.94789014867638 0 0 0 0 -6.9166798051810474 -90.084652620312227 0 -90.084652620312227 -253.09300643853567 0 0 0 0 -53.726954492449295 -134.07916717507578 0 -134.07916717507578 -345.26092453983256 0 0 0 0 -1054.6970628377458 -1230.6268855773874 0 -1230.6268855773874 -762.68441948030886 0 0 0 0 -155.58056834763011 -682.59292307352143 0 -682.59292307352143 -1788.8493222201068 0 0 0 0 -1165.536570528333 375.2062085781954 0 375.2062085781954 134.80945561553563 0 0 0 0 -108.66555615493417 -43.138769447282584 0 -43.138769447282584 -76.504211891071463 0 0 0 0 -12.977436325491226 -3.5146059069670601 0 -3.5146059069670601 -1.7652038805815433 0 0 0 0 -72.224269781807379 -21.714073204890155 0 -21.714073204890155 107.1434976965138 0 0 0 0 -34.331305353485845 -11.414289967809722 0 -11.414289967809722 5.5407086606163229 0 0 0 0 -161.63025791626569 -205.77571669601093 0 -205.77571669601093 -164.48591859448425 0 0 0 0 -111.98016166503658 -56.017949527253222 0 -56.017949527253222 83.858271904751746 0 0 0 0 -25.453323558176635 -42.710848451657512 0 -42.710848451657512 42.586575642446405 0 0 0 0 -264.44297543777247 -767.73850911523982 0 -767.73850911523982 -544.06017729748783 0 0 0 0 -1800.002789121354 -1043.2632603461952 0 -1043.2632603461952 -98.848028107373466 0 0 0 0 -1739.372605083292 -162.37315881898257 0 -162.37315881898257 -385.90650900756373 0 0 0 0 -463.5873091481626 -834.08235383548254 0 -834.08235383548254 -1461.4744528955507 0 0 0 0 -132.74609900970245 -485.97742435200416 0 -485.97742435200416 -813.86833904340892 0 0 0 0 -411.93076518054295 -591.78867200215973 0 -591.78867200215973 -344.41187132239975 0 0 0 0 -594.83485152332833 -81.45704991974867 0 -81.45704991974867 -271.95423619071153 0 0 0 0 -213.11640257052204 -379.72035759809842 0 -379.72035759809842 -41.575027866655546 0 0 0 0 -729.16216802336567 -643.84982454555029 0 -643.84982454555029 -199.90984361849587 0 0 0 0 -354.80017697358562 -344.18660508480752 0 -344.18660508480752 -156.64932610544429 0 0 0 0 -324.78757072016742 -485.60486894890528 0 -485.60486894890528 145.58378523995816 0 0 0 0 -21.391052822906204 -71.554894066956876 0 -71.554894066956876 79.103500643665029 0 0 0 0 -13.89116121912167 -4.0131864685795975 0 -4.0131864685795975 2.4918821174009835 0 0 0 0 -342.55102136651476 -365.18406451645023 0 -365.18406451645023 573.78766657853885 0 0 0 0 -197.94785593718552 -496.72049085625713 0 -496.72049085625713 274.46366099007355 0 0 0 0 -79.232058801324456 -410.31224760181976 0 -410.31224760181976 283.99066863280495 0 0 0 0 17.455089483846677 148.25124812728427 0 148.25124812728427 387.92870476064491 0 0 0 0 -377.62608028622344 -121.88154023118841 0 -121.88154023118841 609.34915644096327 0 0 0 0 -279.30151824638597 -469.50994043241553 0 -469.50994043241553 -48.277866049432134 0 0 0 0 -895.46508564860414 -992.11724507884082 0 -992.11724507884082 -485.77526466619565 0 0 0 0 -1237.2620043365168 -524.11772872862639 0 -524.11772872862639 36.249778863514166 0 0 0 0 -1093.1954879808327 -585.08137096492101 0 -585.08137096492101 2.2587671832461638 0 0 0 0 -1153.2021462642588 -240.4689972485703 0 -240.4689972485703 626.687043739621 0 0 0 0 -729.32507423129573 295.96667087789865 0 295.96667087789865 1235.6962349814935 0 0 0 0 -7.8019773583901042 -2.1019698520868815 0 -2.1019698520868815 1.3286373068733646 0 0 0 0 -631.12267427653933 -141.56726212500757 0 -141.56726212500757 275.01819771962982 0 0 0 0 -561.78341837748667 105.66937593871853 0 105.66937593871853 183.71256529932725 0 0 0 0 -743.42460672877496 -96.930971601201236 0 -96.930971601201236 15.328232118594315 0 0 0 0 -732.61281344258168 -138.79829058353789 0 -138.79829058353789 -95.898238292071255 0 0 0 0 -514.886039760313 2.9852187186525043 0 2.9852187186525043 -390.0064967903636 0 0 0 0 -450.09725567142596 -104.02758428787092 0 -104.02758428787092 -366.31400140348069 0 0 0 0 -599.31758799043018 -132.84798654161932 0 -132.84798654161932 -216.02913692795846 0 0 0 0 -802.23900536337169 119.93390017253296 0 119.93390017253296 -142.05800816396186 0 0 0 0 -779.22070378171338 -146.46496160808056 0 -146.46496160808056 -13.824891819323966 0 0 0 0 -536.95097820580122 -388.56527706218185 0 -388.56527706218185 -181.32053832437396 0 0 0 0 -756.88325741548033 -245.15705136116048 0 -245.15705136116048 -237.28808890355958 0 0 0 0 -687.23341358918697 -340.9121177482848 0 -340.9121177482848 -107.60234868799535 0 0 0 0 -575.28027667306014 -476.21551687905594 0 -476.21551687905594 -168.40110645964887 0 0 0 0 -518.7097298920562 -422.51280515080725 0 -422.51280515080725 -100.41740358031757 0 0 0 0 -652.07179770879156 -382.3381320771623 0 -382.3381320771623 26.865369663355523 0 0 0 0 -537.42239747323038 -592.07643922402212 0 -592.07643922402212 275.28572769165112 0 0 0 0 -401.38479867743808 -383.33512701103064 0 -383.33512701103064 23.48063968202041 0 0 0 0 -357.55076998553704 -148.76320201242743 0 -148.76320201242743 -15.032996687259583 0 0 0 0 -555.93728734237084 -355.63866868776495 0 -355.63866868776495 283.40925973752928 0 0 0 0 -1845.0012210738787 -83.755745732654759 0 -83.755745732654759 2216.3012261462463 0 0 0 0 -715.25146596503328 -374.49333978372124 0 -374.49333978372124 532.82495657169602 0 0 0 0 -75.445265707949943 -69.601300186227633 0 -69.601300186227633 -22.608290905805902 0 0 0 0 -1525.8587716342881 -644.0321230908994 0 -644.0321230908994 -334.15273806604364 0 0 0 0 -1603.9185978561582 1367.7153330923138 0 1367.7153330923138 907.12799212509162 0 0 0 0 -3872.8045867978071 -905.06818100266446 0 -905.06818100266446 112.57020457411272 0 0 0 0 -2499.8684371362397 -4900.805600008789 0 -4900.805600008789 -1188.2562014794275 0 0 0 0 738.01302607217804 1048.2603094396327 0 1048.2603094396327 -5222.1542560391863 0 0 0 0 -3411.1082882512419 -1456.0940484782532 0 -1456.0940484782532 -333.22819675399114 0 0 0 0 -849.06985434225135 0.91897901685160832 0 0.91897901685160832 -473.44943500990485 0 0 0 0 -913.26164693793908 -197.5572575859951 0 -197.5572575859951 -254.76935652019893 0 0 0 0 -631.42977205805437 -422.297005627408 0 -422.297005627408 -273.78274316942407 0 0 0 0 -695.3725300304759 -181.78484740247768 0 -181.78484740247768 -537.0223782064495 0 0 0 0 -653.85343336906226 -404.6756307423293 0 -404.6756307423293 -285.07743116056372 0 0 0 0 -614.93842330355255 -118.0650610208977 0 -118.0650610208977 -878.32745920828529 0 0 0 0 -793.42464725305763 -402.66411816975415 0 -402.66411816975415 -654.82724557938127 0 0 0 0 -1173.920014057192 -75.657469675541506 0 -75.657469675541506 -220.85647122378214 0 0 0 0 -80.844263080844996 -56.059093854635385 0 -56.059093854635385 -21.85462224249116 0 0 0 0 -738.22464409196255 204.77976902332011 0 204.77976902332011 -541.75856217244109 0 0 0 0 -504.90686478403222 -156.26650152462298 0 -156.26650152462298 420.07687111155519 0 0 0 0 -704.03058522156311 86.197252287975957 0 86.197252287975957 141.89779340462337 0 0 0 0 -631.7482102336362 -77.258702418927896 0 -77.258702418927896 129.26472677088714 0 0 0 0 -956.90030897769611 228.93453073742148 0 228.93453073742148 -147.23569328576741 0 0 0 0 -429.23648192845212 -6.1278735777044631 0 -6.1278735777044631 69.926612072367789 0 0 0 0 -416.82387399872823 -80.510271982203449 0 -80.510271982203449 -154.55496011548166 0 0 0 0 -500.50421869810089 -135.69934268278894 0 -135.69934268278894 -26.986428021447864 0 0 0 0 -479.83188864884141 -166.65024171994082 0 -166.65024171994082 -47.999039344556877 0 0 0 0 -480.65824997271557 -53.62683091379813 0 -53.62683091379813 -313.13295397830007 0 0 0 0 -495.06743613231811 -130.97541248040579 0 -130.97541248040579 -24.263693330836759 0 0 0 0 -1395.5733571726014 258.08429441689805 0 258.08429441689805 -256.29816630990672 0 0 0 0 -2109.8788115050993 66.790160001623008 0 66.790160001623008 94.752629413836985 0 0 0 0 -2065.2444984961185 -333.46341197737274 0 -333.46341197737274 -54.080848788242292 0 0 0 0 -2729.5331795988022 -121.69165179179436 0 -121.69165179179436 203.49194762387197 0 0 0 0 -1533.7901471172809 -187.06124475284014 0 -187.06124475284014 -190.98136476685977 0 0 0 0 -1298.0019798479771 -307.0292312524025 0 -307.0292312524025 -185.61707393124379 0 0 0 0 -1822.1633632518933 -114.40674077381118 0 -114.40674077381118 -47.395086977692699 0 0 0 0 -1175.6768898072187 142.47859767049704 0 142.47859767049704 79.338302619204114 0 0 0 0 -3093.6067943339003 -627.29146386109642 0 -627.29146386109642 5.7628740839563761 0 0 0 0 -3183.3299866719171 -500.6660171836138 0 -500.6660171836138 39.310417572443839 0 0 0 0 -1968.5401040780707 -432.44731503765615 0 -432.44731503765615 -177.54190211853711 0 0 0 0 -2540.0794594695908 -1267.5175778865014 0 -1267.5175778865014 -366.93705733368552 0 0 0 0 -2066.9507154545281 -606.626448737803 0 -606.626448737803 -182.28740711824503 0 0 0 0 -2600.7458564294793 -703.1190981420059 0 -703.1190981420059 -71.621155201265537 0 0 0 0 -2597.673456491882 -469.60274621713631 0 -469.60274621713631 -145.93322602374246 0 0 0 0 -2776.6807834822102 -616.89393443091467 0 -616.89393443091467 -85.953724417116064 0 0 0 0 -2856.947714767768 -347.61969307609661 0 -347.61969307609661 -438.02462679181917 0 0 0 0 -2459.3605846592982 -725.44545196527906 0 -725.44545196527906 -331.87293226578186 0 0 0 0 -2621.0028323167644 -701.27222863706993 0 -701.27222863706993 -276.78865278158992 0 0 0 0 -2829.6825498877442 -873.31014661772133 0 -873.31014661772133 -109.72835268569543 0 0 0 0 -2623.1804192714117 -681.11502636780244 0 -681.11502636780244 65.191791143610317 0 0 0 0 -2567.2599759166187 -967.44402106145208 0 -967.44402106145208 -183.75516820604389 0 0 0 0 -3275.6636670294101 -1516.6543859632802 0 -1516.6543859632802 -374.99550959895168 0 0 0 0 -2418.6311566013464 -897.29403140570321 0 -897.29403140570321 -383.80885838613904 0 0 0 0 -1705.2062034012533 -1153.5495999316056 0 -1153.5495999316056 -1322.604985019294 0 0 0 0 -1701.2409695971874 -1367.449554532066 0 -1367.449554532066 -1983.9290857473134 0 0 0 0 -3787.3722477522097 -2208.9062930418859 0 -2208.9062930418859 -1303.3021831032638 0 0 0 0 -1647.8091923318862 130.22965773050873 0 130.22965773050873 -3305.7262501673363 0 0 0 0 -2438.4435603776365 -2195.3364613335179 0 -2195.3364613335179 -2908.3862706375257 0 0 0 0 -2274.4200191766722 609.19155319419951 0 609.19155319419951 457.76115998536443 0 0 0 0 -37.467392787145968 -6.7878975101078254 0 -6.7878975101078254 -3.676365186143927 0 0 0 0 -455.28849008816178 -1961.5718193547946 0 -1961.5718193547946 -3708.1777873198371 0 0 0 0 -4098.6002498560993 -601.62146930930794 0 -601.62146930930794 255.21396438142074 0 0 0 0 114.78032529834309 -1784.853621691957 0 -1784.853621691957 -573.0958544061541 0 0 0 0 -5166.7893955540203 -2145.3922936432073 0 -2145.3922936432073 -470.99593862393886 0 0 0 0 -1688.7494679405208 -144.94586039011983 0 -144.94586039011983 -957.978024924485 0 0 0 0 -2037.7293988303354 -1290.322130478766 0 -1290.322130478766 245.20764624626281 0 0 0 0 -729.81657466795878 -1340.2780954422014 0 -1340.2780954422014 -34.856217718326661 0 0 0 0 -1453.4641211455746 -108.68331242231648 0 -108.68331242231648 -255.88784327409849 0 0 0 0 -1.0123255828694369 -7.2212183076225926 0 -7.2212183076225926 1.9148934318187187 0 0 0 0 1166.2892093313858 -433.8893575532602 0 -433.8893575532602 -382.78569461492862 0 0 0 0 -903.27833304490196 -686.57710335501201 0 -686.57710335501201 968.48827343853191 0 0 0 0 -587.74499571001797 -1221.7279250591187 0 -1221.7279250591187 -100.15801330609611 0 0 0 0 -681.26355403226626 -1504.5625451598485 0 -1504.5625451598485 -152.54006728384229 0 0 0 0 -620.59995855644229 -1524.1018722461681 0 -1524.1018722461681 -537.34728620031183 0 0 0 0 -1809.9326120234036 -1682.1751092677232 0 -1682.1751092677232 630.08762556856709 0 0 0 0 -959.98591291550838 -1676.8924825429308 0 -1676.8924825429308 -603.03495266103164 0 0 0 0 -1079.0980787365988 -2275.7018583367317 0 -2275.7018583367317 -2727.5188528459294 0 0 0 0 -51.546489507192746 -824.08967070839913 0 -824.08967070839913 -2832.3272136540627 0 0 0 0 33.950642553914804 -368.29188163676832 0 -368.29188163676832 -646.9670320208063 0 0 0 0 -513.6612472413326 -1072.2291450122211 0 -1072.2291450122211 -348.26524078972761 0 0 0 0 -455.98226311831968 -1319.3638303630851 0 -1319.3638303630851 -1035.9091776856867 0 0 0 0 -854.09449615003541 -2005.928106608776 0 -2005.928106608776 207.58998748912347 0 0 0 0 -152.63161519814457 -2651.378617867776 0 -2651.378617867776 -2877.7036239814424 0 0 0 0 13.845439382013012 -18.110066628144097 0 -18.110066628144097 10.39948598884518 0 0 0 0 -120.88978910540754 -2903.4367053238007 0 -2903.4367053238007 -960.28578291769509 0 0 0 0 -2067.3552653652005 499.46858855699611 0 499.46858855699611 -3453.8191901098398 0 0 0 0 8.4777074064070348 -18.827591911552844 0 -18.827591911552844 -17.380880879371869 0 0 0 0 -1813.6037774919387 -2131.4708946590172 0 -2131.4708946590172 -538.73845214878111 0 0 0 0 -6310.773470519096 -2608.4100986128951 0 -2608.4100986128951 933.8274855785894 0 0 0 0 -1647.4719450992416 1878.2263865190234 0 1878.2263865190234 -2396.8378411767803 0 0 0 0 -1863.8928965837667 -2627.0446499484469 0 -2627.0446499484469 93.885243419688777 0 0 0 0 -506.63846007065149 -2640.6114915905591 0 -2640.6114915905591 -530.09038832378974 0 0 0 0 -658.04057419742458 -1573.3253709823819 0 -1573.3253709823819 1110.1591584624748 0 0 0 0 -103.71144122743863 -2026.3272316851217 0 -2026.3272316851217 -368.65892896928744 0 0 0 0 -974.75383737505763 -2167.1245854012086 0 -2167.1245854012086 192.64473179621564 0 0 0 0 1009.2708416671376 -1435.7524888081762 0 -1435.7524888081762 1111.3607203067404 0 0 0 0 1.7585224108316311 -1.1546842691162169 0 -1.1546842691162169 14.422707238273368 0 0 0 0 -1587.6784921567887 -469.9707694749668 0 -469.9707694749668 -382.17802905658573 0 0 0 0 -197.9125958152872 -898.89692786236265 0 -898.89692786236265 -1863.4011141998853 0 0 0 0 -2865.8934009762015 -3021.7409723528854 0 -3021.7409723528854 -1901.377977895816 0 0 0 0 -2071.3276823944761 -982.21407420489595 0 -982.21407420489595 1233.3704274826432 0 0 0 0 -1647.3989121907798 -67.743004169892629 0 -67.743004169892629 215.62901402208445 0 0 0 0 -420.20421167523455 -474.98327039563196 0 -474.98327039563196 339.75140689776163 0 0 0 0 -117.9751212784322 -20.931138033647585 0 -20.931138033647585 -368.18390261882314 0 0 0 0 -95.76700091854093 -36.447899139300119 0 -36.447899139300119 10.928443871986119 0 0 0 0 98.590441935524041 -26.167375398191648 0 -26.167375398191648 0.80956611458458827 0 0 0 0 -37.811041330103762 -713.46061079070932 0 -713.46061079070932 1732.7078692327291 0 0 0 0 -130.76217750136857 -763.99911489065255 0 -763.99911489065255 1762.6430212442556 0 0 0 0 -258.86249833548209 -300.60513288673621 0 -300.60513288673621 3103.2525809261733 0 0 0 0 163.07456052300404 -1710.2476582011077 0 -1710.2476582011077 2162.0803608073184 0 0 0 0 -671.98971880049794 -1303.7752912750784 0 -1303.7752912750784 1779.2496281726314 0 0 0 0 -615.41970135862357 -1876.1378867962817 0 -1876.1378867962817 91.313101312279287 0 0 0 0 -17.602193946542684 -1277.1212372909417 0 -1277.1212372909417 398.94941905070664 0 0 0 0 -263.09885897755157 -1384.5613700307913 0 -1384.5613700307913 341.67369372248868 0 0 0 0 60.590999324573204 -999.18244183024308 0 -999.18244183024308 410.50965514230484 0 0 0 0 -229.70206283108564 -794.41132546913286 0 -794.41132546913286 -1260.7141289067058 0 0 0 0 -1052.7083693165478 -1445.1482813832977 0 -1445.1482813832977 -1052.5001754959924 0 0 0 0 -1543.3628797053098 -777.90147852305859 0 -777.90147852305859 -715.63467034531459 0 0 0 0 8.2639661915067393 -19.374652274110474 0 -19.374652274110474 24.323068305450732 0 0 0 0 -1165.195567991861 -1834.4923564282087 0 -1834.4923564282087 -328.07197274240048 0 0 0 0 -719.22070109504421 -805.60509317771766 0 -805.60509317771766 -1026.7787770034884 0 0 0 0 -741.54910600729636 -823.31386493443688 0 -823.31386493443688 -902.56559766029113 0 0 0 0 2.1102629448342327 -7.6449201062214911 0 -7.6449201062214911 14.611292012265006 0 0 0 0 8.0517234988510609 -172.67584319684823 0 -172.67584319684823 -408.15235309668606 0 0 0 0 1073.4496284145571 -1052.3967013363422 0 -1052.3967013363422 145.61499839745511 0 0 0 0 -1320.4068940075231 547.26582659384178 0 547.26582659384178 1087.3705943535635 0 0 0 0 -2175.2485521205163 -526.50912001631286 0 -526.50912001631286 2756.0624800882592 0 0 0 0 23.597323276509997 -830.08383979312384 0 -830.08383979312384 2797.8519410770559 0 0 0 0 512.99053375073709 -287.74475650362274 0 -287.74475650362274 2582.6001842930627 0 0 0 0 52.027640755695757 66.405346011289112 0 66.405346011289112 -5.3657524388586353 0 0 0 0 53.43675406577529 -3.729739194909147 0 -3.729739194909147 1.6856381312931052 0 0 0 0 -1197.4964246296731 -22.30075521933577 0 -22.30075521933577 3250.8710423648818 0 0 0 0 -973.70460287743481 -45.076903606717678 0 -45.076903606717678 3223.5924082072243 0 0 0 0 16.398678424047489 -3.7184498752243371 0 -3.7184498752243371 1.8800572322495828 0 0 0 0 -528.8226653681777 -246.50439562210477 0 -246.50439562210477 -53.960363345474434 0 0 0 0 -129.04081478327862 -464.88250886462822 0 -464.88250886462822 -474.2362345161697 0 0 0 0 -914.60539038752904 -666.71943552695461 0 -666.71943552695461 -595.29269907571052 0 0 0 0 -435.76982478884747 -258.15572925400852 0 -258.15572925400852 -550.01562681270411 0 0 0 0 -1642.5747002940334 -263.3281492801425 0 -263.3281492801425 -333.23263591873319 0 0 0 0 -684.67216644779546 -689.71865747030756 0 -689.71865747030756 -530.86185942901591 0 0 0 0 -642.82933430717094 -478.95268361632293 0 -478.95268361632293 -569.20058744509697 0 0 0 0 -613.79267115762923 -581.60011535234935 0 -581.60011535234935 -207.63861795582307 0 0 0 0 -416.91696308288374 -54.143305112445319 0 -54.143305112445319 -342.84914671604793 0 0 0 0 70.06843174254027 144.88832370235025 0 144.88832370235025 -139.59694083722479 0 0 0 0 -37.856642312472104 -240.44697154157484 0 -240.44697154157484 -460.21002107525828 0 0 0 0 172.07512434315868 29.415449246171463 0 29.415449246171463 -204.71988916560076 0 0 0 0 158.91581757917447 -58.587115464723972 0 -58.587115464723972 41.065813534968697 0 0 0 0 -96.235448425983805 -106.13967056548933 0 -106.13967056548933 39.203205027373379 0 0 0 0 328.62042537535308 -140.50218668942901 0 -140.50218668942901 -77.862936800307651 0 0 0 0 597.3771165520011 -423.04823927794814 0 -423.04823927794814 6.8285705158676251 0 0 0 0 -261.79328825301491 -75.089473709114827 0 -75.089473709114827 48.296296387002258 0 0 0 0 -91.703649624826426 -98.880337199550581 0 -98.880337199550581 55.934867536026282 0 0 0 0 28.130317039256624 -22.594509459752764 0 -22.594509459752764 57.438221280431435 0 0 0 0 414.83484374692489 -74.239062155981628 0 -74.239062155981628 -253.88407093537535 0 0 0 0 -132.39442418361432 -417.56942894721396 0 -417.56942894721396 272.55994799705149 0 0 0 0 -378.2857505216889 -5.2718757723696399 0 -5.2718757723696399 95.495836514881375 0 0 0 0 -412.13251358811249 -181.01443200356061 0 -181.01443200356061 -647.03731521481495 0 0 0 0 -70.551334675363989 -83.1516878770029 0 -83.1516878770029 -10.429316176197739 0 0 0 0 -197.06984150265635 -136.66367973061051 0 -136.66367973061051 182.39942477699788 0 0 0 0 404.26929175101395 -616.67193639628431 0 -616.67193639628431 -12.064944825558996 0 0 0 0 -111.62524283800599 -95.153009175337701 0 -95.153009175337701 87.515607311540563 0 0 0 0 22.458123470084502 -62.696495853808798 0 -62.696495853808798 8.9904729854308592 0 0 0 0 -267.38603966042865 -479.47548673791789 0 -479.47548673791789 827.65285304095369 0 0 0 0 -244.39893558551557 -576.71061938925868 0 -576.71061938925868 -290.39131843903397 0 0 0 0 -185.59522700012894 -139.74418691407118 0 -139.74418691407118 35.19626824292618 0 0 0 0 37.674906417861791 -43.074510409014863 0 -43.074510409014863 35.313926276780634 0 0 0 0 -1374.695299826838 -1396.3943313238096 0 -1396.3943313238096 -1.4027504502118973 0 0 0 0 -1013.9208647873602 -623.09027674675599 0 -623.09027674675599 -485.42589050613151 0 0 0 0 -1128.0992860257466 -816.09845119449346 0 -816.09845119449346 -90.632107268354957 0 0 0 0 10.012208102181859 -21.08444607870041 0 -21.08444607870041 26.693597897525756 0 0 0 0 -133.2783646232856 -394.80550340297577 0 -394.80550340297577 -291.46702210767762 0 0 0 0 -982.50821386073221 -360.26528916601501 0 -360.26528916601501 283.15664773502795 0 0 0 0 -169.70199061864696 -93.265140729870154 0 -93.265140729870154 28.443034997784707 0 0 0 0 31.62013249191466 -31.407854947859533 0 -31.407854947859533 28.319371976269871 0 0 0 0 -954.92381571944861 -360.33696607140519 0 -360.33696607140519 -144.03677816278105 0 0 0 0 -179.89656578337235 -117.34110942787765 0 -117.34110942787765 42.635578737412288 0 0 0 0 -194.70697754572029 -284.3505291923957 0 -284.3505291923957 -83.387901675130706 0 0 0 0 -12.204381989387912 -97.785434099940176 0 -97.785434099940176 47.911107440304477 0 0 0 0 42.487360355386045 -236.57313480191988 0 -236.57313480191988 48.596035280327953 0 0 0 0 385.83714709585183 -337.81115268936264 0 -337.81115268936264 84.564179718989706 0 0 0 0 349.89448926109617 -361.98057674453958 0 -361.98057674453958 134.67307115579388 0 0 0 0 165.74172144095064 -399.06455147727775 0 -399.06455147727775 91.869114921204073 0 0 0 0 153.40226569041261 -113.44505679042413 0 -113.44505679042413 15.125344026080711 0 0 0 0 481.56101596856024 -249.83204869057317 0 -249.83204869057317 -9.0373269056926802 0 0 0 0 394.3045973025728 -1111.937146721205 0 -1111.937146721205 2102.3347144040026 0 0 0 0 2186.9744644387392 -1112.4723822278784 0 -1112.4723822278784 51.214721271622693 0 0 0 0 -2.0654871918231947 -766.89860543519512 0 -766.89860543519512 1656.0068397388477 0 0 0 0 11.84987102951527 -8.5931543533812089 0 -8.5931543533812089 4.42566617677398 0 0 0 0 273.35210776451277 -62.978141832348228 0 -62.978141832348228 -457.32628085088618 0 0 0 0 -247.49431371188257 279.00987019838612 0 279.00987019838612 -271.52194955015239 0 0 0 0 -332.70654606979224 -175.77988766730596 0 -175.77988766730596 -233.60150249511935 0 0 0 0 -901.11816279540653 222.43854015418674 0 222.43854015418674 -84.523385144861095 0 0 0 0 23.137597554213471 -21.650694642964964 0 -21.650694642964964 18.017534471638136 0 0 0 0 162.10123042913619 -314.79794467618194 0 -314.79794467618194 -237.66258973668573 0 0 0 0 -403.79429323249497 -8.2168624599908071 0 -8.2168624599908071 -259.35172593816969 0 0 0 0 -1317.3846083534881 -462.17819230606074 0 -462.17819230606074 -35.85921302332099 0 0 0 0 -453.92546603895789 -517.68331426655186 0 -517.68331426655186 -282.03412456322258 0 0 0 0 -1696.8818511551517 -1596.9336583983225 0 -1596.9336583983225 -681.79609354808872 0 0 0 0 10.919857663900189 -27.484873684281069 0 -27.484873684281069 46.292014855280136 0 0 0 0 1187.1162303182064 -475.86150587020256 0 -475.86150587020256 -2263.9391046501496 0 0 0 0 -177.55681789305527 180.03936036489085 0 180.03936036489085 -504.10300392445947 0 0 0 0 -168.26685477845604 -1472.8853727273245 0 -1472.8853727273245 -1918.4292235652392 0 0 0 0 -1097.8033522841288 1341.6598062001642 0 1341.6598062001642 1846.2835003632631 0 0 0 0 -475.23054321584641 144.56716181598688 0 144.56716181598688 3016.9713485260527 0 0 0 0 -1239.555891439988 402.71085324102887 0 402.71085324102887 3146.5971309812608 0 0 0 0 5.4194805004429156 -13.407000055276228 0 -13.407000055276228 27.616845629929372 0 0 0 0 806.0161148529296 -1586.9271309716407 0 -1586.9271309716407 492.26537313369386 0 0 0 0 -990.92923399299616 -303.00879417034758 0 -303.00879417034758 2711.6152404064514 0 0 0 0 -912.60824871895602 258.23172454914584 0 258.23172454914584 3007.3798006789502 0 0 0 0 -1041.1160142047156 -292.86762497743047 0 -292.86762497743047 3835.238685306404 0 0 0 0 1415.0477689944819 -1516.0028266102684 0 -1516.0028266102684 832.19789724616703 0 0 0 0 -449.74290954388562 -460.82003325905526 0 -460.82003325905526 339.14742028020112 0 0 0 0 725.51495954896382 -479.01881855433282 0 -479.01881855433282 517.26810035009498 0 0 0 0 653.02034240812645 -990.17555705914197 0 -990.17555705914197 522.15607488480634 0 0 0 0 1504.8977518254046 -23.039632484072794 0 -23.039632484072794 1299.8647577556972 0 0 0 0 314.19988861532329 -753.33498089997192 0 -753.33498089997192 1700.4628107574636 0 0 0 0 618.74848523546825 -1364.1525121426134 0 -1364.1525121426134 2854.5368086993867 0 0 0 0 1086.3031516080227 -2151.1825166142271 0 -2151.1825166142271 1331.8727997553815 0 0 0 0 450.58446337730129 -2100.5019830502206 0 -2100.5019830502206 2124.3572979889523 0 0 0 0 1864.3676904628956 -1197.1316398460597 0 -1197.1316398460597 1558.6727269373059 0 0 0 0 9.9739509322680533 -492.62476776436461 0 -492.62476776436461 1413.4817965158672 0 0 0 0 59.175444134569261 -919.33415250698636 0 -919.33415250698636 1558.3234319617909 0 0 0 0 481.1169267989826 -775.78810352760206 0 -775.78810352760206 1247.4642206864692 0 0 0 0 -89.515835341648199 -468.09009985125772 0 -468.09009985125772 1314.9360015860782 0 0 0 0 212.56676403635356 -476.86299028456779 0 -476.86299028456779 729.15909041233738 0 0 0 0 -103.27630161421257 -464.39681144469773 0 -464.39681144469773 737.38908088681069 0 0 0 0 42.98583249564399 -453.33891750211853 0 -453.33891750211853 702.56910830249353 0 0 0 0 -81.455582466587657 -480.73616802935044 0 -480.73616802935044 1107.3054343217673 0 0 0 0 -0.21093112464586738 -643.83011870072914 0 -643.83011870072914 976.43506650341078 0 0 0 0 50.302351117628859 -485.34704808475408 0 -485.34704808475408 694.90035935786398 0 0 0 0 -80.237964665706386 -561.40857958522884 0 -561.40857958522884 1160.4736004011083 0 0 0 0 14.648781561118085 -649.15643467181599 0 -649.15643467181599 1102.3461576762525 0 0 0 0 -41.286000457075716 -720.91202679175467 0 -720.91202679175467 1184.3206949301239 0 0 0 0 -0.085907848275383003 -688.55588314607303 0 -688.55588314607303 1150.8527185069488 0 0 0 0 -17.288985881605186 -693.98382200133619 0 -693.98382200133619 1184.0134403105958 0 0 0 0 22.420367478436674 -776.91081938035495 0 -776.91081938035495 1060.5680382920955 0 0 0 0 -0.004384033294627443 -675.87689209636119 0 -675.87689209636119 937.10162495755503 0 0 0 0 38.007857652752136 -828.10313075497243 0 -828.10313075497243 1222.5462722437005 0 0 0 0 283.76042715304357 -806.27468397563462 0 -806.27468397563462 853.2156453283751 0 0 0 0 324.6453068680421 -900.32091908586335 0 -900.32091908586335 996.27427109660312 0 0 0 0 391.77787634727429 -1036.9258599664327 0 -1036.9258599664327 1130.4894467928134 0 0 0 0 962.02596351383545 -709.29357174427332 0 -709.29357174427332 117.10474355697806 0 0 0 0 453.73444151465083 -1034.2872204608066 0 -1034.2872204608066 924.9492806055041 0 0 0 0 405.61532869748771 -946.76074008216892 0 -946.76074008216892 812.13138044658854 0 0 0 0 206.39245018863585 -648.09190076771483 0 -648.09190076771483 524.54875875842845 0 0 0 0 511.91538768251485 -483.09160429342592 0 -483.09160429342592 174.10624219795136 0 0 0 0 223.92322066226916 -516.09891780941143 0 -516.09891780941143 349.82861732317178 0 0 0 0 385.60469239626764 -691.67936295808295 0 -691.67936295808295 463.20833872661751 0 0 0 0 0.2518261039222125 -560.15977151285006 0 -560.15977151285006 571.98025964570661 0 0 0 0 212.16662135377146 -788.16777523170936 0 -788.16777523170936 763.96413380598824 0 0 0 0 649.5344493766861 -498.56241398696443 0 -498.56241398696443 -891.30942339086141 0 0 0 0 -38.830748949459704 -107.97482403079997 0 -107.97482403079997 -60.706721618338889 0 0 0 0 -524.14064546082409 -0.87786499776848359 0 -0.87786499776848359 -793.32071573550638 0 0 0 0 -405.1652124159591 -142.0094453133388 0 -142.0094453133388 -628.03945086203021 0 0 0 0 -296.11254216331508 -231.93560717380024 0 -231.93560717380024 -786.00573851852459 0 0 0 0 -420.01218447571227 -431.59936319811641 0 -431.59936319811641 -721.68514663526003 0 0 0 0 148.07930944029067 -557.98676056460135 0 -557.98676056460135 -650.97640999135911 0 0 0 0 235.14661288484058 -252.97084534803798 0 -252.97084534803798 -579.73009161765731 0 0 0 0 62.634621843928471 -243.28455039644086 0 -243.28455039644086 -277.54947819786867 0 0 0 0 297.2079097571841 -380.60833267243288 0 -380.60833267243288 -639.27565000807044 0 0 0 0 -349.81350845751513 120.32953475694785 0 120.32953475694785 -1008.2388604560947 0 0 0 0 270.21301253687125 -336.22348532446813 0 -336.22348532446813 -642.31349963607136 0 0 0 0 177.29670710768551 -742.12575940451461 0 -742.12575940451461 -1916.5096516860467 0 0 0 0 -402.05951850349084 467.34261489924029 0 467.34261489924029 -662.47859900785079 0 0 0 0 767.74348729960184 -911.73642996551916 0 -911.73642996551916 -1778.3838327018711 0 0 0 0 -0.3327830633809441 -2.546798774226545 0 -2.546798774226545 -11.798524700883227 0 0 0 0 175.27203023705079 -968.07743190119163 0 -968.07743190119163 -289.03506427799584 0 0 0 0 1431.4609747685317 -538.04640818742291 0 -538.04640818742291 -125.17207090748343 0 0 0 0 669.60604861479078 -469.58149971024704 0 -469.58149971024704 25.376969483198081 0 0 0 0 101.22136040957412 -29.751851859315138 0 -29.751851859315138 -173.7668512119817 0 0 0 0 77.828382738947766 -85.096862629620773 0 -85.096862629620773 110.9007947665159 0 0 0 0 -36.918807793592435 -104.60541612822405 0 -104.60541612822405 -61.563866527567171 0 0 0 0 946.43506977848301 -438.08624189998227 0 -438.08624189998227 -872.44635750686029 0 0 0 0 -132.42427492169827 -46.341112764982427 0 -46.341112764982427 -824.34641239772827 0 0 0 0 -666.6005309858956 -99.8501798782072 0 -99.8501798782072 -9.6138309614534592 0 0 0 0 -332.11753700334884 254.28723658332819 0 254.28723658332819 -123.60463496526518 0 0 0 0 -1.2455429679038339 1.1187161554895653 0 1.1187161554895653 -7.317065572997393 0 0 0 0 194.8149206248745 37.712617600991507 0 37.712617600991507 -705.33465483816872 0 0 0 0 -85.382453965306922 292.95669249493039 0 292.95669249493039 -499.00582847865007 0 0 0 0 -19.267000965617626 34.294801825893956 0 34.294801825893956 -363.25339663188061 0 0 0 0 26.428276010046829 118.87333447295168 0 118.87333447295168 -248.30719114899193 0 0 0 0 -2.2787005397334923 -8.4841333875623945 0 -8.4841333875623945 -10.466204956885036 0 0 0 0 -41.534338888937782 -143.95037961296475 0 -143.95037961296475 -284.04307868028809 0 0 0 0 -34.067574394966414 -26.87921828772096 0 -26.87921828772096 -130.16908139787847 0 0 0 0 -2.5521144343365449 -1.3669813650631113 0 -1.3669813650631113 -133.90899731525951 0 0 0 0 -3.899178894846159 -40.424325858367972 0 -40.424325858367972 -88.904377001659384 0 0 0 0 -2.1517775529923 7.5827646726775555 0 7.5827646726775555 -60.955322529490218 0 0 0 0 216.62334618471868 147.98496606730259 0 147.98496606730259 -155.86143587739934 0 0 0 0 221.07612421855083 -169.20436654310834 0 -169.20436654310834 -76.911921394748788 0 0 0 0 0.096375020452150295 -15.008434955131452 0 -15.008434955131452 -43.399337593330443 0 0 0 0 -3.0429239768200205 -2.9950994636164978 0 -2.9950994636164978 -68.506128950793936 0 0 0 0 -8.3078628298956119 9.3008339353565219 0 9.3008339353565219 -6.6129182755122891 0 0 0 0 -2.0246630953237812 -14.02177340415939 0 -14.02177340415939 -32.130177587893186 0 0 0 0 -3.6655723091971595 -11.03452228855167 0 -11.03452228855167 -51.462943832637393 0 0 0 0 -20.754019032368888 -10.961587862619126 0 -10.961587862619126 -71.264584639313398 0 0 0 0 -14.880495413468452 0.63350919151707785 0 0.63350919151707785 -53.79069912905743 0 0 0 0 -11.190605364800142 14.258956567100981 0 14.258956567100981 -39.177603405886686 0 0 0 0 -678.49731344299107 29.992497104645736 0 29.992497104645736 -175.45728700028121 0 0 0 0 133.37991397597943 -148.45229524086608 0 -148.45229524086608 -310.92363582820326 0 0 0 0 80.88976262486176 -99.603557614766032 0 -99.603557614766032 39.603877953748452 0 0 0 0 -360.07380718167587 -273.28376001307151 0 -273.28376001307151 -338.39678402461868 0 0 0 0 -184.17130766161608 18.183477024948843 0 18.183477024948843 432.9220517015201 0 0 0 0 183.89456694735418 -303.92773451907851 0 -303.92773451907851 48.708772498046983 0 0 0 0 -557.31916397177702 -436.79151672279113 0 -436.79151672279113 -358.69436015900283 0 0 0 0 -3.5657375042903396 -3.531740695035495 0 -3.531740695035495 -5.8413150230494821 0 0 0 0 -547.52154611136939 -234.90728596377085 0 -234.90728596377085 276.72697149168016 0 0 0 0 -440.18660008855659 -637.92806571527399 0 -637.92806571527399 -1277.0528047753651 0 0 0 0 -569.59295305013802 -643.88711404032256 0 -643.88711404032256 -535.99402943316818 0 0 0 0 -502.74812007272476 -804.09937678908091 0 -804.09937678908091 -567.68183931464591 0 0 0 0 -0.49525590046525991 0.88353392369732475 0 0.88353392369732475 -6.7958505589088105 0 0 0 0 -604.70164097762427 -371.64992186530617 0 -371.64992186530617 -433.99054505719687 0 0 0 0 -505.57600443282718 -738.40122766320565 0 -738.40122766320565 -1111.1399965172077 0 0 0 0 98.328102208433847 -88.946475908342109 0 -88.946475908342109 -1298.4358041508676 0 0 0 0 -219.94945857633502 -588.56744371252717 0 -588.56744371252717 -403.51455442142105 0 0 0 0 -341.33965722848507 -228.07852444863966 0 -228.07852444863966 -451.65113740412198 0 0 0 0 -405.92049815624341 -553.71273323377318 0 -553.71273323377318 -272.6016352623883 0 0 0 0 -374.40704768474825 -312.0797141273506 0 -312.0797141273506 -30.16097393965174 0 0 0 0 -68.051470070802679 -117.24324670759415 0 -117.24324670759415 -172.16943977130268 0 0 0 0 -48.946309279638633 -50.300102402591357 0 -50.300102402591357 -55.847793533247938 0 0 0 0 -58.988558221049971 -67.56989918281397 0 -67.56989918281397 -82.8983973755021 0 0 0 0 -7.9172935827750592 4.0358160634277027 0 4.0358160634277027 -20.709390463189607 0 0 0 0 -29.368530544670648 -150.55349065046903 0 -150.55349065046903 -389.78388383095171 0 0 0 0 -62.76007211594515 -244.25546257655151 0 -244.25546257655151 -538.40648321663684 0 0 0 0 -51.458762882570113 -51.690009304980627 0 -51.690009304980627 -47.888716045629948 0 0 0 0 -250.62614909082913 -581.68136478963788 0 -581.68136478963788 -38.621975871074028 0 0 0 0 -353.84949447036962 -295.03429402544862 0 -295.03429402544862 -317.13628285030927 0 0 0 0 -111.55431970949434 -112.05226639408647 0 -112.05226639408647 -327.63311689363036 0 0 0 0 -179.64820531887628 -164.45976561355292 0 -164.45976561355292 -260.88325796621939 0 0 0 0 -259.81387164721036 -293.4316086924664 0 -293.4316086924664 -294.08256720611826 0 0 0 0 -374.66225484151869 -369.65537732270604 0 -369.65537732270604 -375.44113863429084 0 0 0 0 -387.06352755010255 -88.96655155354506 0 -88.96655155354506 -414.50502075665281 0 0 0 0 -350.05411196935847 -360.68708581071769 0 -360.68708581071769 -139.87993870811624 0 0 0 0 -388.15466211244768 -269.57257728294644 0 -269.57257728294644 -104.9100052726717 0 0 0 0 461.18062316718351 -271.27182265171814 0 -271.27182265171814 -8.9949765829805983 0 0 0 0 -701.12272052050321 -521.22854606053079 0 -521.22854606053079 97.068205519788535 0 0 0 0 -10.187557618959577 -6.3943568655322416 0 -6.3943568655322416 3.8023851338134449 0 0 0 0 -400.95150283827024 -404.24841089479378 0 -404.24841089479378 54.699862641908112 0 0 0 0 -47.282251835009028 -52.638869054469069 0 -52.638869054469069 -52.575623848719744 0 0 0 0 -580.30649628137849 -161.25906367027164 0 -161.25906367027164 -170.3635792937348 0 0 0 0 -263.07927752107844 -206.48361179167478 0 -206.48361179167478 -164.05876307096332 0 0 0 0 30.492581503538531 -231.4382056620525 0 -231.4382056620525 206.98456840373888 0 0 0 0 143.60230548551044 -402.99302444374916 0 -402.99302444374916 214.89271984893639 0 0 0 0 94.725538742019125 -67.547587767866844 0 -67.547587767866844 -97.428868354749284 0 0 0 0 212.61633329168944 -250.14310901083718 0 -250.14310901083718 -4.9423612692953611 0 0 0 0 2.7736936271048762 -16.854028373341862 0 -16.854028373341862 -40.605638053093571 0 0 0 0 -40.410967997436337 -111.22119547990353 0 -111.22119547990353 -54.936530087903606 0 0 0 0 -256.25511344397819 -356.05581675942813 0 -356.05581675942813 -15.006283773460382 0 0 0 0 -38.320145967765711 -290.42653453423918 0 -290.42653453423918 -147.90792325451184 0 0 0 0 -272.06615326452993 -137.638242957074 0 -137.638242957074 -234.3075497535101 0 0 0 0 -29.969395288293072 18.051301244700767 0 18.051301244700767 -77.740290546396864 0 0 0 0 -269.92745815310991 -247.36799986290862 0 -247.36799986290862 -101.6084396002459 0 0 0 0 -39.663920353908416 -110.1236998862074 0 -110.1236998862074 -59.26985007565564 0 0 0 0 -166.51537530466885 -433.66711890653096 0 -433.66711890653096 -541.50669488726271 0 0 0 0 -459.28994063241316 -325.81166667929756 0 -325.81166667929756 -568.41210628271074 0 0 0 0 -299.85868383734851 -463.22518140781904 0 -463.22518140781904 -454.94858296793609 0 0 0 0 152.35098595211457 -285.07633786912629 0 -285.07633786912629 -268.07828502422853 0 0 0 0 514.618776483283 -236.40735602680843 0 -236.40735602680843 -412.01586212742404 0 0 0 0 131.22236655159213 -219.13476722863652 0 -219.13476722863652 34.237783375345316 0 0 0 0 65.971534840587992 -249.24506030043176 0 -249.24506030043176 20.797780942704776 0 0 0 0 54.80823878729916 -318.41563778973978 0 -318.41563778973978 66.799228412655793 0 0 0 0 192.3929705374976 -309.74478677572279 0 -309.74478677572279 3.3390991763412785 0 0 0 0 -39.765693264329009 -107.16180669360291 0 -107.16180669360291 -49.816054299550672 0 0 0 0 -41.805891286396218 -189.82717074810876 0 -189.82717074810876 31.196629176272836 0 0 0 0 -72.637559215698275 -249.3492593291212 0 -249.3492593291212 164.33577395484463 0 0 0 0 61.681715359532973 -330.75551742359494 0 -330.75551742359494 79.401721514896963 0 0 0 0 261.28872017769027 -482.45586612384523 0 -482.45586612384523 47.275727172507686 0 0 0 0 52.728597191613517 -344.78336768417466 0 -344.78336768417466 178.97250356933728 0 0 0 0 51.570512190000045 -404.09656055428979 0 -404.09656055428979 240.87441258472973 0 0 0 0 62.936384793227717 -496.72109468652616 0 -496.72109468652616 542.09486130954974 0 0 0 0 458.49703936715377 -626.17455904484086 0 -626.17455904484086 157.94595866880991 0 0 0 0 448.83624841674146 -510.40330743816423 0 -510.40330743816423 191.18427715860889 0 0 0 0 440.79995472500741 -472.9789207728877 0 -472.9789207728877 -73.848292262689938 0 0 0 0 566.5541914194182 -593.92282484747557 0 -593.92282484747557 18.155101780987025 0 0 0 0 263.83017273125006 -502.79351135015168 0 -502.79351135015168 80.690561682169573 0 0 0 0 457.61324135761242 -529.7603241359102 0 -529.7603241359102 -86.711548452743955 0 0 0 0 368.65624950226629 -464.6677060633574 0 -464.6677060633574 -126.20897704763684 0 0 0 0 500.13207827523001 -491.73408718820701 0 -491.73408718820701 -170.85611439629247 0 0 0 0 462.06515242104069 -489.34640002110609 0 -489.34640002110609 -251.89931811449424 0 0 0 0 448.33661431185465 -467.70501426921373 0 -467.70501426921373 -178.16787671394923 0 0 0 0 304.79819946957286 -394.04049875136297 0 -394.04049875136297 -206.48423462934988 0 0 0 0 300.0808341668162 -372.46833168244302 0 -372.46833168244302 -303.39983144257712 0 0 0 0 137.53295300711397 -294.44036023484978 0 -294.44036023484978 -95.861956448845376 0 0 0 0 171.44191546845832 -381.7430437453022 0 -381.7430437453022 -31.632310293101 0 0 0 0 365.04193261135515 -450.58377444171629 0 -450.58377444171629 -169.42073510285263 0 0 0 0 177.61387961661967 -406.14275511578307 0 -406.14275511578307 -5.958391770702292 0 0 0 0 -127.47620310301136 -425.63403808390831 0 -425.63403808390831 -167.29857179394821 0 0 0 0 -257.50254125630636 -704.45286479562515 0 -704.45286479562515 32.491565705120593 0 0 0 0 55.683317831331806 -527.93971928057272 0 -527.93971928057272 -401.9805097909848 0 0 0 0 210.76720974795171 -381.70946893787186 0 -381.70946893787186 102.32647601752251 0 0 0 0 54.752963961854675 -519.3263126548602 0 -519.3263126548602 -12.335067283413082 0 0 0 0 224.02407936987584 -328.83554891019139 0 -328.83554891019139 -240.97684919264884 0 0 0 0 213.26448525232263 -380.38235701872054 0 -380.38235701872054 24.444405188491146 0 0 0 0 349.65653464793286 -414.08764446438636 0 -414.08764446438636 193.80774894076239 0 0 0 0 318.9160196880548 -515.17857340504634 0 -515.17857340504634 -107.55692747391367 0 0 0 0 611.48741988508846 -412.40233366820212 0 -412.40233366820212 -104.24562511665499 0 0 0 0 418.62523360169143 -416.03982650770195 0 -416.03982650770195 -85.317075585577186 0 0 0 0 420.05598203434783 -498.46389340051792 0 -498.46389340051792 -211.54533381679175 0 0 0 0 121.21565765037303 -631.89298618066459 0 -631.89298618066459 -224.63923112705197 0 0 0 0 360.37619229017582 -424.95166052443074 0 -424.95166052443074 -146.11973777211392 0 0 0 0 402.70839561124012 -448.73311297556666 0 -448.73311297556666 -151.71637169708083 0 0 0 0 87.497870053150109 -265.39163335888679 0 -265.39163335888679 16.380905022690058 0 0 0 0 -76.473866223881487 -346.64149410896516 0 -346.64149410896516 57.526999717682429 0 0 0 0 100.07536917497055 -251.5005122264165 0 -251.5005122264165 -415.57081182003822 0 0 0 0 -6.1847164256547558 -2.2240047589776779 0 -2.2240047589776779 0.99129905463545143 0 0 0 0 -235.95626748401264 -774.73629425746549 0 -774.73629425746549 -760.07527737003329 0 0 0 0 -188.31392362730185 -85.151734087139175 0 -85.151734087139175 1043.2191027580375 0 0 0 0 -273.06276984731085 -1119.9541422858201 0 -1119.9541422858201 329.35809492318549 0 0 0 0 280.38181056005124 -316.39759249983399 0 -316.39759249983399 36.64016758568323 0 0 0 0 418.58573731323122 -469.18164602551497 0 -469.18164602551497 -261.81867102259639 0 0 0 0 436.35015846819442 -506.47033183345684 0 -506.47033183345684 -208.92371867664087 0 0 0 0 389.17102334439551 -407.30731342275521 0 -407.30731342275521 30.858663629514922 0 0 0 0 273.95934783924167 -662.84137273891838 0 -662.84137273891838 70.539114719214922 0 0 0 0 273.27075697705732 -963.65447357974017 0 -963.65447357974017 76.640542559774985 0 0 0 0 205.54312088321603 -1127.4746110366777 0 -1127.4746110366777 14.338391726542341 0 0 0 0 1010.3659355653217 -722.00062506777795 0 -722.00062506777795 -90.620580875445739 0 0 0 0 440.46123730757245 -1193.2684148289754 0 -1193.2684148289754 391.87366490406384 0 0 0 0 192.5547076501316 -578.95484184966926 0 -578.95484184966926 812.770858349224 0 0 0 0 -634.97012479623663 -544.79482771723997 0 -544.79482771723997 539.97185869077384 0 0 0 0 -675.94573474371646 -265.7885647486446 0 -265.7885647486446 146.80025685388864 0 0 0 0 -407.96240749536082 -355.5721273653453 0 -355.5721273653453 -9.1538578842300922 0 0 0 0 1.4608644647048266 -2.6856884190086134 0 -2.6856884190086134 11.101088246524462 0 0 0 0 -432.19983411391149 -431.38029534660564 0 -431.38029534660564 -159.67862005586721 0 0 0 0 -530.25760496209841 -391.30727526147894 0 -391.30727526147894 -29.926205965330155 0 0 0 0 -569.50723557304445 -517.16762209761055 0 -517.16762209761055 40.93490063345962 0 0 0 0 -618.25847422375227 -469.92585295473145 0 -469.92585295473145 99.43170333600392 0 0 0 0 597.57375434933056 -660.81961467161454 0 -660.81961467161454 -453.18313692975562 0 0 0 0 549.65782153858163 -480.52294916473693 0 -480.52294916473693 -962.38387290433093 0 0 0 0 308.0857273289148 -328.09716294235659 0 -328.09716294235659 -589.26793465068477 0 0 0 0 255.11951256997054 -326.66216420509818 0 -326.66216420509818 -321.4325892636225 0 0 0 0 429.50749720222666 -418.28649920426687 0 -418.28649920426687 -537.21494072826408 0 0 0 0 423.17912822404469 -432.89436029213675 0 -432.89436029213675 -440.22653192062171 0 0 0 0 452.97480670604273 -491.83313037001881 0 -491.83313037001881 -356.16325952395437 0 0 0 0 454.33669162735896 -512.69350218644286 0 -512.69350218644286 -234.57161622769399 0 0 0 0 444.93352337660326 -518.33781833156013 0 -518.33781833156013 -236.39471063403471 0 0 0 0 428.0573164671514 -718.14454796414611 0 -718.14454796414611 -201.10372137129571 0 0 0 0 330.75617486027477 -709.82891010710273 0 -709.82891010710273 2.3609281936624029 0 0 0 0 518.95966417735326 -780.91423865695913 0 -780.91423865695913 -176.04064018946519 0 0 0 0 531.60894661005295 -739.75466312481649 0 -739.75466312481649 -542.64838287784005 0 0 0 0 510.52569113537902 -1043.7172770234356 0 -1043.7172770234356 -165.24790742481127 0 0 0 0 352.90899260640435 -914.53494514591512 0 -914.53494514591512 -256.61682460908196 0 0 0 0 352.70220170497487 -901.62460138014649 0 -901.62460138014649 153.62683083358388 0 0 0 0 398.78861912185766 -1084.4076089327059 0 -1084.4076089327059 -179.46584705237183 0 0 0 0 394.85463861012067 -1133.7949710588277 0 -1133.7949710588277 -165.21456827501424 0 0 0 0 507.71747208392117 -1029.7545499226785 0 -1029.7545499226785 -233.783147124268 0 0 0 0 545.87200611806475 -1135.3613027922929 0 -1135.3613027922929 -182.07944881561525 0 0 0 0 539.66496366425417 -1056.5551409733544 0 -1056.5551409733544 -242.48100486959174 0 0 0 0 851.50750188162783 -1025.7490559266653 0 -1025.7490559266653 -289.86602078120814 0 0 0 0 652.05026864075626 -1133.7483409223007 0 -1133.7483409223007 -189.49210191122984 0 0 0 0 651.91225436238892 -972.96418372038079 0 -972.96418372038079 -360.63641099699817 0 0 0 0 611.70219748615273 -864.49629306634415 0 -864.49629306634415 -531.09078493139168 0 0 0 0 770.01851956582686 -915.88011517930317 0 -915.88011517930317 -811.84517922453779 0 0 0 0 660.96785065185395 -867.36398218717613 0 -867.36398218717613 -637.39095631179953 0 0 0 0 789.35126142884837 -868.48186204783633 0 -868.48186204783633 -651.51988881611851 0 0 0 0 709.14704679462011 -1071.3387613678715 0 -1071.3387613678715 -300.66955758215227 0 0 0 0 827.63890934280062 -1133.7975293330965 0 -1133.7975293330965 -324.7053100513931 0 0 0 0 1170.6746315805212 -1067.5816176148064 0 -1067.5816176148064 31.810038564157367 0 0 0 0 687.09567037920351 -936.82871622145558 0 -936.82871622145558 1.3002925366017735 0 0 0 0 790.02810911806591 -819.73657994255973 0 -819.73657994255973 435.75141464898115 0 0 0 0 1164.6786326300789 -765.42729730320025 0 -765.42729730320025 263.40877707697928 0 0 0 0 842.04597611362988 -756.97923920699395 0 -756.97923920699395 514.4826558636687 0 0 0 0 661.72633912473975 -842.24177120068771 0 -842.24177120068771 129.98848753182028 0 0 0 0 828.45198997954139 -687.66554995716979 0 -687.66554995716979 161.8924874311906 0 0 0 0 710.16260632732883 -745.1789333773595 0 -745.1789333773595 267.89363248582231 0 0 0 0 636.39573732337158 -1110.2885151008213 0 -1110.2885151008213 -29.734520645022712 0 0 0 0 666.1933357033995 -1040.9089610530814 0 -1040.9089610530814 -111.59779038122724 0 0 0 0 692.90723817134858 -930.0913671022472 0 -930.0913671022472 33.611103929993988 0 0 0 0 768.17381176452909 -995.07116045201019 0 -995.07116045201019 89.035130029851643 0 0 0 0 572.26255931596097 -1019.3752531539194 0 -1019.3752531539194 -79.899654692069817 0 0 0 0 557.49982569564781 -1102.184799312522 0 -1102.184799312522 -224.31847696728437 0 0 0 0 453.52203184220707 -1088.2811890399826 0 -1088.2811890399826 -164.54504443620772 0 0 0 0 500.80310558478232 -1030.6391387496406 0 -1030.6391387496406 -167.24686290218779 0 0 0 0 301.085256903767 -1114.220026753942 0 -1114.220026753942 -168.6211469742284 0 0 0 0 410.17811778753821 -1181.4303708963757 0 -1181.4303708963757 -267.24383793981906 0 0 0 0 510.60206023574574 -1059.6230736646794 0 -1059.6230736646794 -374.53835304419408 0 0 0 0 397.77127380962338 -1114.0379342461988 0 -1114.0379342461988 -505.37688767762302 0 0 0 0 432.98002420630655 -1020.0513370237918 0 -1020.0513370237918 -321.27138359620585 0 0 0 0 550.05722041588888 -911.97703418181572 0 -911.97703418181572 -206.50589990719163 0 0 0 0 569.53241322370013 -941.4431094672891 0 -941.4431094672891 -473.4306001165678 0 0 0 0 525.05763052476686 -909.34889111178836 0 -909.34889111178836 -621.76937230411568 0 0 0 0 505.97355943053844 -925.64127495508546 0 -925.64127495508546 -423.05548692005141 0 0 0 0 645.40577719011344 -732.80536555765502 0 -732.80536555765502 -571.22643355778928 0 0 0 0 581.71261757062894 -945.50318336310147 0 -945.50318336310147 -83.083209673757665 0 0 0 0 673.08472323077149 -798.40117311319409 0 -798.40117311319409 -41.619310069519088 0 0 0 0 594.33800057577901 -907.63579561866027 0 -907.63579561866027 30.393251198272992 0 0 0 0 612.67200088288519 -937.22921380456137 0 -937.22921380456137 -276.25544970602459 0 0 0 0 619.65694954633364 -744.79355965612012 0 -744.79355965612012 -57.645779266546015 0 0 0 0 643.02676757896552 -761.57052942683549 0 -761.57052942683549 -365.89655973297158 0 0 0 0 661.54846925695892 -838.5641717141898 0 -838.5641717141898 -177.97490177844975 0 0 0 0 688.93354733916931 -589.89151903351512 0 -589.89151903351512 -189.7760504467733 0 0 0 0 671.1604452380634 -620.24641582334971 0 -620.24641582334971 63.064820727156985 0 0 0 0 677.39562583401857 -511.99767422431432 0 -511.99767422431432 -53.583906697758721 0 0 0 0 670.85746172827203 -380.31297669757805 0 -380.31297669757805 -193.04209340077796 0 0 0 0 667.11045264840868 -367.4604844832387 0 -367.4604844832387 108.95851228048014 0 0 0 0 525.97385213209782 -781.88499395776125 0 -781.88499395776125 -539.38410077967274 0 0 0 0 699.15734991054342 -551.05796246353361 0 -551.05796246353361 -427.71638012130643 0 0 0 0 607.68130335025489 -717.22512643270966 0 -717.22512643270966 -263.37701980588281 0 0 0 0 680.64680079116079 -459.2727813584188 0 -459.2727813584188 -265.93214550776975 0 0 0 0 745.61844504279725 -533.05152500368831 0 -533.05152500368831 -684.899901259334 0 0 0 0 886.04476967358642 -349.22592369387257 0 -349.22592369387257 -610.32098101812153 0 0 0 0 742.20601317503315 -204.04074983603459 0 -204.04074983603459 -177.81882667332502 0 0 0 0 759.51095252216328 -309.03023398122423 0 -309.03023398122423 -376.50931588161802 0 0 0 0 876.55724247868056 -155.71986040635966 0 -155.71986040635966 -209.07268806833508 0 0 0 0 808.62212015112163 -89.556659642566956 0 -89.556659642566956 -25.064244839497405 0 0 0 0 636.54983586652816 -164.01770956735626 0 -164.01770956735626 160.63823677677101 0 0 0 0 719.52698289693217 -233.43134874807993 0 -233.43134874807993 6.7703428686218103 0 0 0 0 722.72623588312126 -29.1080159311241 0 -29.1080159311241 95.975993691199619 0 0 0 0 637.20961402068497 -153.38598017450749 0 -153.38598017450749 -50.468518825185129 0 0 0 0 566.13816838603816 -159.81062633662259 0 -159.81062633662259 228.53651807413189 0 0 0 0 576.46793401002014 -284.43696744062044 0 -284.43696744062044 349.9832618327091 0 0 0 0 655.47362769239407 -307.72171752793656 0 -307.72171752793656 253.59422563194494 0 0 0 0 522.3647355131834 -344.17412221388986 0 -344.17412221388986 351.07021952234572 0 0 0 0 1081.341697379954 -748.9539829127234 0 -748.9539829127234 319.34866868035169 0 0 0 0 899.730146233298 -436.89957458794652 0 -436.89957458794652 359.6929991728266 0 0 0 0 746.20482389460085 -517.9070071716751 0 -517.9070071716751 418.65248810110461 0 0 0 0 1171.1487679114225 -646.38930636139696 0 -646.38930636139696 445.14365257311147 0 0 0 0 1168.6172061238176 -576.29079671671207 0 -576.29079671671207 338.63869181249731 0 0 0 0 858.87622507031483 -463.34753019361051 0 -463.34753019361051 471.40426431258311 0 0 0 0 714.48251818522112 -620.33627078609061 0 -620.33627078609061 360.8091891602362 0 0 0 0 712.0470574155479 -583.38732408165652 0 -583.38732408165652 73.727449101866796 0 0 0 0 659.98206882165687 -352.52685457497591 0 -352.52685457497591 89.093312971376236 0 0 0 0 669.98959326400654 -421.89423319079833 0 -421.89423319079833 361.2822825616895 0 0 0 0 838.02534583014494 -545.09938172634475 0 -545.09938172634475 201.68639085302493 0 0 0 0 1256.8084226130159 -1962.4128780593528 0 -1962.4128780593528 829.34442473401577 0 0 0 0 -450.03074762722827 -405.49789761676584 0 -405.49789761676584 -290.81070270719647 0 0 0 0 -34.194692041100836 -72.433031065328791 0 -72.433031065328791 -29.426636428545351 0 0 0 0 1938.875148420746 -2044.1613445096627 0 -2044.1613445096627 20.041484600871627 0 0 0 0 787.24303771345876 -2658.1222888105112 0 -2658.1222888105112 308.16741240694319 0 0 0 0 2391.1240010150068 -1398.0612024828206 0 -1398.0612024828206 79.514351000601891 0 0 0 0 2275.5853351397091 -1506.4956210609089 0 -1506.4956210609089 -8.8721738725507748 0 0 0 0 2265.942387038609 -1355.8893678961649 0 -1355.8893678961649 66.576903830142328 0 0 0 0 2462.5893684619805 -1067.3994055654548 0 -1067.3994055654548 326.38627576103318 0 0 0 0 2055.4634513727506 -1305.5857419043023 0 -1305.5857419043023 249.29325244733991 0 0 0 0 2105.8504386283457 -1155.862944662078 0 -1155.862944662078 578.2587284437468 0 0 0 0 -207.56659603061416 -341.11957981867727 0 -341.11957981867727 -333.88694994501384 0 0 0 0 -550.65867161104381 -437.65221482797659 0 -437.65221482797659 -123.26493674428639 0 0 0 0 -550.58022019284545 -350.61503304615871 0 -350.61503304615871 -212.10306005101575 0 0 0 0 -901.9618490058383 -461.47689284541502 0 -461.47689284541502 -160.79585408824278 0 0 0 0 -96.056473897420801 -198.5745717338159 0 -198.5745717338159 -228.30892868194314 0 0 0 0 -2.4110682085055686 -17.478362726834746 0 -17.478362726834746 28.133685429120192 0 0 0 0 -1412.2455401313782 -943.46058383809213 0 -943.46058383809213 -715.77513105551043 0 0 0 0 -2679.4700147848343 -109.21323297762137 0 -109.21323297762137 481.07716235995395 0 0 0 0 1571.241817416274 -1175.9806332896078 0 -1175.9806332896078 655.37255693566658 0 0 0 0 1236.2871876945719 -1154.0166994642987 0 -1154.0166994642987 744.038799458227 0 0 0 0 1457.7442999361665 -975.71064680600284 0 -975.71064680600284 603.2830513289573 0 0 0 0 -3545.7154598676716 -825.09339880932566 0 -825.09339880932566 -753.76828343405577 0 0 0 0 -2986.4601681313361 -1139.5199651279436 0 -1139.5199651279436 -818.41250894999757 0 0 0 0 -3359.9805317700957 -1072.008738653416 0 -1072.008738653416 -497.84173206605192 0 0 0 0 -2573.0104672848247 -633.18551459898754 0 -633.18551459898754 -656.21910025801844 0 0 0 0 -3204.7348255384713 -826.95691128510225 0 -826.95691128510225 -1173.8527104278328 0 0 0 0 2.0769146910429299 -8.1871608353768401 0 -8.1871608353768401 -6.4060858588113998 0 0 0 0 -969.3973927362822 -939.67378633146836 0 -939.67378633146836 -916.15950427423923 0 0 0 0 -1471.0234908910352 -1246.3915482084949 0 -1246.3915482084949 -904.22635096356498 0 0 0 0 -970.55221221153624 -1192.2465718943295 0 -1192.2465718943295 -616.2752737836563 0 0 0 0 -318.38517139104079 -1223.3130854613173 0 -1223.3130854613173 -729.65328342637895 0 0 0 0 -879.46323573982227 -803.64106038057434 0 -803.64106038057434 -193.85874282884834 0 0 0 0 -1515.5797491707926 -1201.7152440907039 0 -1201.7152440907039 -417.61957385922869 0 0 0 0 -1045.9899317706113 -870.08313962387297 0 -870.08313962387297 -116.27561530978164 0 0 0 0 -97.79470272808976 -441.70955766348925 0 -441.70955766348925 -139.74711805053903 0 0 0 0 196.93056908508879 -1262.9334738182115 0 -1262.9334738182115 -358.32509082270917 0 0 0 0 -97.684664125091714 -1231.7270254278858 0 -1231.7270254278858 -102.06364331741315 0 0 0 0 130.97167499324132 -1095.9389380698813 0 -1095.9389380698813 -491.32602370735549 0 0 0 0 330.3331563117099 -1012.6002159698965 0 -1012.6002159698965 -627.89186964938926 0 0 0 0 -303.47200567162508 -1158.1219196313402 0 -1158.1219196313402 -446.01378517562262 0 0 0 0 170.50556273921393 -1127.7156950776025 0 -1127.7156950776025 -943.00637419330815 0 0 0 0 340.14291899080854 -1066.7362164891802 0 -1066.7362164891802 -745.08001931273975 0 0 0 0 171.98719244235053 -1072.0513356327435 0 -1072.0513356327435 -530.66445178932918 0 0 0 0 562.7152588981844 -771.5749739415387 0 -771.5749739415387 -766.81748460611675 0 0 0 0 -22.697170027255197 -938.69989302790327 0 -938.69989302790327 -691.65470718660254 0 0 0 0 270.79143503680825 -1065.8194436743406 0 -1065.8194436743406 -973.90495145055138 0 0 0 0 584.7893453683937 -508.14344481082207 0 -508.14344481082207 -510.06480735186778 0 0 0 0 706.74607645143988 -589.54257700246671 0 -589.54257700246671 -961.90701357344415 0 0 0 0 786.53791266644839 -199.86478678360982 0 -199.86478678360982 -58.892580645950147 0 0 0 0 997.3459712464828 -333.61254925379217 0 -333.61254925379217 -180.53242691454398 0 0 0 0 754.72770414396655 -199.77531609848666 0 -199.77531609848666 -246.18279561870622 0 0 0 0 367.34002609922027 -718.6472475175633 0 -718.6472475175633 -732.07542949859271 0 0 0 0 947.9867211779856 -462.58455923737029 0 -462.58455923737029 -866.35245707859212 0 0 0 0 -2087.2894100422491 -918.96633534883085 0 -918.96633534883085 -446.00730060482238 0 0 0 0 -3.5956013585968662 -5.2943175250787817 0 -5.2943175250787817 -7.7828625490103924 0 0 0 0 -524.92934837238863 -1752.2939446564687 0 -1752.2939446564687 -1274.0037883555269 0 0 0 0 1078.5642390766152 -900.93509096934122 0 -900.93509096934122 -943.66523879400893 0 0 0 0 -2052.1016874546767 -1327.3683580676761 0 -1327.3683580676761 -790.14248909183516 0 0 0 0 506.81424931648507 -909.91046953683508 0 -909.91046953683508 -1364.8570687900065 0 0 0 0 -833.32049419710529 -1251.6418488880026 0 -1251.6418488880026 -922.75580452586655 0 0 0 0 -108.86835734223496 -1213.3132844842228 0 -1213.3132844842228 -1161.0377991310961 0 0 0 0 -880.1911495531167 -1403.1825741198527 0 -1403.1825741198527 -1172.1629701971069 0 0 0 0 -2001.8343679679383 -984.49655137869195 0 -984.49655137869195 -783.66546288065501 0 0 0 0 -0.037678443854076704 0.056182728339052801 0 0.056182728339052801 -39.359780569954673 0 0 0 0 257.74091003494686 917.55901085592495 0 917.55901085592495 1767.7005836541048 0 0 0 0 476.91489494264533 -562.66474771229059 0 -562.66474771229059 1342.2575882786477 0 0 0 0 -3655.0885196604031 -1835.9083256630533 0 -1835.9083256630533 -493.75209596969216 0 0 0 0 -2330.3752294088772 -1388.9420483548056 0 -1388.9420483548056 -864.93427796084507 0 0 0 0 -2652.945580274798 -1454.3440713615109 0 -1454.3440713615109 -784.09431362514079 0 0 0 0 -3476.1563799119904 -1519.8489593294553 0 -1519.8489593294553 -582.85034363679733 0 0 0 0 -2629.3152066421462 -1305.3189168937588 0 -1305.3189168937588 -717.73089141960554 0 0 0 0 -2745.1574943875603 -957.38467115566709 0 -957.38467115566709 -530.44099596274464 0 0 0 0 -3696.6106654412288 -1142.6439155990138 0 -1142.6439155990138 -388.07948581786331 0 0 0 0 -3008.3845005255062 -2492.4750425455677 0 -2492.4750425455677 -1214.9218146884668 0 0 0 0 -2180.870828243962 -1403.4817350906105 0 -1403.4817350906105 -1752.3377534026995 0 0 0 0 -2382.2237884416973 -1438.6372308842865 0 -1438.6372308842865 -855.44414329692154 0 0 0 0 -2013.0901337984396 -1054.0212721801875 0 -1054.0212721801875 -1129.1357001677206 0 0 0 0 134.85913632412849 -2978.2585597258062 0 -2978.2585597258062 -1255.3176965609973 0 0 0 0 -538.61937009761459 -1745.2294869470315 0 -1745.2294869470315 -1722.9270451028578 0 0 0 0 -40.80539385410367 -53.811603867805815 0 -53.811603867805815 -57.59727431108611 0 0 0 0 -1526.1757288937224 -1435.0731108781183 0 -1435.0731108781183 -1809.3090711232644 0 0 0 0 -864.24970280268462 -2710.276873112387 0 -2710.276873112387 -1439.1217094847198 0 0 0 0 -1588.2576411646232 -2695.3577540439192 0 -2695.3577540439192 -1406.6674469454993 0 0 0 0 -4060.8515409068204 -4014.6059622046723 0 -4014.6059622046723 -796.26380521269675 0 0 0 0 1792.5260041097645 3096.5983438982453 0 3096.5983438982453 1105.0861449889328 0 0 0 0 68.849189058615593 -316.67885039444627 0 -316.67885039444627 -1362.7596824804714 0 0 0 0 -1193.3275275451306 -896.12795481786998 0 -896.12795481786998 -1230.6327572784248 0 0 0 0 -1179.1313852382573 -1092.2782939990764 0 -1092.2782939990764 -1349.6765238254229 0 0 0 0 -1818.0402744582971 -50.43420357082141 0 -50.43420357082141 -758.31206137719346 0 0 0 0 -2235.5980721312808 50.86645420435525 0 50.86645420435525 -732.46170860560233 0 0 0 0 -1936.9221421049442 -483.06439260507614 0 -483.06439260507614 -492.68860069064249 0 0 0 0 -3566.0805233528299 -31.80512446974376 0 -31.80512446974376 -42.494058214480901 0 0 0 0 -13.872644600052752 -23.606191418909674 0 -23.606191418909674 -34.685738160882984 0 0 0 0 3893.9951540208422 -1152.2158164601346 0 -1152.2158164601346 -176.48845995496868 0 0 0 0 -2922.9110201155672 132.15576646753743 0 132.15576646753743 -395.38791461299843 0 0 0 0 4443.9092732254212 952.82014790669461 0 952.82014790669461 111.38008290633024 0 0 0 0 3978.616185053048 1702.1560001900375 0 1702.1560001900375 740.76509232248645 0 0 0 0 3002.2426871111675 11.288192532847916 0 11.288192532847916 275.506089317857 0 0 0 0 1872.0287518694531 1639.1081418195913 0 1639.1081418195913 757.2666455368294 0 0 0 0 3096.7059941490006 -1131.5133026267076 0 -1131.5133026267076 79.990521582629299 0 0 0 0 2932.9851402302156 -527.40326199246192 0 -527.40326199246192 294.34550104317168 0 0 0 0 977.58115653079585 -136.890233909362 0 -136.890233909362 1005.2381275738026 0 0 0 0 1860.3672429519356 -718.38249815762174 0 -718.38249815762174 683.736470337848 0 0 0 0 2101.4812584154424 21.131810562867031 0 21.131810562867031 276.80898496861914 0 0 0 0 2002.703025109251 -754.33678065157255 0 -754.33678065157255 687.9602886887169 0 0 0 0 2010.4409749651131 -863.51892762147747 0 -863.51892762147747 358.24339854390564 0 0 0 0 2561.2077414946398 -1811.1942503159999 0 -1811.1942503159999 65.240820195269862 0 0 0 0 -899.21524805716763 -337.8005464992566 0 -337.8005464992566 -289.83646825520555 0 0 0 0 -893.97898708522553 -391.00056208506885 0 -391.00056208506885 -897.31891616506255 0 0 0 0 -535.29473712760955 -785.12678695400746 0 -785.12678695400746 -674.41460307962188 0 0 0 0 -643.68372493462812 -491.26349530717289 0 -491.26349530717289 -1460.5259636099145 0 0 0 0 -866.20535351900617 -919.45313643940608 0 -919.45313643940608 -2165.670285880462 0 0 0 0 -84.704756192026252 -1126.028804116301 0 -1126.028804116301 -1387.599946751805 0 0 0 0 -151.63237544523327 -3.9913571150728728 0 -3.9913571150728728 -30.958406193427436 0 0 0 0 -166.11592481379921 -169.83033378663731 0 -169.83033378663731 -970.31076581866864 0 0 0 0 -44.380315983104083 -470.52464083248037 0 -470.52464083248037 -334.71530733222335 0 0 0 0 -11.679512740854989 -45.101867555657009 0 -45.101867555657009 -23.210858152361652 0 0 0 0 -164.98148330918048 -34.115298463680233 0 -34.115298463680233 28.799850187717311 0 0 0 0 -14.129565692855977 -148.50285050545654 0 -148.50285050545654 2.9317253129984238 0 0 0 0 -3.9978369622419621 -19.084217980773616 0 -19.084217980773616 -15.952316341591363 0 0 0 0 -38.619263750052596 -54.667497614274424 0 -54.667497614274424 -42.955305363834725 0 0 0 0 -130.48198542302998 -134.92114483992054 0 -134.92114483992054 58.833702906600593 0 0 0 0 534.17954022501362 -471.81398993282528 0 -471.81398993282528 548.29366425370654 0 0 0 0 849.2792006914533 -575.26234715997089 0 -575.26234715997089 453.86053007082592 0 0 0 0 922.74585352529175 -198.71270867280941 0 -198.71270867280941 -4.0056628400634509 0 0 0 0 955.95258439912868 -313.46048321342823 0 -313.46048321342823 193.05184113939322 0 0 0 0 1841.6894351602823 -248.57515985151895 0 -248.57515985151895 197.78335903713742 0 0 0 0 724.22459298644389 -998.70572929344689 0 -998.70572929344689 893.18705022265021 0 0 0 0 2.4991595514459846 -8.7654890225540498 0 -8.7654890225540498 -9.1241388883161711 0 0 0 0 2185.6172499952663 -41.112688628069009 0 -41.112688628069009 -6.7120187850377988 0 0 0 0 115.36128816942073 -23.852144526478128 0 -23.852144526478128 43.42570165359939 0 0 0 0 1519.3271904630237 -223.23299721992134 0 -223.23299721992134 -56.491504423662946 0 0 0 0 362.18066306378569 -102.18315205185149 0 -102.18315205185149 -246.4087755599885 0 0 0 0 -0.27639551112517324 -2.6263092762726501 0 -2.6263092762726501 -5.2888768748468813 0 0 0 0 351.74766460149476 -220.00590491721414 0 -220.00590491721414 -49.540183794630138 0 0 0 0 1.1192906464323329 -19.317285847315063 0 -19.317285847315063 -47.260397963025014 0 0 0 0 98.432554875282221 -125.24818966957628 0 -125.24818966957628 193.7235952677147 0 0 0 0 -40.271659706966602 487.67124552520409 0 487.67124552520409 -247.20572649493261 0 0 0 0 395.70020310691325 -67.028362812864998 0 -67.028362812864998 -97.607876139866676 0 0 0 0 -39.396728626546974 -58.185560165397419 0 -58.185560165397419 7.9882741031669866 0 0 0 0 -30.779196199230739 -44.769515891652048 0 -44.769515891652048 -18.599120074355266 0 0 0 0 -30.584576434659539 -80.278523083920845 0 -80.278523083920845 -33.689949551984682 0 0 0 0 -782.8419403572625 -431.2099300489881 0 -431.2099300489881 439.42959364447597 0 0 0 0 -0.78427519009787261 -45.785237092631377 0 -45.785237092631377 7.0820561741943582 0 0 0 0 -810.90934610384284 610.88206582482053 0 610.88206582482053 -126.67178775466891 0 0 0 0 -85.621585258544656 197.01966276563371 0 197.01966276563371 116.91784870618972 0 0 0 0 4.1573037995586333 -27.901771480083923 0 -27.901771480083923 19.759647785741123 0 0 0 0 -691.08176674311471 -415.13325263859349 0 -415.13325263859349 33.956964176611564 0 0 0 0 -620.83423751714872 -514.58584091907051 0 -514.58584091907051 -114.37893434904072 0 0 0 0 -87.305712184403603 -129.33660485290258 0 -129.33660485290258 -428.00382668928432 0 0 0 0 344.44227509111806 -104.85524648771661 0 -104.85524648771661 51.437707775989168 0 0 0 0 -114.66860109040863 -312.43584607273988 0 -312.43584607273988 39.344325648146821 0 0 0 0 -216.46307231982792 167.04360765330694 0 167.04360765330694 -96.04613707073122 0 0 0 0 339.32912349734397 -550.03735242519906 0 -550.03735242519906 254.7847279206635 0 0 0 0 211.68179137734114 -562.49135949198535 0 -562.49135949198535 419.55434439537203 0 0 0 0 727.23238834851509 -802.54878356779341 0 -802.54878356779341 486.02878763989611 0 0 0 0 513.77205491541827 -347.24831334812188 0 -347.24831334812188 357.11275445886895 0 0 0 0 386.19992177197128 -179.85094900607965 0 -179.85094900607965 312.48582053921427 0 0 0 0 103.81424780587258 -237.93253538558793 0 -237.93253538558793 344.4846804350509 0 0 0 0 284.95825321869052 -119.9740713288611 0 -119.9740713288611 287.51823992569553 0 0 0 0 492.80853334983112 -86.850106365937336 0 -86.850106365937336 269.42415819880625 0 0 0 0 493.37973746363423 -70.021008300931499 0 -70.021008300931499 214.32898819728507 0 0 0 0 559.48556973949962 72.257884266561177 0 72.257884266561177 228.72709259460316 0 0 0 0 788.72175964392954 -4.6624849770360015 0 -4.6624849770360015 89.512298539097628 0 0 0 0 1225.6151849874004 -93.814546916712061 0 -93.814546916712061 -34.486620064028102 0 0 0 0 1082.8893388784491 -111.44829440713693 0 -111.44829440713693 287.33619322195193 0 0 0 0 822.79330748136999 78.966870734940585 0 78.966870734940585 291.83054915214234 0 0 0 0 1069.8433656235866 -38.751663221567469 0 -38.751663221567469 991.29920662336008 0 0 0 0 740.14314972344437 34.952515648084955 0 34.952515648084955 430.98477698714851 0 0 0 0 1296.4828522602184 -445.77449233480274 0 -445.77449233480274 102.8389020715349 0 0 0 0 1305.8631191519089 -298.69390865758305 0 -298.69390865758305 142.12202692656319 0 0 0 0 1885.0456822672641 -798.409780223903 0 -798.409780223903 510.48112019209657 0 0 0 0 492.18244145728386 106.60845139366347 0 106.60845139366347 84.575101794620423 0 0 0 0 698.25695947815257 -94.062460823045512 0 -94.062460823045512 238.82466686142243 0 0 0 0 225.10582557374437 198.47114927641542 0 198.47114927641542 -221.39406474729185 0 0 0 0 495.62954296302632 -141.68280870202761 0 -141.68280870202761 159.78235700556661 0 0 0 0 557.68419447778433 -134.41753521663759 0 -134.41753521663759 -418.38997192524039 0 0 0 0 1035.5155305300286 -329.72464951660004 0 -329.72464951660004 -256.03716105342392 0 0 0 0 986.35666480912187 -97.975093155381728 0 -97.975093155381728 -368.31679190110299 0 0 0 0 767.61801286916307 38.191713952449845 0 38.191713952449845 -719.01295854748969 0 0 0 0 1483.3749176437705 -462.54344032698373 0 -462.54344032698373 -306.32315755120726 0 0 0 0 1521.6265848265973 -531.44745891721323 0 -531.44745891721323 -187.26856919599231 0 0 0 0 1018.8149932319066 -234.01306085237411 0 -234.01306085237411 -56.700161799559282 0 0 0 0 1407.1125765499601 -528.30683600825432 0 -528.30683600825432 -210.05972698282403 0 0 0 0 1132.7176904559165 -245.09566048655779 0 -245.09566048655779 -468.97159056560122 0 0 0 0 1473.0835789175762 -612.28155649267501 0 -612.28155649267501 -601.84736651862022 0 0 0 0 361.49269627251124 -286.73897105686763 0 -286.73897105686763 16.89991709509377 0 0 0 0 -2.6850124079441144 -14.311568678418027 0 -14.311568678418027 -40.479775963784185 0 0 0 0 1424.0195366425614 -665.13041764619993 0 -665.13041764619993 -42.349487955661971 0 0 0 0 1621.403819103376 -1247.4277500012936 0 -1247.4277500012936 -202.38539280946941 0 0 0 0 1376.9102629353438 -627.47071793540408 0 -627.47071793540408 -1438.3092790625828 0 0 0 0 22.74332896746148 -15.117683097426429 0 -15.117683097426429 7.1393820787333837 0 0 0 0 -948.39317577754264 -899.81156806035733 0 -899.81156806035733 889.99494980895724 0 0 0 0 1252.3061010761012 -437.3791533145104 0 -437.3791533145104 -849.81198846625102 0 0 0 0 1257.5148942405212 -412.43376755438112 0 -412.43376755438112 -780.72586146116737 0 0 0 0 1672.9708314015006 -1059.1667815731739 0 -1059.1667815731739 -810.55582855281023 0 0 0 0 767.94612010926357 87.027878569367203 0 87.027878569367203 -1388.9606605653644 0 0 0 0 -1089.3290045322865 -1628.7656483161823 0 -1628.7656483161823 2149.5176080768233 0 0 0 0 313.51683623083954 -126.48446417218429 0 -126.48446417218429 -934.05940621593618 0 0 0 0 -563.999910413404 -911.74356689192109 0 -911.74356689192109 -1097.2896911501903 0 0 0 0 211.46757070369495 307.60562222540466 0 307.60562222540466 -906.76967973475439 0 0 0 0 50.44145752036269 -27.964022316447668 0 -27.964022316447668 10.049972446333136 0 0 0 0 881.21459984782268 -1462.6543167994882 0 -1462.6543167994882 -2281.5373328086171 0 0 0 0 265.64008883853967 -180.53451072243138 0 -180.53451072243138 -1341.9005928001789 0 0 0 0 345.02628089992504 -1577.6571806399143 0 -1577.6571806399143 -1094.3455607874323 0 0 0 0 -59.270420955705049 -19.525985844976503 0 -19.525985844976503 -98.304727449477696 0 0 0 0 2536.1504817180539 504.95006194578605 0 504.95006194578605 -1591.0388707565412 0 0 0 0 3452.8475337422569 -197.68487322425608 0 -197.68487322425608 -1746.9019415726011 0 0 0 0 27.072838910722226 -13.225286117979351 0 -13.225286117979351 4.2413907805272277 0 0 0 0 -376.40623148232407 -119.47881424540651 0 -119.47881424540651 37.203038563315204 0 0 0 0 -682.38779191659705 -84.605762428064963 0 -84.605762428064963 338.53347310334539 0 0 0 0 -861.5329902961239 -636.72211563577093 0 -636.72211563577093 -582.83796778285546 0 0 0 0 1.6187646075910855 -2.7570323835074646 0 -2.7570323835074646 -0.32737502712203259 0 0 0 0 459.99349090339092 792.93661862515637 0 792.93661862515637 45.605961591016239 0 0 0 0 2147.974930824741 -248.28589746657394 0 -248.28589746657394 -102.18420963179142 0 0 0 0 822.60885036792024 340.56370429670869 0 340.56370429670869 144.65632080044088 0 0 0 0 -0.16970665207081481 -1.165916162409232 0 -1.165916162409232 0.87828485635409059 0 0 0 0 3145.0668744056456 -264.44097292073957 0 -264.44097292073957 -643.26971002665186 0 0 0 0 2681.8107634079352 245.66040762514945 0 245.66040762514945 -832.5870922455274 0 0 0 0 2640.772358485905 -490.85655238744675 0 -490.85655238744675 14.29678923790425 0 0 0 0 2758.9511006617322 -2.3385299234965942 0 -2.3385299234965942 -90.197457457272321 0 0 0 0 1899.7713795958116 -582.82427392067257 0 -582.82427392067257 28.6281516181391 0 0 0 0 8.4958677733811783 -21.031409314636676 0 -21.031409314636676 -4.6695063301849586 0 0 0 0 -172.40004851625781 -111.22341538566303 0 -111.22341538566303 -21.61546080700009 0 0 0 0 -7.3032404514886835 -8.2094647313700904 0 -8.2094647313700904 8.3088945553148648 0 0 0 0 -1.9957875214767853 -11.130437135943041 0 -11.130437135943041 -4.9295486955238736 0 0 0 0 -6.0901665475960804 -40.500182205996651 0 -40.500182205996651 4.6488225804221486 0 0 0 0 -20.789601589996892 -52.044273763631281 0 -52.044273763631281 28.540407447373582 0 0 0 0 -37.015536781761853 -52.720842503061071 0 -52.720842503061071 -2.0278807218346628 0 0 0 0 4.8155254277186827 -18.677844743983911 0 -18.677844743983911 -15.340607136177386 0 0 0 0 2836.3339061657098 -2117.1300337664893 0 -2117.1300337664893 1922.3342628768769 0 0 0 0 4240.989439449957 -434.43072022166052 0 -434.43072022166052 -985.41597785267368 0 0 0 0 11.485099447289258 -0.93103847051744282 0 -0.93103847051744282 -8.2460153444766533 0 0 0 0 -5.5217593830696785 -19.054326931196584 0 -19.054326931196584 -31.439244172343585 0 0 0 0 74.063486873004877 -110.85265220153588 0 -110.85265220153588 -32.67254253437568 0 0 0 0 1795.3899055371367 384.94178936315666 0 384.94178936315666 40.938929962842849 0 0 0 0 -7.8460959960393666 -46.442307985779735 0 -46.442307985779735 -14.436683052023 0 0 0 0 -28.95280187055323 -38.64290582892454 0 -38.64290582892454 3.3425166078959592 0 0 0 0 40.274194514320698 -42.058753049670486 0 -42.058753049670486 -47.167092238691112 0 0 0 0 -744.07137171546492 -628.40229394694143 0 -628.40229394694143 768.63974289460384 0 0 0 0 4162.8254870514793 -1865.9044015656668 0 -1865.9044015656668 57.945280377340168 0 0 0 0 614.00982155700331 -1930.3736713600556 0 -1930.3736713600556 639.28337262926107 0 0 0 0 2667.7548974663951 -1401.1042307292532 0 -1401.1042307292532 -0.44125646714110189 0 0 0 0 1485.7185826890054 -1392.1306921151563 0 -1392.1306921151563 234.10144523846793 0 0 0 0 849.88800858327886 -1317.8985543244653 0 -1317.8985543244653 652.06653056014045 0 0 0 0 1657.8303234657506 -1265.6963668270246 0 -1265.6963668270246 282.49345670214052 0 0 0 0 1240.3421972129145 -1115.074540198656 0 -1115.074540198656 330.78806764602814 0 0 0 0 1146.1593222962838 -718.52749999871412 0 -718.52749999871412 290.4456218148789 0 0 0 0 1103.9913056934765 -993.8915954961609 0 -993.8915954961609 232.50113072549902 0 0 0 0 1731.1664404078474 -899.40986837623768 0 -899.40986837623768 197.04243762961778 0 0 0 0 1460.8758041947149 -616.74525030184213 0 -616.74525030184213 272.22599034441191 0 0 0 0 1450.7105622967592 -846.2733349191401 0 -846.2733349191401 227.62627668149253 0 0 0 0 2131.795950345695 -788.77112305824812 0 -788.77112305824812 214.81110338638064 0 0 0 0 1357.9553088215907 -549.15469912531898 0 -549.15469912531898 419.13695359945086 0 0 0 0 1621.9252205439916 -1026.0552896702534 0 -1026.0552896702534 673.37071252686383 0 0 0 0 1544.3800365886418 -827.99735212914311 0 -827.99735212914311 263.31837976174393 0 0 0 0 1850.6559304669172 -1035.946564695113 0 -1035.946564695113 -27.915967392409584 0 0 0 0 1764.5241013963659 -970.63297398336613 0 -970.63297398336613 -38.549782998273258 0 0 0 0 78.193884698455804 13.97154980052801 0 13.97154980052801 -51.423489270720893 0 0 0 0 -10.730244924299768 -64.807615867743152 0 -64.807615867743152 24.805922893256138 0 0 0 0 -1.369105007594257 -41.191681793106355 0 -41.191681793106355 -11.754974579567147 0 0 0 0 -11.957745347692637 -39.840150814838069 0 -39.840150814838069 -23.015954861694581 0 0 0 0 -104.57790585460316 -85.000742990290746 0 -85.000742990290746 4.4361378649609833 0 0 0 0 -12.337925339602862 -103.25423014640882 0 -103.25423014640882 -76.84757219315361 0 0 0 0 -124.05451337795239 -62.187602146776044 0 -62.187602146776044 -84.329625862827015 0 0 0 0 2.4283759934011862 -123.47926859376201 0 -123.47926859376201 -58.678285123747088 0 0 0 0 -28.837011921355739 -7.6518029230545039 0 -7.6518029230545039 -37.80422281060396 0 0 0 0 365.87451453214453 -135.30633194511574 0 -135.30633194511574 -151.44745552671884 0 0 0 0 73.946572674963136 -32.336789066447352 0 -32.336789066447352 -49.901898367227815 0 0 0 0 44.860838085922296 -39.115895543207444 0 -39.115895543207444 -114.64674097723582 0 0 0 0 -28.002774280594672 -94.894509242063833 0 -94.894509242063833 -32.581334268423447 0 0 0 0 135.24650824201672 -52.979147144522358 0 -52.979147144522358 -51.357174189486614 0 0 0 0 -1.3082547889807898 -22.42732670201606 0 -22.42732670201606 -22.377457030945386 0 0 0 0 47.085830298596619 -5.8437910817022605 0 -5.8437910817022605 -35.650458152805165 0 0 0 0 136.81226521512872 8.6393021249250523 0 8.6393021249250523 61.824945746244339 0 0 0 0 153.63067085649527 15.699109387664976 0 15.699109387664976 -194.56254348607763 0 0 0 0 -333.51197478172617 -134.07594810938645 0 -134.07594810938645 -39.847974356336636 0 0 0 0 707.7423629845398 -185.77829839150627 0 -185.77829839150627 -156.22569298612143 0 0 0 0 -250.20996168646889 -195.74047980622527 0 -195.74047980622527 -62.554076434492345 0 0 0 0 -37.439003271820354 -99.526430712301249 0 -99.526430712301249 -52.615362372499703 0 0 0 0 -479.74557330250536 16.713942742935615 0 16.713942742935615 30.16016304254299 0 0 0 0 318.15265639938298 173.73368642249079 0 173.73368642249079 -10.406800485796339 0 0 0 0 113.93476376170292 -91.340332343539558 0 -91.340332343539558 -128.52667257572466 0 0 0 0 1017.2419088573515 -20.872132871728354 0 -20.872132871728354 -189.28993978058861 0 0 0 0 -0.68892924889817664 -5.719550555415168 0 -5.719550555415168 -33.772061371998284 0 0 0 0 -226.77513077760523 108.32588373309591 0 108.32588373309591 51.945468685142259 0 0 0 0 968.78065951786994 -623.75145821179649 0 -623.75145821179649 5.6779694253800699 0 0 0 0 1953.6167086063506 -1218.8994771309008 0 -1218.8994771309008 359.28556739284068 0 0 0 0 2057.0672485455434 -170.82079606839216 0 -170.82079606839216 -327.14364796990822 0 0 0 0 1135.9644700382132 -560.84538012606322 0 -560.84538012606322 1020.1059544857289 0 0 0 0 2280.2184152341506 -618.64193321916446 0 -618.64193321916446 394.97563535213385 0 0 0 0 -97.978610238293186 132.51889712181946 0 132.51889712181946 29.011557196045032 0 0 0 0 17.078081873015719 2.0599083612420372 0 2.0599083612420372 -8.9184807071993024 0 0 0 0 2194.4890657459528 -1449.2598749421486 0 -1449.2598749421486 812.15891822267076 0 0 0 0 10.942698405964364 -16.321406745779086 0 -16.321406745779086 -54.32054269683983 0 0 0 0 299.92367397136695 226.48471902240408 0 226.48471902240408 135.08649929552939 0 0 0 0 -69.559818178445312 -9.822486437522457 0 -9.822486437522457 -86.590094264378422 0 0 0 0 5.7556906900830782 30.635585679572003 0 30.635585679572003 -92.376980996285397 0 0 0 0 -39.002620052990096 0.63419965685898205 0 0.63419965685898205 -170.63086425719086 0 0 0 0 -64.832693802743961 46.113103007281097 0 46.113103007281097 -170.74509560445222 0 0 0 0 -48.271567173738731 66.094769128481857 0 66.094769128481857 -250.74042103387751 0 0 0 0 -113.98359504154905 54.294595092631425 0 54.294595092631425 -87.86573296894494 0 0 0 0 2.2728932286480372 3.4687459027887542 0 3.4687459027887542 -21.399432233071622 0 0 0 0 -46.525968883805035 -20.533028659967385 0 -20.533028659967385 -60.777674272669174 0 0 0 0 29.901260165843269 12.099391644364005 0 12.099391644364005 -93.308003545636893 0 0 0 0 -41.536174267246679 -58.950804966028954 0 -58.950804966028954 -40.574040612322278 0 0 0 0 -39.110213764874061 0.92568710253181052 0 0.92568710253181052 -27.178481295202801 0 0 0 0 -30.470292551610328 -52.023656935234612 0 -52.023656935234612 -59.94157282183005 0 0 0 0 -36.707019892462995 -63.663810393554741 0 -63.663810393554741 -55.26065402662789 0 0 0 0 -47.669985931417614 -35.481098704171018 0 -35.481098704171018 -87.833009000885795 0 0 0 0 -38.321542486708495 -2.8150010408207891 0 -2.8150010408207891 -121.17046463365114 0 0 0 0 -34.166247881730669 -35.573545419589209 0 -35.573545419589209 -93.771546731644776 0 0 0 0 -14.20101820769014 -51.61128701947564 0 -51.61128701947564 -84.466663783066906 0 0 0 0 -21.233215545107669 -55.999754128217319 0 -55.999754128217319 -85.787235133015201 0 0 0 0 -41.339436943149849 -73.021027871435763 0 -73.021027871435763 -68.9870216033014 0 0 0 0 -30.087835819289467 -64.161957413140044 0 -64.161957413140044 -82.198777566096396 0 0 0 0 -14.215210027614376 -64.271809745310748 0 -64.271809745310748 -82.404265134933667 0 0 0 0 -26.323787986388197 -75.526306408923119 0 -75.526306408923119 -88.693073280883254 0 0 0 0 103.4707305505317 -36.443912733702746 0 -36.443912733702746 -5.3554424304056738 0 0 0 0 112.00291918700168 -103.3077594659826 0 -103.3077594659826 -65.053269293426638 0 0 0 0 6.939488207760391 -49.902894178308927 0 -49.902894178308927 -48.752673698200837 0 0 0 0 -8.8258622397115687 -68.927810296692769 0 -68.927810296692769 -91.573205101196436 0 0 0 0 -15.084144672677212 -60.835406269241503 0 -60.835406269241503 -39.167582250331179 0 0 0 0 -20.724668276910094 -51.476119419399488 0 -51.476119419399488 -51.702517554380059 0 0 0 0 1.7678716633017757 -49.29749303268909 0 -49.29749303268909 -85.222023369520684 0 0 0 0 0.20791766462207306 -43.61900503000652 0 -43.61900503000652 -89.789370948370561 0 0 0 0 17.089913469789757 -2.8343136574112577 0 -2.8343136574112577 -85.269738435751378 0 0 0 0 255.83236110388202 -449.78145277660451 0 -449.78145277660451 -499.77514626870106 0 0 0 0 -32.0302921776738 -14.929982841201308 0 -14.929982841201308 -100.84021462152305 0 0 0 0 104.13075245573782 -1045.040425747633 0 -1045.040425747633 -722.92266676542931 0 0 0 0 -791.12913828762612 -1578.1880406843993 0 -1578.1880406843993 -737.22094913319893 0 0 0 0 -9.6327795175967736 -82.124964219744825 0 -82.124964219744825 -87.103862354080633 0 0 0 0 -405.62287112983086 -840.53314105657591 0 -840.53314105657591 -263.17238175654347 0 0 0 0 -1515.8444869522173 -583.9065311240206 0 -583.9065311240206 -107.72919763252139 0 0 0 0 -740.92394519834852 -618.25068257397197 0 -618.25068257397197 -391.06190104185043 0 0 0 0 -6.8018356898282946 -51.115667707272223 0 -51.115667707272223 23.903110581175497 0 0 0 0 -30.377042143107246 -117.3373843134068 0 -117.3373843134068 -83.548229410229396 0 0 0 0 43.579671326855348 -64.068356569373449 0 -64.068356569373449 -7.025229635302459 0 0 0 0 -701.5956205281791 -515.81351703135897 0 -515.81351703135897 -359.79924303829466 0 0 0 0 -724.33134376771341 -681.58887435963243 0 -681.58887435963243 -238.13642671641901 0 0 0 0 -618.51598310757254 -508.5915101030123 0 -508.5915101030123 -387.50094080718645 0 0 0 0 -21.361512423031911 -48.582887764174046 0 -48.582887764174046 -14.940658777986705 0 0 0 0 18.050096012415452 -130.94059969480804 0 -130.94059969480804 -64.310967263460952 0 0 0 0 22.518146024353506 -57.613949995784637 0 -57.613949995784637 24.192723946780617 0 0 0 0 7.0981701874770806 -67.560462144090707 0 -67.560462144090707 -4.7810728697604645 0 0 0 0 -88.256204440171132 -101.95467997023661 0 -101.95467997023661 13.352344166647526 0 0 0 0 -82.93747323640855 -109.84250152125605 0 -109.84250152125605 -93.429790491281892 0 0 0 0 -831.31161664985848 -691.88996352334743 0 -691.88996352334743 -382.25008056608203 0 0 0 0 -831.31161664983665 -691.88996352339382 0 -691.88996352339382 -382.25008056609295 0 0 0 0 -2.5065533195844907 -69.347568694657895 0 -69.347568694657895 0.72827835844076105 0 0 0 0 28.126897935189618 -87.260605098791842 0 -87.260605098791842 5.5369436338817337 0 0 0 0 11.423333434271626 -34.327206039177327 0 -34.327206039177327 -0.15999798894335981 0 0 0 0 -70.307612238473837 -71.669061979847015 0 -71.669061979847015 47.212610157621647 0 0 0 0 -751.97807205869321 -567.8087994657235 0 -567.8087994657235 -192.70139650714555 0 0 0 0 -831.31161664984393 -691.88996352339473 0 -691.88996352339473 -382.25008056609659 0 0 0 0 -59.965908194747847 -58.852293589166777 0 -58.852293589166777 -14.304990619777652 0 0 0 0 -781.91451149251407 -633.66564148915018 0 -633.66564148915018 -283.29499684688926 0 0 0 0 -536.48902182472739 -758.29593838666119 0 -758.29593838666119 -218.91990486766895 0 0 0 0 -391.30525999984457 -607.81627311925195 0 -607.81627311925195 -350.5875476469721 0 0 0 0 -737.42027982145373 -506.20022632541077 0 -506.20022632541077 -240.64754374384984 0 0 0 0 -313.50690249885156 -227.48993151663763 0 -227.48993151663763 -624.47001502679723 0 0 0 0 41.574547441861299 -74.775238327947662 0 -74.775238327947662 42.972559798589032 0 0 0 0 -837.8147597774805 -664.75948116797008 0 -664.75948116797008 -478.77439623320242 0 0 0 0 -757.85163136855772 -579.35326254885786 0 -579.35326254885786 -501.27050771217546 0 0 0 0 -518.39145981441834 -507.15533973105903 0 -507.15533973105903 -653.45007226148709 0 0 0 0 -789.67429754657496 -644.74750070821756 0 -644.74750070821756 -566.77278275481785 0 0 0 0 -787.88782399834599 -635.21620122895001 0 -635.21620122895001 -583.46776499540329 0 0 0 0 -1357.7869892463405 -1063.8836186259305 0 -1063.8836186259305 -271.01329703913143 0 0 0 0 -1110.58512742321 -1299.1110730431521 0 -1299.1110730431521 -113.00685116559816 0 0 0 0 -690.64840137415558 -210.23247693049211 0 -210.23247693049211 -0.34559460862237756 0 0 0 0 -28.756846803077089 -14.607685545050256 0 -14.607685545050256 -12.075732804074768 0 0 0 0 -2399.6292559144604 -280.65986212893313 0 -280.65986212893313 220.94469229126821 0 0 0 0 -278.64911809664773 -615.2602664035935 0 -615.2602664035935 -2433.1939595287508 0 0 0 0 -2249.6606281629902 -1742.8250406545258 0 -1742.8250406545258 -225.83742906926727 0 0 0 0 688.82991108486021 557.81757577727467 0 557.81757577727467 -2683.8421409397465 0 0 0 0 -3229.2387763950028 -781.51248447356647 0 -781.51248447356647 988.39258884877927 0 0 0 0 -1926.8252602957782 -2058.3907160500366 0 -2058.3907160500366 -1347.0141863996005 0 0 0 0 -876.79258747817221 -798.23378118866412 0 -798.23378118866412 -289.80699988105107 0 0 0 0 -1548.7516732896074 -745.14085192062669 0 -745.14085192062669 -52.556570202152443 0 0 0 0 -1016.2290381664079 -403.08704071726754 0 -403.08704071726754 162.13336139652051 0 0 0 0 -1.7071889536608325 -0.038259312630856357 0 -0.038259312630856357 -5.0325493449577614 0 0 0 0 -2461.6606791445338 -1059.7039827305427 0 -1059.7039827305427 379.03920213985657 0 0 0 0 -979.91045376982947 377.98570267883645 0 377.98570267883645 583.67927416030284 0 0 0 0 -490.95484252320603 -718.49700073304439 0 -718.49700073304439 -718.10353379819662 0 0 0 0 -478.9805301829474 -648.1231753405973 0 -648.1231753405973 -920.68913823211369 0 0 0 0 -703.94360133673763 -741.63211260364915 0 -741.63211260364915 -937.08279686535025 0 0 0 0 -465.93761637328134 -729.29635197943344 0 -729.29635197943344 -1020.7462725722177 0 0 0 0 -458.15449172243825 -525.02990606959611 0 -525.02990606959611 -1023.2989143035593 0 0 0 0 -834.12814278484257 -737.03141564796954 0 -737.03141564796954 -323.47129412945424 0 0 0 0 -845.95471474292572 -701.9999802801068 0 -701.9999802801068 -330.83057023567039 0 0 0 0 -390.48739417421893 -477.69305847096189 0 -477.69305847096189 -507.91242737569678 0 0 0 0 -491.8730724176994 -756.84522791739175 0 -756.84522791739175 -37.952294047127907 0 0 0 0 -398.24845780093165 -499.16572900497965 0 -499.16572900497965 462.11386902470213 0 0 0 0 -545.83053918974701 -370.06206034802864 0 -370.06206034802864 36.157325815002537 0 0 0 0 -573.82153071333596 -739.33949420521253 0 -739.33949420521253 374.57962994229047 0 0 0 0 190.71265688727726 -1068.2436603159999 0 -1068.2436603159999 563.92076859653298 0 0 0 0 -340.46887494031034 -534.92325011608614 0 -534.92325011608614 507.11496571508542 0 0 0 0 -1758.5695978307667 -643.53782977318394 0 -643.53782977318394 -78.097227328868087 0 0 0 0 -1753.4413574054888 16.940764746180278 0 16.940764746180278 865.00802143344117 0 0 0 0 -1400.4684994285017 -567.79801318892953 0 -567.79801318892953 279.2611874285069 0 0 0 0 -840.04366100797051 -217.81095966600776 0 -217.81095966600776 410.48056047354407 0 0 0 0 -624.02760960560408 -434.05039873876467 0 -434.05039873876467 518.8516394572639 0 0 0 0 -1509.8226260205956 137.91623802713571 0 137.91623802713571 755.70030364408865 0 0 0 0 -714.78470991209906 42.392041829464688 0 42.392041829464688 443.38629805012806 0 0 0 0 -1146.2140623653013 657.14548253416206 0 657.14548253416206 -347.78568046689634 0 0 0 0 -795.53103431287673 2.4013118857128575 0 2.4013118857128575 -380.69815079444379 0 0 0 0 -360.63823650373524 165.67949933720547 0 165.67949933720547 -662.19801122520403 0 0 0 0 -138.2224282513198 -96.231921908494314 0 -96.231921908494314 -142.00363242233607 0 0 0 0 -174.71627115707088 -363.01158108215805 0 -363.01158108215805 154.68098986906716 0 0 0 0 -1071.6525393695483 176.03263002731978 0 176.03263002731978 395.09440800599987 0 0 0 0 285.36980121707165 -722.49621054145337 0 -722.49621054145337 360.64562055094405 0 0 0 0 -398.66980068623889 -336.1928011949185 0 -336.1928011949185 376.48425160785882 0 0 0 0 86.374608893085679 -929.44499903025644 0 -929.44499903025644 643.87482879342951 0 0 0 0 401.73577770475504 -1214.4832686851337 0 -1214.4832686851337 776.08631641623924 0 0 0 0 422.61114315341547 -874.06701186084683 0 -874.06701186084683 453.62864460876881 0 0 0 0 599.38173033979547 -1151.9522384559696 0 -1151.9522384559696 530.82415793851396 0 0 0 0 651.41133041533612 -1127.3412167322654 0 -1127.3412167322654 468.6867169603247 0 0 0 0 768.61388432058448 -1096.5542048875891 0 -1096.5542048875891 428.88525492670487 0 0 0 0 1037.0579301644502 -1350.1214975219077 0 -1350.1214975219077 428.29785441142667 0 0 0 0 -91.251294273733947 -526.66990381707183 0 -526.66990381707183 342.79608806996839 0 0 0 0 230.45338830805485 -778.839973399055 0 -778.839973399055 386.0002026807806 0 0 0 0 825.39474080219225 -1062.1353509951759 0 -1062.1353509951759 284.20822293337665 0 0 0 0 670.02486848910485 -764.09960250575023 0 -764.09960250575023 -57.984323069237689 0 0 0 0 910.23252216883702 -982.75869378169682 0 -982.75869378169682 293.47900923630004 0 0 0 0 611.95819694496095 -1018.6003515509445 0 -1018.6003515509445 408.11027861058028 0 0 0 0 1107.6008595712774 -1223.9520462998262 0 -1223.9520462998262 363.88264910829071 0 0 0 0 827.13210727306796 -1083.268522528685 0 -1083.268522528685 501.01001616017857 0 0 0 0 903.28437479786317 -819.98391797599481 0 -819.98391797599481 162.54921866666336 0 0 0 0 962.3998534365237 -1288.0689625657023 0 -1288.0689625657023 478.39941908066544 0 0 0 0 1024.4023414075637 -1362.0676954947457 0 -1362.0676954947457 634.41184908019659 0 0 0 0 1156.9798484792555 -1225.8026573364887 0 -1225.8026573364887 456.46046355762155 0 0 0 0 1122.5903807189925 -1397.1961230252241 0 -1397.1961230252241 628.44021437137962 0 0 0 0 1273.3949554188875 -1377.9851838410141 0 -1377.9851838410141 622.85755658420567 0 0 0 0 1301.4644776097412 -1489.4764446040954 0 -1489.4764446040954 892.54628310060616 0 0 0 0 1189.7535402538651 -1515.8931238507348 0 -1515.8931238507348 888.28620444624175 0 0 0 0 1226.6050329607824 -1556.2874923835834 0 -1556.2874923835834 818.43541298600758 0 0 0 0 1259.4552551146007 -1328.0041301098463 0 -1328.0041301098463 613.46495815102571 0 0 0 0 1402.6489827308251 -1672.5998941655598 0 -1672.5998941655598 1048.5465856357855 0 0 0 0 1250.8633238300827 -1431.7585955575614 0 -1431.7585955575614 958.75318794514897 0 0 0 0 1274.2469447767508 -1766.7270416598658 0 -1766.7270416598658 1294.1719453345522 0 0 0 0 1233.6033352847189 -1584.1664850934487 0 -1584.1664850934487 1252.8064454369269 0 0 0 0 1124.6829492447255 -1132.7310665722257 0 -1132.7310665722257 188.67137237092356 0 0 0 0 1116.3490463706112 -1425.914884158009 0 -1425.914884158009 567.76481479302811 0 0 0 0 1140.350512512101 -1263.0233092514952 0 -1263.0233092514952 841.02648916541875 0 0 0 0 1366.7565735403696 -1621.9517373854369 0 -1621.9517373854369 846.28545005537194 0 0 0 0 604.17701930621115 -1122.8805397627343 0 -1122.8805397627343 642.09866243314173 0 0 0 0 742.34167408666872 -1055.0859803413737 0 -1055.0859803413737 20.722653856169018 0 0 0 0 -6.0516981749824481 -658.28586039593392 0 -658.28586039593392 300.03632119312215 0 0 0 0 -1127.3764250296008 -676.82662285054357 0 -676.82662285054357 255.1814683446313 0 0 0 0 -110.35515260593093 -933.82375027910666 0 -933.82375027910666 -416.75079873598042 0 0 0 0 -3.5182511475286447 -619.62610761734686 0 -619.62610761734686 -490.93571114551378 0 0 0 0 -533.83436374464873 -297.87612203250774 0 -297.87612203250774 -311.32049794124305 0 0 0 0 433.85545354088754 -887.47908437303386 0 -887.47908437303386 356.44989260717648 0 0 0 0 488.92231030886614 -571.27337659084969 0 -571.27337659084969 -362.26310907412881 0 0 0 0 35.602095772599569 -469.30325805302709 0 -469.30325805302709 30.354903891216537 0 0 0 0 50.541403145218283 -169.1021746841941 0 -169.1021746841941 -96.863142533191422 0 0 0 0 73.150595314888051 -98.692197685268184 0 -98.692197685268184 -69.21275317243726 0 0 0 0 86.096344880144898 -101.15802272988253 0 -101.15802272988253 -56.280095097514277 0 0 0 0 18.239669635666445 -43.783929094652905 0 -43.783929094652905 -85.821441755144349 0 0 0 0 -11.909090476989348 -75.193393773863107 0 -75.193393773863107 -20.246577911387249 0 0 0 0 154.70505391588085 -246.8712925252039 0 -246.8712925252039 -373.12703991109447 0 0 0 0 60.881045009329682 -219.35989107330533 0 -219.35989107330533 -185.74752660144441 0 0 0 0 82.917313120477957 -95.034424404740236 0 -95.034424404740236 55.942122892354163 0 0 0 0 97.585534679019474 -262.16908798865552 0 -262.16908798865552 -233.09027917077765 0 0 0 0 127.73328113503521 -107.47388574792421 0 -107.47388574792421 -41.289151662043878 0 0 0 0 164.24164464590285 -169.83636054615818 0 -169.83636054615818 -267.10947497742018 0 0 0 0 104.83712479560927 -119.03177356191009 0 -119.03177356191009 -23.465792334085563 0 0 0 0 174.13721319916658 -172.45843532465369 0 -172.45843532465369 -8.0892423504592443 0 0 0 0 158.6088788388588 -106.37116279314068 0 -106.37116279314068 72.952560793040902 0 0 0 0 249.0200875121518 -124.97297595761484 0 -124.97297595761484 -42.001460014380427 0 0 0 0 -20.685514916911941 -45.386512654046641 0 -45.386512654046641 -74.425343819693452 0 0 0 0 236.26329172500937 -23.843248726088405 0 -23.843248726088405 -83.912211951246718 0 0 0 0 57.927181536651915 -83.93700105350581 0 -83.93700105350581 -131.81438471659567 0 0 0 0 217.30711438004801 -67.418161618516024 0 -67.418161618516024 -146.51907418612609 0 0 0 0 94.908886119515955 -5.6861195230685553 0 -5.6861195230685553 -35.751926435405039 0 0 0 0 1191.1596258849167 -1352.4016508308023 0 -1352.4016508308023 1417.7871191665013 0 0 0 0 107.6541462312307 229.81786351316259 0 229.81786351316259 27.614039479254643 0 0 0 0 1181.0890399919881 -1480.4627961320666 0 -1480.4627961320666 1021.9814278202393 0 0 0 0 1180.1252566149487 -1477.908398174015 0 -1477.908398174015 1023.878915449397 0 0 0 0 -4.9823682114129468 -57.739644891168496 0 -57.739644891168496 -92.948068079560571 0 0 0 0 1244.1165126100386 -1378.8308615762444 0 -1378.8308615762444 895.74109300179771 0 0 0 0 1206.6872346172895 -1586.5120451003149 0 -1586.5120451003149 1092.7606650719936 0 0 0 0 1228.0384890781024 -1442.339900835796 0 -1442.339900835796 843.04674654565679 0 0 0 0 1178.3143691667647 -1307.6522792045862 0 -1307.6522792045862 988.07213891005108 0 0 0 0 1266.6939228106785 -1304.313187877905 0 -1304.313187877905 580.40314554777433 0 0 0 0 1389.1286156606511 -1345.9866003953962 0 -1345.9866003953962 365.8052980346165 0 0 0 0 1297.1758877288303 -1388.1687257344256 0 -1388.1687257344256 446.39930811722479 0 0 0 0 1303.1960572302341 -1361.4237526813213 0 -1361.4237526813213 548.68584544700843 0 0 0 0 13.504028961962007 -58.976415036958969 0 -58.976415036958969 -100.81956071622159 0 0 0 0 1097.9910983887239 -703.70704664019286 0 -703.70704664019286 290.88082500683595 0 0 0 0 1071.9037175489066 -1051.9520917282198 0 -1051.9520917282198 602.25425695248305 0 0 0 0 1427.6756548189005 -1275.6119992318672 0 -1275.6119992318672 488.64096866838645 0 0 0 0 1305.7485883936733 -1149.0993586799796 0 -1149.0993586799796 360.47623330495117 0 0 0 0 1282.9726848655555 -957.85002030770011 0 -957.85002030770011 297.48269270949822 0 0 0 0 1435.7194866618083 -887.4833218936019 0 -887.4833218936019 235.28637010292869 0 0 0 0 1895.090424107133 -912.78650997701334 0 -912.78650997701334 346.48248448106096 0 0 0 0 1513.5373365688924 -786.69714952555205 0 -786.69714952555205 289.19723539205916 0 0 0 0 1526.8197486208501 -1025.8362494332816 0 -1025.8362494332816 248.13600582506842 0 0 0 0 1866.8888926002255 -1002.0713567133535 0 -1002.0713567133535 225.66380533345091 0 0 0 0 1469.8469648766913 -1020.1281598624319 0 -1020.1281598624319 263.05335879198537 0 0 0 0 1551.3951201923192 -1252.446710027094 0 -1252.446710027094 300.56117164433272 0 0 0 0 1476.7985001144407 -1233.7811825496628 0 -1233.7811825496628 367.67670917820556 0 0 0 0 1625.9809638056395 -1241.4423487124122 0 -1241.4423487124122 259.71557381123603 0 0 0 0 2280.3707536998991 -1259.7254012300268 0 -1259.7254012300268 250.46587816350154 0 0 0 0 1630.4056401620473 -809.90458566493271 0 -809.90458566493271 260.19845836444983 0 0 0 0 1066.5665238013753 -1305.7921058227607 0 -1305.7921058227607 485.13895049681969 0 0 0 0 1335.6565043814335 -1516.7348008336785 0 -1516.7348008336785 491.040535466248 0 0 0 0 1608.9783141840016 -1377.6647672717854 0 -1377.6647672717854 364.47593536049686 0 0 0 0 1171.3165838236746 -1359.8761281439238 0 -1359.8761281439238 495.30822067520199 0 0 0 0 1028.0725347188345 -1462.9832173518212 0 -1462.9832173518212 689.70231013643706 0 0 0 0 1053.8260513344649 -1461.5287175932722 0 -1461.5287175932722 598.54002294947804 0 0 0 0 1661.6025207393614 -1790.0299122971678 0 -1790.0299122971678 751.03082888734207 0 0 0 0 1160.8135908191107 -1281.344640511044 0 -1281.344640511044 824.92972374015949 0 0 0 0 4176.9228071406906 -1564.341100500814 0 -1564.341100500814 123.19995115781649 0 0 0 0 1973.7604434399036 -1945.4041151592191 0 -1945.4041151592191 897.71161935872715 0 0 0 0 -477.69321368137025 -302.58944507227511 0 -302.58944507227511 170.11378503015021 0 0 0 0 -3.6870518562309975 -10.389088404968888 0 -10.389088404968888 11.575594792951261 0 0 0 0 -16.422122120478889 -133.02906957751657 0 -133.02906957751657 -499.33526066526429 0 0 0 0 25.063300128822448 -119.7015493888448 0 -119.7015493888448 -23.88756138028657 0 0 0 0 2417.8239129709546 -1325.0514460028353 0 -1325.0514460028353 427.566680351385 0 0 0 0 7.0865652466104052 -7.2223049029837494 0 -7.2223049029837494 -7.5051815262350861 0 0 0 0 64.852768681274028 -61.926570503972471 0 -61.926570503972471 -17.473618243806413 0 0 0 0 65.318973815421487 -100.50213101994984 0 -100.50213101994984 -59.699615131103201 0 0 0 0 104.90791914361762 -77.239573750535783 0 -77.239573750535783 -65.528847160210717 0 0 0 0 40.961392905407251 -39.035791498026413 0 -39.035791498026413 -75.130472563238271 0 0 0 0 1.3177668252282615 -3.4398326845494935 0 -3.4398326845494935 -12.210613728058 0 0 0 0 1304.8194231439556 -904.8259005937507 0 -904.8259005937507 282.12488578433113 0 0 0 0 918.2671717456833 117.92891074785257 0 117.92891074785257 -59.487841562280664 0 0 0 0 4.7625126834488452 -54.662087339421745 0 -54.662087339421745 -74.830215241139541 0 0 0 0 -57.776509260818486 -96.180795543442287 0 -96.180795543442287 -14.153949280319068 0 0 0 0 18.055017109334585 -128.79335537614679 0 -128.79335537614679 -47.689795655736816 0 0 0 0 35.559411068279587 -522.96488328003852 0 -522.96488328003852 -44.451883582380106 0 0 0 0 -25.071582063703545 -76.78152221863553 0 -76.78152221863553 -58.357152325574347 0 0 0 0 -19.686804923232074 -84.636800242466961 0 -84.636800242466961 -35.73439174278468 0 0 0 0 -15.230565595353255 -141.2012518620304 0 -141.2012518620304 -28.468295142185525 0 0 0 0 286.4847731833579 -548.72324413364049 0 -548.72324413364049 -121.53565981247493 0 0 0 0 -111.27070030481264 317.19793247670572 0 317.19793247670572 451.34325346165497 0 0 0 0 644.02881255486136 153.4452454932109 0 153.4452454932109 142.41706377495666 0 0 0 0 -263.20231486912962 -664.26358254345269 0 -664.26358254345269 672.28914813105348 0 0 0 0 2167.6862896546809 -1394.0405156401202 0 -1394.0405156401202 587.6093754119114 0 0 0 0 1454.3086379766683 -726.6019416750928 0 -726.6019416750928 1935.408134083993 0 0 0 0 3441.4950331188084 -467.95304447091087 0 -467.95304447091087 777.31272453026918 0 0 0 0 1284.9241515640679 -1201.2928952000198 0 -1201.2928952000198 791.52303819610302 0 0 0 0 1240.8257719981739 -1867.01216625402 0 -1867.01216625402 801.40332224309577 0 0 0 0 84.942922533649835 -1088.8635126603745 0 -1088.8635126603745 886.06403910321114 0 0 0 0 1664.1821891307773 -1425.0467718027426 0 -1425.0467718027426 897.1135008231804 0 0 0 0 3932.3157931763217 -1884.6428356554911 0 -1884.6428356554911 67.611765492788436 0 0 0 0 1026.1245493802999 -2678.650113052714 0 -2678.650113052714 670.02701587623073 0 0 0 0 -39.031734413652885 -778.86808253699633 0 -778.86808253699633 -154.56907394542714 0 0 0 0 -583.17719364904042 -1170.4572761612021 0 -1170.4572761612021 1000.4552724863697 0 0 0 0 -359.60638988423307 -796.33834059476385 0 -796.33834059476385 -1388.7956274660719 0 0 0 0 -513.18973643986101 -553.89593917612729 0 -553.89593917612729 -667.4439508173964 0 0 0 0 -481.58480551115736 -825.40838310562458 0 -825.40838310562458 -151.72031293042028 0 0 0 0 17.251102712032264 -16.183678691523141 0 -16.183678691523141 13.674780274432749 0 0 0 0 6170.9152395844976 1188.6740277346757 0 1188.6740277346757 157.64283078376667 0 0 0 0 -2024.3614153745002 -1724.7797523972595 0 -1724.7797523972595 374.99676193965297 0 0 0 0 2407.9675118198102 513.97963837346549 0 513.97963837346549 130.28736134731412 0 0 0 0 2158.138065930536 210.33674000968722 0 210.33674000968722 -159.50011212705522 0 0 0 0 46.240569154923605 -44.268117961954147 0 -44.268117961954147 33.682491211464111 0 0 0 0 2304.0558895774302 50.295043432547573 0 50.295043432547573 -89.388524269437767 0 0 0 0 -1050.3605650737009 -1403.2964371099188 0 -1403.2964371099188 -1054.0171293276871 0 0 0 0 -1112.285733504068 -891.87864683514545 0 -891.87864683514545 -722.72445235957457 0 0 0 0 -575.46218244140618 -1001.2370025698872 0 -1001.2370025698872 -1129.1405166776658 0 0 0 0 1253.6800169857452 -390.17163401007565 0 -390.17163401007565 703.40689450685932 0 0 0 0 3949.9407900187653 -1910.0493120025042 0 -1910.0493120025042 1280.8777715984629 0 0 0 0 2814.319731569507 663.31322235331731 0 663.31322235331731 -401.98601448378173 0 0 0 0 2839.4548675135316 -950.27723452235011 0 -950.27723452235011 129.99385280268916 0 0 0 0 -77.900442599719099 -1044.2208652503502 0 -1044.2208652503502 910.09556090751448 0 0 0 0 1084.8183897595591 -1004.257283991358 0 -1004.257283991358 901.57243782293381 0 0 0 0 870.85572628936461 -1092.5064754328673 0 -1092.5064754328673 1179.236055516913 0 0 0 0 -1015.0530117913877 -553.84166718886831 0 -553.84166718886831 -235.41637549330642 0 0 0 0 -631.03823371333419 581.66623071679214 0 581.66623071679214 -845.99105234454419 0 0 0 0 -10.516397282614363 -9.4451587820094858 0 -9.4451587820094858 3.4676005374424825 0 0 0 0 -3787.4738368168837 1307.6906389942401 0 1307.6906389942401 584.55262569602837 0 0 0 0 1770.0872239887176 -2873.6189113338714 0 -2873.6189113338714 1114.8981174311061 0 0 0 0 -2902.9000586624607 -1541.5573220027941 0 -1541.5573220027941 1395.8255641334108 0 0 0 0 -370.74018473496835 -3004.8409889427653 0 -3004.8409889427653 1700.0422846970114 0 0 0 0 1477.8922097945178 -337.99276584524932 0 -337.99276584524932 1801.5127369395505 0 0 0 0 35.739251492603216 -302.48782664830287 0 -302.48782664830287 256.61199412153292 0 0 0 0 886.91038513541571 -1244.6021570469784 0 -1244.6021570469784 -495.47192620445344 0 0 0 0 2922.3585602852254 -914.52778850904724 0 -914.52778850904724 -480.88530574242031 0 0 0 0 110.8956529864372 -251.11833151831206 0 -251.11833151831206 93.088546140272229 0 0 0 0 -2.1765712751657702 -119.01589462138327 0 -119.01589462138327 273.25415954602431 0 0 0 0 90.357716777580208 -124.18153815837604 0 -124.18153815837604 -180.11612045367656 0 0 0 0 -9.4866267523302668 -26.118577671096595 0 -26.118577671096595 -8.013325594854269 0 0 0 0 557.62173132935277 -106.98963723111422 0 -106.98963723111422 -102.8482735880541 0 0 0 0 1378.6657033091033 -1106.2690977841226 0 -1106.2690977841226 -756.16388918580924 0 0 0 0 -87.673847705998924 -13.724710661816061 0 -13.724710661816061 -76.860038030252326 0 0 0 0 -13.972048263311251 -32.184137876162168 0 -32.184137876162168 -41.47672137482121 0 0 0 0 516.84026162633381 -103.8846452786529 0 -103.8846452786529 -16.801129207210579 0 0 0 0 441.14631251670653 -216.7756283924391 0 -216.7756283924391 -1.1940326641706633 0 0 0 0 -34.177286997171052 -44.215351641824242 0 -44.215351641824242 -47.626220905138169 0 0 0 0 -2.30966875406844 -12.428632998351119 0 -12.428632998351119 -30.154923444978369 0 0 0 0 156.92642725344922 -108.17703904617065 0 -108.17703904617065 -24.858476191880072 0 0 0 0 -1066.5820044928405 167.24177516944792 0 167.24177516944792 110.28720808237631 0 0 0 0 6.0995461432903539 -1008.2740495544913 0 -1008.2740495544913 -418.67476783704114 0 0 0 0 634.75840859866003 -1078.1651387653137 0 -1078.1651387653137 -469.76488691059785 0 0 0 0 727.49487667651556 -852.32769987537176 0 -852.32769987537176 -645.58840364591015 0 0 0 0 1469.741663701192 -842.71719620766089 0 -842.71719620766089 -756.39625098168335 0 0 0 0 1379.3326872479083 -190.25435379049577 0 -190.25435379049577 -677.11566470353591 0 0 0 0 616.3188909215387 500.54518703018584 0 500.54518703018584 -36.62606732967788 0 0 0 0 -2.8310357479010833 -7.0149946516945647 0 -7.0149946516945647 -11.368068978645573 0 0 0 0 -425.79586279328214 -717.75065042124265 0 -717.75065042124265 353.40688632190404 0 0 0 0 -149.46634414316213 -725.04910303510474 0 -725.04910303510474 86.966583099376294 0 0 0 0 -808.6980013386783 -57.655785910433679 0 -57.655785910433679 858.97045412784018 0 0 0 0 399.21796334822284 -323.96709390413139 0 -323.96709390413139 280.16117133147475 0 0 0 0 31.339579231207608 -95.539678553959675 0 -95.539678553959675 3.6735427039075148 0 0 0 0 -22.517707921744289 -30.467543800853321 0 -30.467543800853321 -41.736679633666355 0 0 0 0 -104.94700459201704 2.5045676841600653 0 2.5045676841600653 -3.8618988448979508 0 0 0 0 -0.56706951973319519 -16.413701629295247 0 -16.413701629295247 -94.653088053499232 0 0 0 0 -109.72885014416534 -12.299306586199236 0 -12.299306586199236 -46.884408026729943 0 0 0 0 19.602917099546175 20.934626825110172 0 20.934626825110172 -62.214779464615276 0 0 0 0 -19.875733229870093 -14.539344430784695 0 -14.539344430784695 32.277027301301132 0 0 0 0 -270.17838405264774 11.234504727617605 0 11.234504727617605 -8.0675343966140645 0 0 0 0 46.211096308863489 -95.255994326311338 0 -95.255994326311338 -79.601430567490752 0 0 0 0 -13.281531725486275 -58.826740027929191 0 -58.826740027929191 10.059541335349422 0 0 0 0 89.981538533931598 -85.441664740894339 0 -85.441664740894339 50.889850244158879 0 0 0 0 18.900481198565103 -53.339649710294907 0 -53.339649710294907 20.45449800111237 0 0 0 0 41.460329102992546 -125.78411594376666 0 -125.78411594376666 24.361914068928854 0 0 0 0 36.983834578742972 -93.555643468112976 0 -93.555643468112976 127.38619208770979 0 0 0 0 61.323113996302709 -102.61424393098423 0 -102.61424393098423 42.570815544881043 0 0 0 0 1764.8436598825501 -176.28188534806031 0 -176.28188534806031 -1142.4118241374235 0 0 0 0 -43.010789675956261 -48.248564673462411 0 -48.248564673462411 -48.589238859472104 0 0 0 0 45.761839790109661 -77.598259641394179 0 -77.598259641394179 -16.432600807849667 0 0 0 0 -15.976425178938825 -42.084630662072911 0 -42.084630662072911 -57.014104646492413 0 0 0 0 7.1227307623711908 -7.1937853021148896 0 -7.1937853021148896 -12.374590889788379 0 0 0 0 -562.5045235814323 171.93446109134084 0 171.93446109134084 -307.74960266982816 0 0 0 0 -1960.493081580702 39.703297576950717 0 39.703297576950717 1660.2087622940312 0 0 0 0 -339.77909799110785 -506.63060543108759 0 -506.63060543108759 174.26680401214253 0 0 0 0 -313.72899899852928 -294.89473956497307 0 -294.89473956497307 4.3553970716668573 0 0 0 0 -95.493225116209942 -217.99415844642272 0 -217.99415844642272 -236.3473347200221 0 0 0 0 -25.984785970045252 -26.695658297405586 0 -26.695658297405586 -3.7671998522744818 0 0 0 0 111.54393141783657 -607.94182994558332 0 -607.94182994558332 1352.2081451119609 0 0 0 0 -1613.6306215407094 235.52172790675786 0 235.52172790675786 170.05240050518751 0 0 0 0 -994.48306400288129 -354.14476985208626 0 -354.14476985208626 250.7422471126647 0 0 0 0 10.61734530586466 -33.049351642324424 0 -33.049351642324424 2.4048053020099651 0 0 0 0 13.463958123582415 -41.570062403050542 0 -41.570062403050542 32.203575030116554 0 0 0 0 -6.6695893265150517 -38.533743387399511 0 -38.533743387399511 6.794936394924175 0 0 0 0 79.099290043785004 -67.165131342089808 0 -67.165131342089808 -215.87631340564621 0 0 0 0 -69.645775428187335 3.484980995166552 0 3.484980995166552 84.726642299508967 0 0 0 0 9.3280872725678137 -25.548853673016211 0 -25.548853673016211 22.091913186309078 0 0 0 0 -57.801499617402442 21.155263040466338 0 21.155263040466338 -1.6427499623551185 0 0 0 0 -30.186032120705931 -83.069256832434007 0 -83.069256832434007 -0.52390244323396473 0 0 0 0 -25.838117718347348 -45.179254701909827 0 -45.179254701909827 -1.4584459841826174 0 0 0 0 42.733611380157527 -60.062283215171192 0 -60.062283215171192 -388.05709571272018 0 0 0 0 -2.5980980861290277 -3.045792012457639 0 -3.045792012457639 19.966074480994962 0 0 0 0 8.321456482168287 -141.80802921411305 0 -141.80802921411305 -1.1775676688630483 0 0 0 0 -27.422929014006513 -30.759302100477726 0 -30.759302100477726 -56.532982905599056 0 0 0 0 -121.01405456379871 -66.453154046150303 0 -66.453154046150303 118.72256791628752 0 0 0 0 -8.9375268461060386 -46.003107494580632 0 -46.003107494580632 8.8881139293148781 0 0 0 0 -39.928447506594239 18.752122459736711 0 18.752122459736711 -223.30873130565305 0 0 0 0 47.667974878830137 -119.82201805006844 0 -119.82201805006844 -291.20517183977972 0 0 0 0 -24.639251843444072 -55.044335990093714 0 -55.044335990093714 23.062468626186046 0 0 0 0 -9.0929631549879559 -43.059174113396239 0 -43.059174113396239 -10.460651901814344 0 0 0 0 -31.49629572043861 -26.532879298357045 0 -26.532879298357045 3.5834962757903668 0 0 0 0 -4.2952765645022737 -55.176810692163372 0 -55.176810692163372 20.113388338284494 0 0 0 0 104.52772046806058 -82.844538052832831 0 -82.844538052832831 65.354102379179494 0 0 0 0 -23.731551283593973 -11.468446478466774 0 -11.468446478466774 -13.54126969658002 0 0 0 0 -585.81333945253573 -174.05499613490883 0 -174.05499613490883 155.31500175238307 0 0 0 0 -26.303421927586896 -113.23246549661417 0 -113.23246549661417 -117.63015204289695 0 0 0 0 -26.36889913781738 -56.999911460982808 0 -56.999911460982808 0.12033410351979157 0 0 0 0 -76.541073138869251 -84.995992026339081 0 -84.995992026339081 -115.23594104275253 0 0 0 0 28.82505531013885 -120.48083000017505 0 -120.48083000017505 -140.78839985366358 0 0 0 0 17.83625657268567 -74.650896811272105 0 -74.650896811272105 -179.22938073982004 0 0 0 0 0.038488700403831899 -30.951363054296962 0 -30.951363054296962 -85.289191104617203 0 0 0 0 -23.742805878609943 -54.408603340655645 0 -54.408603340655645 -47.148088396519597 0 0 0 0 26.151882692958679 -105.30185595273315 0 -105.30185595273315 33.220569616925786 0 0 0 0 32.745955794205656 -17.405397387821722 0 -17.405397387821722 -22.985845308303396 0 0 0 0 34.780721153132617 -100.82466518305591 0 -100.82466518305591 34.519658336168504 0 0 0 0 99.699974048970034 -65.487241640556022 0 -65.487241640556022 51.718176553327794 0 0 0 0 82.680345435655909 -153.51133255455716 0 -153.51133255455716 110.88397514665121 0 0 0 0 117.10578781287768 -117.23566223322723 0 -117.23566223322723 148.58806286790059 0 0 0 0 147.42269066360313 -214.55987834934785 0 -214.55987834934785 157.4801760682908 0 0 0 0 174.99463892676886 -180.48122749883851 0 -180.48122749883851 195.78257006731292 0 0 0 0 19.840788959292695 -80.997333733859705 0 -80.997333733859705 81.224626681794689 0 0 0 0 62.250222081915126 -130.1522217583788 0 -130.1522217583788 154.92011583807471 0 0 0 0 121.6902168080851 -150.13226336757361 0 -150.13226336757361 92.483866172097805 0 0 0 0 61.531477555588936 -217.21852005145774 0 -217.21852005145774 236.4796348298114 0 0 0 0 50.068659366603242 -155.34362930832867 0 -155.34362930832867 135.23720968684938 0 0 0 0 178.43269620422507 -308.14887333464867 0 -308.14887333464867 282.11437007551285 0 0 0 0 177.5061712685274 -249.33073350173072 0 -249.33073350173072 206.7018866941944 0 0 0 0 131.07203831983497 -299.59974849878199 0 -299.59974849878199 248.54424313420168 0 0 0 0 117.94694552366855 -339.82249126879469 0 -339.82249126879469 337.35786504238786 0 0 0 0 46.825928864268462 -276.5975259035859 0 -276.5975259035859 289.04663105556392 0 0 0 0 -66.999760709441034 -191.42028659799143 0 -191.42028659799143 150.72037037355767 0 0 0 0 33.3349751077767 -190.03534180672432 0 -190.03534180672432 139.72642041666404 0 0 0 0 -37.526917020557448 -92.174276674479188 0 -92.174276674479188 70.946870284482429 0 0 0 0 56.054321964154951 -170.88787825618056 0 -170.88787825618056 103.36123381041398 0 0 0 0 32.166215167031623 -46.73000349530048 0 -46.73000349530048 -66.63733861905348 0 0 0 0 -8.7586793572409078 -51.214335362637939 0 -51.214335362637939 -67.040190917337895 0 0 0 0 -106.66981681651669 -206.41102926374515 0 -206.41102926374515 -83.088796464871848 0 0 0 0 -183.01252113838564 -70.194384678277856 0 -70.194384678277856 -17.681710103148362 0 0 0 0 4.9271399989374913 -116.0382504790141 0 -116.0382504790141 -10.833589979229146 0 0 0 0 -41.241451496229274 -240.5336245848448 0 -240.5336245848448 130.92898000378773 0 0 0 0 -30.264382507419214 -109.87728739000158 0 -109.87728739000158 -11.03710884389875 0 0 0 0 32.101421050028875 -214.71582918739659 0 -214.71582918739659 139.92547101780656 0 0 0 0 -26.648083331587259 -266.20876310898529 0 -266.20876310898529 438.58252556732623 0 0 0 0 -5.874414910467749 -306.4870066477697 0 -306.4870066477697 362.96648961109167 0 0 0 0 88.488903543213382 -345.39546608827004 0 -345.39546608827004 315.58639382547699 0 0 0 0 89.206328003114322 -410.86343436390325 0 -410.86343436390325 448.6920881926635 0 0 0 0 233.69850341154961 -477.92661347178364 0 -477.92661347178364 383.44419995680437 0 0 0 0 166.15438666314003 -558.45806515817094 0 -558.45806515817094 502.32916427535019 0 0 0 0 44.503379902947927 -397.35164964435899 0 -397.35164964435899 407.39296911887413 0 0 0 0 43.295288308472664 -454.632758757788 0 -454.632758757788 557.78136044538405 0 0 0 0 -1.4678335388744017 -496.4246345481306 0 -496.4246345481306 816.43103777832584 0 0 0 0 118.15703354924335 -696.33635561262781 0 -696.33635561262781 727.8552148721792 0 0 0 0 67.339851474767784 -638.17829320628152 0 -638.17829320628152 664.71928350762391 0 0 0 0 42.910768286674283 -925.07077588079846 0 -925.07077588079846 882.42591270645062 0 0 0 0 98.778070059634047 -829.49048123900502 0 -829.49048123900502 1034.5614477665877 0 0 0 0 -188.11462811441743 -342.90431760426509 0 -342.90431760426509 1024.6096576897107 0 0 0 0 35.482098587177461 -701.01641564325473 0 -701.01641564325473 871.13429020121839 0 0 0 0 -39.903809386305511 -375.83424412649401 0 -375.83424412649401 653.25921961715358 0 0 0 0 24.261251031712163 -300.57906373439982 0 -300.57906373439982 355.20220789439918 0 0 0 0 -58.34385458988254 -290.33826707006665 0 -290.33826707006665 514.78683725674637 0 0 0 0 -30.575564618193312 -54.364350638014002 0 -54.364350638014002 185.7145863776459 0 0 0 0 16.931410756667901 -164.74518394596635 0 -164.74518394596635 195.72153284175147 0 0 0 0 -51.598176984698512 -10.294716668657202 0 -10.294716668657202 507.65173014202992 0 0 0 0 535.52450903430145 -991.80524454009083 0 -991.80524454009083 596.08969780711777 0 0 0 0 544.8798888301244 -922.62715918538379 0 -922.62715918538379 676.72218615371457 0 0 0 0 559.65323154930957 -925.93391221889033 0 -925.93391221889033 597.18378007104184 0 0 0 0 532.18928645015694 -935.28415177276111 0 -935.28415177276111 667.93457455346652 0 0 0 0 437.86431404334144 -921.99743721866616 0 -921.99743721866616 598.47953417585813 0 0 0 0 458.35459672630532 -1030.9752614371973 0 -1030.9752614371973 579.76811255623034 0 0 0 0 551.74097934624297 -992.39126788084104 0 -992.39126788084104 593.2698789037895 0 0 0 0 539.73957160077407 -1109.0633578668603 0 -1109.0633578668603 650.90273367604095 0 0 0 0 408.77103729225928 -1155.7908834048358 0 -1155.7908834048358 863.31150613444606 0 0 0 0 319.19196818518321 -1048.6258165951931 0 -1048.6258165951931 746.56805032629927 0 0 0 0 303.43278998567257 -869.40325065072102 0 -869.40325065072102 715.28430755773297 0 0 0 0 297.82012217657393 -902.36788507336496 0 -902.36788507336496 646.0538385437103 0 0 0 0 394.68244919081917 -838.63444266578108 0 -838.63444266578108 565.72507783296169 0 0 0 0 491.98568068649911 -963.4253454753416 0 -963.4253454753416 623.64400074158038 0 0 0 0 379.08650070568547 -936.45665146246756 0 -936.45665146246756 658.64183615566435 0 0 0 0 479.4935502288281 -892.57232890213345 0 -892.57232890213345 598.4050723095279 0 0 0 0 158.14809047061135 -589.54280926084903 0 -589.54280926084903 568.73633097604761 0 0 0 0 242.99298892536899 -795.524717911263 0 -795.524717911263 627.91908545128899 0 0 0 0 321.37070690137625 -678.66584040978705 0 -678.66584040978705 508.62443777055887 0 0 0 0 375.59941234103462 -545.47713783325707 0 -545.47713783325707 395.60051916413067 0 0 0 0 266.91630083494238 -653.01494842945613 0 -653.01494842945613 516.13219226465299 0 0 0 0 506.02080935414415 -746.29482669364006 0 -746.29482669364006 501.39851472930604 0 0 0 0 427.50429529693793 -590.10763308752212 0 -590.10763308752212 424.45067152535194 0 0 0 0 425.91408755758312 -779.7717014048103 0 -779.7717014048103 556.6755211110285 0 0 0 0 597.17718485160731 -834.89512545522666 0 -834.89512545522666 554.47620709464627 0 0 0 0 693.24332227220293 -696.84155129625287 0 -696.84155129625287 466.12847455637893 0 0 0 0 606.57226643299509 -879.43924804574635 0 -879.43924804574635 652.33495636894077 0 0 0 0 579.14690461054852 -618.86899048071064 0 -618.86899048071064 501.25054158338025 0 0 0 0 516.16604665003251 -407.26921327314994 0 -407.26921327314994 375.40776732367522 0 0 0 0 671.86097561899805 -610.72721100789204 0 -610.72721100789204 433.68557684776897 0 0 0 0 475.43650524012628 -475.98393050592131 0 -475.98393050592131 361.23233862668349 0 0 0 0 526.56154080526903 -679.36814279996906 0 -679.36814279996906 492.67532868237322 0 0 0 0 358.35014970740303 -576.20379459008473 0 -576.20379459008473 451.36630938535745 0 0 0 0 181.06660069682403 -471.1086960062421 0 -471.1086960062421 429.84121138636692 0 0 0 0 295.10247009393061 -415.5513520144159 0 -415.5513520144159 315.45254509183906 0 0 0 0 274.48111596389208 -393.18083196185034 0 -393.18083196185034 328.41262558019298 0 0 0 0 204.63230729520728 -302.67113873637936 0 -302.67113873637936 278.95329415702145 0 0 0 0 420.10102230717894 -479.4639428514929 0 -479.4639428514929 374.4063313370425 0 0 0 0 361.92356954590423 -395.04671153202224 0 -395.04671153202224 306.65550732523116 0 0 0 0 260.90410518232966 -300.91004461531702 0 -300.91004461531702 277.09432687038134 0 0 0 0 385.01253357384849 -294.38445674415925 0 -294.38445674415925 259.91792155274015 0 0 0 0 162.35676245210925 -251.99315777003358 0 -251.99315777003358 238.60773439446348 0 0 0 0 271.50545787207056 -234.74462496912935 0 -234.74462496912935 229.9440643085909 0 0 0 0 208.36647714592982 -180.13424758416659 0 -180.13424758416659 143.06759280670212 0 0 0 0 118.94665627891663 -172.80777313373255 0 -172.80777313373255 211.05020323827921 0 0 0 0 237.79175531561486 -183.81656783056678 0 -183.81656783056678 199.78360669942413 0 0 0 0 172.40136767172953 -207.29687463772279 0 -207.29687463772279 263.1652324837487 0 0 0 0 264.97239692072617 -243.47430442094628 0 -243.47430442094628 247.69539299455755 0 0 0 0 313.54992012592265 -200.75922921173333 0 -200.75922921173333 275.25685468483425 0 0 0 0 374.51407073106384 -353.36914275612071 0 -353.36914275612071 335.06765088721295 0 0 0 0 556.55664408660959 -394.03192655551538 0 -394.03192655551538 303.64496085704741 0 0 0 0 679.99140730861109 -385.20293444223353 0 -385.20293444223353 291.04231908921065 0 0 0 0 590.4871493683022 -524.4111475509053 0 -524.4111475509053 444.81346493429373 0 0 0 0 420.64141310515697 -325.97841438428804 0 -325.97841438428804 336.55200280029385 0 0 0 0 279.88329282574705 -152.21911607819493 0 -152.21911607819493 270.03793702127587 0 0 0 0 444.74644582803012 -272.64626124960341 0 -272.64626124960341 279.65220771814347 0 0 0 0 457.74309922178509 -299.16342243179679 0 -299.16342243179679 281.59268757321388 0 0 0 0 474.23708049528068 -232.59408874372821 0 -232.59408874372821 333.71505768390489 0 0 0 0 524.47203571812133 -399.98919193922484 0 -399.98919193922484 370.29239210494234 0 0 0 0 683.52179506592802 -551.19749838593634 0 -551.19749838593634 591.1959387427778 0 0 0 0 1061.4628209458897 -670.67933716578409 0 -670.67933716578409 474.40922182601207 0 0 0 0 813.86072271910962 -612.1030921444617 0 -612.1030921444617 453.06873083691971 0 0 0 0 787.01414235252014 -363.57536222696581 0 -363.57536222696581 290.78092559153447 0 0 0 0 641.92301103897626 -301.71999937365217 0 -301.71999937365217 136.32753155533283 0 0 0 0 1307.2166055530543 -1534.6169597749576 0 -1534.6169597749576 581.58199498512022 0 0 0 0 912.44760294773732 -704.13867365584338 0 -704.13867365584338 418.63691803590336 0 0 0 0 963.54416859534103 -980.13078456661606 0 -980.13078456661606 1285.8092013783462 0 0 0 0 1389.6543898168893 -1557.7584357846863 0 -1557.7584357846863 994.80695178128008 0 0 0 0 1150.0740716134605 -997.6571026405436 0 -997.6571026405436 556.19025182301993 0 0 0 0 826.34954548743553 -548.06840042004114 0 -548.06840042004114 592.35743229137734 0 0 0 0 1178.3765132137924 -946.74577278459037 0 -946.74577278459037 760.85153543273555 0 0 0 0 960.59206291820738 -1087.9601325747481 0 -1087.9601325747481 1451.0957697083941 0 0 0 0 1096.3139065779396 -1333.7682100764359 0 -1333.7682100764359 1331.1055348490117 0 0 0 0 1085.0792478606018 -1750.6895199251303 0 -1750.6895199251303 2558.1966888275201 0 0 0 0 745.83464964310406 -1156.602406110891 0 -1156.602406110891 2406.9824569588163 0 0 0 0 918.62932981647464 -1115.6612472920597 0 -1115.6612472920597 1223.0835824658134 0 0 0 0 1018.2833413386252 -860.56265008368791 0 -860.56265008368791 902.55273645395209 0 0 0 0 886.40744920005091 -905.90729485200791 0 -905.90729485200791 887.63846612002453 0 0 0 0 951.11417439416982 -646.37499228247179 0 -646.37499228247179 566.97696796535456 0 0 0 0 913.84805454015441 -790.91554126066694 0 -790.91554126066694 875.96364932124561 0 0 0 0 721.30300367722521 -483.26579562983534 0 -483.26579562983534 444.86572676460491 0 0 0 0 905.55962523573544 -696.63688521933727 0 -696.63688521933727 517.1040961747276 0 0 0 0 783.34494270072537 -790.49838029743978 0 -790.49838029743978 595.25485912153817 0 0 0 0 890.4013556848804 -759.28797531018063 0 -759.28797531018063 603.76579360481992 0 0 0 0 751.07478437043028 -985.1295172276732 0 -985.1295172276732 834.81576595918887 0 0 0 0 663.50424802862108 -949.27664925380668 0 -949.27664925380668 669.0148256237153 0 0 0 0 643.01634507018025 -829.44768933961313 0 -829.44768933961313 684.93625972306108 0 0 0 0 590.15031281919801 -923.35947670045061 0 -923.35947670045061 1242.5543327572741 0 0 0 0 781.04762227003812 -850.72458119940711 0 -850.72458119940711 952.13531797626274 0 0 0 0 802.7467956810433 -929.15272727002593 0 -929.15272727002593 856.05724307133823 0 0 0 0 701.48050617540139 -922.06736398435532 0 -922.06736398435532 910.70724187752057 0 0 0 0 708.82156984996982 -921.40202628466795 0 -921.40202628466795 1479.4828548817895 0 0 0 0 568.37245656465529 -994.45416286210457 0 -994.45416286210457 1754.9025565575703 0 0 0 0 842.5457260714029 -670.13484754631645 0 -670.13484754631645 1933.5058094221349 0 0 0 0 917.64869390238891 -1137.1866560385806 0 -1137.1866560385806 1576.3161907156755 0 0 0 0 754.64863155326748 -1046.0018377304814 0 -1046.0018377304814 1274.9519739540046 0 0 0 0 304.46692287910264 -719.13000360169099 0 -719.13000360169099 1432.8951725692386 0 0 0 0 281.73497123180641 -593.73656674405856 0 -593.73656674405856 898.92482935908629 0 0 0 0 333.86521708712098 -917.91825569783941 0 -917.91825569783941 1739.9896199333743 0 0 0 0 419.45942892844323 -814.46258617397689 0 -814.46258617397689 937.695286288631 0 0 0 0 608.58691054019437 -915.67094616398572 0 -915.67094616398572 880.56823924952914 0 0 0 0 526.01261274827993 -919.00373593931727 0 -919.00373593931727 888.94978705232643 0 0 0 0 526.58404193315801 -900.68479293361361 0 -900.68479293361361 665.23037552959431 0 0 0 0 -1262.4329484944174 317.68564666277598 0 317.68564666277598 55.189701646319008 0 0 0 0 -4.9543141465932479 -7.7541517102511648 0 -7.7541517102511648 -9.3423467611450519 0 0 0 0 598.02903761953348 -263.43607543634971 0 -263.43607543634971 -166.16417984268628 0 0 0 0 -805.84167826746125 260.41482877181988 0 260.41482877181988 -174.30600261818108 0 0 0 0 -117.77368218437186 112.23760828520972 0 112.23760828520972 681.60871277517435 0 0 0 0 452.82603608087811 109.70493671509939 0 109.70493671509939 186.05752164578007 0 0 0 0 92.620668341347482 -223.69571123857531 0 -223.69571123857531 -46.078773566274322 0 0 0 0 -1030.4537414268125 375.66773738004122 0 375.66773738004122 -31.545833043390303 0 0 0 0 -704.5897058872506 -228.20930780133131 0 -228.20930780133131 242.6779559863644 0 0 0 0 -1053.5809617102132 -47.589867102996436 0 -47.589867102996436 156.06987685470085 0 0 0 0 -544.17125149938511 -171.92573493615782 0 -171.92573493615782 34.958590875070513 0 0 0 0 -50.594460540307779 -52.665999455410827 0 -52.665999455410827 -28.336649996730188 0 0 0 0 -68.657453318886894 -53.714927605697227 0 -53.714927605697227 -31.850288271312813 0 0 0 0 -540.75410523750179 145.90791568613054 0 145.90791568613054 267.58207019421479 0 0 0 0 -557.51733540222631 -435.95792301473739 0 -435.95792301473739 339.60428788002173 0 0 0 0 -32.486495000697886 -23.804086990790012 0 -23.804086990790012 -15.605372623309606 0 0 0 0 -304.49196453577315 6.1685053592691474 0 6.1685053592691474 105.10341464223893 0 0 0 0 -76.543979258045511 -43.786015719268811 0 -43.786015719268811 -30.437658350626258 0 0 0 0 -205.52295668172883 -13.097079352322908 0 -13.097079352322908 -114.61847064348785 0 0 0 0 -8.4374761194217456 -4.6904965055113337 0 -4.6904965055113337 2.7560050589500236 0 0 0 0 -18.974708569234281 -109.98381163407572 0 -109.98381163407572 134.69168234603421 0 0 0 0 -89.622644389019115 -397.78290179263058 0 -397.78290179263058 137.03465931722894 0 0 0 0 -18.507871258007981 -92.896108010752528 0 -92.896108010752528 120.79278750190861 0 0 0 0 42.79446535767056 15.336154170148802 0 15.336154170148802 47.424103713834484 0 0 0 0 -189.17633708630456 -286.37446348611411 0 -286.37446348611411 54.449302729284682 0 0 0 0 64.31977920702775 -107.07540983360377 0 -107.07540983360377 194.32847671044874 0 0 0 0 125.49041334043795 -119.33355723820841 0 -119.33355723820841 142.35615244196379 0 0 0 0 84.110819725028705 -145.78612626901304 0 -145.78612626901304 128.5101085689239 0 0 0 0 18.05842399422545 -135.3992157990433 0 -135.3992157990433 179.21942395778024 0 0 0 0 23.956451397680212 -88.320891700663196 0 -88.320891700663196 135.35480837456271 0 0 0 0 -58.254221779527143 -109.29114224004297 0 -109.29114224004297 133.15474841935793 0 0 0 0 -15.823989414289827 -77.437786688238702 0 -77.437786688238702 150.75474645695067 0 0 0 0 -17.000534264579073 -119.51720144866658 0 -119.51720144866658 199.97877161516226 0 0 0 0 53.434112913062563 -87.615670993833191 0 -87.615670993833191 202.85712328385125 0 0 0 0 104.87387839300209 -163.85772541476763 0 -163.85772541476763 205.06598354205016 0 0 0 0 141.20577174756181 -124.01616107467999 0 -124.01616107467999 240.25254596635932 0 0 0 0 150.09902835101821 -184.22111281871184 0 -184.22111281871184 311.22899300033168 0 0 0 0 153.76603632175829 -125.01373275123842 0 -125.01373275123842 233.51763953459158 0 0 0 0 242.6889769809859 -158.66254282270347 0 -158.66254282270347 222.38223595179443 0 0 0 0 -28.731487308934447 -100.08850239700223 0 -100.08850239700223 265.63002707819396 0 0 0 0 10.864102523541078 -158.76182094084652 0 -158.76182094084652 256.93176768972626 0 0 0 0 -13.99435983823787 -149.37204299454061 0 -149.37204299454061 259.05407583375927 0 0 0 0 -4.4554786972003058 -109.68119849773939 0 -109.68119849773939 261.48254519209149 0 0 0 0 -4.0460021087783389 -144.49682944659435 0 -144.49682944659435 308.38794290449641 0 0 0 0 22.217271587069263 -80.808860152412308 0 -80.808860152412308 298.03167084002052 0 0 0 0 -298.88079231698066 -188.78217556080199 0 -188.78217556080199 369.75294875893451 0 0 0 0 -91.032203604583628 -143.64627070298229 0 -143.64627070298229 261.92884812918783 0 0 0 0 -85.185694734303979 -160.86610729501626 0 -160.86610729501626 213.04068944539176 0 0 0 0 -142.85268310588435 -111.00120927902026 0 -111.00120927902026 301.46013194123952 0 0 0 0 -145.53139592818479 -147.1795796359936 0 -147.1795796359936 295.5653511282726 0 0 0 0 23.079115687636659 -28.716552198100544 0 -28.716552198100544 281.38103621458868 0 0 0 0 -235.23472395949648 -194.28067698628729 0 -194.28067698628729 279.92339120958604 0 0 0 0 -231.51580785060651 -101.53928381516744 0 -101.53928381516744 451.23908261827455 0 0 0 0 -212.52920890078531 -121.01536520838272 0 -121.01536520838272 285.56344240773615 0 0 0 0 -184.90977143836062 -237.92340193466589 0 -237.92340193466589 72.177965384587878 0 0 0 0 -225.46747411185061 -288.27166197048064 0 -288.27166197048064 139.22566200353322 0 0 0 0 -189.8012275596011 -100.20426700790495 0 -100.20426700790495 285.12048975622747 0 0 0 0 -175.84343928316957 -181.0051371065274 0 -181.0051371065274 161.88876382560557 0 0 0 0 -422.38699297583662 -204.60322268322489 0 -204.60322268322489 204.52755123826864 0 0 0 0 -197.76275529925624 -117.76199464674391 0 -117.76199464674391 36.864433810478658 0 0 0 0 -343.16095912810124 -433.36529617541055 0 -433.36529617541055 -39.442177563265432 0 0 0 0 -505.68697689397959 -476.037482367552 0 -476.037482367552 67.983275255668559 0 0 0 0 174.46408505292493 -149.20916969385144 0 -149.20916969385144 310.44377454866481 0 0 0 0 526.17210030742058 -181.85803475616387 0 -181.85803475616387 170.68801900980907 0 0 0 0 21.367024413106265 -48.732382260473969 0 -48.732382260473969 201.26435406227392 0 0 0 0 178.13516690919641 -156.34696800536403 0 -156.34696800536403 203.95201982717117 0 0 0 0 -199.98055336525431 -136.11443183966639 0 -136.11443183966639 223.13890367243584 0 0 0 0 158.56243999645812 -190.4761064130289 0 -190.4761064130289 34.400909676362062 0 0 0 0 453.64908033196116 -366.05739177065698 0 -366.05739177065698 270.45989553465915 0 0 0 0 236.39081421638548 -92.627273513313412 0 -92.627273513313412 54.279717526471359 0 0 0 0 704.90121183983865 -399.62822970967682 0 -399.62822970967682 -265.58871697954601 0 0 0 0 849.0684582303802 -780.23181628103339 0 -780.23181628103339 327.72394548331067 0 0 0 0 214.64988229398296 -127.55826881005032 0 -127.55826881005032 -356.31543572450755 0 0 0 0 307.64809121721191 -404.00963796716678 0 -404.00963796716678 90.633314747050463 0 0 0 0 -327.29924679367105 -22.205756932220538 0 -22.205756932220538 8.9430422012301278 0 0 0 0 703.3930046633468 -574.27535313116823 0 -574.27535313116823 -1173.7133857355075 0 0 0 0 -203.98230614955537 -173.14962763526273 0 -173.14962763526273 -303.61542275282409 0 0 0 0 766.42650428434717 -1019.295524485482 0 -1019.295524485482 125.36065706765294 0 0 0 0 103.04311405017506 -31.692835844231013 0 -31.692835844231013 -1609.8164513454976 0 0 0 0 -683.36973405309254 -854.24749599694042 0 -854.24749599694042 -134.465732052573 0 0 0 0 -1028.0404181482736 -622.89267257882784 0 -622.89267257882784 27.36533654021332 0 0 0 0 -738.77086514543043 -78.703260166843393 0 -78.703260166843393 -141.33761854314071 0 0 0 0 -446.8959655892686 -303.3830391492229 0 -303.3830391492229 -18.135039039647381 0 0 0 0 -914.16526984018856 360.02860567679454 0 360.02860567679454 -1067.9224930427663 0 0 0 0 -939.8035727860406 -247.90768255101284 0 -247.90768255101284 -213.45590978064865 0 0 0 0 -234.42230401429697 -27.845905640424462 0 -27.845905640424462 -863.98911986904568 0 0 0 0 -1575.2900100823899 -652.91157701611519 0 -652.91157701611519 -133.60255557057462 0 0 0 0 -1502.9885052836325 166.37772526346816 0 166.37772526346816 -518.19782358597149 0 0 0 0 -769.70694441188243 -1158.6945726392878 0 -1158.6945726392878 -244.02636806041119 0 0 0 0 53.168266429049424 -54.903091653231776 0 -54.903091653231776 53.433483778873395 0 0 0 0 -88.605807045794791 -414.76376327776961 0 -414.76376327776961 128.29753282705497 0 0 0 0 78.15634233673336 -515.06216098275036 0 -515.06216098275036 257.40559330422548 0 0 0 0 -479.15116376301739 -825.89751454173529 0 -825.89751454173529 -139.77773589802382 0 0 0 0 -506.11369010644904 -778.76061477532483 0 -778.76061477532483 -179.07995203489554 0 0 0 0 447.37214998260606 -692.17397331326356 0 -692.17397331326356 -557.38521563942777 0 0 0 0 -283.12537489563692 -623.67869095079368 0 -623.67869095079368 -71.349169259337941 0 0 0 0 -193.29823392402614 -920.18333228921983 0 -920.18333228921983 -300.28574565377494 0 0 0 0 -597.55692135501886 -983.35773198166135 0 -983.35773198166135 -189.62243679667881 0 0 0 0 -305.59526600435493 -1200.9181832576796 0 -1200.9181832576796 -435.5636910465546 0 0 0 0 128.0535912487976 -1219.2101250206324 0 -1219.2101250206324 -1029.4410932696046 0 0 0 0 -277.12230305085541 -1379.922518088526 0 -1379.922518088526 -165.30325490300311 0 0 0 0 122.36021551999147 -1125.6619881277657 0 -1125.6619881277657 -443.4986651115978 0 0 0 0 -55.180184034790727 -835.01359811260227 0 -835.01359811260227 -327.0759411737381 0 0 0 0 193.40163749043131 -639.60184352177021 0 -639.60184352177021 -504.00438057289284 0 0 0 0 -156.29324285480106 -563.77287080602218 0 -563.77287080602218 -233.89309226178739 0 0 0 0 110.83031844717334 -296.05848993442487 0 -296.05848993442487 26.323075903412246 0 0 0 0 -301.98604935075855 444.59009263668122 0 444.59009263668122 -1106.9023296218875 0 0 0 0 -926.97549791213532 -525.50499188698814 0 -525.50499188698814 -16.431771805928292 0 0 0 0 -1350.276603673643 60.639864059088723 0 60.639864059088723 116.79172424544231 0 0 0 0 -73.709410910785664 -1808.7106353337149 0 -1808.7106353337149 -588.0071743553417 0 0 0 0 9.461316176049877 30.719065434794175 0 30.719065434794175 -336.73820001082095 0 0 0 0 127.33432532832376 -132.36211014953733 0 -132.36211014953733 -171.05716840001696 0 0 0 0 -287.30681635561632 -73.302565024147043 0 -73.302565024147043 7.4482295742200222 0 0 0 0 -177.55361262269435 -373.4906744875334 0 -373.4906744875334 179.14998534409096 0 0 0 0 -101.76743178430479 -287.52151706755831 0 -287.52151706755831 222.18928102479549 0 0 0 0 5.1209115556557663 -270.72677800011297 0 -270.72677800011297 135.75897179167077 0 0 0 0 191.08695902948966 -404.44333355380513 0 -404.44333355380513 265.57228674148791 0 0 0 0 92.6633461201709 -125.63671364391485 0 -125.63671364391485 175.03086916121538 0 0 0 0 133.41104350521346 -255.70068898283353 0 -255.70068898283353 167.5229463902142 0 0 0 0 -79.213215288953506 -97.131820922259067 0 -97.131820922259067 69.051203888782766 0 0 0 0 196.64257675830686 -226.21038388393254 0 -226.21038388393254 282.68945348051784 0 0 0 0 193.82085365444073 -334.76780573686119 0 -334.76780573686119 428.82873821540852 0 0 0 0 203.09501790512877 -564.83952215661702 0 -564.83952215661702 538.06589363627427 0 0 0 0 314.64635280671064 -364.30485442845384 0 -364.30485442845384 298.86259064460228 0 0 0 0 23.191845051769633 -268.55097767275583 0 -268.55097767275583 310.96296488304506 0 0 0 0 303.4195681954443 -483.21024219525134 0 -483.21024219525134 413.83650849386777 0 0 0 0 384.43030042233295 -469.70568471496154 0 -469.70568471496154 408.33456065514838 0 0 0 0 248.36927964514689 -370.29396404505314 0 -370.29396404505314 467.19389407239214 0 0 0 0 220.36436971636431 -476.08452035798837 0 -476.08452035798837 430.43927954271203 0 0 0 0 477.35286526432901 -312.26483306664522 0 -312.26483306664522 448.35658824623533 0 0 0 0 277.33617131270148 -382.67692205630919 0 -382.67692205630919 515.80353844442288 0 0 0 0 133.72906904795673 -1688.7664823977611 0 -1688.7664823977611 -55.812632105958073 0 0 0 0 671.14281407670205 -1050.1666179343792 0 -1050.1666179343792 606.43101773996023 0 0 0 0 -1331.7074245662807 1689.7721497998755 0 1689.7721497998755 653.9924683932195 0 0 0 0 -2.410108728717546 -4.662010501158619 0 -4.662010501158619 -8.1340041029526731 0 0 0 0 814.93578101226012 -579.26772802635969 0 -579.26772802635969 327.77722612077196 0 0 0 0 244.5295398273156 -477.59670780473971 0 -477.59670780473971 265.34631848687786 0 0 0 0 117.19987093027157 -406.3075911459091 0 -406.3075911459091 405.76646365405759 0 0 0 0 127.50727682672004 -710.21582758912336 0 -710.21582758912336 770.88792166885105 0 0 0 0 -992.46558941600961 390.10433949445724 0 390.10433949445724 -232.52835835501901 0 0 0 0 92.439696607427322 18.069304488511079 0 18.069304488511079 3118.7849941124805 0 0 0 0 -1568.3250424051967 -261.12094537347957 0 -261.12094537347957 2032.2370761786005 0 0 0 0 603.56444668976474 -80.458513978992414 0 -80.458513978992414 -770.11952195860795 0 0 0 0 763.50018192577409 -1118.7717756811617 0 -1118.7717756811617 -1499.795413653178 0 0 0 0 977.09931697126012 -1875.7085149963968 0 -1875.7085149963968 -1033.8842736847109 0 0 0 0 18.604064357857681 -21.910583194782049 0 -21.910583194782049 20.385228839775365 0 0 0 0 824.19083231566947 -1584.8627397735013 0 -1584.8627397735013 300.43937436548003 0 0 0 0 1050.4681079831789 -1023.572894713092 0 -1023.572894713092 -93.114832035149448 0 0 0 0 1389.1977361415484 -2557.9552848655294 0 -2557.9552848655294 95.108077043820231 0 0 0 0 413.25447100278689 -1844.4519892276512 0 -1844.4519892276512 3740.3835284418674 0 0 0 0 1361.3293343508267 -2437.6209105374728 0 -2437.6209105374728 2825.6374082906841 0 0 0 0 881.80216772295535 -1694.0398062858221 0 -1694.0398062858221 1577.0633074319258 0 0 0 0 440.91710251265613 -2114.0702748974945 0 -2114.0702748974945 2822.0443226389471 0 0 0 0 330.4557763406192 -502.42561408664915 0 -502.42561408664915 1299.8000969869609 0 0 0 0 -7.1254527748969849 -980.59659477340028 0 -980.59659477340028 2120.0280433424923 0 0 0 0 158.72774429799756 481.34498971490393 0 481.34498971490393 -2776.3958236706676 0 0 0 0 42.226524680813782 -33.612310851198188 0 -33.612310851198188 -23.755116866652237 0 0 0 0 781.722955608755 -2063.8777521080301 0 -2063.8777521080301 2600.1011905892556 0 0 0 0 -50.056274013099028 224.98157581997657 0 224.98157581997657 -1962.5708399442919 0 0 0 0 -69.743606270817963 -184.4542960855847 0 -184.4542960855847 -1266.6055406968371 0 0 0 0 -520.89719534586766 336.45523551452061 0 336.45523551452061 -1364.2467372130777 0 0 0 0 -396.15418675402179 663.21460118720279 0 663.21460118720279 -1784.834646121235 0 0 0 0 -108.55027969347429 -434.15105562507233 0 -434.15105562507233 -1149.8927515352625 0 0 0 0 -178.97664500369865 -196.57522552465161 0 -196.57522552465161 -777.49376268754713 0 0 0 0 -413.20053955509502 -349.08385680218635 0 -349.08385680218635 -2089.6066648041888 0 0 0 0 -24.871754577154206 58.504440639943368 0 58.504440639943368 -1674.7586608748534 0 0 0 0 439.28412847794243 -662.24285741666972 0 -662.24285741666972 -2121.7223534050227 0 0 0 0 -616.43339145852951 835.89565956147408 0 835.89565956147408 -2449.8973540390871 0 0 0 0 1123.4424643544044 681.24202928656086 0 681.24202928656086 -5112.021789027036 0 0 0 0 71.83315317943925 23.765194013394648 0 23.765194013394648 -842.26109117733722 0 0 0 0 2509.638854663729 -736.30146702430307 0 -736.30146702430307 -810.74515512339713 0 0 0 0 500.06431007585707 -1013.0414634286535 0 -1013.0414634286535 268.62796456865908 0 0 0 0 868.45618080672284 -1369.2841596885919 0 -1369.2841596885919 -3284.3469806089051 0 0 0 0 2322.7190621572263 -3819.6629137107802 0 -3819.6629137107802 1424.2834615694082 0 0 0 0 -16.878024639423074 -21.943737423355174 0 -21.943737423355174 -27.255640904513726 0 0 0 0 -39.231702095188666 -800.41303353900003 0 -800.41303353900003 3545.5978333907551 0 0 0 0 314.70613378543203 -253.22598406243196 0 -253.22598406243196 165.05653288337635 0 0 0 0 12.47215461976333 -12.491033414738212 0 -12.491033414738212 -7.6820424804355838 0 0 0 0 227.28893708507167 -246.68607829849043 0 -246.68607829849043 4075.3383163242543 0 0 0 0 -552.62205733981682 -2781.9442577810041 0 -2781.9442577810041 5363.3826058259001 0 0 0 0 1673.7120756920194 -199.748155743815 0 -199.748155743815 -2004.7583360188655 0 0 0 0 1060.6075168161769 103.81160643031762 0 103.81160643031762 -1507.1364886568044 0 0 0 0 838.91114706351073 395.51777325449075 0 395.51777325449075 -682.39394102181541 0 0 0 0 438.15613212069366 159.66574923647386 0 159.66574923647386 -1512.1440819650597 0 0 0 0 210.72177678905427 -763.09004763537087 0 -763.09004763537087 -1746.8336510587978 0 0 0 0 -79.229906096621562 190.22822473698307 0 190.22822473698307 -178.25755344685604 0 0 0 0 -190.02277368540308 -173.80771703287883 0 -173.80771703287883 -71.338798357370251 0 0 0 0 -4.2427623228676339 -26.178236906325139 0 -26.178236906325139 -15.322967547469027 0 0 0 0 567.64995965742855 -149.4430610549316 0 -149.4430610549316 -1176.8486666546378 0 0 0 0 14.059183514451661 -3.6860492062225489 0 -3.6860492062225489 -19.015608932175375 0 0 0 0 538.44771071826108 -154.01718663491192 0 -154.01718663491192 -1674.3175710249634 0 0 0 0 28.294508099066263 -62.660987549109393 0 -62.660987549109393 -27.442060545852307 0 0 0 0 791.33096949895844 206.12670355540467 0 206.12670355540467 -1796.0220722126833 0 0 0 0 -2.0550354994193185 -33.145916411500366 0 -33.145916411500366 -136.40535680650282 0 0 0 0 760.01964917444275 321.00133372795244 0 321.00133372795244 -991.11216550251993 0 0 0 0 -500.22315135414829 -961.53537350072293 0 -961.53537350072293 680.81597413345298 0 0 0 0 -362.29104001491214 -178.25862994114141 0 -178.25862994114141 -993.18750562627974 0 0 0 0 441.10414469774696 -177.03005447202304 0 -177.03005447202304 -390.58223325714789 0 0 0 0 817.46336699527455 -2733.0815061315589 0 -2733.0815061315589 3414.5922718102629 0 0 0 0 1221.2300396606443 394.32791827883921 0 394.32791827883921 -1951.3953596210486 0 0 0 0 1.0491350143031468 -9.5841477428764534 0 -9.5841477428764534 -4.1474019934910373 0 0 0 0 -1404.0553024145484 1097.6328798390205 0 1097.6328798390205 -379.29980455787882 0 0 0 0 442.76234142438625 -1351.034749666389 0 -1351.034749666389 3290.2529038896901 0 0 0 0 2.7174266752864469 -2.1176717623678769 0 -2.1176717623678769 -0.22857219786829752 0 0 0 0 228.94267446445883 40.184856391475478 0 40.184856391475478 -180.17059534981672 0 0 0 0 671.2170299855643 -645.21319743997446 0 -645.21319743997446 2628.3410748442693 0 0 0 0 594.15740006582928 -983.61399803973109 0 -983.61399803973109 -2307.3446781113817 0 0 0 0 1088.6472346270748 -1468.1770039457624 0 -1468.1770039457624 1296.0140167810969 0 0 0 0 1787.2544269388018 -2463.8449317464165 0 -2463.8449317464165 1015.5959727338777 0 0 0 0 1211.4993252407876 -2607.1300296339286 0 -2607.1300296339286 1860.5483925091867 0 0 0 0 94.344008659885731 756.45905317502911 0 756.45905317502911 -2068.3393087182121 0 0 0 0 1377.633418478257 999.93100904802111 0 999.93100904802111 1877.9751280864293 0 0 0 0 49.165680423607967 -42.713554283899526 0 -42.713554283899526 -35.060452925903306 0 0 0 0 -138.8143618668837 -1501.5628780121478 0 -1501.5628780121478 3273.8692359914057 0 0 0 0 452.87844052672153 -147.9352760363472 0 -147.9352760363472 523.54324733842441 0 0 0 0 -177.73619308893103 -2089.2964248131029 0 -2089.2964248131029 -581.01164581925696 0 0 0 0 -73.882172206038376 34.44630949376733 0 34.44630949376733 -1647.1602860911808 0 0 0 0 -103.3706828958384 428.10686603489012 0 428.10686603489012 -994.0040720544348 0 0 0 0 -136.95616675222118 22.349936819540744 0 22.349936819540744 -885.97332153932075 0 0 0 0 -12.612251943617593 -703.78884359401127 0 -703.78884359401127 -293.84286419074488 0 0 0 0 72.117182404086634 -375.3619005254186 0 -375.3619005254186 -660.21753958586487 0 0 0 0 93.907967766048387 -131.25950560655474 0 -131.25950560655474 -171.48044946220762 0 0 0 0 530.57375872036209 -328.23151775957376 0 -328.23151775957376 359.12930058036 0 0 0 0 179.01777869290527 -539.52765311297117 0 -539.52765311297117 253.99635217920877 0 0 0 0 497.53289177030092 -44.295610256885993 0 -44.295610256885993 -432.97183002096426 0 0 0 0 -14.478663448302541 175.41966652040719 0 175.41966652040719 -302.29402010566628 0 0 0 0 197.09625300923653 57.813618001699069 0 57.813618001699069 -1097.5606557247374 0 0 0 0 -506.32277461078775 762.48902720861952 0 762.48902720861952 -1088.8594177532214 0 0 0 0 562.20429221040104 205.82051041831437 0 205.82051041831437 -840.49244700009876 0 0 0 0 645.87236622715136 85.971107972327445 0 85.971107972327445 336.6299759165704 0 0 0 0 741.28085792501224 -302.86522505994799 0 -302.86522505994799 -846.99489170901143 0 0 0 0 1306.7983607815404 -999.05174464207812 0 -999.05174464207812 132.91202395092114 0 0 0 0 170.20997205639287 -279.78473023020524 0 -279.78473023020524 -129.44192436878802 0 0 0 0 673.00772998043249 -504.4063363221012 0 -504.4063363221012 -251.04123451853229 0 0 0 0 954.60079643428435 -1595.4809566815125 0 -1595.4809566815125 1827.1083030893351 0 0 0 0 964.30609976925189 -120.86920757326152 0 -120.86920757326152 252.82481528053177 0 0 0 0 1242.1585050757567 -64.852024699652247 0 -64.852024699652247 1388.7627738658484 0 0 0 0 665.36574729147833 -796.49444874996698 0 -796.49444874996698 483.24692819068514 0 0 0 0 2060.2266001739481 -860.75281040057598 0 -860.75281040057598 154.96025153715891 0 0 0 0 998.80999586543476 -832.65518495413335 0 -832.65518495413335 222.72259791957913 0 0 0 0 1255.9943189531623 -1022.4855396975618 0 -1022.4855396975618 659.97994954215392 0 0 0 0 918.71122721256688 -887.13526436495158 0 -887.13526436495158 719.08460409830695 0 0 0 0 -2.9720644992418386 -12.572824473727678 0 -12.572824473727678 11.679959550636966 0 0 0 0 1.4991428333027841 -9.5496281190508512 0 -9.5496281190508512 -0.31160629046252097 0 0 0 0 2657.9585971742781 -1986.1563566658133 0 -1986.1563566658133 1293.5393107106938 0 0 0 0 -7.5177621360470113 1.8088362442272228 0 1.8088362442272228 8.2614748838825562 0 0 0 0 908.82312950502092 -154.53378585387691 0 -154.53378585387691 -545.07754642688087 0 0 0 0 436.37923604418756 359.41670963176875 0 359.41670963176875 1438.5362809391618 0 0 0 0 1952.3897257234712 -1792.7574775277426 0 -1792.7574775277426 1098.0093796566216 0 0 0 0 -714.71921448399371 -200.91359869373264 0 -200.91359869373264 366.642096442607 0 0 0 0 6.2511571452652959 -18.677445858849453 0 -18.677445858849453 26.822491424465113 0 0 0 0 -11.958761191475787 -24.165477760216163 0 -24.165477760216163 19.709960676475021 0 0 0 0 4.309994093637215 -11.971083594366064 0 -11.971083594366064 20.600319620338269 0 0 0 0 1096.4941321894585 -744.42134650106163 0 -744.42134650106163 460.44074585272028 0 0 0 0 2799.5661566773779 -1500.4035273290683 0 -1500.4035273290683 794.74438635766273 0 0 0 0 -4.66386629991257 -3.9141932706907596 0 -3.9141932706907596 4.8182689729599133 0 0 0 0 -5.6550248591649961 -13.629008137170871 0 -13.629008137170871 -14.032502631210178 0 0 0 0 857.86861966605647 -884.15060784118032 0 -884.15060784118032 406.46636408422273 0 0 0 0 9.0818706773570739 -58.094597226527185 0 -58.094597226527185 17.020261286364985 0 0 0 0 867.3797300412698 -965.77773451569738 0 -965.77773451569738 428.8832811779605 0 0 0 0 262.39187974501692 -694.41225389386 0 -694.41225389386 638.30037091927079 0 0 0 0 300.58977640419471 -699.56579500890075 0 -699.56579500890075 429.70559597443207 0 0 0 0 846.1806119310495 -1256.0490704964686 0 -1256.0490704964686 804.872599201517 0 0 0 0 118.44107972165511 -895.14477948541753 0 -895.14477948541753 332.52958881336963 0 0 0 0 -37.221977182714909 -536.12374712710516 0 -536.12374712710516 18.67786484232056 0 0 0 0 -66.658491258640424 -958.64408218185417 0 -958.64408218185417 486.42100496044804 0 0 0 0 158.49032756976521 -868.80329281409286 0 -868.80329281409286 522.26449351858173 0 0 0 0 73.413697870795659 -511.16715920303432 0 -511.16715920303432 1138.6215370618229 0 0 0 0 70.137604133089553 -561.34214484393897 0 -561.34214484393897 596.48743526222825 0 0 0 0 90.883196862771001 -331.58971027160442 0 -331.58971027160442 815.33023481319833 0 0 0 0 -243.86355295867543 -424.51737922403845 0 -424.51737922403845 -1891.3801611593517 0 0 0 0 20.74878345987554 -21.605851654699897 0 -21.605851654699897 7.5778637652947438 0 0 0 0 -7.6411091277404921 -1516.1507241105355 0 -1516.1507241105355 -2692.0481640487124 0 0 0 0 5.7147065006590481 -8.6099470494988282 0 -8.6099470494988282 7.1573307081859241 0 0 0 0 61.801529739197008 -28.357864404634327 0 -28.357864404634327 1.1593688079558859 0 0 0 0 57.2366879612091 -67.736464301327942 0 -67.736464301327942 -3037.0084011755825 0 0 0 0 53.791354261462402 -70.339869744460884 0 -70.339869744460884 3.4728074826052762 0 0 0 0 230.88113069463725 -405.61459184014348 0 -405.61459184014348 700.29341707155982 0 0 0 0 -4.4810574257058704 -18.468200908287713 0 -18.468200908287713 -11.678976798699409 0 0 0 0 12.950518529352848 -43.610047331938404 0 -43.610047331938404 25.140889021218754 0 0 0 0 53.970021847169846 -55.739444052636827 0 -55.739444052636827 -9.7120802109202486 0 0 0 0 26.096918807983457 -83.312162186575733 0 -83.312162186575733 -33.639838310773484 0 0 0 0 21.06520625774283 -64.412213813273411 0 -64.412213813273411 11.806149345095037 0 0 0 0 -17.871436605608324 -54.106680702701851 0 -54.106680702701851 21.834763306651439 0 0 0 0 -29.979190125537571 -63.692606448734296 0 -63.692606448734296 32.427915136100637 0 0 0 0 -24.676011212781304 -85.115124558513344 0 -85.115124558513344 39.770603300974471 0 0 0 0 -17.182001083914656 -84.494713412495912 0 -84.494713412495912 23.747879172384273 0 0 0 0 -19.103449523070594 -103.52697483770316 0 -103.52697483770316 -26.271718572199461 0 0 0 0 -15.682003275578609 -90.360773449792759 0 -90.360773449792759 9.0936103669810109 0 0 0 0 -25.8283088823664 -93.694123984110774 0 -93.694123984110774 57.309905976479058 0 0 0 0 -22.841476963309105 -92.312264594489534 0 -92.312264594489534 28.577260916732484 0 0 0 0 -30.774580798082752 -82.930475570115959 0 -82.930475570115959 41.836740664541139 0 0 0 0 -28.840454847420915 -68.743613663944416 0 -68.743613663944416 54.825295414368156 0 0 0 0 -21.591919105529087 -37.690513536123035 0 -37.690513536123035 25.494868344672796 0 0 0 0 -38.940970710966212 -64.047205899769324 0 -64.047205899769324 41.846370441446197 0 0 0 0 1611.7962365080166 -339.31010225810314 0 -339.31010225810314 166.51346281595761 0 0 0 0 602.3019374487485 -1046.9684085729568 0 -1046.9684085729568 1183.3536980454373 0 0 0 0 1049.9885080773238 303.41700301838864 0 303.41700301838864 382.31378510452487 0 0 0 0 20.595398066380497 -40.538917992101489 0 -40.538917992101489 51.646822736616571 0 0 0 0 1500.7069118357904 526.76197389979279 0 526.76197389979279 139.75498178299313 0 0 0 0 519.91338763786189 176.14241198144919 0 176.14241198144919 318.43494551474578 0 0 0 0 894.93499635843182 -118.88235988706583 0 -118.88235988706583 -825.45694961909612 0 0 0 0 196.23242265204317 -137.37364194043766 0 -137.37364194043766 150.00293800438158 0 0 0 0 699.80250871366297 -733.32662995707142 0 -733.32662995707142 -414.84282949448971 0 0 0 0 -155.2102061384212 -125.10106010417076 0 -125.10106010417076 -727.11739229618252 0 0 0 0 108.51871984162426 -792.62460565286892 0 -792.62460565286892 -1110.5106891848591 0 0 0 0 -142.37843275586783 -519.96832862961674 0 -519.96832862961674 -29.382708393146459 0 0 0 0 39.574344026856124 -905.41142139390286 0 -905.41142139390286 -209.03689128552651 0 0 0 0 -166.69979843209512 -634.42038078009318 0 -634.42038078009318 476.42308273573872 0 0 0 0 46.324974502247642 -892.67474918165317 0 -892.67474918165317 580.94712348414396 0 0 0 0 -68.203250502781884 -856.4484965682459 0 -856.4484965682459 968.94378261895326 0 0 0 0 -64.863075781351654 -640.70075074276247 0 -640.70075074276247 1305.0362380918377 0 0 0 0 200.59744963338017 -994.17879830607126 0 -994.17879830607126 324.56415860442576 0 0 0 0 138.87021196777641 -458.84732371816062 0 -458.84732371816062 533.2252757316819 0 0 0 0 201.24118075602746 -1134.6070803902439 0 -1134.6070803902439 1692.9913922750384 0 0 0 0 -159.48667734327864 -129.59130637272801 0 -129.59130637272801 2722.8836641607923 0 0 0 0 -151.58787515503354 -277.14392289002353 0 -277.14392289002353 929.60727865379158 0 0 0 0 121.11925003944634 -188.03016979721724 0 -188.03016979721724 -2708.5323751158867 0 0 0 0 -494.53495615095017 -727.83396369554976 0 -727.83396369554976 -1963.1230612485197 0 0 0 0 5.7800264817253719 -6.7900203603082048 0 -6.7900203603082048 3.6916884685963396 0 0 0 0 -307.95672146091238 -336.32847555747867 0 -336.32847555747867 -1725.2900228972576 0 0 0 0 394.34582733715069 1309.8926679128635 0 1309.8926679128635 -2158.0949737373812 0 0 0 0 24.343156647143587 -2386.2980832915619 0 -2386.2980832915619 3437.0336734794255 0 0 0 0 168.70008803959354 -1317.0874472750729 0 -1317.0874472750729 179.26734462288005 0 0 0 0 738.88466294220416 -645.91595869835874 0 -645.91595869835874 1380.194846546714 0 0 0 0 -113.16130309665459 -504.15755787013768 0 -504.15755787013768 1888.6850348543085 0 0 0 0 1465.0654513675836 -1584.8744510194228 0 -1584.8744510194228 2574.9660898891452 0 0 0 0 1627.9188521472606 -2418.2660779466714 0 -2418.2660779466714 2433.6118849192571 0 0 0 0 -435.60859722067835 -475.03642375167692 0 -475.03642375167692 9.4845735137350857 0 0 0 0 4.8026132622837849 -14.025371348679613 0 -14.025371348679613 32.465219360484667 0 0 0 0 3891.0442798166914 -231.88974126736139 0 -231.88974126736139 459.85145192130221 0 0 0 0 -2226.2545054593647 -1185.6301842987705 0 -1185.6301842987705 861.32145023951307 0 0 0 0 2.7738675405946651 2.04319342445865 0 2.04319342445865 -7.7849139212273144 0 0 0 0 -1408.2724775506358 -1012.1097225400808 0 -1012.1097225400808 513.96681797950441 0 0 0 0 -190.58295519082458 -2202.1405933335627 0 -2202.1405933335627 485.77916081075819 0 0 0 0 5345.5512087715324 -2264.5513158270332 0 -2264.5513158270332 453.24786315584788 0 0 0 0 1000.7952674396729 -1587.4860519797294 0 -1587.4860519797294 -1573.3896595858896 0 0 0 0 -2343.0266114767001 -642.56946040106413 0 -642.56946040106413 3942.8621320113307 0 0 0 0 -710.50556530916219 -970.91220386672649 0 -970.91220386672649 1055.3022134477651 0 0 0 0 -890.11351654154714 -974.08307540999522 0 -974.08307540999522 3211.2496870406412 0 0 0 0 25.617496048329855 -16.545126427466968 0 -16.545126427466968 3.6001882823564415 0 0 0 0 -43.845347136142664 -1055.398556152868 0 -1055.398556152868 407.99225330477566 0 0 0 0 1215.1154222555906 -2040.4587653731023 0 -2040.4587653731023 707.61261223460315 0 0 0 0 -215.28493789241838 -667.70491873712126 0 -667.70491873712126 -420.24292830986087 0 0 0 0 -1660.0292555048582 -766.10048688243114 0 -766.10048688243114 1122.2816100612254 0 0 0 0 -551.21747564205725 -1384.0009302139806 0 -1384.0009302139806 424.99972201809578 0 0 0 0 -1440.8324326132788 -425.74548707260692 0 -425.74548707260692 -501.11468891221739 0 0 0 0 -1155.8217950382095 -1201.0321300881187 0 -1201.0321300881187 -424.81120374068632 0 0 0 0 -742.248483054791 -645.83862091303308 0 -645.83862091303308 -409.29285928056925 0 0 0 0 -239.86475877137855 -1029.8639621930197 0 -1029.8639621930197 -375.54111382248448 0 0 0 0 869.78180449692445 -745.88049931433125 0 -745.88049931433125 -807.83935482725792 0 0 0 0 216.16633730703325 -537.86554133290338 0 -537.86554133290338 -788.77359833082301 0 0 0 0 171.83173564728713 -523.59413240516005 0 -523.59413240516005 -741.37670813938894 0 0 0 0 -130.57495388353709 -458.2098552579555 0 -458.2098552579555 -754.43156579415154 0 0 0 0 -215.01685481115419 -536.6070754545508 0 -536.6070754545508 -381.15315200483747 0 0 0 0 -7.7434489229672181 -265.422550415351 0 -265.422550415351 -496.83300131789292 0 0 0 0 -370.45697027569986 -627.76240247883834 0 -627.76240247883834 -541.32509737314467 0 0 0 0 -272.30926643790735 -357.37213320723822 0 -357.37213320723822 -595.85629503134987 0 0 0 0 -750.24590061065101 -374.63253857879317 0 -374.63253857879317 195.20732517223223 0 0 0 0 1462.7462386700645 396.74748102551166 0 396.74748102551166 -469.06396225211211 0 0 0 0 -329.71206708534737 -566.62671759611112 0 -566.62671759611112 -625.96599551208783 0 0 0 0 1.0008254084636974 -15.543061801364587 0 -15.543061801364587 18.528239715505606 0 0 0 0 -128.67081903020153 -75.939542468811851 0 -75.939542468811851 4.4174366169027053 0 0 0 0 11.667951451707722 -46.316249375288862 0 -46.316249375288862 16.466903439674468 0 0 0 0 -0.82047328145858955 -26.416291818645213 0 -26.416291818645213 49.505121121719441 0 0 0 0 -449.19394187975558 -675.51397890304179 0 -675.51397890304179 -426.54771187239385 0 0 0 0 8.399626777782828 -74.128662225600493 0 -74.128662225600493 -108.80725975785865 0 0 0 0 59.724279784008104 -20.183067933874554 0 -20.183067933874554 -1526.4551136968694 0 0 0 0 1694.1993431684677 -1291.0192907950004 0 -1291.0192907950004 595.56845864164643 0 0 0 0 34.913468824204756 18.157400489391875 0 18.157400489391875 -866.21599742134276 0 0 0 0 5.4770837521846261 -204.24771416624571 0 -204.24771416624571 -276.38410257542273 0 0 0 0 -69.728708054994058 -280.30385941139684 0 -280.30385941139684 -791.48207447720051 0 0 0 0 401.55176833212317 -431.936241583011 0 -431.936241583011 -1135.7297191254402 0 0 0 0 -422.17620787100896 -763.52184656966347 0 -763.52184656966347 -1438.2917123813677 0 0 0 0 -492.93698766497982 -607.36287941678165 0 -607.36287941678165 -986.45160390768433 0 0 0 0 -589.96772465954564 -484.39616663786001 0 -484.39616663786001 33.384418403060408 0 0 0 0 218.44401368840772 -638.44385576764034 0 -638.44385576764034 -928.9712043151103 0 0 0 0 211.27616149170353 -494.83224639620676 0 -494.83224639620676 -124.09468849450059 0 0 0 0 1635.9698729860374 -608.96644889247818 0 -608.96644889247818 -311.72685544491105 0 0 0 0 -146.44297499302047 -227.4580346226503 0 -227.4580346226503 812.90123725072772 0 0 0 0 -391.41758951532393 -905.45912171986856 0 -905.45912171986856 -76.542334497984484 0 0 0 0 -675.25125980801386 -919.42644163845762 0 -919.42644163845762 238.66828184025508 0 0 0 0 -464.69357892505104 -584.12620244280333 0 -584.12620244280333 -210.36469559659599 0 0 0 0 -586.77296920772824 -603.59612224188277 0 -603.59612224188277 -1418.6045476690051 0 0 0 0 -1020.9728007815138 -580.42469813420757 0 -580.42469813420757 -142.26962410109263 0 0 0 0 884.35272891356726 -2687.3343462382254 0 -2687.3343462382254 3242.5653076606868 0 0 0 0 -364.8846167530819 490.05238860612735 0 490.05238860612735 -1069.4658817147574 0 0 0 0 -25.714655765474163 -48.927578255376332 0 -48.927578255376332 -50.902989780890039 0 0 0 0 15.409577090569655 -354.71140027675938 0 -354.71140027675938 -287.12113841321934 0 0 0 0 -19.458712229788787 -63.592078810355758 0 -63.592078810355758 -75.979220811286794 0 0 0 0 -1309.9480216288794 531.32514285472189 0 531.32514285472189 -529.85833705848927 0 0 0 0 845.71996954702627 -2453.665967759558 0 -2453.665967759558 1900.9951739814751 0 0 0 0 940.46668497388418 -731.96547606585409 0 -731.96547606585409 1960.3696610725383 0 0 0 0 1659.1526071695098 -1654.5327487603518 0 -1654.5327487603518 183.89555179196759 0 0 0 0 377.70326560604735 -1497.4574728263215 0 -1497.4574728263215 484.36170974957167 0 0 0 0 815.50077900707038 -1213.5596707784662 0 -1213.5596707784662 -937.08032691078188 0 0 0 0 -45.220951488161518 -748.62048819122538 0 -748.62048819122538 289.61499055366585 0 0 0 0 648.28377385812928 -1088.9503642993841 0 -1088.9503642993841 -1135.1985791068582 0 0 0 0 956.16793705992677 -1192.5088809820463 0 -1192.5088809820463 -1362.4419705075561 0 0 0 0 672.87426516117921 -1589.6158125063321 0 -1589.6158125063321 -554.74259327405889 0 0 0 0 780.96822755657195 -928.13187687582649 0 -928.13187687582649 -2710.9024847598776 0 0 0 0 -344.35465568045765 -1453.5268098691085 0 -1453.5268098691085 -947.94853663356298 0 0 0 0 -5.4003005066738297 -69.626991545028531 0 -69.626991545028531 -93.623062488232534 0 0 0 0 -1027.6629112127921 505.42725554249046 0 505.42725554249046 -1653.4182859245147 0 0 0 0 -3180.6060656283516 -3445.0516168793692 0 -3445.0516168793692 411.68152208937681 0 0 0 0 -1582.8777271945291 -207.98235708718857 0 -207.98235708718857 -736.3334673526806 0 0 0 0 -36.590161117092066 -2500.2424892555064 0 -2500.2424892555064 -138.3692611734441 0 0 0 0 850.17276877249969 -1598.1099060587494 0 -1598.1099060587494 -528.7338165648107 0 0 0 0 793.28415233072883 -1032.364326685778 0 -1032.364326685778 144.37664156711253 0 0 0 0 -114.56497071539343 -1941.3299895692871 0 -1941.3299895692871 -645.27248370164671 0 0 0 0 546.69989948198781 -1287.4734824459865 0 -1287.4734824459865 -1136.7443584973589 0 0 0 0 -896.72979114253394 -1224.8246232159927 0 -1224.8246232159927 -548.01862035699742 0 0 0 0 -1926.2728961311368 -2055.0975098587223 0 -2055.0975098587223 68.426660388580785 0 0 0 0 -2750.3389688169591 -289.61402078557921 0 -289.61402078557921 161.02664916293725 0 0 0 0 -5.9338528161239026 -9.2875919397579594 0 -9.2875919397579594 -11.103079958232513 0 0 0 0 2114.6100481193062 -407.09499193671218 0 -407.09499193671218 1747.746701970038 0 0 0 0 -686.79252745797567 -3.1672947205497621 0 -3.1672947205497621 15.522074667256675 0 0 0 0 -117.34200998632878 -54.768095904266374 0 -54.768095904266374 -177.17684208500577 0 0 0 0 -1071.0182361019906 -601.52339653075614 0 -601.52339653075614 -151.05671421258012 0 0 0 0 -272.48427229584195 -883.15832752958886 0 -883.15832752958886 -682.02055001975532 0 0 0 0 -567.57385919579974 -1178.753578261596 0 -1178.753578261596 -542.32440814564643 0 0 0 0 77.216240532128722 -1133.460541659384 0 -1133.460541659384 -1092.4800177818415 0 0 0 0 26.56070966782363 -620.64680728447911 0 -620.64680728447911 -1078.328863642746 0 0 0 0 27.905967957318353 -576.1621265693575 0 -576.1621265693575 -501.90777573535161 0 0 0 0 96.936913553414342 -204.54457415025172 0 -204.54457415025172 -516.70907374578383 0 0 0 0 -392.79004456414259 -444.49183875086419 0 -444.49183875086419 -288.70021085634289 0 0 0 0 -91.0486817490455 -39.551089590131596 0 -39.551089590131596 -61.816802662575355 0 0 0 0 -64.246999425813556 -123.9419585526739 0 -123.9419585526739 -222.65638993254106 0 0 0 0 -162.83694395171187 -195.79395423147434 0 -195.79395423147434 -120.58822099534518 0 0 0 0 -218.77793546334578 -50.196962039899518 0 -50.196962039899518 -0.89406862596661085 0 0 0 0 -371.94106721147182 -163.49760702905769 0 -163.49760702905769 18.477142552095756 0 0 0 0 -286.48402374406578 -264.28089748323691 0 -264.28089748323691 -40.620939712780455 0 0 0 0 20.878712738049217 78.458015693990092 0 78.458015693990092 -1739.2696320141622 0 0 0 0 192.83290374110948 -301.35594653462977 0 -301.35594653462977 -901.36380605871818 0 0 0 0 439.28416783690773 -854.90671625303366 0 -854.90671625303366 -952.64767522616603 0 0 0 0 402.98066586691129 -590.86653108062819 0 -590.86653108062819 -1741.2434428728666 0 0 0 0 1602.6332421099341 -3329.5952983888678 0 -3329.5952983888678 2964.0158972232616 0 0 0 0 85.43236115212494 -274.31280262167638 0 -274.31280262167638 -905.59472691808878 0 0 0 0 -33.230185894020622 -51.998758794180731 0 -51.998758794180731 -45.944441713331784 0 0 0 0 2175.7347547787158 -1468.467354120593 0 -1468.467354120593 1896.154400689531 0 0 0 0 -417.36659097863594 -1549.8086510768553 0 -1549.8086510768553 2157.6768803642112 0 0 0 0 1158.9317052850747 -1289.1139520077004 0 -1289.1139520077004 701.52387994145556 0 0 0 0 727.94040823386422 -1849.0033097404407 0 -1849.0033097404407 2968.9428104516364 0 0 0 0 1716.7635377602928 -1304.1649472062481 0 -1304.1649472062481 1258.6156000461717 0 0 0 0 1348.4126788443755 -1391.0659697567817 0 -1391.0659697567817 506.71698514679611 0 0 0 0 616.16625185629528 -1377.6747432917566 0 -1377.6747432917566 1308.1046296560444 0 0 0 0 4.1151216820362606 -613.05173992834784 0 -613.05173992834784 487.59332068597269 0 0 0 0 811.32578678882419 -1383.1650409215615 0 -1383.1650409215615 316.55307339093025 0 0 0 0 -657.78741535320296 -1107.537047786514 0 -1107.537047786514 268.68419344041467 0 0 0 0 -131.32341214560438 -1434.2486057453525 0 -1434.2486057453525 996.37193811017823 0 0 0 0 -85.651391620733193 -13.421708894595213 0 -13.421708894595213 5.51607898216389 0 0 0 0 -30.289864759921329 -87.662886890058871 0 -87.662886890058871 57.408571459051018 0 0 0 0 -269.35242830303469 73.847761811219243 0 73.847761811219243 31.688427736080484 0 0 0 0 -133.71325938277005 -16.132132625371014 0 -16.132132625371014 66.100616029143566 0 0 0 0 -253.68349145726825 -54.406015321088489 0 -54.406015321088489 59.9435816481855 0 0 0 0 -174.08740329940338 -134.32726030283629 0 -134.32726030283629 104.21769504632903 0 0 0 0 -62.433800983694255 -227.43115018006233 0 -227.43115018006233 110.83751547829888 0 0 0 0 42.237052388489246 -203.14905627653934 0 -203.14905627653934 102.59543726901757 0 0 0 0 -27.429525778612543 -60.640631048151448 0 -60.640631048151448 -74.181878587735952 0 0 0 0 1295.2453604294969 -2321.0607374627434 0 -2321.0607374627434 2394.1959303851145 0 0 0 0 1798.7852515882259 -2135.3786856311262 0 -2135.3786856311262 1364.2646566187914 0 0 0 0 1067.3387144562366 -1479.7467575234991 0 -1479.7467575234991 1472.1194525613528 0 0 0 0 1231.3680531084538 -1674.7130152377445 0 -1674.7130152377445 1450.4303388596854 0 0 0 0 1338.6738993962208 -1454.4212785106074 0 -1454.4212785106074 1635.1623845611684 0 0 0 0 -15.911437470050018 -2.7081079824694712 0 -2.7081079824694712 27.985585480018969 0 0 0 0 -71.744737103006628 30.159048444386826 0 30.159048444386826 -60.298719386315497 0 0 0 0 -663.38851065709605 101.43925819437936 0 101.43925819437936 -26.185123010858661 0 0 0 0 3.9122211550374573 -0.043125208152446248 0 -0.043125208152446248 -25.374437363909884 0 0 0 0 1262.4574225393953 -1868.9816442676261 0 -1868.9816442676261 1551.62845218332 0 0 0 0 1452.8861618839364 -1666.1257440570444 0 -1666.1257440570444 1349.4563518032828 0 0 0 0 -12.010932313049807 -61.288624436944723 0 -61.288624436944723 -75.941796538830729 0 0 0 0 -765.13261908793356 -566.65128875938535 0 -566.65128875938535 -694.49220831415732 0 0 0 0 419.81654089721269 118.15114361845554 0 118.15114361845554 -1173.5115757997701 0 0 0 0 -66.567034063657047 -620.05531734852411 0 -620.05531734852411 -1102.8088922778261 0 0 0 0 138.29568413984089 -51.235535787844128 0 -51.235535787844128 -449.48296601163747 0 0 0 0 -4.6725434869440505 -381.2546025293268 0 -381.2546025293268 -398.05254592215533 0 0 0 0 124.5190779359109 -143.96570344716019 0 -143.96570344716019 -299.57966099979967 0 0 0 0 -282.29237924311019 -138.80578223287375 0 -138.80578223287375 11.082499440271931 0 0 0 0 -857.12113384725671 -512.16302513558549 0 -512.16302513558549 -226.15578232299595 0 0 0 0 25.291868868815072 7.4124616855115164 0 7.4124616855115164 53.990326757564617 0 0 0 0 -354.5128040046111 -135.97666759484127 0 -135.97666759484127 15.92393656654167 0 0 0 0 227.74130573265575 -327.8121282824759 0 -327.8121282824759 -156.47601810277229 0 0 0 0 502.4861074290784 -383.41584656913074 0 -383.41584656913074 347.02188093737641 0 0 0 0 -25.812705227053314 -39.655441364495857 0 -39.655441364495857 -52.319168278652853 0 0 0 0 22.419583505972696 -284.8361833070021 0 -284.8361833070021 -70.908810541317507 0 0 0 0 148.72314639569231 6.3536244217320927 0 6.3536244217320927 -195.06685771075718 0 0 0 0 -8.6453007080538704 -2.9570283396961372 0 -2.9570283396961372 -9.2037412198218078 0 0 0 0 -384.62872842207435 -447.20105414164755 0 -447.20105414164755 -0.79510213950561592 0 0 0 0 280.74770740578242 -211.36323515950517 0 -211.36323515950517 -26.765537406390649 0 0 0 0 380.59947941174323 -123.76707610204176 0 -123.76707610204176 -38.415732711320743 0 0 0 0 189.66723065538099 -268.68301215086831 0 -268.68301215086831 210.86655151051127 0 0 0 0 177.47724217205541 -232.0715134882339 0 -232.0715134882339 225.52458293235395 0 0 0 0 274.38073888946383 -201.45982072061452 0 -201.45982072061452 96.670489282641938 0 0 0 0 226.5993291035702 -389.46668379301991 0 -389.46668379301991 110.42180329071198 0 0 0 0 224.38315705340938 -432.0142744902405 0 -432.0142744902405 352.10154010800943 0 0 0 0 238.47272857160078 -567.15797249834213 0 -567.15797249834213 206.58021472759719 0 0 0 0 238.70473371233675 -559.88564623022467 0 -559.88564623022467 414.741109597584 0 0 0 0 -19.056563114572782 -786.61023441033467 0 -786.61023441033467 1127.7035030873813 0 0 0 0 -29.47626703363494 -613.65729167209065 0 -613.65729167209065 717.97259344786289 0 0 0 0 31.746018212550553 -543.11929598065763 0 -543.11929598065763 516.08548362154397 0 0 0 0 100.86086738725135 -411.4596089497536 0 -411.4596089497536 522.80604446381039 0 0 0 0 381.20354865296395 -76.442173322830058 0 -76.442173322830058 -389.22325029841159 0 0 0 0 -419.08872041784343 -412.36347807875063 0 -412.36347807875063 570.16111214034026 0 0 0 0 331.19316665416409 -718.22391960635287 0 -718.22391960635287 -387.36046670307405 0 0 0 0 497.67567107465584 -112.92338851434033 0 -112.92338851434033 667.95213549253458 0 0 0 0 378.42285889526829 -969.74530720597977 0 -969.74530720597977 567.69332437474804 0 0 0 0 164.75870479265723 -625.47047641800236 0 -625.47047641800236 1556.0289136271895 0 0 0 0 151.35859670357604 -481.35512742899664 0 -481.35512742899664 804.64094118242792 0 0 0 0 550.76448148272357 -907.22920142114617 0 -907.22920142114617 600.87159122321464 0 0 0 0 3.2571137645832806 -9.5238686194597477 0 -9.5238686194597477 -0.19025700049655825 0 0 0 0 850.51025668381772 -41.729729352743561 0 -41.729729352743561 -131.15036133723333 0 0 0 0 771.86483710323228 -1177.9755805073364 0 -1177.9755805073364 621.2439185405965 0 0 0 0 569.25085716877948 -702.48886921374651 0 -702.48886921374651 -74.267301534273429 0 0 0 0 -124.28359552631446 -375.02702491674063 0 -375.02702491674063 101.08163765342033 0 0 0 0 14.937289407253715 -23.529333410346084 0 -23.529333410346084 -27.320564256290282 0 0 0 0 27.088116466242354 3.5546681395280757 0 3.5546681395280757 157.15813659672858 0 0 0 0 -9.5148340281403136 -62.056695508061907 0 -62.056695508061907 73.393764199180595 0 0 0 0 434.10798368856194 -565.66134375294496 0 -565.66134375294496 189.547791142395 0 0 0 0 402.13695265380375 -586.24849252446438 0 -586.24849252446438 183.83003451234617 0 0 0 0 -105.72865520631603 -107.17168393241809 0 -107.17168393241809 218.29843849295867 0 0 0 0 41.410508138273144 -335.47942150237213 0 -335.47942150237213 567.26840737910607 0 0 0 0 -289.93266106166993 -227.30291520676838 0 -227.30291520676838 824.70023894059705 0 0 0 0 -570.37250070666778 30.997347495722352 0 30.997347495722352 611.99174345246865 0 0 0 0 -202.76558450705488 -411.13951118711702 0 -411.13951118711702 1086.7560663493705 0 0 0 0 103.77419890809688 -151.35264114435267 0 -151.35264114435267 115.87210468223202 0 0 0 0 65.131688186520478 -258.00521300622495 0 -258.00521300622495 78.452501352483523 0 0 0 0 -87.631189353378431 -62.55408479066682 0 -62.55408479066682 11.185490909585496 0 0 0 0 9.484425238420954 -192.7529214895003 0 -192.7529214895003 97.88189267872076 0 0 0 0 -11.625194464446395 -231.69707098529943 0 -231.69707098529943 107.41232300412594 0 0 0 0 -87.83829483226873 -64.397467591406894 0 -64.397467591406894 17.560816246783361 0 0 0 0 -3.4897399625734664 -48.182094637871778 0 -48.182094637871778 82.685940384023979 0 0 0 0 -89.663278565494693 -65.318364204344107 0 -65.318364204344107 -1.4712844675232191 0 0 0 0 -12.499284887185581 -32.804954295964748 0 -32.804954295964748 71.556514371585365 0 0 0 0 -21.555757943615589 -61.897465946069275 0 -61.897465946069275 -50.032242272597969 0 0 0 0 3.2464192179395468 -335.58780220058907 0 -335.58780220058907 -144.70988535970173 0 0 0 0 12.589281963792132 -127.77653455764147 0 -127.77653455764147 110.15496841541261 0 0 0 0 -138.36845706740132 -395.24575237173849 0 -395.24575237173849 -154.5164953025087 0 0 0 0 12.589477141368661 -79.977653971863631 0 -79.977653971863631 -100.64557294397653 0 0 0 0 -122.95126542498474 -415.29201039349209 0 -415.29201039349209 -164.06677340444003 0 0 0 0 483.6479129174113 -504.60749828450571 0 -504.60749828450571 222.40036501708164 0 0 0 0 -65.980141065592761 -340.48767519305693 0 -340.48767519305693 -176.23056497483049 0 0 0 0 -240.43303847716015 -383.33996763544201 0 -383.33996763544201 -99.401987268356606 0 0 0 0 532.55478009708168 -451.81717565784857 0 -451.81717565784857 273.73910546423213 0 0 0 0 732.97889915740961 -936.15449172536319 0 -936.15449172536319 474.26207024401629 0 0 0 0 -16.546522634997444 -26.510855965398207 0 -26.510855965398207 -32.62231600214983 0 0 0 0 -58.812721385795157 -209.53828156528198 0 -209.53828156528198 2.4800080755157978 0 0 0 0 -223.05840703667218 -43.741480411691555 0 -43.741480411691555 160.067122262677 0 0 0 0 266.37656515708659 -371.90686262211966 0 -371.90686262211966 409.02774199536361 0 0 0 0 435.86104848101968 -487.61224748520181 0 -487.61224748520181 444.48505802314321 0 0 0 0 150.91429615097877 -1083.1608672826042 0 -1083.1608672826042 -178.62480301096366 0 0 0 0 12.556294826441444 -1094.2476346389085 0 -1094.2476346389085 48.181894980318248 0 0 0 0 -2.8459150928538293 -1210.2326188939332 0 -1210.2326188939332 -123.20933701996182 0 0 0 0 136.19393992199912 -1195.2041409118101 0 -1195.2041409118101 -359.96696165452158 0 0 0 0 -242.51492697629146 -1347.2909597277121 0 -1347.2909597277121 -423.07504714887091 0 0 0 0 -214.20086416899721 -1356.6507036184166 0 -1356.6507036184166 -1298.1259274861295 0 0 0 0 -503.15056908491533 -1847.7845439573393 0 -1847.7845439573393 -1488.8788411668393 0 0 0 0 129.0045273971682 -1204.308363463595 0 -1204.308363463595 -773.65369552741686 0 0 0 0 1228.3896901375556 -620.78012144032255 0 -620.78012144032255 -513.49091928935195 0 0 0 0 812.17725037390483 -167.20175599888898 0 -167.20175599888898 -23.950194201162958 0 0 0 0 5.0273276358936698 -8.3473168559029318 0 -8.3473168559029318 -10.51516001377162 0 0 0 0 1963.9977401305368 1.6396316190302969 0 1.6396316190302969 -575.72583024539563 0 0 0 0 -1876.2494771576021 -1765.4863649167692 0 -1765.4863649167692 -1092.2400808329512 0 0 0 0 455.40689873819065 -409.05457698964119 0 -409.05457698964119 -193.09750317690668 0 0 0 0 8.6808061401302723 -12.666771809958391 0 -12.666771809958391 -17.887965495535674 0 0 0 0 342.62757786003931 -526.28925016009634 0 -526.28925016009634 -218.92346433386774 0 0 0 0 453.72285444726003 -683.30126079551883 0 -683.30126079551883 -320.51731382802336 0 0 0 0 -64.785710616823053 -642.70726947604817 0 -642.70726947604817 -230.0255617273815 0 0 0 0 -223.93475715216482 -607.93903065546874 0 -607.93903065546874 -211.70140155691843 0 0 0 0 502.44444130641932 -724.75214955851152 0 -724.75214955851152 -371.4105853493711 0 0 0 0 -1384.5855448215734 -513.05501705864663 0 -513.05501705864663 23.333742386817903 0 0 0 0 2.6044630444304744 -6.6691196824598364 0 -6.6691196824598364 -1.8055054987215158 0 0 0 0 -0.044204327954899841 -16.936699460959836 0 -16.936699460959836 -16.305912447438459 0 0 0 0 -396.58075949881459 -913.75963036495159 0 -913.75963036495159 28.559357208601341 0 0 0 0 4.6657939678558193 -9.1850583767827345 0 -9.1850583767827345 -1.5279908649224154 0 0 0 0 -324.59462984249694 -659.15019133554961 0 -659.15019133554961 -130.49166252842952 0 0 0 0 -238.33521605025453 -210.86391809480847 0 -210.86391809480847 -158.18600280159262 0 0 0 0 -70.526473137364519 -608.11917933649943 0 -608.11917933649943 -297.8205672644217 0 0 0 0 -0.57138309116999153 -275.27305650714061 0 -275.27305650714061 -303.03383668921742 0 0 0 0 23.53351166160428 -422.83505468323165 0 -422.83505468323165 -234.46945858539766 0 0 0 0 1086.8294518830517 -328.42873251828087 0 -328.42873251828087 -292.34066169232028 0 0 0 0 392.39934510437888 -761.23304029367046 0 -761.23304029367046 -84.268786513348914 0 0 0 0 3.796885753957099 -6.4233807365504276 0 -6.4233807365504276 -2.2713986261828794 0 0 0 0 -773.50620045408868 -645.5896321137925 0 -645.5896321137925 -208.30416243849504 0 0 0 0 232.094191570779 -545.83511360205227 0 -545.83511360205227 174.61487824300775 0 0 0 0 -0.10641856818983797 -833.69755724991023 0 -833.69755724991023 -175.75864328446403 0 0 0 0 236.17669903122442 -551.19827183271218 0 -551.19827183271218 -192.64679687770695 0 0 0 0 124.9919037019572 -524.43821558983609 0 -524.43821558983609 168.75110230305063 0 0 0 0 0.27330115067888983 -687.76807587027463 0 -687.76807587027463 235.43344195043892 0 0 0 0 -73.394238048378156 -173.98488180319308 0 -173.98488180319308 196.15452694551686 0 0 0 0 70.107250459404895 -438.16980234589118 0 -438.16980234589118 148.42755022696497 0 0 0 0 60.826386450411519 -588.41186553932994 0 -588.41186553932994 -104.33982970978332 0 0 0 0 -419.04266479895159 -267.19603822445742 0 -267.19603822445742 -276.44406747143967 0 0 0 0 -776.6035294552421 -588.2003536192874 0 -588.2003536192874 -131.4217111973021 0 0 0 0 -94.982120804779697 -654.13341919008508 0 -654.13341919008508 -348.71629540894446 0 0 0 0 157.07958672495442 -417.57525850361117 0 -417.57525850361117 -359.17959491025977 0 0 0 0 476.60868624821887 -582.59859583844263 0 -582.59859583844263 -208.38989095126817 0 0 0 0 168.72421471196503 -643.00552861369829 0 -643.00552861369829 -143.44156703666158 0 0 0 0 45.317409747221973 -265.90022252073027 0 -265.90022252073027 -233.61783509366069 0 0 0 0 -212.61530814788421 51.926351618478293 0 51.926351618478293 62.994339687556021 0 0 0 0 -270.20496015975368 -664.26842780289917 0 -664.26842780289917 -417.04430397394367 0 0 0 0 -500.13144548166019 -21.255140258165966 0 -21.255140258165966 -1541.5662347878879 0 0 0 0 107.08309542543429 -7.3511038024153095 0 -7.3511038024153095 -288.4752398698347 0 0 0 0 137.51930530050595 -190.48985488736002 0 -190.48985488736002 176.13928083152496 0 0 0 0 685.4654200480727 151.2461512218797 0 151.2461512218797 -285.49524182258028 0 0 0 0 7.3649033365012997 -11.616251847724072 0 -11.616251847724072 -11.627694911227245 0 0 0 0 -1581.4081767257885 -911.01246948650999 0 -911.01246948650999 260.96796946864924 0 0 0 0 3.5662658395148696 -6.478933715456435 0 -6.478933715456435 -3.7665862472798537 0 0 0 0 1579.652022443217 -367.47095239246801 0 -367.47095239246801 195.81309088851717 0 0 0 0 495.15983980047167 -1198.8971310802158 0 -1198.8971310802158 258.30492321991323 0 0 0 0 1106.9958251734643 -983.40990034658694 0 -983.40990034658694 321.39473014694272 0 0 0 0 -68.554043321074346 -1022.8190132871019 0 -1022.8190132871019 144.95247788451707 0 0 0 0 1134.2185101381201 -939.0150391605406 0 -939.0150391605406 -827.63688528118223 0 0 0 0 1282.5363846533874 -1877.2597225752029 0 -1877.2597225752029 -337.91744039879768 0 0 0 0 801.47215848139604 -1736.1272841117732 0 -1736.1272841117732 1138.265045549314 0 0 0 0 4.6007067148640886 -11.290273575729657 0 -11.290273575729657 10.457120138877031 0 0 0 0 -608.53218311516775 -2312.3774211214568 0 -2312.3774211214568 614.82096330519016 0 0 0 0 -674.84889950504294 -271.85221813203771 0 -271.85221813203771 -91.504382143782095 0 0 0 0 -638.87993347650627 -926.75758664794921 0 -926.75758664794921 1193.6296860979644 0 0 0 0 -1088.831923733931 -1224.1802384652601 0 -1224.1802384652601 -618.66964974115444 0 0 0 0 -3152.4126618427108 -2275.5687763326687 0 -2275.5687763326687 -855.53274799600513 0 0 0 0 -1753.5220434853982 244.174243845521 0 244.174243845521 -3086.5025945516609 0 0 0 0 -1842.4374552157533 -2798.3265391589202 0 -2798.3265391589202 -4252.6797932628624 0 0 0 0 486.83934664089247 786.054344895594 0 786.054344895594 -1065.0354741326132 0 0 0 0 -5329.1221364324301 -2814.8276452819937 0 -2814.8276452819937 -1325.4659362289567 0 0 0 0 -2.8858694724011364 -0.65653598090756304 0 -0.65653598090756304 -37.312761846743243 0 0 0 0 -2817.7186716264405 -1303.7239291875158 0 -1303.7239291875158 -448.87939639983961 0 0 0 0 -848.5554622306081 -1239.7877335702215 0 -1239.7877335702215 -2182.8308380401177 0 0 0 0 -1571.6490292488015 -2325.1654401846754 0 -2325.1654401846754 -2034.4150987182429 0 0 0 0 -625.01617744597024 -1556.4655041278475 0 -1556.4655041278475 -1736.1792265993088 0 0 0 0 163.21128675843647 -541.12840751153772 0 -541.12840751153772 -1016.5343786292124 0 0 0 0 -605.64468536473578 -892.88754935636643 0 -892.88754935636643 -494.3072867521787 0 0 0 0 -714.36270524392603 -1643.1483956716911 0 -1643.1483956716911 -1427.2725512593152 0 0 0 0 -168.49596174771432 -1199.848418178367 0 -1199.848418178367 -1739.6638669617641 0 0 0 0 -790.56883364224632 -1551.5272756730838 0 -1551.5272756730838 -1268.1778891619906 0 0 0 0 -744.25336067730677 -1519.1525466633793 0 -1519.1525466633793 -1147.2788483741169 0 0 0 0 -637.22864592602127 -1450.4945730664131 0 -1450.4945730664131 -518.76628582156991 0 0 0 0 -534.1802578420029 -1541.5579856771255 0 -1541.5579856771255 -1146.0800285529758 0 0 0 0 -843.09074973793759 -1394.1571602529898 0 -1394.1571602529898 -778.35156057784479 0 0 0 0 -877.83042591132107 -1496.3015722136915 0 -1496.3015722136915 -574.84297593004158 0 0 0 0 -808.10669310638332 -1675.8361449684526 0 -1675.8361449684526 -495.29487990942653 0 0 0 0 -776.8555928641872 -1570.2383601360125 0 -1570.2383601360125 -733.37885638648004 0 0 0 0 -1371.9631885103299 -1933.8732337823731 0 -1933.8732337823731 824.68643015462294 0 0 0 0 444.66843736599549 -112.11222941628512 0 -112.11222941628512 10.636447088562818 0 0 0 0 -9.8492074192145083 -2.4775942695758424 0 -2.4775942695758424 14.084521831722498 0 0 0 0 634.22744692466949 -549.14349567263071 0 -549.14349567263071 -427.81398780809604 0 0 0 0 0.9524273350927146 -46.195988110124233 0 -46.195988110124233 -96.576413264844021 0 0 0 0 -1056.113222569661 -839.83595630760806 0 -839.83595630760806 -758.28514581214768 0 0 0 0 -1200.0102055689786 -1722.2461665069623 0 -1722.2461665069623 -1066.2597164970648 0 0 0 0 -1373.5016403548943 -1141.9016265757364 0 -1141.9016265757364 -1038.3726822728845 0 0 0 0 -27.385919170794182 -176.72253868898395 0 -176.72253868898395 23.03904564797292 0 0 0 0 43.092034790024627 -262.85756804441621 0 -262.85756804441621 -832.89372067018758 0 0 0 0 -5.0631591322902523 -15.272919378125906 0 -15.272919378125906 49.64647090510077 0 0 0 0 -294.02667641394328 12.55123032658998 0 12.55123032658998 362.84849791401302 0 0 0 0 18.260246078541968 -382.51175076814889 0 -382.51175076814889 67.244211233360488 0 0 0 0 -117.7845170898363 -78.114824031023545 0 -78.114824031023545 -863.55515011269335 0 0 0 0 -9.2255399211135227 -626.57176913164949 0 -626.57176913164949 -131.87558679741187 0 0 0 0 -229.09256247694975 -700.14931017991285 0 -700.14931017991285 -279.73291331057089 0 0 0 0 -160.32156999185099 -63.298202475518337 0 -63.298202475518337 363.36752383136809 0 0 0 0 -31.603393218940255 -170.27428623865586 0 -170.27428623865586 61.944327675479542 0 0 0 0 -35.765706551464973 -183.10230362152652 0 -183.10230362152652 203.11588594179193 0 0 0 0 -96.274453252612147 -269.16720240311406 0 -269.16720240311406 302.74239995361131 0 0 0 0 -79.720784953213297 -120.65014722136402 0 -120.65014722136402 151.19562072270492 0 0 0 0 -91.440470202694996 -251.27695031860276 0 -251.27695031860276 322.88211689476157 0 0 0 0 -188.76110420370242 -161.27707723883213 0 -161.27707723883213 270.81043900638906 0 0 0 0 -158.54542030309676 -232.72519545902469 0 -232.72519545902469 383.83203012075683 0 0 0 0 -154.65197155147325 -267.294467016618 0 -267.294467016618 333.67612209754589 0 0 0 0 -136.54567112168297 -341.31414907453291 0 -341.31414907453291 608.49621063724044 0 0 0 0 87.772812616254669 -284.15323142980924 0 -284.15323142980924 445.16524940940144 0 0 0 0 47.40062359906733 -240.57583353538939 0 -240.57583353538939 42.894308591363369 0 0 0 0 370.68921707005939 -592.45783236387069 0 -592.45783236387069 193.40131245212979 0 0 0 0 15.066268382926069 -26.332618913153482 0 -26.332618913153482 -42.461826623812613 0 0 0 0 -30.239120009588078 -336.55758286298078 0 -336.55758286298078 357.27462895622739 0 0 0 0 -389.40457141470688 -339.57057510242339 0 -339.57057510242339 -145.34480312143205 0 0 0 0 -24.39409229980896 -80.724379910814292 0 -80.724379910814292 -64.698666508924489 0 0 0 0 -322.70835915990756 -474.01215803313607 0 -474.01215803313607 562.25900504791935 0 0 0 0 -371.93235417472897 -573.13970811576291 0 -573.13970811576291 554.44768707386538 0 0 0 0 -11.737442501893383 -586.36028958927272 0 -586.36028958927272 585.54383989676717 0 0 0 0 -350.75254657608457 -472.64179614081513 0 -472.64179614081513 779.38698978460161 0 0 0 0 -22.795917004579678 -82.952210774048581 0 -82.952210774048581 39.450361929295468 0 0 0 0 -4.0265043751271605 -11.147184082017915 0 -11.147184082017915 21.391095315856973 0 0 0 0 3.1097852009482381 -76.032325766725734 0 -76.032325766725734 -22.414683239780544 0 0 0 0 -272.60397549695335 -356.6441192466591 0 -356.6441192466591 -246.68377879617037 0 0 0 0 7.3701032464572336 -19.669883851872697 0 -19.669883851872697 44.493377648339276 0 0 0 0 -6.0836263967503328 -71.382390638894549 0 -71.382390638894549 263.31072554193361 0 0 0 0 -477.28629788989201 -237.70146271707199 0 -237.70146271707199 188.4167602507805 0 0 0 0 -41.610837906082736 -115.72001224464034 0 -115.72001224464034 131.91037214735684 0 0 0 0 -18.420897696826614 -86.739960444386227 0 -86.739960444386227 34.331714522537901 0 0 0 0 -177.03387062129332 -190.73491030562946 0 -190.73491030562946 189.53889201727543 0 0 0 0 -10.411587210719972 -111.94804293210197 0 -111.94804293210197 3.3617069577636727 0 0 0 0 114.06635168986395 -120.30280666672121 0 -120.30280666672121 -605.42668343882542 0 0 0 0 -47.910433588433079 -346.62687760316044 0 -346.62687760316044 -573.58503647351245 0 0 0 0 -28.662363083346463 -491.14766326970317 0 -491.14766326970317 -818.59644307414464 0 0 0 0 -72.200745203299448 -698.59295960142799 0 -698.59295960142799 -815.07160992710737 0 0 0 0 -142.04756169286702 -449.83843201443801 0 -449.83843201443801 -437.85630473569927 0 0 0 0 -109.33954112284118 -392.79036986975518 0 -392.79036986975518 -572.00783633826836 0 0 0 0 -25.292179626077996 -429.11049149356279 0 -429.11049149356279 -591.32856191745122 0 0 0 0 -87.765893134317594 -655.02203288473174 0 -655.02203288473174 -599.57979433635421 0 0 0 0 -194.05685169980279 -592.31797165597959 0 -592.31797165597959 -205.03090752131629 0 0 0 0 -593.13948223734042 -421.6058459332744 0 -421.6058459332744 -250.09975298400332 0 0 0 0 -430.870699264633 -1039.8464362344794 0 -1039.8464362344794 -585.97862061641717 0 0 0 0 43.094300819473574 -906.77003460272272 0 -906.77003460272272 -548.9020185479485 0 0 0 0 104.55232009380416 -1266.5331512688049 0 -1266.5331512688049 -1021.3217540405458 0 0 0 0 64.820942957463558 -940.70553269998845 0 -940.70553269998845 -1585.3350942990219 0 0 0 0 -233.53739891588339 -230.16830955246724 0 -230.16830955246724 -1083.3479769664009 0 0 0 0 -66.605904348776676 -461.61552376628742 0 -461.61552376628742 -801.02108003036426 0 0 0 0 -185.00735689338762 -22.275470325135757 0 -22.275470325135757 -754.83521802209543 0 0 0 0 509.8566622127255 105.55030294667722 0 105.55030294667722 -2892.9734965684629 0 0 0 0 -203.13045720732771 -2200.4581441510791 0 -2200.4581441510791 -3855.9550649656626 0 0 0 0 -1136.0877097001066 -2448.0539673026724 0 -2448.0539673026724 154.987027716792 0 0 0 0 -443.77942259065458 -1623.4801534614671 0 -1623.4801534614671 -702.6115926322891 0 0 0 0 -40.84417595184641 -1838.9444178655131 0 -1838.9444178655131 -1330.270473238771 0 0 0 0 -165.52681081013725 -1744.319433648076 0 -1744.319433648076 168.5107569038646 0 0 0 0 -610.63968126900727 -2659.6229731116623 0 -2659.6229731116623 1203.7990781514291 0 0 0 0 145.81233135020011 -1830.7390320438044 0 -1830.7390320438044 415.22767773532905 0 0 0 0 -1135.4727511263191 -2033.7489877759654 0 -2033.7489877759654 1790.8226965066915 0 0 0 0 -2211.7880256396456 -2313.3641484013378 0 -2313.3641484013378 1758.6240378008526 0 0 0 0 9.0989109004968327 -16.284138252487338 0 -16.284138252487338 13.359510715908485 0 0 0 0 -404.35207375284517 -1577.7299215617345 0 -1577.7299215617345 -2390.9758512054523 0 0 0 0 -558.14785782252147 -643.49597518657311 0 -643.49597518657311 -1660.6870743253485 0 0 0 0 -466.72580273816129 -1563.2877147546637 0 -1563.2877147546637 -1236.0175392982146 0 0 0 0 25.033884935210381 -33.148151543996661 0 -33.148151543996661 23.02017099627335 0 0 0 0 -489.03805601791828 -1885.4637596917921 0 -1885.4637596917921 -2466.1251848954203 0 0 0 0 -1344.0257555643911 -2958.5777882713055 0 -2958.5777882713055 -1255.6807465490947 0 0 0 0 -1579.9536751272535 -1409.4014329387928 0 -1409.4014329387928 2281.6155707532644 0 0 0 0 -1582.5474541468429 -975.16622396914181 0 -975.16622396914181 800.15211233422451 0 0 0 0 -596.79801083076745 -1223.8308761806511 0 -1223.8308761806511 -928.71789312950932 0 0 0 0 -1230.5905731063831 -1376.767926513452 0 -1376.767926513452 1041.821308599564 0 0 0 0 -1206.792963142776 -1212.7849425319682 0 -1212.7849425319682 2170.5590396150728 0 0 0 0 -774.78010032013481 -1426.0226537175108 0 -1426.0226537175108 784.50425614848245 0 0 0 0 -869.29069312734646 -1736.2930012642128 0 -1736.2930012642128 278.17260421346145 0 0 0 0 -419.67269086347369 -832.84439486601127 0 -832.84439486601127 549.25968290570927 0 0 0 0 -548.7861266535765 -77.947497835999002 0 -77.947497835999002 1371.114557266357 0 0 0 0 160.61061885490199 482.25722209613559 0 482.25722209613559 -1917.9343079635564 0 0 0 0 -2120.8504521382274 -903.26692991433265 0 -903.26692991433265 6099.1477738939684 0 0 0 0 -1491.5954514998884 -586.38619761415976 0 -586.38619761415976 1224.7587505842216 0 0 0 0 4079.5656354792882 -1815.0374604762474 0 -1815.0374604762474 663.19105874042725 0 0 0 0 15.46868436147841 -26.981738540439068 0 -26.981738540439068 42.776834038845934 0 0 0 0 369.66250834466337 -4641.8151083216362 0 -4641.8151083216362 7016.6653448434809 0 0 0 0 2897.4594866555999 -570.05829492715566 0 -570.05829492715566 -572.18412445350259 0 0 0 0 -1891.2629256148066 3746.655722697983 0 3746.655722697983 2906.1595363632605 0 0 0 0 2066.9283237152194 434.1985990484477 0 434.1985990484477 121.28874791780618 0 0 0 0 3193.1556355619905 -2084.1767091852803 0 -2084.1767091852803 -1147.9850024018997 0 0 0 0 2167.9693162711919 -3513.2173852033739 0 -3513.2173852033739 5291.7238037058269 0 0 0 0 19.067704016068149 -24.942518157364361 0 -24.942518157364361 31.586846867121501 0 0 0 0 -613.2865626042767 -1949.4595444780834 0 -1949.4595444780834 589.89106580669613 0 0 0 0 204.45208203059155 -3540.6092897552462 0 -3540.6092897552462 3628.7205574612099 0 0 0 0 3406.9308020727331 -314.007193538092 0 -314.007193538092 -1159.2070861580687 0 0 0 0 -343.61263182476978 -1840.0626682692873 0 -1840.0626682692873 568.56272455768158 0 0 0 0 -3821.2448487924994 -2750.2763613531047 0 -2750.2763613531047 586.05095041738787 0 0 0 0 -2345.4740871085087 -3075.1798406785019 0 -3075.1798406785019 -543.14740072930545 0 0 0 0 4.1562209104605472 -7.7372271520777929 0 -7.7372271520777929 -16.497009596435625 0 0 0 0 291.40538791631116 -2832.8751027706603 0 -2832.8751027706603 -1318.0903911134983 0 0 0 0 -402.55431606915954 -323.4525812135023 0 -323.4525812135023 -157.79927835152557 0 0 0 0 -862.19689114901121 -1331.858690209322 0 -1331.858690209322 -2.6509461923342315 0 0 0 0 -1399.5334302781266 -816.83846044918391 0 -816.83846044918391 -72.737384274543729 0 0 0 0 -2129.1927301513497 -1460.7563210924345 0 -1460.7563210924345 6.2038264710661224 0 0 0 0 -2922.186883104936 -1412.2934521555831 0 -1412.2934521555831 963.98414574383787 0 0 0 0 -4073.2595997287572 -1193.6366681357867 0 -1193.6366681357867 1343.0489790645352 0 0 0 0 -1036.4226485662602 207.99857552491977 0 207.99857552491977 -492.48067855170666 0 0 0 0 171.86693655877025 -317.93516144733803 0 -317.93516144733803 94.419331575842079 0 0 0 0 -319.20293894023052 -418.94271602426164 0 -418.94271602426164 -205.22924207101801 0 0 0 0 -53.929382456760436 -36.764933593066431 0 -36.764933593066431 -2.883276270596939 0 0 0 0 -23.736048393440115 -7.9792422183003282 0 -7.9792422183003282 -4.8418956163734208 0 0 0 0 40.640348444983829 -1128.8688883493899 0 -1128.8688883493899 -3737.3998018770003 0 0 0 0 -2606.3855854079447 458.44034121980758 0 458.44034121980758 210.0792372676151 0 0 0 0 -539.34849052573554 266.57325149288226 0 266.57325149288226 122.7212612850517 0 0 0 0 200.8105126087321 -193.78904638352856 0 -193.78904638352856 -241.94588404533715 0 0 0 0 321.18322407343658 -196.16000192998217 0 -196.16000192998217 -212.33985859803943 0 0 0 0 -193.33694751758594 5.2565463974769955 0 5.2565463974769955 -217.15724448608671 0 0 0 0 -2102.4980875418451 -420.61103155135231 0 -420.61103155135231 198.6077596647483 0 0 0 0 -485.8993320146983 -360.42530922374499 0 -360.42530922374499 -82.728847344078531 0 0 0 0 -676.66384355950868 -277.42170382419499 0 -277.42170382419499 128.85968923853761 0 0 0 0 -13.28303707431769 114.14160565676502 0 114.14160565676502 -41.595161839526554 0 0 0 0 -497.36530307441717 -569.33050529527463 0 -569.33050529527463 -340.05200457307546 0 0 0 0 -303.93483414553339 -84.019171630094206 0 -84.019171630094206 -94.098813015991482 0 0 0 0 266.65577186330484 64.382172631955655 0 64.382172631955655 -73.60482708735799 0 0 0 0 -288.022669375845 -166.3513285665249 0 -166.3513285665249 105.30047762425238 0 0 0 0 151.41728513874114 -34.101200348926795 0 -34.101200348926795 65.332207128298251 0 0 0 0 27.167734723827436 -44.510103155352908 0 -44.510103155352908 22.238172122789951 0 0 0 0 106.7404122952139 -114.2248501064696 0 -114.2248501064696 -23.643583410324936 0 0 0 0 112.60812114737928 -55.977505953567743 0 -55.977505953567743 -221.69592271365036 0 0 0 0 14.464644208506797 -47.780393276793802 0 -47.780393276793802 -4.4217051915766206 0 0 0 0 -7.02382629645615 -24.037276963151719 0 -24.037276963151719 14.30541502896693 0 0 0 0 44.218460918353628 -45.882196863065062 0 -45.882196863065062 6.2378205246676188 0 0 0 0 11.379507492347329 -160.80939025383486 0 -160.80939025383486 21.381318288884358 0 0 0 0 -24.025844570191111 83.188229680759832 0 83.188229680759832 203.0226842675911 0 0 0 0 -20.613414374525746 -137.62102648417022 0 -137.62102648417022 391.37143887324783 0 0 0 0 -4.4380374586689868 -73.388376788723235 0 -73.388376788723235 192.15570742106502 0 0 0 0 -122.06476150432718 56.413728478037228 0 56.413728478037228 85.600800012362015 0 0 0 0 -378.03948131614015 621.7326998159333 0 621.7326998159333 1533.7830375529884 0 0 0 0 -61.978308759338688 160.63780943469465 0 160.63780943469465 232.49376330005089 0 0 0 0 -137.18904537014896 -443.12978429799841 0 -443.12978429799841 1196.3450128663535 0 0 0 0 -128.27531202899991 187.93874492323812 0 187.93874492323812 908.53088950961683 0 0 0 0 -43.339842168643372 -395.06358707828076 0 -395.06358707828076 -204.51403097496586 0 0 0 0 189.16458770951431 -570.07490007879278 0 -570.07490007879278 -1475.1223636996001 0 0 0 0 62.179679075847957 -57.254966412985667 0 -57.254966412985667 43.100214225348367 0 0 0 0 -379.36292286729736 468.98505488321803 0 468.98505488321803 2665.1141245883773 0 0 0 0 529.32557826483389 2523.2825655539491 0 2523.2825655539491 -2298.5815493403552 0 0 0 0 -1968.3371170190512 395.6491621291425 0 395.6491621291425 2912.808831530805 0 0 0 0 -3812.4378660819202 4954.9154882823314 0 4954.9154882823314 6710.7364893689664 0 0 0 0 -1432.7402373235673 -2565.6500555250823 0 -2565.6500555250823 10603.780419061437 0 0 0 0 4549.921632299036 -5202.7066935972016 0 -5202.7066935972016 4395.6822471757769 0 0 0 0 1308.6991055380204 -2403.191401689859 0 -2403.191401689859 2242.1241269747043 0 0 0 0 1278.8502569138072 -2676.3153737247121 0 -2676.3153737247121 2711.23009295886 0 0 0 0 -391.29028920491692 -1609.3023404666601 0 -1609.3023404666601 4509.8484931223502 0 0 0 0 793.75662992938305 -1966.9699432305169 0 -1966.9699432305169 1673.9734567007108 0 0 0 0 1796.727853384451 -1607.0755028544954 0 -1607.0755028544954 345.42396902467954 0 0 0 0 3598.7038118758064 -2621.7707640102599 0 -2621.7707640102599 660.97787170646916 0 0 0 0 -370.55686824265285 -486.03121252022174 0 -486.03121252022174 1348.8437543005784 0 0 0 0 -227.16367324639577 -756.07048740444043 0 -756.07048740444043 1605.0450936742636 0 0 0 0 -292.853564157238 -730.81057941168547 0 -730.81057941168547 1979.3426390487894 0 0 0 0 -692.58474140113685 -851.54740651123757 0 -851.54740651123757 2882.3998067762877 0 0 0 0 387.49788618093589 -1323.2284682888567 0 -1323.2284682888567 980.60794086904207 0 0 0 0 436.3675163105363 -1608.4850116847192 0 -1608.4850116847192 1476.9979914021897 0 0 0 0 270.89231425203616 -1262.5111335092297 0 -1262.5111335092297 1361.278226759161 0 0 0 0 373.7562624385755 -1205.6090133798425 0 -1205.6090133798425 945.26421710789509 0 0 0 0 725.55474975884135 -1257.8843816375702 0 -1257.8843816375702 330.89187011688045 0 0 0 0 677.13022463764355 -1293.9017537442505 0 -1293.9017537442505 690.78897220861109 0 0 0 0 550.46819443826098 -1124.0722288733741 0 -1124.0722288733741 481.16994490778598 0 0 0 0 564.21591185926809 -1027.0080508941828 0 -1027.0080508941828 510.02957358925232 0 0 0 0 647.9161893108394 -974.42296323772371 0 -974.42296323772371 509.15849900514877 0 0 0 0 591.23853159229475 -811.18025656384725 0 -811.18025656384725 139.67420085251797 0 0 0 0 537.16182851881604 -877.52071472995158 0 -877.52071472995158 444.43544583566836 0 0 0 0 349.0718122170656 -332.75281199072197 0 -332.75281199072197 -37.111247824566817 0 0 0 0 528.5466379452555 -717.68395727536517 0 -717.68395727536517 423.63105445559631 0 0 0 0 669.81377432870795 -664.89415569573612 0 -664.89415569573612 120.32811681940802 0 0 0 0 1068.965594846668 -965.12512202626385 0 -965.12512202626385 91.337600311242568 0 0 0 0 944.25042462791316 -1156.9529164332889 0 -1156.9529164332889 367.34012170109418 0 0 0 0 891.79437788546784 -734.21902493536618 0 -734.21902493536618 -140.41758296632179 0 0 0 0 1311.4189478842018 -1857.884702497824 0 -1857.884702497824 859.34655764231866 0 0 0 0 1661.2111347779355 -1291.9828620032613 0 -1291.9828620032613 -143.52970420260681 0 0 0 0 -204.71245541193639 458.64809219455492 0 458.64809219455492 -386.16300864354344 0 0 0 0 2137.1275655149948 194.54977838366176 0 194.54977838366176 -876.66951374936616 0 0 0 0 -1159.6456388248844 -665.06514588358186 0 -665.06514588358186 75.729625467829464 0 0 0 0 1355.5734923688942 -420.66007047665607 0 -420.66007047665607 -341.67676067397406 0 0 0 0 -702.14078152787988 -1066.7555526446351 0 -1066.7555526446351 -1143.7747062643671 0 0 0 0 -258.4885593472718 -472.0646641626073 0 -472.0646641626073 -429.10062046070107 0 0 0 0 45.072799203050607 -62.777172838785049 0 -62.777172838785049 82.929991978724431 0 0 0 0 -686.04636381930322 -429.0869695598376 0 -429.0869695598376 129.19453853331652 0 0 0 0 41.663604534367948 -81.030099090918526 0 -81.030099090918526 89.017602013302294 0 0 0 0 -456.0128003446589 -152.89755209382201 0 -152.89755209382201 35.952480201700382 0 0 0 0 -125.89436463676975 -510.85249904481316 0 -510.85249904481316 -185.80531624616015 0 0 0 0 106.14706581961946 -77.731131183565594 0 -77.731131183565594 -165.55648347175702 0 0 0 0 -144.21161223092349 -170.49236737767205 0 -170.49236737767205 -8.0322910915092507 0 0 0 0 0.35086639201472281 -425.91295902972524 0 -425.91295902972524 399.55547762344941 0 0 0 0 -437.63994397386341 -283.30975421863968 0 -283.30975421863968 -94.269520781512256 0 0 0 0 -411.97701677138684 -415.56709146156209 0 -415.56709146156209 92.754029609757708 0 0 0 0 -64.314092609391196 -71.059191481599299 0 -71.059191481599299 4.6269224405341021 0 0 0 0 -285.28978337970329 -214.77888408027502 0 -214.77888408027502 -78.626925913266859 0 0 0 0 -273.66201483177429 -201.22882999370267 0 -201.22882999370267 -118.09023308905307 0 0 0 0 -22.209122190921335 -226.34031919151312 0 -226.34031919151312 -115.72611549628346 0 0 0 0 -131.74528322154947 -37.227145116055908 0 -37.227145116055908 -169.39206548707443 0 0 0 0 -153.50602683777106 -62.452548671783006 0 -62.452548671783006 -152.67023644283472 0 0 0 0 -45.431807309809585 -47.398011873905062 0 -47.398011873905062 -30.87969200586727 0 0 0 0 -39.619964802448521 -69.395884892988761 0 -69.395884892988761 -440.36688583786599 0 0 0 0 74.78949259739602 5.9590488027315587 0 5.9590488027315587 -515.92724343888403 0 0 0 0 268.73958046612097 -600.32623635362688 0 -600.32623635362688 910.56088708303287 0 0 0 0 -21.905310440673645 -38.864328044169298 0 -38.864328044169298 -22.087008496587465 0 0 0 0 182.3633319944056 -498.37556661639792 0 -498.37556661639792 830.3631243764903 0 0 0 0 391.9763625280757 -710.36168490014461 0 -710.36168490014461 579.07130252333809 0 0 0 0 442.90334236678609 -748.66303671613514 0 -748.66303671613514 603.91787099993235 0 0 0 0 390.39416307525244 -597.58019032620814 0 -597.58019032620814 333.67710351460119 0 0 0 0 139.55976327360258 -325.31183628319559 0 -325.31183628319559 291.39070149032887 0 0 0 0 95.680058905956685 -329.53266294752393 0 -329.53266294752393 537.90795935492497 0 0 0 0 1541.3856185151672 -3.8605061946509522 0 -3.8605061946509522 -1323.4127673443145 0 0 0 0 231.67565077447216 -356.88846725394251 0 -356.88846725394251 -282.04282762871298 0 0 0 0 -1514.3112423294806 -1844.1590005463659 0 -1844.1590005463659 -1012.434243740996 0 0 0 0 -589.27156659763568 -489.3705514931662 0 -489.3705514931662 -150.81027976478799 0 0 0 0 -1140.8473986657918 -1400.4191049968067 0 -1400.4191049968067 -675.67761091075954 0 0 0 0 -7.1906048896224206 -21.124524551967141 0 -21.124524551967141 0.1474662010175507 0 0 0 0 2.1817345452114125 -3.2694210895296578 0 -3.2694210895296578 -12.312668872618616 0 0 0 0 2612.5759935112728 -2071.8066321135993 0 -2071.8066321135993 -1153.8605222870283 0 0 0 0 28.751387173843113 -78.643087201189417 0 -78.643087201189417 -15.597129513259048 0 0 0 0 4.4485234306653751 -14.594554121133442 0 -14.594554121133442 11.958975411397269 0 0 0 0 37.620233825873584 -71.706609898166789 0 -71.706609898166789 165.65057161957884 0 0 0 0 126.26956578018144 -9.4899019251752179 0 -9.4899019251752179 -512.67593401612248 0 0 0 0 -22.558444039361973 -84.662561603627239 0 -84.662561603627239 -54.068193817426533 0 0 0 0 12.537465137254912 -109.80989546189812 0 -109.80989546189812 224.82577148569544 0 0 0 0 -129.66373243283306 -321.91774713002997 0 -321.91774713002997 63.979853945158538 0 0 0 0 59.125203378120204 -102.9274314839131 0 -102.9274314839131 -429.71850620336772 0 0 0 0 2.0385757469010173 -5.2926864140387408 0 -5.2926864140387408 -3.8552907442786335 0 0 0 0 -123.86116713131196 -21.685669461949146 0 -21.685669461949146 -104.21056151953235 0 0 0 0 111.55739786842605 -140.75667683636857 0 -140.75667683636857 -206.30654188913468 0 0 0 0 585.78814549592789 -701.08776478917571 0 -701.08776478917571 227.48786648232272 0 0 0 0 146.96675480552949 -565.126839148812 0 -565.126839148812 193.55286710138898 0 0 0 0 -26.737904941861245 -75.9598777690546 0 -75.9598777690546 -74.334889441819854 0 0 0 0 -235.85259400735958 -789.09626306737482 0 -789.09626306737482 481.08565963117871 0 0 0 0 214.16208634665236 -984.90191198064713 0 -984.90191198064713 566.2051486267228 0 0 0 0 -495.87447566667106 -826.64436275843764 0 -826.64436275843764 835.30930167057522 0 0 0 0 584.51583664800637 -244.03837950457182 0 -244.03837950457182 37.153897178126499 0 0 0 0 -26.537366265212768 446.92507886063686 0 446.92507886063686 1657.147364891367 0 0 0 0 187.99013965466293 -818.27684963747743 0 -818.27684963747743 667.91944392075675 0 0 0 0 794.313145204389 -896.04722567706631 0 -896.04722567706631 -194.40379509274499 0 0 0 0 8.5982464760472794 -18.623839281943305 0 -18.623839281943305 -14.511000678772596 0 0 0 0 535.36356649626396 -417.68800057851331 0 -417.68800057851331 -521.19027651473152 0 0 0 0 376.95647807036585 -379.69439087711407 0 -379.69439087711407 -430.51235695979267 0 0 0 0 -687.72242075708346 -1191.0316907780725 0 -1191.0316907780725 -657.07518508125941 0 0 0 0 537.30627004711096 -455.43549088883515 0 -455.43549088883515 -1281.5907584848173 0 0 0 0 245.81361770124931 -128.49885796898889 0 -128.49885796898889 107.89353560307063 0 0 0 0 398.93816848027927 55.633704168156328 0 55.633704168156328 -960.25275065341702 0 0 0 0 219.54239824402612 -415.82586116335733 0 -415.82586116335733 -491.96512724307468 0 0 0 0 126.77026365521306 -243.86998673138078 0 -243.86998673138078 -101.58297093823785 0 0 0 0 -764.45788107932822 -32.44329958583171 0 -32.44329958583171 45.60622470722592 0 0 0 0 -712.80026344575163 -710.94233011687902 0 -710.94233011687902 -261.35401671488944 0 0 0 0 329.60508795872192 -766.966825974725 0 -766.966825974725 -567.05866035880172 0 0 0 0 -3050.8707775983494 158.2165711255584 0 158.2165711255584 20.539153742007329 0 0 0 0 -695.12146855142782 -12.253621378404205 0 -12.253621378404205 -27.177750437907889 0 0 0 0 -716.61018438960309 40.453921783206169 0 40.453921783206169 -3.7094726901559625 0 0 0 0 314.80298539243086 -866.22659209172707 0 -866.22659209172707 2077.4821848776483 0 0 0 0 -1.9716088004621497 -14.788135885181134 0 -14.788135885181134 -16.507267122813687 0 0 0 0 -569.87728127246373 -117.93610735295442 0 -117.93610735295442 81.892133236891823 0 0 0 0 -451.42662081419257 23.076028662377212 0 23.076028662377212 -5.3012925746284054 0 0 0 0 -243.67209087409719 -39.737876540522848 0 -39.737876540522848 0.72741004072668147 0 0 0 0 -225.95836480486105 -349.48575914782327 0 -349.48575914782327 53.702925654826686 0 0 0 0 -34.393300793606613 -84.957829204899099 0 -84.957829204899099 165.77501672180369 0 0 0 0 220.88341094848147 -493.87612981627717 0 -493.87612981627717 178.10250282809284 0 0 0 0 -534.98068575095385 -156.14757623594051 0 -156.14757623594051 178.66258336927422 0 0 0 0 -5.9062860191625077 -10.707940118007173 0 -10.707940118007173 29.768541921919677 0 0 0 0 3.0443629592435357 -14.046707620288998 0 -14.046707620288998 33.304308416133807 0 0 0 0 -88.776639034185791 -212.36880190486409 0 -212.36880190486409 -99.708295171334612 0 0 0 0 -301.38329411618179 -289.09324800377362 0 -289.09324800377362 219.33280550128256 0 0 0 0 -31.173441863880726 -48.576877829185833 0 -48.576877829185833 26.968182823564575 0 0 0 0 15.759275766723306 -30.01671967899324 0 -30.01671967899324 47.801158979796412 0 0 0 0 4.3956987418267772 -19.376439201064599 0 -19.376439201064599 41.248897480117023 0 0 0 0 -16.891630736142247 -61.398294204298224 0 -61.398294204298224 -54.844652446817236 0 0 0 0 -62.743945539128617 -373.54293447533564 0 -373.54293447533564 138.3252498681793 0 0 0 0 223.03586831472057 -141.98200284192899 0 -141.98200284192899 -106.25162984998315 0 0 0 0 74.68313751189271 -85.876870794898423 0 -85.876870794898423 -86.55653549969611 0 0 0 0 27.081327423127732 -40.791884526930232 0 -40.791884526930232 -31.168615697415888 0 0 0 0 138.26485223558848 -40.144506452706992 0 -40.144506452706992 22.784427627033438 0 0 0 0 -20.806007335340837 -67.59036421404744 0 -67.59036421404744 41.86688580273767 0 0 0 0 12.502441961529257 -105.73443274346391 0 -105.73443274346391 -73.070910949856625 0 0 0 0 13.03460455766907 -92.383127113758377 0 -92.383127113758377 33.854368618272446 0 0 0 0 -34.142593612312339 -93.531792045338079 0 -93.531792045338079 114.74700817890698 0 0 0 0 -5.2625551781675313 -141.91908336574852 0 -141.91908336574852 71.20277932366298 0 0 0 0 -48.854328825313132 -44.29523964060354 0 -44.29523964060354 74.495570829225471 0 0 0 0 237.49743234858033 -375.56591360937455 0 -375.56591360937455 -50.181864614867663 0 0 0 0 -3.9094100535577354 -78.066064997933921 0 -78.066064997933921 88.038072894602948 0 0 0 0 21.579224150577559 -21.616804860354108 0 -21.616804860354108 -6.8133860930050503 0 0 0 0 51.382385714590782 -63.209478568576742 0 -63.209478568576742 42.163603365585004 0 0 0 0 16.164000552679113 -24.172153070559119 0 -24.172153070559119 -24.317406681727803 0 0 0 0 40.234212549054064 -83.816504391666967 0 -83.816504391666967 52.065424160282419 0 0 0 0 45.674230636492211 -91.061380893204841 0 -91.061380893204841 52.71463968968601 0 0 0 0 -30.973133440202218 -62.542323759858846 0 -62.542323759858846 -32.925266359176021 0 0 0 0 24.607780573576179 -29.861132001060753 0 -29.861132001060753 -44.411752179903772 0 0 0 0 183.98790515048313 124.3221826638528 0 124.3221826638528 -212.83434805254365 0 0 0 0 -326.47796164805186 130.29242468104349 0 130.29242468104349 -140.21628220335697 0 0 0 0 274.90246391181427 18.995244925139559 0 18.995244925139559 -549.36497067382152 0 0 0 0 157.18474760687968 11.216593300901877 0 11.216593300901877 90.201208093669266 0 0 0 0 618.7485175850743 -221.07307491570828 0 -221.07307491570828 -133.79153680688614 0 0 0 0 -27.226474032264889 -39.826076386896034 0 -39.826076386896034 -60.682867173996726 0 0 0 0 429.51443871979427 -550.92648130608723 0 -550.92648130608723 43.916759604631807 0 0 0 0 170.08856350291171 -90.921123181837174 0 -90.921123181837174 160.8395647292723 0 0 0 0 497.07982725848706 -507.15270341664927 0 -507.15270341664927 -723.01575285420404 0 0 0 0 525.28143130510398 -901.66759231944047 0 -901.66759231944047 62.441374850590364 0 0 0 0 -17.649281177258672 -30.751906730072733 0 -30.751906730072733 -44.803049575721957 0 0 0 0 -1127.1246256175509 -1058.1060137049426 0 -1058.1060137049426 855.37412298201525 0 0 0 0 -950.9320812082733 -338.43843981143436 0 -338.43843981143436 657.62015335653268 0 0 0 0 -1000.8027106670052 -1505.7395718190783 0 -1505.7395718190783 -412.23123839509208 0 0 0 0 -1274.7214627563226 -3227.7312431195151 0 -3227.7312431195151 -1386.9611767692259 0 0 0 0 8.6755084217207923 -5.1482622609977113 0 -5.1482622609977113 -1.7799162030399387 0 0 0 0 -34.93880530318711 -1228.5218525023047 0 -1228.5218525023047 -2986.1497702972629 0 0 0 0 -1085.4327019007178 -850.32237326366885 0 -850.32237326366885 2684.4079304089573 0 0 0 0 422.5483154530375 -129.4130424184732 0 -129.4130424184732 1121.8847036550578 0 0 0 0 -1001.8180473429093 -1419.5824534166331 0 -1419.5824534166331 1132.8365487879491 0 0 0 0 -2814.9494795657083 414.58515982564859 0 414.58515982564859 -3590.2518235229654 0 0 0 0 71.717824081453728 -532.2526512211989 0 -532.2526512211989 -1913.0496573508826 0 0 0 0 -292.63240321724152 -2109.1086916966633 0 -2109.1086916966633 -1040.9056118435401 0 0 0 0 -970.54594429029385 -2072.333395892063 0 -2072.333395892063 -1288.4000229206722 0 0 0 0 -452.01993174356176 -1355.50822231442 0 -1355.50822231442 -468.39089268754469 0 0 0 0 -632.80653292764327 -1599.2748107415246 0 -1599.2748107415246 -255.47085091951885 0 0 0 0 -107.23272342816927 -1525.1219620294432 0 -1525.1219620294432 -427.19333284533786 0 0 0 0 -278.61724397476064 -1811.87192921729 0 -1811.87192921729 -142.33430331436102 0 0 0 0 -192.09022489277413 -1474.6873023639346 0 -1474.6873023639346 253.83991442377737 0 0 0 0 -201.22048628318589 -1617.0575913344801 0 -1617.0575913344801 -210.51088591533335 0 0 0 0 -150.65972484990561 -2014.3439170453944 0 -2014.3439170453944 90.843998152558925 0 0 0 0 -830.87310810921736 -707.96715525480886 0 -707.96715525480886 -83.491003951610764 0 0 0 0 0.22021655749094293 -15.801388797426853 0 -15.801388797426853 -20.306360791649581 0 0 0 0 -431.01499198848614 500.13106977850839 0 500.13106977850839 -795.83881512342487 0 0 0 0 -98.231125917460304 -50.970147454441758 0 -50.970147454441758 -282.21112332783377 0 0 0 0 36.71857599291252 -337.96794211131783 0 -337.96794211131783 -2069.3466425433035 0 0 0 0 -747.04924742251751 -1199.8029009252059 0 -1199.8029009252059 345.22007203006069 0 0 0 0 -14.282484148174206 -29.915009576670116 0 -29.915009576670116 10.84703872908014 0 0 0 0 641.99768223735737 139.43434998666635 0 139.43434998666635 50.63645484574954 0 0 0 0 12.820176233332461 -6.3568797608559748 0 -6.3568797608559748 -9.1600272543346364 0 0 0 0 1892.8193662674748 -1314.7394224907766 0 -1314.7394224907766 310.74325718267937 0 0 0 0 1564.1939574194257 -795.75842592908157 0 -795.75842592908157 -14.714947683503851 0 0 0 0 856.58723233325873 320.49937119422248 0 320.49937119422248 -82.332110556948464 0 0 0 0 797.81434313597856 -574.13366449931345 0 -574.13366449931345 588.01892326740926 0 0 0 0 -112.63496854552068 -1639.6985568386808 0 -1639.6985568386808 823.30035551206674 0 0 0 0 175.33910932438448 -1783.8830923552377 0 -1783.8830923552377 482.11704462762282 0 0 0 0 803.06325915174966 -1371.2094703922812 0 -1371.2094703922812 776.03993877717585 0 0 0 0 277.21612231872859 -1664.3368453165385 0 -1664.3368453165385 340.36660420289263 0 0 0 0 136.08652672643075 -1519.383442312901 0 -1519.383442312901 1019.5764703751083 0 0 0 0 801.91274462357978 -1199.5034384829996 0 -1199.5034384829996 875.92184420047852 0 0 0 0 888.47747907182202 -1341.2686046417002 0 -1341.2686046417002 1015.9036300988955 0 0 0 0 2021.8397545358166 -1751.9514059957437 0 -1751.9514059957437 1335.5699433564587 0 0 0 0 17.556146356301383 -7.9968238827945584 0 -7.9968238827945584 3.6293787998726259 0 0 0 0 1755.0067769078887 -896.49004471611261 0 -896.49004471611261 949.2578670024086 0 0 0 0 603.41715108175413 -1284.631237562935 0 -1284.631237562935 1407.421069365635 0 0 0 0 253.66624310804764 -1586.0095039146836 0 -1586.0095039146836 375.747117820727 0 0 0 0 232.35884290620743 -1769.4645839720652 0 -1769.4645839720652 473.33011249255651 0 0 0 0 337.11870124738198 -1744.0166392870087 0 -1744.0166392870087 519.61512914467312 0 0 0 0 355.48252393226721 -1450.9026746038653 0 -1450.9026746038653 731.93403214406862 0 0 0 0 153.57792727687047 -1714.1348810961936 0 -1714.1348810961936 532.9145735093407 0 0 0 0 174.25631078187143 -2030.9846017905147 0 -2030.9846017905147 127.62583104390069 0 0 0 0 148.23351997393183 -1572.0786650407972 0 -1572.0786650407972 121.82167507994745 0 0 0 0 228.98269872269157 -1861.7863834531436 0 -1861.7863834531436 257.53568070581241 0 0 0 0 -103.46753181749955 -1415.5723770500335 0 -1415.5723770500335 3402.3675998658 0 0 0 0 6.3574849058700238 -4.6634267901555688 0 -4.6634267901555688 -0.88536187248553233 0 0 0 0 268.54495607427089 -1799.1235158608888 0 -1799.1235158608888 284.00036187199294 0 0 0 0 591.92349156353157 -957.4487630370204 0 -957.4487630370204 -1174.6566209662196 0 0 0 0 389.0202150659461 -1952.0394195528352 0 -1952.0394195528352 -465.13815097194311 0 0 0 0 -46.426050509500783 -2114.86320676787 0 -2114.86320676787 107.34317016045679 0 0 0 0 356.16981955082156 -1952.1059188990257 0 -1952.1059188990257 51.884658609043981 0 0 0 0 -149.36781220708508 -682.47822776267276 0 -682.47822776267276 -431.93152617886153 0 0 0 0 253.27271372929681 -752.06801201500639 0 -752.06801201500639 1102.7131261659924 0 0 0 0 644.4291956351517 -2177.6446328467136 0 -2177.6446328467136 1900.5304444041394 0 0 0 0 28.235949344732717 -15.54004285430409 0 -15.54004285430409 -0.42350897135084864 0 0 0 0 706.56829926589853 -731.105785461099 0 -731.105785461099 743.42133492979337 0 0 0 0 77.405458796769381 28.736445567148621 0 28.736445567148621 152.30065706712776 0 0 0 0 686.67967450809374 -1512.3167344454596 0 -1512.3167344454596 3397.712328208785 0 0 0 0 15.953633375016182 -7.0248874965214441 0 -7.0248874965214441 6.7916413847735271 0 0 0 0 371.59258234279696 -425.14928791947023 0 -425.14928791947023 555.33883756556315 0 0 0 0 1.8795204168126247 -11.638158630046235 0 -11.638158630046235 32.965411889832666 0 0 0 0 368.41930591296591 125.64296586302544 0 125.64296586302544 -395.52981623366941 0 0 0 0 291.57486192788929 -434.36273316879669 0 -434.36273316879669 803.53776241966989 0 0 0 0 496.73853902009432 -735.07063217605901 0 -735.07063217605901 626.16824825917138 0 0 0 0 506.15944154403405 -600.69173611426959 0 -600.69173611426959 -76.041056873131311 0 0 0 0 390.0124748206581 -1103.1500972987124 0 -1103.1500972987124 113.16668560396647 0 0 0 0 837.08169017219916 -982.49254179240961 0 -982.49254179240961 26.28508088435774 0 0 0 0 2393.8152333325706 -38.36715542912134 0 -38.36715542912134 -2618.7085588066257 0 0 0 0 925.82948298260453 -1134.7896949384085 0 -1134.7896949384085 -146.80035152393975 0 0 0 0 1877.1231354475021 -3893.774158280321 0 -3893.774158280321 3199.359383397561 0 0 0 0 -305.31483688268054 -1542.108130266497 0 -1542.108130266497 3329.3867734531814 0 0 0 0 60.356775864493102 -973.44089082398568 0 -973.44089082398568 1593.7182828151854 0 0 0 0 766.99789104552474 -1854.8678545787407 0 -1854.8678545787407 -544.66466261481401 0 0 0 0 671.58292814984452 -1653.4193912662231 0 -1653.4193912662231 894.5548562030599 0 0 0 0 -9.6250194999738596 -865.88399378478061 0 -865.88399378478061 1429.8687922856843 0 0 0 0 105.81954643290373 -627.70412481929998 0 -627.70412481929998 417.82442895681015 0 0 0 0 424.61381410754984 -982.56183103358853 0 -982.56183103358853 528.58581047889311 0 0 0 0 -522.8388562805776 -805.13924496344771 0 -805.13924496344771 2275.1590027389175 0 0 0 0 -157.81496970064472 -323.18075409473386 0 -323.18075409473386 977.14806255247095 0 0 0 0 -130.7644381604623 -248.14950778556522 0 -248.14950778556522 1048.3341090128815 0 0 0 0 19.381124267238192 -168.55051231203834 0 -168.55051231203834 -67.85640899509599 0 0 0 0 -0.41885132572497241 -383.92047530222771 0 -383.92047530222771 767.2237693443094 0 0 0 0 -47.93580926960567 -571.15425912990031 0 -571.15425912990031 291.1834014129854 0 0 0 0 273.74675153306453 -936.94199467090948 0 -936.94199467090948 322.47886610645219 0 0 0 0 321.67840608694678 -584.87419001663329 0 -584.87419001663329 119.10128446831368 0 0 0 0 235.75913397365366 -793.49526676315872 0 -793.49526676315872 364.55348377564223 0 0 0 0 254.75366677597049 -700.46544886744232 0 -700.46544886744232 741.6724552893138 0 0 0 0 495.19964648946188 -810.3596180772729 0 -810.3596180772729 358.1400534770637 0 0 0 0 -14.754035670077428 -455.28052028403908 0 -455.28052028403908 1004.9312475111183 0 0 0 0 -1242.8841011637414 -790.91540301164059 0 -790.91540301164059 1602.3586888719947 0 0 0 0 -378.29041548508394 -1125.8657182415482 0 -1125.8657182415482 -181.46283892483916 0 0 0 0 -2012.2726051154605 -1240.6388624733881 0 -1240.6388624733881 544.39073574689974 0 0 0 0 -1993.1129785747034 -304.6475128605889 0 -304.6475128605889 699.65268967268639 0 0 0 0 -4.9171617352982935 -10.842345631301441 0 -10.842345631301441 -20.366894470386654 0 0 0 0 -1238.1423145421213 -862.61162594012239 0 -862.61162594012239 616.91370134692988 0 0 0 0 -624.17161058593774 -152.62388733177067 0 -152.62388733177067 -2427.4509158440778 0 0 0 0 -1980.4685123661329 -47.631599654010643 0 -47.631599654010643 242.6172231160599 0 0 0 0 -605.79890305511435 -372.54623751611189 0 -372.54623751611189 -55.488086307304911 0 0 0 0 -112.32260808680439 -124.22728609532351 0 -124.22728609532351 -102.63283548524942 0 0 0 0 -172.86841020249994 123.40199997540913 0 123.40199997540913 -481.65814857117221 0 0 0 0 -984.05698110410594 118.29075082401687 0 118.29075082401687 259.15585497058055 0 0 0 0 -699.1495742565603 -419.87131525669975 0 -419.87131525669975 341.21179885322636 0 0 0 0 -697.11319202419691 -340.37886161404094 0 -340.37886161404094 469.73640799746499 0 0 0 0 -450.47253027831903 -583.41371398139745 0 -583.41371398139745 592.21509940396936 0 0 0 0 -641.30050977808423 -251.7690856782574 0 -251.7690856782574 466.01393136463594 0 0 0 0 -320.94772920984542 -445.95821652190352 0 -445.95821652190352 524.30194578389637 0 0 0 0 -137.4205860060174 -400.06431421235902 0 -400.06431421235902 500.79602124323719 0 0 0 0 -286.38470058190796 -579.64034878417078 0 -579.64034878417078 530.3406552344386 0 0 0 0 -321.03223557394813 -90.294482980832981 0 -90.294482980832981 314.26396928011673 0 0 0 0 -272.82777492370224 -127.45468806481222 0 -127.45468806481222 319.2524745029441 0 0 0 0 -293.29951309383614 -274.0594736951025 0 -274.0594736951025 475.20973938725365 0 0 0 0 -167.66106127516832 -139.91477267237133 0 -139.91477267237133 285.47304278716911 0 0 0 0 -159.63574576200335 35.057947121691541 0 35.057947121691541 9.6718171004467877 0 0 0 0 -79.583009462803602 -85.218166835402371 0 -85.218166835402371 167.28387337959794 0 0 0 0 -229.54082636375097 -189.34002153242182 0 -189.34002153242182 182.69575320078729 0 0 0 0 -71.445263182213239 -124.07237558165252 0 -124.07237558165252 -193.16542097876663 0 0 0 0 -77.977473559876671 0.51488824448824744 0 0.51488824448824744 222.6809324840433 0 0 0 0 -513.17111678959918 186.07664813451629 0 186.07664813451629 284.57469678395137 0 0 0 0 -121.1932970223279 154.13512230719789 0 154.13512230719789 -180.98606174440647 0 0 0 0 -107.13276089883584 3.4634419535332199 0 3.4634419535332199 226.81569928980025 0 0 0 0 -166.6110799708058 -40.80538584733813 0 -40.80538584733813 178.94977452333842 0 0 0 0 -24.10242323379498 42.561142418875534 0 42.561142418875534 5.5277060750850069 0 0 0 0 -1274.1096770766308 -52.911916112199833 0 -52.911916112199833 157.54465001161407 0 0 0 0 -259.28382728080032 -177.56752237743058 0 -177.56752237743058 38.17847286956021 0 0 0 0 -503.54974289891834 -392.63619616887627 0 -392.63619616887627 89.991440036814311 0 0 0 0 -774.11119146598503 -241.9053719021249 0 -241.9053719021249 1161.6008011315134 0 0 0 0 3595.9471131473692 -1533.3150676544465 0 -1533.3150676544465 366.71224985898152 0 0 0 0 3.5101286384680925 -2.3326344266038177 0 -2.3326344266038177 60.100095891027024 0 0 0 0 275.09400627047307 -710.86133917481391 0 -710.86133917481391 1357.0449975619777 0 0 0 0 -13.307355960290597 -25.915674324725046 0 -25.915674324725046 168.32404441033651 0 0 0 0 3394.1961157453625 -1028.7298758053057 0 -1028.7298758053057 -469.82108033263285 0 0 0 0 -5.9921910782747432 -6.6891017755937696 0 -6.6891017755937696 20.050994884001568 0 0 0 0 -819.61195535202569 -643.01415790248393 0 -643.01415790248393 680.77602429500257 0 0 0 0 -733.16938646245399 -1257.4500830748439 0 -1257.4500830748439 -27.592208106376347 0 0 0 0 -460.83111208144692 -1265.453590290901 0 -1265.453590290901 -59.199471089506915 0 0 0 0 -419.9020381400187 -1516.6423166964742 0 -1516.6423166964742 -505.58981190547092 0 0 0 0 -477.87213277748378 -1211.2759273228367 0 -1211.2759273228367 75.815836220775964 0 0 0 0 -220.69245271425461 -839.98057429210166 0 -839.98057429210166 8.6199873780460621 0 0 0 0 -808.96680273358652 -814.429032691256 0 -814.429032691256 77.104737945053785 0 0 0 0 318.45534904525266 -802.85574582599656 0 -802.85574582599656 -55.818869166745571 0 0 0 0 -135.7593796486326 -1373.3174109620104 0 -1373.3174109620104 86.544221248434042 0 0 0 0 -3.8098659900424536 -543.71106704919657 0 -543.71106704919657 -19.013361004457693 0 0 0 0 -219.57700370646489 -1294.7587683901111 0 -1294.7587683901111 100.88209717792051 0 0 0 0 -34.260004015617596 -931.61427822059159 0 -931.61427822059159 -675.4521923125576 0 0 0 0 -84.210377948358655 -834.37616332228208 0 -834.37616332228208 236.66683463927075 0 0 0 0 -358.1757638004492 -2083.737231371364 0 -2083.737231371364 3964.0769843515554 0 0 0 0 3.6011723944625373 -2.4527377023149484 0 -2.4527377023149484 2.1465419405762276 0 0 0 0 1520.1414112228958 -591.77736045114034 0 -591.77736045114034 -271.11279257461138 0 0 0 0 531.70480556366965 -1817.3679944570067 0 -1817.3679944570067 1803.7729268100957 0 0 0 0 647.23604418925242 -76.628686979413033 0 -76.628686979413033 -256.88548411539523 0 0 0 0 15.523999749819609 0.066265271617652388 0 0.066265271617652388 2.8175143950326245 0 0 0 0 302.50603906274773 81.191245368609088 0 81.191245368609088 -323.48160927111167 0 0 0 0 -109.31750338635175 -31.490538240293972 0 -31.490538240293972 30.989277395788122 0 0 0 0 -22.060262332670391 -57.565374028374208 0 -57.565374028374208 33.576780017087003 0 0 0 0 60.419345431902912 -133.82887602702249 0 -133.82887602702249 90.264725068947882 0 0 0 0 389.1805707871099 -547.40891753288452 0 -547.40891753288452 -42.312962320793304 0 0 0 0 -57.600343844620511 -161.15489206132042 0 -161.15489206132042 74.80079609421955 0 0 0 0 187.48217654938344 -71.118196990297292 0 -71.118196990297292 65.513546671656513 0 0 0 0 -117.77916998483124 -140.98397856386509 0 -140.98397856386509 69.055077272932976 0 0 0 0 48.478350131714251 -462.71393186914793 0 -462.71393186914793 97.990278825236601 0 0 0 0 -269.77112435535673 -34.764772514229662 0 -34.764772514229662 113.28896400018129 0 0 0 0 1752.8941181616392 -2073.1267610718496 0 -2073.1267610718496 4479.601160878723 0 0 0 0 -9.9675187773430594 -5.6233941941192711 0 -5.6233941941192711 48.298904253937167 0 0 0 0 -240.63175013507134 -197.75395831437345 0 -197.75395831437345 56.79200562468759 0 0 0 0 -139.82532660136349 -40.822289331139473 0 -40.822289331139473 120.08823555518757 0 0 0 0 -101.72861589162494 3.6624425028203405 0 3.6624425028203405 91.607621800008928 0 0 0 0 -55.749579239054583 -1.588782251928933 0 -1.588782251928933 92.040894261363064 0 0 0 0 7826.7026234406512 -4193.5078570933838 0 -4193.5078570933838 -5005.9171371943667 0 0 0 0 27.885993510833941 -111.89419856207678 0 -111.89419856207678 -44.869181691188714 0 0 0 0 30.249091084639076 -15.105707761555095 0 -15.105707761555095 61.75098404205346 0 0 0 0 72.613016120158136 -82.102024838302896 0 -82.102024838302896 -27.369149495381862 0 0 0 0 -87.532978034694679 -59.171648652438307 0 -59.171648652438307 125.3004757034214 0 0 0 0 -21.852652809524443 -77.484514080562803 0 -77.484514080562803 25.259872675058432 0 0 0 0 -63.283554191002622 -83.743108289811062 0 -83.743108289811062 113.93094720038061 0 0 0 0 -74.059449651278555 -109.18438637501094 0 -109.18438637501094 14.947562034078146 0 0 0 0 17.677662094745529 -8.2969106896200628 0 -8.2969106896200628 -2.191964687868392 0 0 0 0 462.11124824118451 -1077.5970312920399 0 -1077.5970312920399 1640.8147993929306 0 0 0 0 926.40725325915264 -787.91310305256775 0 -787.91310305256775 3250.4510941872286 0 0 0 0 837.19702372507891 -1246.4780680835465 0 -1246.4780680835465 2358.82716522786 0 0 0 0 52.540185779810145 -6.8092540849304442 0 -6.8092540849304442 0.91982513144437661 0 0 0 0 -1908.5676501638955 -1735.2678148681152 0 -1735.2678148681152 4852.4122770413996 0 0 0 0 760.67677356497734 -831.67068276271675 0 -831.67068276271675 1666.6476231408815 0 0 0 0 480.25915297958272 -1244.0547561222065 0 -1244.0547561222065 1936.8506028340926 0 0 0 0 252.48725370655302 -892.42832843129145 0 -892.42832843129145 1517.487672278221 0 0 0 0 251.14102452716907 -738.58620524348953 0 -738.58620524348953 157.76324357325211 0 0 0 0 511.13679097739077 -1316.2951225641082 0 -1316.2951225641082 757.69935002413695 0 0 0 0 432.10649564483901 -1697.9772739672844 0 -1697.9772739672844 318.33393205063476 0 0 0 0 323.6487013194419 -1849.9231318607344 0 -1849.9231318607344 405.81230524361672 0 0 0 0 420.74486592685571 -1781.229947435284 0 -1781.229947435284 990.10934133044793 0 0 0 0 814.1338458530372 -1824.0087827333555 0 -1824.0087827333555 236.29054242625716 0 0 0 0 856.13834718575526 -2078.3062322775786 0 -2078.3062322775786 1230.3623598740378 0 0 0 0 572.94461754524673 -1173.069886517711 0 -1173.069886517711 -128.82640748056292 0 0 0 0 548.31305021612206 -1591.9930810480364 0 -1591.9930810480364 82.018213081319118 0 0 0 0 233.13641612711945 -1491.1087975717746 0 -1491.1087975717746 201.15836857468821 0 0 0 0 -771.80837915153825 -1190.695100295914 0 -1190.695100295914 -571.58280240599333 0 0 0 0 15.870255179054084 -17.277291353999146 0 -17.277291353999146 10.479901686288144 0 0 0 0 -73.011791349272244 -399.36948797781224 0 -399.36948797781224 -319.54402748237771 0 0 0 0 8.303668772871788 -9.1237747111163685 0 -9.1237747111163685 5.7159700974348198 0 0 0 0 1758.9608210780279 -1147.3641234641582 0 -1147.3641234641582 -426.01074047292423 0 0 0 0 -67.11383934544574 -367.86536159919706 0 -367.86536159919706 -480.39144620122534 0 0 0 0 -1266.0457151949231 -1274.0281830081221 0 -1274.0281830081221 1686.8122157280668 0 0 0 0 1025.6279413476004 -1435.3246850338401 0 -1435.3246850338401 1605.3201108547819 0 0 0 0 3234.2165318593616 -1191.4503012321948 0 -1191.4503012321948 1817.6950106964496 0 0 0 0 15.904041372240499 -7.1712254336929959 0 -7.1712254336929959 -0.47931726035960764 0 0 0 0 515.63511240834487 -1706.1465528204062 0 -1706.1465528204062 2641.1446932135659 0 0 0 0 978.80391619287548 -1243.044777856494 0 -1243.044777856494 2284.9743643268594 0 0 0 0 1129.479489851321 -1049.0301851926815 0 -1049.0301851926815 2619.7630451435107 0 0 0 0 -507.92669248327729 -1625.4449525225136 0 -1625.4449525225136 2425.1450359621813 0 0 0 0 236.36804912593652 -571.95025050617733 0 -571.95025050617733 1516.1275588964054 0 0 0 0 180.41874369664583 -1842.8525541773924 0 -1842.8525541773924 2259.4007430726306 0 0 0 0 -374.83881303998351 -779.60075535956275 0 -779.60075535956275 1585.6978924906216 0 0 0 0 -139.33146098408906 -1013.8757250103336 0 -1013.8757250103336 1122.5460374550858 0 0 0 0 -419.27320475535817 -308.02913095837357 0 -308.02913095837357 781.07775302425762 0 0 0 0 35.492330512948683 -657.61929627665813 0 -657.61929627665813 -326.8654912658094 0 0 0 0 -363.54086202992767 -424.75129698825185 0 -424.75129698825185 -454.75750980506564 0 0 0 0 0.10406524749123491 -942.74169756288393 0 -942.74169756288393 -158.83268940643757 0 0 0 0 212.01801776785578 -799.72918083544937 0 -799.72918083544937 -510.68402097028957 0 0 0 0 18.634129880845649 -507.60132038421807 0 -507.60132038421807 -110.07720429479377 0 0 0 0 -104.42753200144216 -788.97204867659821 0 -788.97204867659821 532.55619025180931 0 0 0 0 -98.616739650577074 -729.83085087076324 0 -729.83085087076324 40.208678528608289 0 0 0 0 0.0031874758569756523 -1002.1456208294112 0 -1002.1456208294112 411.27175801220437 0 0 0 0 -269.62840126187075 -835.79432542585346 0 -835.79432542585346 523.89027336638992 0 0 0 0 -233.79475582996383 -909.47391360849542 0 -909.47391360849542 668.19321656922693 0 0 0 0 -0.55508076978730969 -1144.4576325425842 0 -1144.4576325425842 842.35549747412733 0 0 0 0 -0.1160590037034126 -1269.3173219667333 0 -1269.3173219667333 340.94468302602399 0 0 0 0 -194.45978451063274 -1375.1107153395133 0 -1375.1107153395133 526.95216829602577 0 0 0 0 -210.85233066532237 -1404.4812798214189 0 -1404.4812798214189 647.8674592104926 0 0 0 0 -317.69036544064875 -1444.0190753526149 0 -1444.0190753526149 1170.3228594805332 0 0 0 0 -47.206309970628354 -1303.9678824164366 0 -1303.9678824164366 985.79987406593136 0 0 0 0 -34.615915470669279 -1762.2405243218809 0 -1762.2405243218809 396.33370612362341 0 0 0 0 -169.79306037476636 -1421.2470217694754 0 -1421.2470217694754 -171.72790244860516 0 0 0 0 -164.44922282572952 -1370.630262817991 0 -1370.630262817991 78.886598254743149 0 0 0 0 -147.20624157994462 -1632.1074974652438 0 -1632.1074974652438 384.21756524394732 0 0 0 0 -282.37953137795557 -1490.4218726686886 0 -1490.4218726686886 -38.403098617709475 0 0 0 0 -388.08783588265942 -1316.7131055121026 0 -1316.7131055121026 -112.73231928731911 0 0 0 0 -74.346273391711293 -1526.7832751118112 0 -1526.7832751118112 -491.28300001076514 0 0 0 0 -34.330881758403848 -1362.9400511197655 0 -1362.9400511197655 -73.67073718959 0 0 0 0 0.8662133392499527 -1290.9059592424219 0 -1290.9059592424219 -53.097606636310957 0 0 0 0 18.105913935141871 -1414.8851724773267 0 -1414.8851724773267 -271.56101324831616 0 0 0 0 -42.784196144759335 -1478.1156932468075 0 -1478.1156932468075 154.64436007247423 0 0 0 0 -22.255470391392009 -1413.980113146572 0 -1413.980113146572 -89.681231593982375 0 0 0 0 76.172651237255195 -1220.7995208399043 0 -1220.7995208399043 -1050.6117308457469 0 0 0 0 -115.76805218652589 -904.0385938879117 0 -904.0385938879117 -1082.7536161551616 0 0 0 0 256.77709332975792 -944.04104582268337 0 -944.04104582268337 -1125.1577310168068 0 0 0 0 -0.031918081469484605 -960.22944053607353 0 -960.22944053607353 -1191.4043755417515 0 0 0 0 -439.05116916485713 -1035.6215837138152 0 -1035.6215837138152 -1114.1855810320703 0 0 0 0 -432.80175936580054 -1146.4752491536856 0 -1146.4752491536856 98.79646175524249 0 0 0 0 -370.97086321609095 -1846.8538784335615 0 -1846.8538784335615 -800.96977238333784 0 0 0 0 1.7904551308311056 -1361.930158254967 0 -1361.930158254967 -1277.2993959688465 0 0 0 0 -4.044514150795294 -1311.6539865113009 0 -1311.6539865113009 -1706.0830264048273 0 0 0 0 417.54144400154473 -883.20269628608366 0 -883.20269628608366 -1607.4821759315382 0 0 0 0 132.18847427381843 -880.56642911873132 0 -880.56642911873132 -2088.4790911119781 0 0 0 0 136.72507704405143 -961.23536313898512 0 -961.23536313898512 -1339.3455151961243 0 0 0 0 -441.11015632390627 -1432.4095537892281 0 -1432.4095537892281 -1997.4770765887806 0 0 0 0 -91.154905410920037 -2328.3975669053834 0 -2328.3975669053834 -4233.9273201764154 0 0 0 0 -424.62915077211801 -1314.5941135944013 0 -1314.5941135944013 -1552.8493829147774 0 0 0 0 3.3612088187073823 -1213.7711474569951 0 -1213.7711474569951 -2758.2620477101154 0 0 0 0 491.85664689831901 -674.28501788302674 0 -674.28501788302674 -2409.1955136700999 0 0 0 0 -1179.6893348178128 -1148.3905063530401 0 -1148.3905063530401 541.09019236711902 0 0 0 0 -10.285547474256532 -8.6945713171322154 0 -8.6945713171322154 -6.3258507702759061 0 0 0 0 1.110402461155104 0.75180361635551662 0 0.75180361635551662 -1.2446990606410111 0 0 0 0 -615.63681784222717 31.595640771105536 0 31.595640771105536 1226.7192772807612 0 0 0 0 491.20362696109805 405.57406907470431 0 405.57406907470431 790.5057849403529 0 0 0 0 -1188.6313774124064 -789.24015978575517 0 -789.24015978575517 210.56927651209116 0 0 0 0 -1048.2564611925045 -264.52297819075466 0 -264.52297819075466 1097.4821275435097 0 0 0 0 999.92998340603663 403.19471263089508 0 403.19471263089508 -740.7629038564628 0 0 0 0 322.20459704939276 -169.70366959727835 0 -169.70366959727835 -2718.4755868907946 0 0 0 0 371.75970713270362 118.86882057927141 0 118.86882057927141 -1736.3048509501023 0 0 0 0 167.8285604865232 -154.03748947940767 0 -154.03748947940767 102.47352649271488 0 0 0 0 384.83923922979739 -669.8243720756218 0 -669.8243720756218 -137.29980259266449 0 0 0 0 0.29066746268051702 0.78953969281582204 0 0.78953969281582204 1.7379083320970494 0 0 0 0 98.18001730312244 -701.8502469492596 0 -701.8502469492596 384.62659278070714 0 0 0 0 245.1083366318926 -828.56030613920302 0 -828.56030613920302 -1025.4063545836834 0 0 0 0 420.81845378913567 -258.44603906893462 0 -258.44603906893462 -885.38125423522433 0 0 0 0 370.8869410695188 -630.47800267437924 0 -630.47800267437924 -870.23984939628281 0 0 0 0 0.26884217613603728 -881.45082198339082 0 -881.45082198339082 -702.20492461012327 0 0 0 0 53.025445266743191 -648.41795718281355 0 -648.41795718281355 -340.57189431574602 0 0 0 0 0.27876792368423453 -655.85264597896276 0 -655.85264597896276 691.11554391744721 0 0 0 0 410.34803228802048 -334.08663197372516 0 -334.08663197372516 -338.36302207715903 0 0 0 0 156.78517969252425 137.55458947347506 0 137.55458947347506 241.45605809544213 0 0 0 0 -2.6458573494561506 1.6600915506417095 0 1.6600915506417095 3.8666757886719552 0 0 0 0 811.6634505862603 -290.57406199096295 0 -290.57406199096295 336.33113236061763 0 0 0 0 412.45217354997294 -420.81902147497749 0 -420.81902147497749 208.96572356841352 0 0 0 0 410.34673419717001 -794.99043290037662 0 -794.99043290037662 540.10501249915251 0 0 0 0 -7.0304794288142034 -4.596328078557633 0 -4.596328078557633 -2.6710456143396755 0 0 0 0 331.10694970591248 180.61347889473586 0 180.61347889473586 -1328.8586359368346 0 0 0 0 0.53375184262404218 -375.24531085164926 0 -375.24531085164926 424.34898084717133 0 0 0 0 475.93912372778868 -873.45531325448974 0 -873.45531325448974 -1552.1892868478944 0 0 0 0 581.80269590318312 -352.07087797526628 0 -352.07087797526628 -503.62267468428763 0 0 0 0 209.65171144529631 -818.67555323945862 0 -818.67555323945862 -629.77070251968689 0 0 0 0 -0.13259523264423478 -1090.0373829668133 0 -1090.0373829668133 -819.10137056730309 0 0 0 0 -659.62742010811053 -479.8954721557966 0 -479.8954721557966 -237.56156227487372 0 0 0 0 69.158249204221647 -703.07163836325708 0 -703.07163836325708 -722.58359439902051 0 0 0 0 14.942302499416542 -13.350622944062223 0 -13.350622944062223 4.034696895405915 0 0 0 0 94.711282032905729 -652.73990474681341 0 -652.73990474681341 -687.9961834372225 0 0 0 0 -684.50034096286981 -338.85214723707759 0 -338.85214723707759 -182.06187268166832 0 0 0 0 -287.18139875638008 -172.79522201638792 0 -172.79522201638792 -360.82126428349875 0 0 0 0 7.6395897536884831 -5.2151242628223429 0 -5.2151242628223429 -0.90588566215683386 0 0 0 0 1497.3465454701072 186.99780698269205 0 186.99780698269205 -865.0271380858685 0 0 0 0 -609.44791672348219 -757.02642949342771 0 -757.02642949342771 -265.62903720400936 0 0 0 0 -532.64495396291022 -708.56583527854673 0 -708.56583527854673 1288.6222484162936 0 0 0 0 -13.18827220107454 -14.523297590180562 0 -14.523297590180562 -11.733062850327542 0 0 0 0 975.03854942129692 -773.78794635202212 0 -773.78794635202212 3.8142166547186207 0 0 0 0 792.32799179037102 -719.00311278913432 0 -719.00311278913432 -267.28661795685184 0 0 0 0 162.22441129625076 -669.23434907336195 0 -669.23434907336195 -113.59424479924201 0 0 0 0 1369.9910297500901 -312.80157395471178 0 -312.80157395471178 -85.114838056004373 0 0 0 0 -447.13295058131916 -253.46608334650227 0 -253.46608334650227 -151.66528606715292 0 0 0 0 -188.5301260859269 82.273586308099766 0 82.273586308099766 188.33572983110207 0 0 0 0 -233.69575547115528 -292.13738153720624 0 -292.13738153720624 201.14345859186142 0 0 0 0 -933.4325407219003 -591.81525910743949 0 -591.81525910743949 -596.34632619265176 0 0 0 0 -726.25333794651669 -121.2546466890999 0 -121.2546466890999 85.360588970375829 0 0 0 0 -934.1308481899905 -248.58575619275507 0 -248.58575619275507 15.391664401104208 0 0 0 0 -1055.7952728228847 -1242.4853855544279 0 -1242.4853855544279 -44.213084812989109 0 0 0 0 -1254.9269340080791 -986.61345469370281 0 -986.61345469370281 -181.5407284139219 0 0 0 0 -1198.3007754267746 -270.89064222142042 0 -270.89064222142042 -285.89440232679772 0 0 0 0 -730.65885957841238 -271.93748033974771 0 -271.93748033974771 -347.64540479049901 0 0 0 0 -585.50717943362542 -534.97219380345996 0 -534.97219380345996 -369.74760065551527 0 0 0 0 -584.75197279264762 -603.77696056757668 0 -603.77696056757668 8.8560037546558306 0 0 0 0 -632.80628604348749 -480.1513879024551 0 -480.1513879024551 -219.85149973885564 0 0 0 0 -374.27790513406217 -501.82187319785226 0 -501.82187319785226 -292.48860520093876 0 0 0 0 352.48917493948829 -1562.4390280460102 0 -1562.4390280460102 177.04828873967926 0 0 0 0 -15.170025909159449 -1150.0075245552507 0 -1150.0075245552507 186.60665471482207 0 0 0 0 -508.37486833857838 -871.38014588197984 0 -871.38014588197984 -20.47512934637416 0 0 0 0 15.945851046970347 -1195.5416126935561 0 -1195.5416126935561 -128.93429535000905 0 0 0 0 128.00952089639031 -1056.4605793318151 0 -1056.4605793318151 -433.2636035466785 0 0 0 0 -347.24087291877368 -718.75722543761367 0 -718.75722543761367 -133.37941243367897 0 0 0 0 -803.9521649166345 -1304.870582095833 0 -1304.870582095833 -865.42436559320777 0 0 0 0 -5.459830545032105 -5.9875775739740789 0 -5.9875775739740789 -4.3327861325635126 0 0 0 0 -1127.418361232616 -1085.3417313270111 0 -1085.3417313270111 1382.4163591333927 0 0 0 0 -41.009526032343274 -150.92488465207134 0 -150.92488465207134 -1727.0590097251188 0 0 0 0 -62.993617185857147 -84.392818186327531 0 -84.392818186327531 1.2445871322124731 0 0 0 0 -6.9904104039630965 -13.834191910722211 0 -13.834191910722211 -12.062675035199561 0 0 0 0 520.31339297753584 -967.94609466567726 0 -967.94609466567726 33.969461042652256 0 0 0 0 -146.20788544989773 300.264309954895 0 300.264309954895 -647.1951821030234 0 0 0 0 604.4125097173237 -145.18899418349974 0 -145.18899418349974 -2328.7319785924046 0 0 0 0 -581.89300578219991 -73.91287402195303 0 -73.91287402195303 -1138.2955930877652 0 0 0 0 55.090551919674908 343.66686624413887 0 343.66686624413887 174.73247581756732 0 0 0 0 -305.56628228837508 -490.08852204067807 0 -490.08852204067807 -1230.4013436692912 0 0 0 0 -1073.8322270163771 -770.00065663300848 0 -770.00065663300848 -1157.1459950965072 0 0 0 0 -1037.7142143004749 -457.18962004133209 0 -457.18962004133209 138.94665401248676 0 0 0 0 -1732.255283253442 -1948.7706399991876 0 -1948.7706399991876 -439.84894887795053 0 0 0 0 -1533.9052756085002 -1079.3253822124025 0 -1079.3253822124025 -210.34923564690689 0 0 0 0 -1306.9042571611935 -566.89480311307852 0 -566.89480311307852 -151.54399629263207 0 0 0 0 -786.07917326048482 -1471.8135750061192 0 -1471.8135750061192 -3728.914163358786 0 0 0 0 -518.83074210575433 231.86034115647635 0 231.86034115647635 -3589.3639813094724 0 0 0 0 -779.92846173932776 -780.5275301875663 0 -780.5275301875663 -1168.0801786774973 0 0 0 0 -323.89499831240391 -273.80727124564874 0 -273.80727124564874 -2912.0505587457446 0 0 0 0 -4.0675511829837205 -35.612019403734195 0 -35.612019403734195 -13.289415519176913 0 0 0 0 -443.93034512756276 -96.478193070317502 0 -96.478193070317502 -2808.9323266427527 0 0 0 0 -3.9942364126239909 -11.722350547519483 0 -11.722350547519483 -5.3554603042188091 0 0 0 0 -781.88298483539256 -971.14824124618826 0 -971.14824124618826 -6464.0765189302983 0 0 0 0 696.9622852034372 -477.10565605877491 0 -477.10565605877491 673.18875626820954 0 0 0 0 -463.42212167479738 -1676.341397291907 0 -1676.341397291907 3673.4707296042616 0 0 0 0 105.05988873812021 -1214.9449288746182 0 -1214.9449288746182 2656.8067113662764 0 0 0 0 507.94208379946213 -392.30912775475554 0 -392.30912775475554 998.67230802863196 0 0 0 0 11.663070956303272 -865.50166637879738 0 -865.50166637879738 1937.6401271256509 0 0 0 0 1.047447543093881 -53.145599784055491 0 -53.145599784055491 -21.128457497328625 0 0 0 0 229.84246178985813 -278.09993661482713 0 -278.09993661482713 1090.170473377817 0 0 0 0 339.65772545672371 575.60789401696093 0 575.60789401696093 -3518.9537500248698 0 0 0 0 -358.90120517587638 207.17130983903189 0 207.17130983903189 -2306.6428086867245 0 0 0 0 114.52356229146244 591.27160205763357 0 591.27160205763357 -4053.4563732646639 0 0 0 0 49.609520892554428 -65.176457911700709 0 -65.176457911700709 -2370.52245201396 0 0 0 0 234.71581804566085 238.06005055815331 0 238.06005055815331 -2331.802059304272 0 0 0 0 -119.88663919258397 -45.285590260333265 0 -45.285590260333265 -2290.4347193363174 0 0 0 0 2.0940543724750569 -60.728721825167867 0 -60.728721825167867 -41.404904460120136 0 0 0 0 164.06068872869946 -624.28106378800294 0 -624.28106378800294 1529.3431358091875 0 0 0 0 161.57299505357514 410.43200285402418 0 410.43200285402418 -3403.3157520431414 0 0 0 0 318.50466698636228 -484.1390884603843 0 -484.1390884603843 862.25514210513211 0 0 0 0 13.302850936862114 -69.535842480849794 0 -69.535842480849794 -42.924082273433555 0 0 0 0 313.53139999461564 -22.733655405072568 0 -22.733655405072568 -2961.1330427732755 0 0 0 0 275.28476628882345 -644.27835490864527 0 -644.27835490864527 945.53581569262315 0 0 0 0 25.258564790652599 -687.66717739829619 0 -687.66717739829619 1297.1175309882237 0 0 0 0 -41.014800917939283 62.574591776763555 0 62.574591776763555 -385.90645954351203 0 0 0 0 -9.4051686333750695 -2.3627520270983098 0 -2.3627520270983098 -33.443339066650545 0 0 0 0 12.733528565935558 66.168284538813168 0 66.168284538813168 -403.81124969200755 0 0 0 0 76.015631604444934 -198.84903812173434 0 -198.84903812173434 -1857.0671361985369 0 0 0 0 -6.6020485642518452 -7.7226700351534419 0 -7.7226700351534419 -5.8923546564299585 0 0 0 0 18.980319750844501 -84.539877625444205 0 -84.539877625444205 -1964.8070121143537 0 0 0 0 188.04951118669123 -111.89491118885417 0 -111.89491118885417 -1822.5319067039964 0 0 0 0 382.18083202408161 -721.42965054382148 0 -721.42965054382148 -1723.8644833167782 0 0 0 0 316.37873785200645 -422.39003155519094 0 -422.39003155519094 -2748.3627848174947 0 0 0 0 2.9241980925256144 -6.7280780787288563 0 -6.7280780787288563 -9.394217699494817 0 0 0 0 789.43561910942663 -822.2048053830149 0 -822.2048053830149 480.3347802753633 0 0 0 0 320.73343131953152 278.7423363164562 0 278.7423363164562 -3295.0429149033225 0 0 0 0 764.21575295464572 -1003.1111196684042 0 -1003.1111196684042 -816.13895922480151 0 0 0 0 309.50282989663538 -4.1863415775151225 0 -4.1863415775151225 243.26303533643659 0 0 0 0 487.82989482604899 -654.28299611066177 0 -654.28299611066177 387.07495194322837 0 0 0 0 659.88348639284959 -35.279210325737949 0 -35.279210325737949 -126.55620195606025 0 0 0 0 -0.70983915816105991 -13.37093983484732 0 -13.37093983484732 -14.411235528998475 0 0 0 0 282.90616666182177 -586.69924273451761 0 -586.69924273451761 -789.72061235633373 0 0 0 0 -100.74528919058503 26.68865611331421 0 26.68865611331421 -1027.5152411656454 0 0 0 0 350.56850520195439 420.52139154540782 0 420.52139154540782 -2007.6121017988917 0 0 0 0 613.56616345274961 -133.48761769987323 0 -133.48761769987323 -1638.74866193044 0 0 0 0 186.30098365423328 18.27967737497238 0 18.27967737497238 -277.95467569464381 0 0 0 0 63.628058601796511 -422.76922793007543 0 -422.76922793007543 489.50971016537005 0 0 0 0 1129.3534235861625 -287.24937079492793 0 -287.24937079492793 190.30540704536543 0 0 0 0 417.64141764861415 -1114.2460206918622 0 -1114.2460206918622 750.71579783261041 0 0 0 0 267.73651144011819 -770.30244174868494 0 -770.30244174868494 132.91813533705135 0 0 0 0 258.1385190198198 -1440.8352700720352 0 -1440.8352700720352 260.39269853446513 0 0 0 0 469.86216188015533 -1280.9720673672418 0 -1280.9720673672418 590.25598702260322 0 0 0 0 931.15313370087824 -945.79346050121967 0 -945.79346050121967 330.04344161451445 0 0 0 0 358.5469308669999 -1472.9413323254157 0 -1472.9413323254157 810.94735066113935 0 0 0 0 672.7311073098972 -1078.4287857360396 0 -1078.4287857360396 729.46258737689641 0 0 0 0 252.70537850241089 -1625.7857534384148 0 -1625.7857534384148 527.69369525228103 0 0 0 0 449.05305189719365 -1220.2759977359528 0 -1220.2759977359528 415.32445236312924 0 0 0 0 1775.6291675211396 -1258.7850457168533 0 -1258.7850457168533 901.40738046813203 0 0 0 0 1486.1464829695324 -1459.1836918991175 0 -1459.1836918991175 847.93718620188884 0 0 0 0 1162.9203038273845 -1026.5263330245289 0 -1026.5263330245289 850.95139779130113 0 0 0 0 799.7284243744798 -1266.3457424158441 0 -1266.3457424158441 910.95168054841633 0 0 0 0 850.93990565576678 -756.6379011228637 0 -756.6379011228637 648.40006471102242 0 0 0 0 633.03478497656761 -837.73309639243962 0 -837.73309639243962 728.00552372726452 0 0 0 0 946.73778777086409 -1504.7903036882781 0 -1504.7903036882781 1209.6490231960197 0 0 0 0 1665.2338137743063 -1343.0056493648663 0 -1343.0056493648663 742.59518446117363 0 0 0 0 -20.765362514212029 -754.65373803215334 0 -754.65373803215334 1135.427588616918 0 0 0 0 854.05139082920505 -1540.8639879327748 0 -1540.8639879327748 1322.4330524770776 0 0 0 0 407.48132998288202 -69.338829452844948 0 -69.338829452844948 -33.170035152950732 0 0 0 0 8.9257014098073455 -0.20045250168493567 0 -0.20045250168493567 -0.37546226252101178 0 0 0 0 661.86024410094251 -430.24240345681028 0 -430.24240345681028 585.07734151304612 0 0 0 0 859.6801325169763 -1389.7167426620517 0 -1389.7167426620517 1530.8107247596781 0 0 0 0 542.10387866187375 -792.76673153565844 0 -792.76673153565844 1132.1773666497174 0 0 0 0 21.339625190531876 -0.82032036061940516 0 -0.82032036061940516 -4.7339947192992327 0 0 0 0 367.08765753480839 855.21403167541575 0 855.21403167541575 363.41296761150443 0 0 0 0 476.18966141736155 -2037.8924996910698 0 -2037.8924996910698 1421.389171445946 0 0 0 0 4066.1890364060528 403.09563268246711 0 403.09563268246711 3069.9088439600746 0 0 0 0 1659.0172487421369 -2511.1232123563532 0 -2511.1232123563532 1302.9791547296336 0 0 0 0 4943.075550058973 -4728.1124187189416 0 -4728.1124187189416 2740.8405477620545 0 0 0 0 -503.58137896189874 -424.61531837449093 0 -424.61531837449093 1356.2485982107173 0 0 0 0 608.37596928700805 1033.1770462812856 0 1033.1770462812856 1884.0490125373763 0 0 0 0 -354.14443689469044 -2545.0292335795534 0 -2545.0292335795534 6397.2708966604841 0 0 0 0 2.9181873274030465 -6.2200326758742222 0 -6.2200326758742222 1.0351231320750571 0 0 0 0 -2.1978509887080122 -11.118518441298193 0 -11.118518441298193 28.597176893611163 0 0 0 0 6784.4176096869487 -1698.7737994415438 0 -1698.7737994415438 200.71973314965726 0 0 0 0 -394.97477401643118 130.65697428278509 0 130.65697428278509 138.37540791236097 0 0 0 0 998.22063897323096 -1354.507238355498 0 -1354.507238355498 1467.330877639557 0 0 0 0 2952.6255791314179 -3610.6552748766699 0 -3610.6552748766699 3553.5749850431239 0 0 0 0 2918.7259027503023 -2015.3924950923756 0 -2015.3924950923756 884.57121947083579 0 0 0 0 1671.0687503156505 -1429.835872668499 0 -1429.835872668499 832.79412469743693 0 0 0 0 -3.0697088909164449 -48.713778411423391 0 -48.713778411423391 39.892340925260214 0 0 0 0 -9.4623811076822051 -22.001644361776187 0 -22.001644361776187 15.729973177136458 0 0 0 0 -2.1352668270810682 -61.439223234511701 0 -61.439223234511701 39.592388141099946 0 0 0 0 2727.6763197750552 -1186.068484311756 0 -1186.068484311756 400.98393887186285 0 0 0 0 2.5352376235334191 -40.296735919295116 0 -40.296735919295116 -5.0087388654611402 0 0 0 0 23.989223504031543 -42.569898611476674 0 -42.569898611476674 40.719656141853193 0 0 0 0 14.548605108451738 -59.201594061369178 0 -59.201594061369178 37.147225256470847 0 0 0 0 1965.8534041247258 -1499.6239961694464 0 -1499.6239961694464 785.03723799331055 0 0 0 0 -17.58103702069215 -21.222204095982022 0 -21.222204095982022 21.555693698630535 0 0 0 0 59.287684839277063 -73.929222944439971 0 -73.929222944439971 44.551487412762071 0 0 0 0 49.853262119722785 -105.93831813578436 0 -105.93831813578436 75.664990895777009 0 0 0 0 -11.82252076593528 -67.009242212560594 0 -67.009242212560594 4.0530092222079475 0 0 0 0 44.734417434345232 -116.9450888908359 0 -116.9450888908359 52.034599320235429 0 0 0 0 138.26926115853712 -223.36013516929233 0 -223.36013516929233 32.256129652669188 0 0 0 0 37.472110165603226 -90.930473620224802 0 -90.930473620224802 -4.13814784414717 0 0 0 0 56.969347833915947 -56.433421246740664 0 -56.433421246740664 -11.787406219662373 0 0 0 0 101.71869517557934 240.76898549869475 0 240.76898549869475 -255.45780108193867 0 0 0 0 6.6760519611507334 -11.345586374021423 0 -11.345586374021423 19.191493910630498 0 0 0 0 43.932054987944866 -85.208681666123738 0 -85.208681666123738 -7.2568823364463668 0 0 0 0 185.94576998811681 -130.2652559557464 0 -130.2652559557464 178.73060891783098 0 0 0 0 14.856014718268625 -63.074759622806994 0 -63.074759622806994 9.1334763376902401 0 0 0 0 23.125470163683275 -67.638470128279778 0 -67.638470128279778 13.034413345329824 0 0 0 0 43.487874206330162 -99.156439157275599 0 -99.156439157275599 52.529706866050674 0 0 0 0 30.371852158743422 -62.586640609049937 0 -62.586640609049937 -30.362029032839928 0 0 0 0 -58.289807381428545 -105.72390822337184 0 -105.72390822337184 -221.89920283842366 0 0 0 0 -6.7324414278699578 -14.964320760080412 0 -14.964320760080412 -18.589705975706039 0 0 0 0 29.483200066819336 -107.05302216412963 0 -107.05302216412963 2.7635983023236577 0 0 0 0 -44.207895378349349 -56.328802404692397 0 -56.328802404692397 189.59512854996137 0 0 0 0 -42.02729009964969 -116.95234873032314 0 -116.95234873032314 30.407575545628788 0 0 0 0 -89.7049191724509 -104.30753068602644 0 -104.30753068602644 110.60546780377626 0 0 0 0 0.45528676445343308 -33.609283614536452 0 -33.609283614536452 63.462934793457862 0 0 0 0 -25.405548530223314 30.219053692242596 0 30.219053692242596 330.80588626286772 0 0 0 0 -19.786010968702612 -9.9604136159468908 0 -9.9604136159468908 -37.675343527967925 0 0 0 0 -12.788158433744684 -4.9727033239905722 0 -4.9727033239905722 -43.07465254154522 0 0 0 0 -48.412909959219292 -50.517551586602792 0 -50.517551586602792 -13.803587978247492 0 0 0 0 317.62606489122845 -327.46232142997906 0 -327.46232142997906 1.4430435006215703 0 0 0 0 -5.5856882363732439 -62.599342895744485 0 -62.599342895744485 -395.38333298094221 0 0 0 0 -422.07696430466603 117.59832654627098 0 117.59832654627098 255.64502391722635 0 0 0 0 -28.940803406680402 -265.41054360966365 0 -265.41054360966365 352.01776724307274 0 0 0 0 -191.81671942435059 -214.0057230174898 0 -214.0057230174898 373.48395443416666 0 0 0 0 447.34038426259212 229.81610313210331 0 229.81610313210331 -31.912487887981115 0 0 0 0 227.53562558995327 -275.66629087695765 0 -275.66629087695765 -620.9891519677185 0 0 0 0 -235.37777537602233 -230.0590074184438 0 -230.0590074184438 -264.98020853231719 0 0 0 0 -1648.8972480950615 -1805.928085538304 0 -1805.928085538304 -1277.4713401947229 0 0 0 0 -989.52142024665955 -487.65792548227546 0 -487.65792548227546 -150.90173225617036 0 0 0 0 112.94926283881068 -229.60165964634507 0 -229.60165964634507 111.6577723203518 0 0 0 0 21.329892158813891 -54.328795392946631 0 -54.328795392946631 -192.89542782559874 0 0 0 0 63.50522349352832 -654.70736216435034 0 -654.70736216435034 95.788246967233135 0 0 0 0 -111.95688323676586 -664.94898843945703 0 -664.94898843945703 1037.653027531167 0 0 0 0 -460.46204367738392 -1888.1249288163526 0 -1888.1249288163526 2008.713464516637 0 0 0 0 694.75573025352787 -2953.6705584004667 0 -2953.6705584004667 2598.6474197587231 0 0 0 0 -1938.1613515638128 -1326.6815771139136 0 -1326.6815771139136 1472.5300005489407 0 0 0 0 -526.21053411686444 -2537.8719747725045 0 -2537.8719747725045 -19.27036770133418 0 0 0 0 -423.62492993836349 -2140.7786778579102 0 -2140.7786778579102 209.38691981413285 0 0 0 0 211.71053496416425 -886.10347437766177 0 -886.10347437766177 189.01564596307264 0 0 0 0 10.50323853503113 -11.039031145492771 0 -11.039031145492771 -10.659538224627838 0 0 0 0 -91.537216988650471 -3173.9145139685297 0 -3173.9145139685297 2538.2077042791934 0 0 0 0 933.19045742394519 -2064.537917429865 0 -2064.537917429865 1675.9360010678174 0 0 0 0 2926.0852896723081 -503.9434099249047 0 -503.9434099249047 20.813097654376179 0 0 0 0 1230.0638848396193 -2311.2048212349182 0 -2311.2048212349182 1331.7662739685729 0 0 0 0 19.623887133516007 -9.3519749298847046 0 -9.3519749298847046 -11.980582316726725 0 0 0 0 89.103292029845761 -913.67590789582755 0 -913.67590789582755 850.86232881971227 0 0 0 0 949.20096764512709 -554.43635316027212 0 -554.43635316027212 -3405.4333976020134 0 0 0 0 1028.8308181959146 -195.37939694498345 0 -195.37939694498345 -2108.4290055786842 0 0 0 0 -89.493002108458313 -1972.0215952898761 0 -1972.0215952898761 -2309.8460699593561 0 0 0 0 -544.06387571417144 778.1179302568853 0 778.1179302568853 -712.03156310926715 0 0 0 0 -1310.726873720705 -560.11612530080311 0 -560.11612530080311 48.976752785340068 0 0 0 0 -146.92988473246805 -2146.3983334349759 0 -2146.3983334349759 -2839.1557863446451 0 0 0 0 -5.7796936385592517 -11.541740227653975 0 -11.541740227653975 -17.523731440846234 0 0 0 0 462.83091752670589 -910.75010379405285 0 -910.75010379405285 -2270.5231586136051 0 0 0 0 255.72568128540297 -1188.8302484217675 0 -1188.8302484217675 -894.96795152765117 0 0 0 0 -2.9966568048819227 -8.7413399616292224 0 -8.7413399616292224 -3.6451876021046559 0 0 0 0 -5.0807680658472236 -356.86730818158139 0 -356.86730818158139 -418.3341166596656 0 0 0 0 25.788687425811077 -445.87008713437535 0 -445.87008713437535 -652.13951605979128 0 0 0 0 32.844576445757411 -268.3437064765385 0 -268.3437064765385 624.09075935408327 0 0 0 0 85.198294002970215 -77.591888515904429 0 -77.591888515904429 -386.85731025529458 0 0 0 0 71.871598810132127 -270.48992052408721 0 -270.48992052408721 597.30149742790672 0 0 0 0 10.596191413020961 -6.7580172602572759 0 -6.7580172602572759 -7.7736663996375768 0 0 0 0 -24.075863373537459 -35.166443591560522 0 -35.166443591560522 -30.985426079320803 0 0 0 0 100.29902663361281 -288.46384529665374 0 -288.46384529665374 605.80943460891649 0 0 0 0 17.740473741694586 -95.865112847437558 0 -95.865112847437558 15.11713345107637 0 0 0 0 -2.244234651307238 -40.471917036318047 0 -40.471917036318047 -25.539042277368594 0 0 0 0 -26.230998617247337 -22.957720885486026 0 -22.957720885486026 -12.530448524498979 0 0 0 0 68.027591942169238 -97.311210817788378 0 -97.311210817788378 -282.00438473544637 0 0 0 0 9.9860705418993803 -25.567754858223509 0 -25.567754858223509 -369.97111081735056 0 0 0 0 11.681078558049194 -995.35639918397192 0 -995.35639918397192 228.13600348783075 0 0 0 0 44.615261506674869 -863.67428502218718 0 -863.67428502218718 -734.19078201954835 0 0 0 0 418.2679587250459 -541.4593581212539 0 -541.4593581212539 -3740.8663242242692 0 0 0 0 7.9684658899122951 153.71755567601372 0 153.71755567601372 -899.06336902866315 0 0 0 0 -34.940058242995292 -198.23651689843973 0 -198.23651689843973 -179.33718783673976 0 0 0 0 279.81759170012083 -323.6790812045947 0 -323.6790812045947 186.22215207731733 0 0 0 0 24.318837031248961 -79.336096144388819 0 -79.336096144388819 -40.240092631292413 0 0 0 0 0.90482243831479536 0.27789935075813332 0 0.27789935075813332 -24.08546712358644 0 0 0 0 95.460098646901315 -288.54002039438637 0 -288.54002039438637 398.01393115045994 0 0 0 0 5.3815013388011153 -12.711815356418754 0 -12.711815356418754 18.629253270686831 0 0 0 0 106.98147136352782 -165.60358130426903 0 -165.60358130426903 -221.78020491864299 0 0 0 0 13.548296294233296 -83.799058259093727 0 -83.799058259093727 90.280231319164159 0 0 0 0 138.20833489374127 -330.45776083863075 0 -330.45776083863075 66.262344589995337 0 0 0 0 60.347952483425615 -287.0065573288739 0 -287.0065573288739 634.78375395010517 0 0 0 0 -0.008065181428833057 -5.3073708143355134 0 -5.3073708143355134 -1.9130318875545527 0 0 0 0 -146.45088116414263 -89.889354029750393 0 -89.889354029750393 -309.12460947515137 0 0 0 0 200.51878969097743 102.25709684151661 0 102.25709684151661 -693.22418697059948 0 0 0 0 15.389690032029705 -77.282815275637915 0 -77.282815275637915 -57.878767705421538 0 0 0 0 124.44883180019679 80.499235196693917 0 80.499235196693917 -508.50104290626041 0 0 0 0 57.16873241814028 -535.87692918173707 0 -535.87692918173707 692.19843461866549 0 0 0 0 306.40897030447377 -450.33138058065379 0 -450.33138058065379 350.77267709028092 0 0 0 0 70.361852301910403 -323.05846633837064 0 -323.05846633837064 347.94609106139978 0 0 0 0 100.88808484133915 -253.66786748780578 0 -253.66786748780578 454.92866094277997 0 0 0 0 165.06068331349525 -471.73456659491058 0 -471.73456659491058 97.967352564606699 0 0 0 0 146.35881034727208 -346.58467748012481 0 -346.58467748012481 235.18423977887142 0 0 0 0 157.01594425423718 -214.65207292781906 0 -214.65207292781906 -2.480872524989536 0 0 0 0 183.02473331907095 -398.20206578387842 0 -398.20206578387842 -99.28345019283006 0 0 0 0 186.58014424770954 -469.02598944271449 0 -469.02598944271449 -73.635328658543585 0 0 0 0 48.433090613703826 -375.29144904984423 0 -375.29144904984423 -174.62102835703263 0 0 0 0 42.682693098883874 -72.730945246007082 0 -72.730945246007082 -318.23839221574599 0 0 0 0 81.488870604311103 -112.20747230924175 0 -112.20747230924175 -10.310218856532643 0 0 0 0 82.793917217408307 -85.553747048281366 0 -85.553747048281366 -360.60468661448976 0 0 0 0 249.87555123318452 -255.237177219351 0 -255.237177219351 -478.54677061413531 0 0 0 0 30.225025733074915 26.55239661239041 0 26.55239661239041 -85.912407205967725 0 0 0 0 142.17000505246688 -423.84925390494027 0 -423.84925390494027 -16.720623101966339 0 0 0 0 341.54290637146914 -307.8074387966044 0 -307.8074387966044 -94.691154863685369 0 0 0 0 115.47532746676006 -160.52606053860654 0 -160.52606053860654 -153.65106990552158 0 0 0 0 263.36318938423938 -398.10268526457457 0 -398.10268526457457 11.785315893037478 0 0 0 0 246.46091665962012 -237.75933967059973 0 -237.75933967059973 126.71757432239247 0 0 0 0 229.1121636692551 -307.51189218838408 0 -307.51189218838408 -88.501863040117314 0 0 0 0 82.664862543089839 -272.02468030565433 0 -272.02468030565433 -146.78634432225954 0 0 0 0 58.576130321540404 -294.55585644982057 0 -294.55585644982057 5.7296053398022195 0 0 0 0 57.549332920840243 -155.85886825474881 0 -155.85886825474881 -65.511570360453334 0 0 0 0 230.49001461309217 -283.91065561353298 0 -283.91065561353298 -36.756102771585574 0 0 0 0 114.82735099177808 -255.00001755330595 0 -255.00001755330595 -42.299729246587958 0 0 0 0 182.80304151911963 -123.319502581698 0 -123.319502581698 -24.195685127603515 0 0 0 0 449.92884509937721 -250.76647485315334 0 -250.76647485315334 -296.63470644633344 0 0 0 0 84.478295607303153 -229.11010476942465 0 -229.11010476942465 15.852014529082226 0 0 0 0 278.45953282303526 -216.1461325883065 0 -216.1461325883065 -79.483255384693621 0 0 0 0 133.79070107283769 -130.45030240272172 0 -130.45030240272172 -126.64672228055133 0 0 0 0 116.57216841451373 -175.19494590627255 0 -175.19494590627255 20.831420027359854 0 0 0 0 181.16694427835318 -123.55251893751847 0 -123.55251893751847 -102.8841442357807 0 0 0 0 255.70176658194396 -125.37736188316194 0 -125.37736188316194 -283.79643173477234 0 0 0 0 168.04650521541043 -175.56860976172902 0 -175.56860976172902 -184.43903633166337 0 0 0 0 223.98383503459627 -170.48983221169328 0 -170.48983221169328 -59.702948753925739 0 0 0 0 166.88351476076059 -90.277986573550152 0 -90.277986573550152 -166.12049598057638 0 0 0 0 318.79141737849386 25.411693358899356 0 25.411693358899356 -18.608566533657722 0 0 0 0 702.26282339672616 30.390178583329543 0 30.390178583329543 -109.95082766895939 0 0 0 0 341.26305041404703 -158.06093342682288 0 -158.06093342682288 -22.815788184438134 0 0 0 0 193.75959179195343 -40.04988301396952 0 -40.04988301396952 -12.179963526188658 0 0 0 0 131.02536118255375 -109.7098725998585 0 -109.7098725998585 -17.161090224748477 0 0 0 0 186.93971345520549 -114.76913673010858 0 -114.76913673010858 -0.019127125953673385 0 0 0 0 103.59832063045178 -60.131883901674883 0 -60.131883901674883 -4.3155678872280987 0 0 0 0 196.07130899881304 -118.80153097036236 0 -118.80153097036236 -26.8058536219487 0 0 0 0 66.365174945211038 -112.28658921223541 0 -112.28658921223541 0.071154403714126263 0 0 0 0 19.528881293168524 -104.39592254444142 0 -104.39592254444142 -12.142425515092327 0 0 0 0 19.804726273789129 -89.430318517348496 0 -89.430318517348496 1.4606470173166599 0 0 0 0 -18.562543728301534 35.862737698451383 0 35.862737698451383 -230.6652175620402 0 0 0 0 67.922370098858664 -47.600877337448765 0 -47.600877337448765 -76.065329167366144 0 0 0 0 129.98684856855834 -141.06755075095862 0 -141.06755075095862 -131.34815012035688 0 0 0 0 176.58763886007364 -154.89622223997139 0 -154.89622223997139 -313.78917394462042 0 0 0 0 110.63529971504266 -32.877147053475682 0 -32.877147053475682 -29.096898383310986 0 0 0 0 64.392937557218829 -61.823917860674555 0 -61.823917860674555 -208.93864516900794 0 0 0 0 80.186059788360581 -32.735697694211666 0 -32.735697694211666 16.63437012173992 0 0 0 0 67.054676328418282 -82.482337617959274 0 -82.482337617959274 -200.3188240777672 0 0 0 0 45.896447133429319 -142.73994014323216 0 -142.73994014323216 -357.79965073408675 0 0 0 0 55.700254565512296 -77.612743496501935 0 -77.612743496501935 -146.68802463548491 0 0 0 0 36.162733291828772 -6.2751630593265872 0 -6.2751630593265872 -102.00476405523659 0 0 0 0 104.46446637494955 -56.12951197160146 0 -56.12951197160146 -318.05499497026904 0 0 0 0 -85.976682856213301 -347.83972681831801 0 -347.83972681831801 208.39216984022642 0 0 0 0 58.306321626585884 -23.710016231068153 0 -23.710016231068153 8.1444241849422951 0 0 0 0 1996.4996676087321 -43.271818103152327 0 -43.271818103152327 -1263.433670050028 0 0 0 0 -235.79323359846603 -9.9474917121842736 0 -9.9474917121842736 75.683350313367555 0 0 0 0 99.745327351236483 -202.9361787342059 0 -202.9361787342059 46.035946413321653 0 0 0 0 541.23180832219077 -473.12026190542383 0 -473.12026190542383 62.135069145515445 0 0 0 0 772.14330488421547 -114.71302670383011 0 -114.71302670383011 -179.21186082850909 0 0 0 0 76.616509998719266 -252.13036815684245 0 -252.13036815684245 9.8985860054090153 0 0 0 0 297.09548541008553 -252.57173477242759 0 -252.57173477242759 -8.9783336587788654 0 0 0 0 341.97451213717068 -113.55916586876447 0 -113.55916586876447 -97.389547934668371 0 0 0 0 144.10658632282139 -141.89765576757054 0 -141.89765576757054 0.041681226968648843 0 0 0 0 19.011930164996897 -182.32184915025618 0 -182.32184915025618 63.995035985513823 0 0 0 0 173.82629076828744 1.8804176029952941 0 1.8804176029952941 -19.417950795032084 0 0 0 0 68.39761305112188 -82.494230860505922 0 -82.494230860505922 0.26415101886959746 0 0 0 0 273.92637252554414 -93.669149534602184 0 -93.669149534602184 -0.21217793821415398 0 0 0 0 343.9974449667352 49.647369530997821 0 49.647369530997821 -61.107634881802369 0 0 0 0 355.26071326923557 79.986400836249231 0 79.986400836249231 -75.784915546653792 0 0 0 0 343.68155804960406 44.296232738633989 0 44.296232738633989 -103.48747203621315 0 0 0 0 586.98858528400888 -135.05388011294417 0 -135.05388011294417 -110.04243840869458 0 0 0 0 686.14530068743625 -19.795373441978882 0 -19.795373441978882 -100.88662053929875 0 0 0 0 84.880102673865622 7.3786868300521746 0 7.3786868300521746 -19.26807498211565 0 0 0 0 23.897318449802697 86.991392010328127 0 86.991392010328127 -41.095895238337107 0 0 0 0 38.383909764583223 24.58490399029688 0 24.58490399029688 22.716575374011882 0 0 0 0 9.7135834391701792 -96.556150788601371 0 -96.556150788601371 7.6160758517216891 0 0 0 0 -86.352402241092932 -107.23833425025805 0 -107.23833425025805 12.785009374376386 0 0 0 0 -125.43701377871912 13.76060356805101 0 13.76060356805101 27.010450322100951 0 0 0 0 409.79789448497468 268.19515990807849 0 268.19515990807849 185.32633298457949 0 0 0 0 -5849.2921245253674 154.09327474651218 0 154.09327474651218 1354.7010843382668 0 0 0 0 19.705398923923838 -12.866882916969132 0 -12.866882916969132 7.3229925530484365 0 0 0 0 1020.9694324454322 -8.5794395797856851 0 -8.5794395797856851 -220.85119924115133 0 0 0 0 415.89068858825158 -158.03380076753183 0 -158.03380076753183 -210.37410331171122 0 0 0 0 108.27543072277331 66.129056601464981 0 66.129056601464981 118.90095921324246 0 0 0 0 14.504861998934757 -10.778084717691684 0 -10.778084717691684 3.5667776982252519 0 0 0 0 -964.3123313068063 -549.26490239379928 0 -549.26490239379928 1055.2380723034003 0 0 0 0 54.08945158876304 -34.724736756797938 0 -34.724736756797938 -67.923902834882028 0 0 0 0 173.29889942825685 -30.881605096634303 0 -30.881605096634303 -186.79772397689521 0 0 0 0 115.02590991239413 82.928832956909901 0 82.928832956909901 -138.35023875771731 0 0 0 0 243.19178780139919 -210.86976567487727 0 -210.86976567487727 -297.25013790928642 0 0 0 0 450.18796899399604 95.014292340652901 0 95.014292340652901 -136.40096665729652 0 0 0 0 133.75395717845402 -90.742042755649948 0 -90.742042755649948 -18.892742464098056 0 0 0 0 466.86742449057056 -108.70999996986211 0 -108.70999996986211 -1789.438500972421 0 0 0 0 -40.041316221802845 114.68952467784402 0 114.68952467784402 -821.17488056333968 0 0 0 0 325.82527399034007 -254.48553035637451 0 -254.48553035637451 -1183.8732417567226 0 0 0 0 124.91260491185596 -95.340632096292808 0 -95.340632096292808 -18.886870884518828 0 0 0 0 89.565484392718645 37.599396672958392 0 37.599396672958392 -235.38299464326701 0 0 0 0 178.36346594662609 54.58458292150317 0 54.58458292150317 -441.53452593718248 0 0 0 0 308.22350049144006 -209.58757321324083 0 -209.58757321324083 -961.22969323469442 0 0 0 0 88.738656504036044 -50.31692514745373 0 -50.31692514745373 -280.55045373119356 0 0 0 0 105.65748026354288 -96.845475612492663 0 -96.845475612492663 -20.171288998410219 0 0 0 0 94.385179919801885 -404.7057875773462 0 -404.7057875773462 -330.94105361416587 0 0 0 0 53.020180024449473 -42.716826816535558 0 -42.716826816535558 -321.3914420077781 0 0 0 0 308.09586887840123 -498.08937013250397 0 -498.08937013250397 -142.85513356521551 0 0 0 0 78.365750645083608 -366.6864854227897 0 -366.6864854227897 597.21722310993937 0 0 0 0 77.527822442236356 -214.1685851209113 0 -214.1685851209113 115.80154951629811 0 0 0 0 230.3695116013696 -512.25442828278756 0 -512.25442828278756 235.87579111631931 0 0 0 0 -97.666967877128627 8.2180738727402058 0 8.2180738727402058 -381.42295747858225 0 0 0 0 123.98020228459791 -252.74159590016279 0 -252.74159590016279 785.27647221705411 0 0 0 0 67.096912225068081 -628.69991299450339 0 -628.69991299450339 1055.6181208024791 0 0 0 0 11.494317188256559 -74.760720876366776 0 -74.760720876366776 -54.381747960013101 0 0 0 0 378.58741273608757 -523.49992697084235 0 -523.49992697084235 595.88325159199303 0 0 0 0 125.63694917096291 -289.29285538978729 0 -289.29285538978729 1065.8523065703339 0 0 0 0 204.47630535488133 -517.3247308149148 0 -517.3247308149148 480.15495865172124 0 0 0 0 43.77494913013652 -571.53158615900611 0 -571.53158615900611 987.24893712846097 0 0 0 0 120.46846894092778 -208.93672331760126 0 -208.93672331760126 294.58864222970442 0 0 0 0 167.92756417550845 -650.80717583783553 0 -650.80717583783553 493.32833626642241 0 0 0 0 134.40410932657687 -381.6864732359245 0 -381.6864732359245 831.31135361728957 0 0 0 0 280.48313075757687 -564.6237814985343 0 -564.6237814985343 -441.48697783285752 0 0 0 0 29.058182618697174 -495.29758654629404 0 -495.29758654629404 485.12866994928845 0 0 0 0 168.53430726245278 -208.27333007177367 0 -208.27333007177367 -59.362046290159924 0 0 0 0 435.86403423486627 -128.8457494058166 0 -128.8457494058166 -956.25337000684522 0 0 0 0 -52.329861285761581 -388.3625690274057 0 -388.3625690274057 187.78724193757807 0 0 0 0 56.957364996302204 -28.752831026096828 0 -28.752831026096828 -636.96799411260872 0 0 0 0 336.84732912384789 -656.66689023264917 0 -656.66689023264917 -221.14827340008196 0 0 0 0 123.59574060243904 -718.76666542387102 0 -718.76666542387102 947.51370078559921 0 0 0 0 430.39767228758137 -417.42548389619697 0 -417.42548389619697 186.56419402442407 0 0 0 0 -55.11439721507486 -463.54945659274381 0 -463.54945659274381 996.67066460031492 0 0 0 0 441.12158974955673 -772.33026179468288 0 -772.33026179468288 12.861231947943452 0 0 0 0 334.49160081009904 36.959828650426061 0 36.959828650426061 -698.62496560717409 0 0 0 0 -12.065391662588809 -557.83304521620448 0 -557.83304521620448 664.96446415701757 0 0 0 0 239.76280784455594 -447.8826498101771 0 -447.8826498101771 -1144.3430901463871 0 0 0 0 128.11284817013075 -431.5109898919909 0 -431.5109898919909 -1040.3975418650207 0 0 0 0 115.6232013959783 -80.543221642428023 0 -80.543221642428023 -17.093943216553122 0 0 0 0 220.2406075134104 325.84526855167724 0 325.84526855167724 -2156.5053187181184 0 0 0 0 234.04905558135943 -82.514352836442413 0 -82.514352836442413 -36.694801526100491 0 0 0 0 150.89977559659746 -236.60226581750612 0 -236.60226581750612 173.15313736649114 0 0 0 0 76.518893304091762 -79.721256020435249 0 -79.721256020435249 75.415568240743596 0 0 0 0 130.73872840217376 -85.771936691136034 0 -85.771936691136034 -18.016098626839344 0 0 0 0 72.438016587548191 -162.42615070356987 0 -162.42615070356987 -140.8845065595342 0 0 0 0 382.05542042321758 157.88784752970241 0 157.88784752970241 -2024.0505995037893 0 0 0 0 -26.083814035082469 -446.90363304592756 0 -446.90363304592756 -949.85983866269089 0 0 0 0 116.1687199281514 -213.9023524582044 0 -213.9023524582044 -80.951556376239751 0 0 0 0 244.39783029738464 -101.53588737323298 0 -101.53588737323298 -443.12655127589642 0 0 0 0 320.5950736462255 -462.6747241041885 0 -462.6747241041885 -120.98193644496496 0 0 0 0 419.66226650145836 -126.65896495580091 0 -126.65896495580091 -263.65862561374524 0 0 0 0 22.150945787987439 -335.48716283895192 0 -335.48716283895192 -97.309255542621031 0 0 0 0 100.97905671963235 -297.78834151016054 0 -297.78834151016054 -229.53796266725112 0 0 0 0 -178.22282408878164 23.908574400284124 0 23.908574400284124 -346.64508335516439 0 0 0 0 359.63329816397163 -525.01824973601833 0 -525.01824973601833 38.018290814914508 0 0 0 0 -101.67505009454908 -283.75131981115555 0 -283.75131981115555 -24.911534764582029 0 0 0 0 6247.3133058676904 77.719786595873302 0 77.719786595873302 -476.22869011342118 0 0 0 0 10.848108248988865 -129.31569173405296 0 -129.31569173405296 -27.708493805053877 0 0 0 0 56.418192573357373 -108.71965981596441 0 -108.71965981596441 -18.736761194668361 0 0 0 0 26.0830011948226 -10.895828930320391 0 -10.895828930320391 2.6560043905879525 0 0 0 0 381.95334002451273 -297.74032961938065 0 -297.74032961938065 0.21383097852231003 0 0 0 0 -22.143179061851697 -171.00321523431194 0 -171.00321523431194 397.08216015438666 0 0 0 0 30.141480706268339 -80.54314557750331 0 -80.54314557750331 19.648450488530216 0 0 0 0 720.36780675590126 -472.08621733402833 0 -472.08621733402833 -0.2250525599665707 0 0 0 0 581.2428718110823 -578.76538469347724 0 -578.76538469347724 369.75101799907861 0 0 0 0 9.6121581650584744 -6.0981366042957745 0 -6.0981366042957745 1.8996630475002831 0 0 0 0 195.43576224855497 -408.33954250284296 0 -408.33954250284296 653.11046738340519 0 0 0 0 -76.075298065537936 156.73194964042341 0 156.73194964042341 -191.32420144192656 0 0 0 0 833.42333443684038 -748.78160640009446 0 -748.78160640009446 -493.88071833185677 0 0 0 0 96.534963125406648 234.67611431166006 0 234.67611431166006 -926.14813620773202 0 0 0 0 163.74395468983857 -450.99419260060677 0 -450.99419260060677 78.218119435012341 0 0 0 0 96.894214609121263 -482.58917557289533 0 -482.58917557289533 652.79962394046015 0 0 0 0 -0.36239052981159148 -4.2263629147044526 0 -4.2263629147044526 -6.3335088666910337 0 0 0 0 177.52492477791384 -144.03885498164163 0 -144.03885498164163 271.29301605089859 0 0 0 0 217.4828501628599 -351.09483556027226 0 -351.09483556027226 415.43921325000701 0 0 0 0 -0.054635656723633019 -19.61997403349153 0 -19.61997403349153 6.7486429363054867 0 0 0 0 31.581849533162313 -72.744083781610243 0 -72.744083781610243 -389.12206223518376 0 0 0 0 393.54765606450383 -261.5659636198543 0 -261.5659636198543 -390.18110962879405 0 0 0 0 247.8946440606378 -332.91129506734433 0 -332.91129506734433 424.19283426631591 0 0 0 0 -91.553247635805747 -335.35007247272006 0 -335.35007247272006 -221.15979671286186 0 0 0 0 13.465376358304638 -106.34466756625625 0 -106.34466756625625 196.54661907223635 0 0 0 0 39.052525882469752 -68.960891209560003 0 -68.960891209560003 84.668349232723813 0 0 0 0 6.0303895481265499 -90.484293633788184 0 -90.484293633788184 1.9056246351392474 0 0 0 0 -300.90005801117513 -278.51999913115287 0 -278.51999913115287 126.85333581586019 0 0 0 0 -135.19958162092371 -351.77409806419746 0 -351.77409806419746 -143.1714815813757 0 0 0 0 -257.2082728759633 -326.34366624092218 0 -326.34366624092218 231.3977955171722 0 0 0 0 -3.5381716754636727 -461.26634512847522 0 -461.26634512847522 -502.91332531630178 0 0 0 0 10.858868017708517 -22.720942696818895 0 -22.720942696818895 24.127641887378161 0 0 0 0 431.68279885643278 -607.98672144139709 0 -607.98672144139709 33.508536888817616 0 0 0 0 458.37690156020108 -288.72311958609498 0 -288.72311958609498 -379.12326276976091 0 0 0 0 343.42998779879417 -473.42349719327467 0 -473.42349719327467 -183.87175132798438 0 0 0 0 68.510381894811871 -380.04936138680932 0 -380.04936138680932 447.69413675146643 0 0 0 0 383.48962805375777 -893.47068380387282 0 -893.47068380387282 760.0070827913587 0 0 0 0 -417.62900927755982 -225.64700139866909 0 -225.64700139866909 532.67143477514037 0 0 0 0 -662.01743540927419 -347.98194380542554 0 -347.98194380542554 472.52146542986156 0 0 0 0 2.6373678972802566 1.9717000871271466 0 1.9717000871271466 -1.6719615040226472 0 0 0 0 -110.68081766192336 -119.63534696052375 0 -119.63534696052375 405.76683964983022 0 0 0 0 3.1130782878748846 1.7416320964389342 0 1.7416320964389342 -1.5723308191088563 0 0 0 0 395.37117055457202 -1671.8326079730032 0 -1671.8326079730032 6.0861025390898158 0 0 0 0 -10.22946467890049 -5343.7137532610896 0 -5343.7137532610896 4566.1842247141903 0 0 0 0 -307.56209289802064 -328.32092585180362 0 -328.32092585180362 324.98160995449871 0 0 0 0 -58.527570884936722 770.43879227717116 0 770.43879227717116 3135.3456736399748 0 0 0 0 11.286439883541561 -14.393797610172868 0 -14.393797610172868 22.438253461928923 0 0 0 0 -0.075479100341908634 -76.575867602346989 0 -76.575867602346989 -3.720636238635052 0 0 0 0 11.812836106691975 -22.912878732215177 0 -22.912878732215177 31.958773474179907 0 0 0 0 0.058582253128406592 -70.898949981441547 0 -70.898949981441547 94.523775706853485 0 0 0 0 35.225795286368054 -44.912831020260242 0 -44.912831020260242 53.296531000095683 0 0 0 0 -157.53795988886304 -149.38934344995414 0 -149.38934344995414 331.95386030248483 0 0 0 0 -30.09562104815268 -71.767382377191097 0 -71.767382377191097 85.704508207098115 0 0 0 0 0.37839395688047262 -11.709267739659481 0 -11.709267739659481 25.394844435158859 0 0 0 0 20.758945938141551 -84.36204488328076 0 -84.36204488328076 88.821733775352186 0 0 0 0 125.41411964810686 -66.752873560792068 0 -66.752873560792068 -50.724235485773534 0 0 0 0 -28.573284252197482 -116.20440482416598 0 -116.20440482416598 113.92110450871405 0 0 0 0 -4.4353418764269463 3.8409396932529489 0 3.8409396932529489 3.3434720697288753 0 0 0 0 -22.931959119559906 -53.271318864597561 0 -53.271318864597561 190.17362239384966 0 0 0 0 100.27070490954793 13.320141599135241 0 13.320141599135241 -236.12705528955848 0 0 0 0 -30.158378731808625 -314.946480127619 0 -314.946480127619 204.63118612833932 0 0 0 0 -123.90730163750413 -270.08814305761189 0 -270.08814305761189 592.26881338888779 0 0 0 0 50.125080821498102 -69.337804491683585 0 -69.337804491683585 -17.583997205972686 0 0 0 0 -45.069637727543068 47.361703109408438 0 47.361703109408438 56.289572772982837 0 0 0 0 35.132292680733372 -116.88264649917255 0 -116.88264649917255 324.83403234831712 0 0 0 0 127.64451964205364 -152.42781927886972 0 -152.42781927886972 -3242.4660460492942 0 0 0 0 7.4459639666893054 -102.25936367410759 0 -102.25936367410759 350.17570247250842 0 0 0 0 96.878461379819782 -247.87256412407442 0 -247.87256412407442 217.24512800646335 0 0 0 0 191.55773658998078 -45.559967055683956 0 -45.559967055683956 135.08096066546568 0 0 0 0 21.019871156371664 -147.54402341289097 0 -147.54402341289097 346.67645229314803 0 0 0 0 -69.84060501472004 21.166727090492714 0 21.166727090492714 58.414578297346907 0 0 0 0 -49.987375929020345 -151.80021971485985 0 -151.80021971485985 669.4199279518798 0 0 0 0 -19.367752157704672 -76.986967666307464 0 -76.986967666307464 377.16681530695314 0 0 0 0 255.48890762566589 -294.55154001849587 0 -294.55154001849587 235.77910376347427 0 0 0 0 -23.782014554481975 2.2049302130526343 0 2.2049302130526343 24.563691736306396 0 0 0 0 87.956724092868228 -75.843602849122419 0 -75.843602849122419 -15.862783649293405 0 0 0 0 169.64953089329356 -166.90843682162813 0 -166.90843682162813 137.726151455121 0 0 0 0 126.27811017364729 39.391332813436748 0 39.391332813436748 -2477.7064735008862 0 0 0 0 -120.22284439711075 -545.38104725137964 0 -545.38104725137964 -1632.0485642292915 0 0 0 0 -137.92205312696751 93.14266225364554 0 93.14266225364554 -1175.761270795163 0 0 0 0 236.6642688544016 -552.16016091147685 0 -552.16016091147685 -932.25075894755719 0 0 0 0 -192.38978261122247 -253.86047534675527 0 -253.86047534675527 -520.40804279541771 0 0 0 0 -254.52779074826685 -834.3909187917161 0 -834.3909187917161 -925.14138892325718 0 0 0 0 -224.25152548692131 -582.58317634895502 0 -582.58317634895502 -1692.998926523971 0 0 0 0 24.96931089136109 -799.6795171586125 0 -799.6795171586125 -1955.753295064118 0 0 0 0 -148.31880051642656 -182.56341575171973 0 -182.56341575171973 -1598.6892222231836 0 0 0 0 -3.7894241563008109 -219.42931722064895 0 -219.42931722064895 -59.928788321936736 0 0 0 0 -157.26214732896551 -498.27176146412057 0 -498.27176146412057 -181.64825540993479 0 0 0 0 -207.31101544144622 -246.43726984189561 0 -246.43726984189561 -177.13750548564485 0 0 0 0 859.24331069658365 -370.47000190587278 0 -370.47000190587278 -357.82463712005119 0 0 0 0 790.67405721570549 -867.586534910919 0 -867.586534910919 -251.42433811258525 0 0 0 0 603.66971233087679 -1603.8632899345594 0 -1603.8632899345594 -97.342329527426045 0 0 0 0 1096.8838535190807 -715.61970966218723 0 -715.61970966218723 -177.95938596670749 0 0 0 0 1429.3884384667672 -586.25037764232547 0 -586.25037764232547 2030.7994587147259 0 0 0 0 1245.3035876662507 -1534.2477082486148 0 -1534.2477082486148 730.49414234298092 0 0 0 0 474.13884643451456 -845.07557461813121 0 -845.07557461813121 554.71774335597729 0 0 0 0 938.15029939048691 -1739.3522524606997 0 -1739.3522524606997 1444.7480014910907 0 0 0 0 74.405045108436752 -1335.1914256227647 0 -1335.1914256227647 2597.7719268387445 0 0 0 0 305.99546702778025 -1071.0451412247912 0 -1071.0451412247912 2377.0014138192346 0 0 0 0 1964.4907293697761 -1742.5879883448069 0 -1742.5879883448069 2643.9306823174629 0 0 0 0 2797.0035049849976 94.021275356710248 0 94.021275356710248 3418.7487910958589 0 0 0 0 1795.9414838863013 -88.262204609960463 0 -88.262204609960463 3241.4745314516622 0 0 0 0 2338.5988676985653 -917.09362399012025 0 -917.09362399012025 2117.5543410920654 0 0 0 0 1617.3759615922436 -482.85963350630664 0 -482.85963350630664 -623.06830100435764 0 0 0 0 5.6328041064352874 -6.6059521195489879 0 -6.6059521195489879 8.4494285775496394 0 0 0 0 -163.54456878353085 -142.87071713091063 0 -142.87071713091063 2929.4968368610789 0 0 0 0 1018.8639101496083 -1092.9096806791349 0 -1092.9096806791349 2616.5941112886994 0 0 0 0 -110.37678386217158 -347.15001261827274 0 -347.15001261827274 1584.8137794214317 0 0 0 0 -134.7157121493874 -1313.4694740427876 0 -1313.4694740427876 1627.0988287723153 0 0 0 0 1140.181327195693 -2446.1370714078266 0 -2446.1370714078266 2604.3913436391595 0 0 0 0 936.05256586580799 -104.6745597515619 0 -104.6745597515619 -400.42100822403154 0 0 0 0 392.20480009432868 -497.90239548856334 0 -497.90239548856334 172.09135528153274 0 0 0 0 41.032322955086784 103.0880616563154 0 103.0880616563154 361.46275834132393 0 0 0 0 0.87042705461909975 -5.3772752281221585 0 -5.3772752281221585 7.9042928416964742 0 0 0 0 87.313532011947245 -16.436364283981675 0 -16.436364283981675 50.95928702810852 0 0 0 0 135.73117243325396 -101.5760540354313 0 -101.5760540354313 6.6825153901154408 0 0 0 0 91.7338917145712 -81.750186426081427 0 -81.750186426081427 87.615789709583623 0 0 0 0 22.158197926575667 -298.64247982387315 0 -298.64247982387315 211.35824315960622 0 0 0 0 -4.6796026936179658 -1.4377498233944834 0 -1.4377498233944834 1.8687580766771248 0 0 0 0 67.734190260307514 -6.0658760560436349 0 -6.0658760560436349 30.935647794525721 0 0 0 0 -58.347595169176202 274.65876965001189 0 274.65876965001189 198.57216698251432 0 0 0 0 207.40993839801376 -137.42482968818513 0 -137.42482968818513 5.9891275281552225 0 0 0 0 126.85628101034308 -99.778528789331176 0 -99.778528789331176 84.347093722899444 0 0 0 0 287.78315143337386 -225.71059759451964 0 -225.71059759451964 93.67273696999473 0 0 0 0 266.47237230833707 -8.8279413069831207 0 -8.8279413069831207 -16.47103947695723 0 0 0 0 63.156174368137727 -82.922478658867476 0 -82.922478658867476 27.123059402713352 0 0 0 0 594.11159703924932 -21.826266179952654 0 -21.826266179952654 -50.359683344511723 0 0 0 0 48.663255849852249 -1.7027532085853636 0 -1.7027532085853636 35.132889398330008 0 0 0 0 187.77915169161861 -249.47679159151448 0 -249.47679159151448 157.33532883392036 0 0 0 0 478.75114468370975 -500.81277907809545 0 -500.81277907809545 344.44416496757185 0 0 0 0 128.37255032522808 -283.45341775155248 0 -283.45341775155248 155.32510991658273 0 0 0 0 -170.27027945143345 -428.73893007267907 0 -428.73893007267907 -461.89943759237212 0 0 0 0 9.4418469710322768 -15.505485627889698 0 -15.505485627889698 15.988308286884404 0 0 0 0 26.165104099023665 13.395925216940668 0 13.395925216940668 21.134483372530667 0 0 0 0 -2.3320090502650004 -8.2595421768673418 0 -8.2595421768673418 -1.566954156490425 0 0 0 0 -5.4016298692076816 199.77086530035012 0 199.77086530035012 -83.188705179587487 0 0 0 0 -338.40670411838801 -376.27054773569398 0 -376.27054773569398 -216.92077887435153 0 0 0 0 -368.02517291340337 -336.12210009106639 0 -336.12210009106639 -180.11653772869613 0 0 0 0 46.086990261037045 -58.150611457190962 0 -58.150611457190962 -7.5637811735359719 0 0 0 0 14.984706753897655 -12.429136379329087 0 -12.429136379329087 4.5171094909748604 0 0 0 0 -283.59207513346337 -306.26783636619075 0 -306.26783636619075 -232.98321806424246 0 0 0 0 -321.89535509909911 -317.61475403922668 0 -317.61475403922668 -190.91340271939771 0 0 0 0 -320.73623169706843 -288.34948108730896 0 -288.34948108730896 -174.26524168382639 0 0 0 0 -357.60695248165939 -309.34203206898383 0 -309.34203206898383 -169.64597270186641 0 0 0 0 -262.90214343568732 -330.87193932952869 0 -330.87193932952869 -151.94601517358387 0 0 0 0 -236.75275344421971 -319.71465337848349 0 -319.71465337848349 -255.97301203917596 0 0 0 0 -337.34905898758007 -396.27742762726848 0 -396.27742762726848 -236.32118457548495 0 0 0 0 -257.08128355468216 -362.51491466573498 0 -362.51491466573498 -331.22200576709292 0 0 0 0 -318.83471927270875 -355.61028982915741 0 -355.61028982915741 -158.44266972971673 0 0 0 0 -345.45442490710411 -390.64321378218301 0 -390.64321378218301 -31.797845739980403 0 0 0 0 -324.58375328019611 -293.370549718642 0 -293.370549718642 -114.55529484452563 0 0 0 0 -257.31033082224167 -516.08239265478187 0 -516.08239265478187 -327.2332117776823 0 0 0 0 -261.79041586182575 -378.7181988870725 0 -378.7181988870725 -446.28404084087742 0 0 0 0 -109.95433286596381 -734.87020159609528 0 -734.87020159609528 -866.9226872174695 0 0 0 0 -321.78198654697917 -462.00309397811907 0 -462.00309397811907 -353.67349065921735 0 0 0 0 -134.7646433777154 -505.64558005037907 0 -505.64558005037907 -753.66535157540056 0 0 0 0 -133.87231393156981 -273.94186664175868 0 -273.94186664175868 462.39674407098209 0 0 0 0 -222.17821314046523 -115.17148354023993 0 -115.17148354023993 306.03483480849536 0 0 0 0 -245.42838509194189 -636.61533586621772 0 -636.61533586621772 324.23780808532319 0 0 0 0 5.9076885419253813 -3.7646307098897864 0 -3.7646307098897864 2.3933450836925942 0 0 0 0 -63.693616154181655 -275.11560190498858 0 -275.11560190498858 -816.46461457471742 0 0 0 0 574.31093199610041 -737.77544204293736 0 -737.77544204293736 -522.72422753102728 0 0 0 0 233.8130647805956 -395.33885246237332 0 -395.33885246237332 -832.54666953122796 0 0 0 0 423.12237948972324 37.418063956695732 0 37.418063956695732 -161.85303768722224 0 0 0 0 191.23418470242177 -330.64971482299734 0 -330.64971482299734 -1120.48002738371 0 0 0 0 23.118829502702283 -392.07337871245181 0 -392.07337871245181 -832.47216887085233 0 0 0 0 -76.580685120612543 -814.03176375050498 0 -814.03176375050498 -1233.6440032471146 0 0 0 0 -184.74988516717713 -59.538618522332399 0 -59.538618522332399 -771.06370450702889 0 0 0 0 -45.986193177262976 -431.83898758454234 0 -431.83898758454234 -1382.4381564599971 0 0 0 0 279.99073519856029 -538.50465867365347 0 -538.50465867365347 -2426.081354698239 0 0 0 0 -179.73469707233016 -160.64055391548027 0 -160.64055391548027 -1217.2952744872455 0 0 0 0 -595.55727529218711 232.00581077802417 0 232.00581077802417 1223.766204595544 0 0 0 0 2.0874960453986091 -5.8326824505667361 0 -5.8326824505667361 -0.35667842643032266 0 0 0 0 -506.27534435860434 -862.87771884093308 0 -862.87771884093308 342.10130704422772 0 0 0 0 10.307915469588096 -14.974079319768634 0 -14.974079319768634 0.046724543300337373 0 0 0 0 -286.21105847119907 -899.13329674472334 0 -899.13329674472334 82.148234063970449 0 0 0 0 -124.90440205423511 -1023.3431168625102 0 -1023.3431168625102 213.74948976463475 0 0 0 0 439.02318490296966 -827.51413414591116 0 -827.51413414591116 -2423.2519898160681 0 0 0 0 18.202887478257054 -15.489676029691765 0 -15.489676029691765 -1.8139557617993436 0 0 0 0 856.30108641930565 -2281.0071561839322 0 -2281.0071561839322 -213.86290905214446 0 0 0 0 185.31691695801419 -285.64629107949077 0 -285.64629107949077 -964.00933405299293 0 0 0 0 -96.844802123589034 -132.97536550637233 0 -132.97536550637233 -849.79243440864957 0 0 0 0 -100.26299606150133 -335.77523120685873 0 -335.77523120685873 -617.09971763088106 0 0 0 0 -44.399500065454049 -294.17282070430883 0 -294.17282070430883 -442.46973544863431 0 0 0 0 -13.454058448296564 -455.12235531938495 0 -455.12235531938495 -328.24818735764711 0 0 0 0 148.17761328430061 -275.14124075344444 0 -275.14124075344444 -605.05304624198834 0 0 0 0 93.192313412226213 -432.89896057174337 0 -432.89896057174337 -267.53423049576304 0 0 0 0 383.44826901723127 -416.05158344690199 0 -416.05158344690199 -373.17411134118447 0 0 0 0 101.17424932441645 -337.54726746091183 0 -337.54726746091183 -290.12929968498065 0 0 0 0 -212.11746437185138 -413.80277092428878 0 -413.80277092428878 -295.46275912319834 0 0 0 0 867.68948952878054 -998.18725128710503 0 -998.18725128710503 -114.55611372708518 0 0 0 0 698.06451601301524 -759.38049981767108 0 -759.38049981767108 -311.6148146303276 0 0 0 0 431.81861904322977 -753.12423049068684 0 -753.12423049068684 -181.12722765975923 0 0 0 0 592.2390955214214 -569.22833092758083 0 -569.22833092758083 -359.96209593923049 0 0 0 0 244.24151902761423 -644.27362312031619 0 -644.27362312031619 -293.20788049062685 0 0 0 0 566.45612712088769 -638.59551670346264 0 -638.59551670346264 -11.883562445960706 0 0 0 0 777.58412797358324 -560.95314804624286 0 -560.95314804624286 -521.90616953044082 0 0 0 0 9.9415924406089289 -6.750397967264405 0 -6.750397967264405 -2.1320629360324777 0 0 0 0 759.56965759000013 -957.01668103758129 0 -957.01668103758129 -505.28662695912499 0 0 0 0 406.07970330073294 -788.03943552345299 0 -788.03943552345299 286.70693604428379 0 0 0 0 -33.618458339478821 -231.93398168231943 0 -231.93398168231943 -405.15419761892736 0 0 0 0 132.64837109462678 -15.547995427699789 0 -15.547995427699789 -3493.2227325873009 0 0 0 0 186.28314312746443 -111.68618766357577 0 -111.68618766357577 -3673.0311397105543 0 0 0 0 766.34645074323635 -1390.2583738683243 0 -1390.2583738683243 -3343.9944972707017 0 0 0 0 70.174666076283955 -34.984229510046674 0 -34.984229510046674 4.1167573363531886 0 0 0 0 -174.17855735595367 -287.05998592021933 0 -287.05998592021933 -1510.1402633567322 0 0 0 0 622.01858659788559 -588.21668659194256 0 -588.21668659194256 -1436.9704051841109 0 0 0 0 -118.26197364188556 -850.11223797029379 0 -850.11223797029379 -588.25521430710796 0 0 0 0 -15.248383132711751 -715.63353651998477 0 -715.63353651998477 -1181.9658420052274 0 0 0 0 -567.07966832024977 -970.9204916366798 0 -970.9204916366798 -1241.8850295723951 0 0 0 0 701.39808539891965 -305.75620613566571 0 -305.75620613566571 -3762.6298345470532 0 0 0 0 -42.836796294315718 -1088.0581125724457 0 -1088.0581125724457 -2107.0923588053483 0 0 0 0 77.7319043317043 -34.210255505156042 0 -34.210255505156042 2.9625121948361226 0 0 0 0 145.00475841783918 -539.46586767709232 0 -539.46586767709232 -2935.6914499359809 0 0 0 0 -214.07938131931587 -612.01655185074196 0 -612.01655185074196 -561.9006983227664 0 0 0 0 49.130178382998793 -23.595762655634317 0 -23.595762655634317 2.3892338266614246 0 0 0 0 -196.97000569012744 -628.42032561242377 0 -628.42032561242377 -547.07271234538348 0 0 0 0 -350.26202908075356 -913.15978269033076 0 -913.15978269033076 -748.34244012650015 0 0 0 0 -383.06008376412319 -751.1631640485748 0 -751.1631640485748 -272.50346173312573 0 0 0 0 -309.05641729138733 -1066.5423716152 0 -1066.5423716152 -756.22856157826754 0 0 0 0 -156.54786807215714 -605.50209441312472 0 -605.50209441312472 -1435.502250133497 0 0 0 0 -100.03354922494327 -814.31227928083536 0 -814.31227928083536 -601.36606775863038 0 0 0 0 -230.73394730343352 -1074.4553184849683 0 -1074.4553184849683 -601.9172768000717 0 0 0 0 -439.78950035824528 -897.04261015030352 0 -897.04261015030352 -637.91406632110011 0 0 0 0 -485.70799460080161 -1153.769071489849 0 -1153.769071489849 -610.39410382309143 0 0 0 0 -85.125745536293834 -1086.2291662871321 0 -1086.2291662871321 -2194.1291761827379 0 0 0 0 -110.38279711885843 -558.7202619304262 0 -558.7202619304262 445.34510498534655 0 0 0 0 76.078881936424295 -457.15766219008219 0 -457.15766219008219 -934.45960366824147 0 0 0 0 308.1323104828698 -645.31866970910414 0 -645.31866970910414 -210.3101019190558 0 0 0 0 291.25539981137263 -300.42910625668083 0 -300.42910625668083 336.59458834237012 0 0 0 0 398.81136792549296 -923.79113674836117 0 -923.79113674836117 -28.851955381993321 0 0 0 0 -189.62578998925164 -942.01584630597063 0 -942.01584630597063 -172.51484507425539 0 0 0 0 299.34069170719886 -645.60040383545129 0 -645.60040383545129 -574.04903923490201 0 0 0 0 -280.94446569230058 -1403.5156518683216 0 -1403.5156518683216 -2851.9452277100499 0 0 0 0 -17.122256076042731 -17.211086828636439 0 -17.211086828636439 -14.50927142695113 0 0 0 0 -1261.555661383667 -50.935229632741539 0 -50.935229632741539 223.12621120311087 0 0 0 0 -3341.0120804438957 -1518.1316888992278 0 -1518.1316888992278 -311.82342253183015 0 0 0 0 -3342.1252602716067 -1524.7542489538064 0 -1524.7542489538064 -86.62769014397054 0 0 0 0 -2023.0976779920311 -2829.7507586660577 0 -2829.7507586660577 96.372447514149826 0 0 0 0 -1.5255494320263665 -19.614061614818326 0 -19.614061614818326 18.862816245068643 0 0 0 0 70.392047244939022 88.645833784277784 0 88.645833784277784 -73.036546654941048 0 0 0 0 -263.34667570941383 -274.66163625378977 0 -274.66163625378977 418.20813368285599 0 0 0 0 143.43247439828701 -220.82272721955087 0 -220.82272721955087 112.64489623880945 0 0 0 0 654.20669867281686 -897.10029123575077 0 -897.10029123575077 -388.85592019848991 0 0 0 0 -12.163337482983479 -119.38851490551315 0 -119.38851490551315 3.5087528046860825 0 0 0 0 -4.4653109320497606 -131.73644436679024 0 -131.73644436679024 22.850047762345639 0 0 0 0 -50.065862434683368 -130.54795344368904 0 -130.54795344368904 2.8667504810837272 0 0 0 0 -1.1029103267811706 -76.106689928145386 0 -76.106689928145386 20.572126052990029 0 0 0 0 -7.3619863049739251 -25.138738432658357 0 -25.138738432658357 22.150465609022177 0 0 0 0 -286.5715117585205 -28.203407486973447 0 -28.203407486973447 -31.11117479816312 0 0 0 0 -1191.8791497594502 -32.039226887645782 0 -32.039226887645782 262.46750796283595 0 0 0 0 535.92215159734769 -1356.2745766818771 0 -1356.2745766818771 -3095.6634965588528 0 0 0 0 67.328127524737852 -44.448825420735865 0 -44.448825420735865 -7.2866231956050243 0 0 0 0 32.407588966525509 -80.960570396562616 0 -80.960570396562616 -32.780789562049904 0 0 0 0 54.521716168499552 -99.998108036408667 0 -99.998108036408667 -78.970863494061632 0 0 0 0 -219.40259769800468 56.985043280830723 0 56.985043280830723 -116.35370969728683 0 0 0 0 573.29678871070473 -3296.2661936621753 0 -3296.2661936621753 -1187.3037419538305 0 0 0 0 -16.578327873499262 -58.876371901631416 0 -58.876371901631416 -65.386791660057895 0 0 0 0 -1224.1487518079375 -3024.9000427246137 0 -3024.9000427246137 -4734.9305143946258 0 0 0 0 -330.24883093117387 -357.05828530190047 0 -357.05828530190047 2265.7556048462866 0 0 0 0 359.78678869806754 -1417.5682009420179 0 -1417.5682009420179 -1035.8266447998176 0 0 0 0 -328.20340351594496 -338.24610935703822 0 -338.24610935703822 1328.5215499973929 0 0 0 0 105.96049904754909 -1112.2700319969299 0 -1112.2700319969299 567.6389468042471 0 0 0 0 145.38168600344216 -398.71161982123158 0 -398.71161982123158 -624.60946286088438 0 0 0 0 -160.27046653410071 -539.89436367999588 0 -539.89436367999588 -3026.5521022317844 0 0 0 0 67.77901349840613 -457.39786126620311 0 -457.39786126620311 -2999.7818690959903 0 0 0 0 15.678250831061007 -8.6222996375417722 0 -8.6222996375417722 0.65689070285299067 0 0 0 0 -143.61233035742771 -443.08506193737048 0 -443.08506193737048 -2587.256716970558 0 0 0 0 -92.461308784695575 -636.87931007386942 0 -636.87931007386942 -355.5551440121053 0 0 0 0 54.291393070394406 -457.76186980126658 0 -457.76186980126658 -473.45631255980697 0 0 0 0 164.14909231994534 -140.02445930268004 0 -140.02445930268004 21.718235673339223 0 0 0 0 -148.12406706101319 -700.60026085999561 0 -700.60026085999561 -59.246088884367055 0 0 0 0 -784.56011606277025 -862.91343461428187 0 -862.91343461428187 -376.01091739317053 0 0 0 0 -1055.3890573517128 -1644.4960613118164 0 -1644.4960613118164 -1029.7059968528956 0 0 0 0 -1426.8201257225301 -603.38857506547447 0 -603.38857506547447 68.281710207782453 0 0 0 0 -2037.6468585547264 -986.93192660714703 0 -986.93192660714703 -172.3382993623236 0 0 0 0 -1.8024478189021949 -9.2509060576373372 0 -9.2509060576373372 -27.997061017064453 0 0 0 0 224.54426677979063 -37.290019406136707 0 -37.290019406136707 -799.00944066351894 0 0 0 0 248.7951525792887 -236.83477424473676 0 -236.83477424473676 -510.40166616066927 0 0 0 0 -123.98378178715575 -107.5018658395602 0 -107.5018658395602 -227.86445493802603 0 0 0 0 3216.8769626195426 -1187.8128995681109 0 -1187.8128995681109 -1302.8635942245892 0 0 0 0 -12.362767381379555 -30.801296401950822 0 -30.801296401950822 -67.33960870876939 0 0 0 0 2541.7316244543763 716.87428007162816 0 716.87428007162816 -3143.9419468052802 0 0 0 0 503.60514653137943 -981.86262559469469 0 -981.86262559469469 -326.77883825352183 0 0 0 0 1434.5110389321635 -357.64132107304613 0 -357.64132107304613 602.54239593388047 0 0 0 0 1280.9865480421286 -81.588929833917064 0 -81.588929833917064 395.20572783944954 0 0 0 0 1500.5944726167509 -155.16651196705789 0 -155.16651196705789 439.37988260490965 0 0 0 0 1426.9522002104923 -486.14846415550346 0 -486.14846415550346 -612.56138753192499 0 0 0 0 -0.65131600306108339 -12.45754868475268 0 -12.45754868475268 -20.116863778372306 0 0 0 0 891.1086053669278 -1928.8136519982254 0 -1928.8136519982254 -219.41263212994272 0 0 0 0 -1576.0879319273517 -2163.0192283297074 0 -2163.0192283297074 -160.03410126404015 0 0 0 0 -1906.4173742257858 -3046.2767341431204 0 -3046.2767341431204 -1412.2998297778831 0 0 0 0 -1753.7082023838593 876.12465400038491 0 876.12465400038491 -254.5103184433101 0 0 0 0 1128.8858783466712 -1205.6658304447774 0 -1205.6658304447774 1061.3175075086401 0 0 0 0 1126.1936755664065 -1291.9882027741951 0 -1291.9882027741951 307.84428334475524 0 0 0 0 87.036715163791087 -1346.9000942762032 0 -1346.9000942762032 1442.4095086924499 0 0 0 0 1264.5861382306903 -185.06779319162888 0 -185.06779319162888 779.93806849264365 0 0 0 0 1841.1348891472444 -2004.9435140393907 0 -2004.9435140393907 1220.3109650956458 0 0 0 0 -15.945203407056056 -28.328885902580396 0 -28.328885902580396 -30.607362063452115 0 0 0 0 -1418.7852871822688 -194.63216604070476 0 -194.63216604070476 1891.9369223708054 0 0 0 0 1961.2967304198028 -1909.1427575842117 0 -1909.1427575842117 -1670.6282098710362 0 0 0 0 1490.6064151267565 -144.81761751289559 0 -144.81761751289559 502.41235477935697 0 0 0 0 -964.24707025136013 -1884.1963307151418 0 -1884.1963307151418 -338.16362207596831 0 0 0 0 -380.35744164091739 -288.59151658842256 0 -288.59151658842256 1247.7645836750307 0 0 0 0 -614.50463130303251 417.24410483105748 0 417.24410483105748 -145.62258085140866 0 0 0 0 147.27956847861788 -538.53302330319639 0 -538.53302330319639 967.46506921980836 0 0 0 0 2289.8085765583237 -1932.5746937629447 0 -1932.5746937629447 1203.2793717777822 0 0 0 0 1794.3866412356583 -1352.09333626648 0 -1352.09333626648 756.58216071872448 0 0 0 0 1270.529501823723 -2236.5435494312005 0 -2236.5435494312005 2983.0737614901591 0 0 0 0 311.8721973762149 -1080.8497411799763 0 -1080.8497411799763 1715.4015674370312 0 0 0 0 1360.3296604395582 -1614.7948017767994 0 -1614.7948017767994 1354.9362821485556 0 0 0 0 -268.19108606597729 -1466.3843308775613 0 -1466.3843308775613 2209.979282369618 0 0 0 0 -16.944001091907694 -22.640649266869843 0 -22.640649266869843 -19.565392303009219 0 0 0 0 1285.2858737540082 -1115.5562874206262 0 -1115.5562874206262 881.80451577543863 0 0 0 0 1295.3575955346387 -1325.4801939956367 0 -1325.4801939956367 1144.7997363714312 0 0 0 0 1089.268276467541 -1371.4711572253509 0 -1371.4711572253509 1136.5560087085396 0 0 0 0 1.7083975096613671 2.6666884670352999 0 2.6666884670352999 7.8023788747008211 0 0 0 0 1592.1077147004544 -1155.7238055735434 0 -1155.7238055735434 857.39001533330884 0 0 0 0 35.697743645033256 -16.842432052160419 0 -16.842432052160419 -6.9069169963705193 0 0 0 0 1101.6706977340218 -631.09231376941898 0 -631.09231376941898 319.94450245106418 0 0 0 0 25.064589222718496 -26.902454698683869 0 -26.902454698683869 -43.995468025790615 0 0 0 0 -42.029542621435212 -29.133818873371183 0 -29.133818873371183 44.128380474743608 0 0 0 0 -16.475535220260042 -42.824229549602961 0 -42.824229549602961 -17.04982310960019 0 0 0 0 -103.21657247700205 -323.70042654081044 0 -323.70042654081044 857.11284237847713 0 0 0 0 401.27582620585963 -1457.8015375402429 0 -1457.8015375402429 784.76017366039014 0 0 0 0 -4.1456944332603598 -1071.8522249066082 0 -1071.8522249066082 391.60299558530733 0 0 0 0 -250.49747036823101 -646.71065021827962 0 -646.71065021827962 349.68134430201735 0 0 0 0 0.22395508886063453 -9.13197479462346 0 -9.13197479462346 -1.6492681835664342 0 0 0 0 264.35671735699725 -1113.6829225965557 0 -1113.6829225965557 1930.2557724518701 0 0 0 0 728.20031012885011 -657.82027246778307 0 -657.82027246778307 -2010.983624989145 0 0 0 0 -75.206295883348503 -891.83307166239683 0 -891.83307166239683 573.09458564480883 0 0 0 0 -2.7696740045603576 -16.89087453558642 0 -16.89087453558642 -2.7552295796013375 0 0 0 0 329.44351178575744 -402.80134889417241 0 -402.80134889417241 690.10175851749955 0 0 0 0 134.0353994389443 -712.39113612883375 0 -712.39113612883375 300.50091196327958 0 0 0 0 -630.34739183453712 -862.88986200690488 0 -862.88986200690488 2004.5257299425284 0 0 0 0 40.186660816005315 -96.122554330955609 0 -96.122554330955609 949.59730644463707 0 0 0 0 -2.3869107849820352 -10.495799987841082 0 -10.495799987841082 -1.9808129356161217 0 0 0 0 -219.76251136005158 -400.50107046010453 0 -400.50107046010453 1165.0455985723165 0 0 0 0 -366.66849916145111 -222.25932204107721 0 -222.25932204107721 952.93726373719983 0 0 0 0 -114.37286841905734 -812.66017366002052 0 -812.66017366002052 675.92682096110366 0 0 0 0 -321.56356928663445 -595.65975971792068 0 -595.65975971792068 794.91271257304834 0 0 0 0 -686.01978794488241 -918.0402687502592 0 -918.0402687502592 1378.929794530035 0 0 0 0 -576.26474592725572 -824.68916104319214 0 -824.68916104319214 1286.7078979621583 0 0 0 0 -824.86133470323693 -481.68696326487407 0 -481.68696326487407 1154.6178348212616 0 0 0 0 -179.43953184633574 -68.126573321802425 0 -68.126573321802425 689.41704604234837 0 0 0 0 -1485.0727213965438 -511.27314558583748 0 -511.27314558583748 217.2205331435398 0 0 0 0 -3.6767150963821678 -6.762305512304124 0 -6.762305512304124 -7.4134993575914336 0 0 0 0 -1382.048293963242 274.11746022172883 0 274.11746022172883 672.12025450239298 0 0 0 0 -831.28199748039697 -1282.1688010704129 0 -1282.1688010704129 2312.40065553358 0 0 0 0 -1730.1338851486944 -290.33671050157864 0 -290.33671050157864 1436.7493529681105 0 0 0 0 142.98932880481152 -589.02674557749197 0 -589.02674557749197 2183.3068325678541 0 0 0 0 39.679798201388621 -1209.2292344031484 0 -1209.2292344031484 1473.96279233518 0 0 0 0 -96.279769552405924 -1205.9626372886923 0 -1205.9626372886923 1007.2444926718745 0 0 0 0 -139.24717597402923 -1388.4229820192541 0 -1388.4229820192541 1339.9265183490934 0 0 0 0 199.63871735686553 -1052.1054427559575 0 -1052.1054427559575 1302.8957088054794 0 0 0 0 -237.63597170009598 -587.82380820319304 0 -587.82380820319304 2536.4663135483279 0 0 0 0 -96.06068536337807 42.291975751933023 0 42.291975751933023 42.301253846293548 0 0 0 0 -22.628360894094556 1.4687381782397892 0 1.4687381782397892 3.7970480218282248 0 0 0 0 -44.478934673599724 -34.457962243053771 0 -34.457962243053771 118.66659701062599 0 0 0 0 -651.79543014099181 41.881434973860451 0 41.881434973860451 247.74229193209976 0 0 0 0 -119.6370645696079 -10.034682590960074 0 -10.034682590960074 161.38321691306191 0 0 0 0 -431.71731226280099 322.41007262674248 0 322.41007262674248 -191.99491329402736 0 0 0 0 -8.1093215559243674 -2.7720865241010983 0 -2.7720865241010983 1.0110194842170515 0 0 0 0 -1221.4572103879764 714.26884151129343 0 714.26884151129343 -354.35788027864692 0 0 0 0 -1052.3771147703665 -58.702315425063716 0 -58.702315425063716 340.64765935523246 0 0 0 0 -1941.6406853483495 -238.3304455756188 0 -238.3304455756188 309.01187689686776 0 0 0 0 220.31706143938936 -1600.7914555398966 0 -1600.7914555398966 902.85519531190221 0 0 0 0 1191.4213992521836 -976.93624912616724 0 -976.93624912616724 861.51331388158724 0 0 0 0 -1189.5848777392985 -1033.1833547353963 0 -1033.1833547353963 1517.8540333845158 0 0 0 0 127.16763890483708 -703.40385168931971 0 -703.40385168931971 1033.5382240330655 0 0 0 0 423.06098514128098 -1403.2795058597785 0 -1403.2795058597785 981.02749637391389 0 0 0 0 -344.55511867588211 -550.7986262843915 0 -550.7986262843915 874.58391396514889 0 0 0 0 -1375.6683296137053 17.715749907401914 0 17.715749907401914 654.32391161235864 0 0 0 0 -31.612531176157063 -579.01518380762354 0 -579.01518380762354 371.67443958953663 0 0 0 0 -195.85377747297753 -690.48760017255699 0 -690.48760017255699 430.61660344646953 0 0 0 0 315.13874187455804 -546.45375456656438 0 -546.45375456656438 219.5390263514164 0 0 0 0 117.29613003690611 -320.16592854879855 0 -320.16592854879855 362.26007463214683 0 0 0 0 -186.14325788685528 -342.24197185728281 0 -342.24197185728281 365.324537036533 0 0 0 0 53.012415971737937 -254.81449883183086 0 -254.81449883183086 389.10943687749023 0 0 0 0 3.2435059128201829 -73.969199777704034 0 -73.969199777704034 288.50354821577639 0 0 0 0 -52.61899276414988 -6.890400091839183 0 -6.890400091839183 134.45438526641374 0 0 0 0 -88.748997614937252 -264.20356725405145 0 -264.20356725405145 413.60070596118385 0 0 0 0 -181.1426710529413 -94.925227277362865 0 -94.925227277362865 282.20034734201909 0 0 0 0 -44.281796736759134 -187.84317356435349 0 -187.84317356435349 -4.9372073750400887 0 0 0 0 92.015491513069719 -90.300518733740319 0 -90.300518733740319 -37.428533970414719 0 0 0 0 153.2828949140021 -164.73335210191362 0 -164.73335210191362 -20.3397520018043 0 0 0 0 36.979201212255077 -91.80528929642135 0 -91.80528929642135 -22.610587840178908 0 0 0 0 -11.170905199687695 -74.594709836841503 0 -74.594709836841503 22.819969340765965 0 0 0 0 -18.998326193796515 -38.313388128602554 0 -38.313388128602554 -22.664121885510269 0 0 0 0 -11.292695135031515 -42.210463807186471 0 -42.210463807186471 -27.511781381855656 0 0 0 0 -30.57635299571848 -101.98575142119807 0 -101.98575142119807 -44.374819804928848 0 0 0 0 -23.592222394028795 -145.59546636840969 0 -145.59546636840969 -196.79459112607583 0 0 0 0 -81.057868764182786 -51.089114551845341 0 -51.089114551845341 128.6251919073984 0 0 0 0 -69.915310626762221 -196.01822922579595 0 -196.01822922579595 30.312510106043192 0 0 0 0 134.81359278838499 -59.816559050450451 0 -59.816559050450451 -363.63802923235926 0 0 0 0 20.295291895687114 -44.215683809001348 0 -44.215683809001348 -199.98526654202578 0 0 0 0 28.121119336707466 -20.72757062312283 0 -20.72757062312283 -32.263567909613862 0 0 0 0 -78.127958531724289 -25.427715706304298 0 -25.427715706304298 -87.482880766547169 0 0 0 0 -79.242039731965633 -56.436712767276731 0 -56.436712767276731 -55.515584558437695 0 0 0 0 60.03044243826298 -75.996249460527906 0 -75.996249460527906 -12.626650467330364 0 0 0 0 32.270957900665849 -101.09729208335636 0 -101.09729208335636 -35.767275276773432 0 0 0 0 67.560062347901635 -122.14278093923284 0 -122.14278093923284 -151.03500979303587 0 0 0 0 43.658313758904114 -131.25736978813075 0 -131.25736978813075 -0.80531621037516743 0 0 0 0 -58.900451086858666 -122.32510057122579 0 -122.32510057122579 25.355816781786189 0 0 0 0 22.99204126252053 -93.821941741238703 0 -93.821941741238703 -35.118453246657168 0 0 0 0 2.2114639755454846 -55.859001771779731 0 -55.859001771779731 -328.24824799131602 0 0 0 0 20.388348258571796 -31.104684004146264 0 -31.104684004146264 -24.985630915693861 0 0 0 0 -172.13593055670208 -155.69368572471285 0 -155.69368572471285 -178.2866044362454 0 0 0 0 197.61658058096509 -31.2964720935488 0 -31.2964720935488 -389.4391144142719 0 0 0 0 96.844999330409337 205.62762570867199 0 205.62762570867199 226.67476778103446 0 0 0 0 33.899543891922804 36.404554183973232 0 36.404554183973232 -132.65297005688626 0 0 0 0 -70.094918260995655 -205.59770929717757 0 -205.59770929717757 216.66958703934506 0 0 0 0 13.634712023253599 -6.3472449083332094 0 -6.3472449083332094 -1.6382757357051503 0 0 0 0 1105.7420355672075 -22.017604071741516 0 -22.017604071741516 -776.39828299233341 0 0 0 0 1198.0640088389264 -888.89082394215075 0 -888.89082394215075 1748.7773005188938 0 0 0 0 2521.5537841405967 -1909.7006741594487 0 -1909.7006741594487 599.71200983553717 0 0 0 0 1909.920835092722 -1443.7406304952565 0 -1443.7406304952565 403.91339335483644 0 0 0 0 470.72236045447062 69.997618314475403 0 69.997618314475403 -546.02605777096005 0 0 0 0 752.90462545148694 -1187.6536543188486 0 -1187.6536543188486 1281.9516082882765 0 0 0 0 1938.7698289444088 -1093.2961711360476 0 -1093.2961711360476 543.84680161929282 0 0 0 0 11.653167533387034 -4.1998439228812714 0 -4.1998439228812714 1.5165525755429785 0 0 0 0 1494.1657861965286 -500.21111096864297 0 -500.21111096864297 -346.5437699731774 0 0 0 0 227.09567510717898 -351.62477366497114 0 -351.62477366497114 -28.8942933646249 0 0 0 0 53.30613927523666 -83.6315899748748 0 -83.6315899748748 -97.890458506325245 0 0 0 0 99.970780937686868 -272.67170539729887 0 -272.67170539729887 -73.302851037442451 0 0 0 0 301.91355023520009 -283.08044785555467 0 -283.08044785555467 -90.059039973468316 0 0 0 0 -310.17382440934307 -157.06070633096533 0 -157.06070633096533 180.4159008555871 0 0 0 0 206.72628532328235 104.84851521178643 0 104.84851521178643 234.78629817885667 0 0 0 0 18.953601167482702 -89.458547476424428 0 -89.458547476424428 155.65528393030399 0 0 0 0 7.2459275586707008 -26.810080595372909 0 -26.810080595372909 20.803486805506964 0 0 0 0 41.424288949661388 -53.083252520777478 0 -53.083252520777478 -136.64089163829209 0 0 0 0 -200.39892591242096 -732.68019502086099 0 -732.68019502086099 -497.3435245914734 0 0 0 0 166.9393662380171 7.9934556265470746 0 7.9934556265470746 -136.85274069854131 0 0 0 0 31.902389030869717 -69.850341907488314 0 -69.850341907488314 -65.331349933498075 0 0 0 0 19.648438358454513 -76.970872197903645 0 -76.970872197903645 24.723178578259876 0 0 0 0 168.95278275344572 -154.28153059592205 0 -154.28153059592205 -82.54863776374259 0 0 0 0 74.208742784510832 -78.918922274009674 0 -78.918922274009674 -22.291821179132967 0 0 0 0 694.90252528946439 15.620582421455765 0 15.620582421455765 -681.98190387479553 0 0 0 0 -145.93922459186433 -384.51509564754087 0 -384.51509564754087 192.67729864848661 0 0 0 0 -57.374017795795226 -169.89788424545259 0 -169.89788424545259 97.370719873419148 0 0 0 0 -130.00002422758553 -342.4142051951203 0 -342.4142051951203 -39.853010272418032 0 0 0 0 77.27892514759526 -128.7836149416618 0 -128.7836149416618 -24.315689174253464 0 0 0 0 307.82779030756865 -91.822212092838527 0 -91.822212092838527 -344.25557871389901 0 0 0 0 111.55730045988457 -524.536449384148 0 -524.536449384148 74.331864479769138 0 0 0 0 38.428753805106879 3.7132826997453208 0 3.7132826997453208 -1.2683768858937583 0 0 0 0 75.851371445460245 -155.42675386462361 0 -155.42675386462361 15.172447064544031 0 0 0 0 178.58311497983038 -132.75845754348487 0 -132.75845754348487 -17.648237766819712 0 0 0 0 111.91361629666062 -208.91806849733985 0 -208.91806849733985 83.135606069423375 0 0 0 0 279.73413104654173 -157.94795669379528 0 -157.94795669379528 15.02073931610721 0 0 0 0 121.70466744023724 -219.64774614867201 0 -219.64774614867201 -15.622519997676136 0 0 0 0 98.920873460359871 -81.093155847069283 0 -81.093155847069283 -131.58204968340578 0 0 0 0 -49.77304452797398 -214.11721663906064 0 -214.11721663906064 -12.062902354860853 0 0 0 0 -120.30051097749674 -92.811695567244897 0 -92.811695567244897 -89.143897236222983 0 0 0 0 20.464121563671497 -23.36184579297359 0 -23.36184579297359 -16.428419629692144 0 0 0 0 300.11448125095922 -42.788403661361372 0 -42.788403661361372 -230.35994715141715 0 0 0 0 7.522003869916972 -133.56159293972672 0 -133.56159293972672 -21.17549805441206 0 0 0 0 -27.517248360374651 -137.91038853398641 0 -137.91038853398641 122.46762698123348 0 0 0 0 -6.1204403474039282 -170.73332766931708 0 -170.73332766931708 -23.80429367616307 0 0 0 0 -42.939208477197099 -90.426455596913002 0 -90.426455596913002 -95.248311530813226 0 0 0 0 -109.21440829282801 -140.16411910735769 0 -140.16411910735769 -92.520112683370826 0 0 0 0 -3.4997259417104942 -198.82959345613199 0 -198.82959345613199 -60.363256496959366 0 0 0 0 -82.64461305392615 -266.27775268004916 0 -266.27775268004916 -80.354760490452463 0 0 0 0 111.73973027287866 -332.11631656398822 0 -332.11631656398822 -98.661147655133391 0 0 0 0 107.07377875818929 -241.99812856479548 0 -241.99812856479548 48.238333470653743 0 0 0 0 11.556781288556522 -65.522606099577388 0 -65.522606099577388 -156.19760967872571 0 0 0 0 147.15763116281596 -175.30988792947028 0 -175.30988792947028 -311.96102288598195 0 0 0 0 77.666017774230568 -165.61285923951073 0 -165.61285923951073 -144.89102899735735 0 0 0 0 150.7996109487558 -234.76420957472874 0 -234.76420957472874 -109.07514240877936 0 0 0 0 24.047230176065625 -119.12608535190023 0 -119.12608535190023 -32.378286224824691 0 0 0 0 54.411172680687741 -156.50087305388297 0 -156.50087305388297 -24.587556230304472 0 0 0 0 3.860893468852737 -154.73605628681253 0 -154.73605628681253 139.47664098592941 0 0 0 0 36.131217448346433 -159.68182294632425 0 -159.68182294632425 -22.468085253116442 0 0 0 0 65.039588880026713 -156.6253049360821 0 -156.6253049360821 -39.076540173438843 0 0 0 0 32.205296251238906 -65.417811552295461 0 -65.417811552295461 0.40884439982619369 0 0 0 0 116.42453527137877 -209.63061772716173 0 -209.63061772716173 -196.9889706124668 0 0 0 0 -24.486089448754228 -66.981660929205702 0 -66.981660929205702 -40.040756674449312 0 0 0 0 156.77753904620477 -216.45998463305295 0 -216.45998463305295 58.472559869125689 0 0 0 0 98.063456140277339 -77.112890064646905 0 -77.112890064646905 -62.761825900762581 0 0 0 0 232.18856762925861 -191.5099742745515 0 -191.5099742745515 60.180662244558334 0 0 0 0 3.8777577801550933 -1.875894940088358 0 -1.875894940088358 -5.8761479825234346 0 0 0 0 113.41978021805699 -300.93282857387021 0 -300.93282857387021 132.72887539712247 0 0 0 0 34.207036480978786 -290.05495953033187 0 -290.05495953033187 -272.52168656507274 0 0 0 0 7.6429318831505952 110.76030842907494 0 110.76030842907494 17.697543754897197 0 0 0 0 82.921003083345568 -221.15706439818678 0 -221.15706439818678 195.97319196799072 0 0 0 0 109.3409419090458 -104.51109160236956 0 -104.51109160236956 189.10830509252264 0 0 0 0 88.434756600050605 -232.91748733869463 0 -232.91748733869463 48.609974495368078 0 0 0 0 102.43422280281084 -168.12980443496781 0 -168.12980443496781 57.588898816378787 0 0 0 0 138.39092652057116 -77.882173264657467 0 -77.882173264657467 32.686953713709954 0 0 0 0 200.88009202180547 -83.859786765824538 0 -83.859786765824538 72.258392792078666 0 0 0 0 135.11406853125663 -116.00937589960813 0 -116.00937589960813 -0.072006627451628447 0 0 0 0 146.70153256460981 -129.31068541549212 0 -129.31068541549212 38.540112075337674 0 0 0 0 52.313874514205963 -97.370450431568315 0 -97.370450431568315 44.195932979462668 0 0 0 0 -141.99330789664964 -114.56976135867444 0 -114.56976135867444 0.012181479251012206 0 0 0 0 34.759412395829713 -14.996131302179492 0 -14.996131302179492 -48.986904330347897 0 0 0 0 115.91639026776829 -145.97492345592764 0 -145.97492345592764 -76.060216759797186 0 0 0 0 -3.6814477363605107 2.0001690871973494 0 2.0001690871973494 4.082493162334913 0 0 0 0 126.92700429832985 -206.05567098587198 0 -206.05567098587198 -12.162278343195794 0 0 0 0 89.180348839625367 -156.62377624593501 0 -156.62377624593501 66.978046964446548 0 0 0 0 -85.908795279552578 -121.61578167129483 0 -121.61578167129483 -118.24591548353783 0 0 0 0 112.06100369935302 -51.902901495857805 0 -51.902901495857805 -95.563905591599905 0 0 0 0 -4.2393998010261384 2.4028249830916621 0 2.4028249830916621 4.6818703888234268 0 0 0 0 44.39755045864149 -248.64128822428029 0 -248.64128822428029 -87.768271607015777 0 0 0 0 200.30953308652897 -129.51214961329242 0 -129.51214961329242 -0.16474259230017196 0 0 0 0 -273.63921071681762 -251.13648421144899 0 -251.13648421144899 -62.651767628180096 0 0 0 0 -7.1606450980164595 8.5674933256203332 0 8.5674933256203332 7.9723284873501825 0 0 0 0 -357.62257020897232 -1383.7486832059658 0 -1383.7486832059658 -1008.5055857972766 0 0 0 0 216.34637800115161 -1838.7385723736807 0 -1838.7385723736807 -666.03240846047993 0 0 0 0 143.43745671887154 -2311.0768294481386 0 -2311.0768294481386 -3450.0583460370035 0 0 0 0 1371.5276048283486 -175.04148336877552 0 -175.04148336877552 -7992.7642435005837 0 0 0 0 133.11614511585503 758.86289653289714 0 758.86289653289714 -2086.152637101397 0 0 0 0 -304.86893454983374 -1246.8280459629532 0 -1246.8280459629532 -1183.8597506760852 0 0 0 0 -12.251537148404168 -266.43042417807374 0 -266.43042417807374 495.95571721671877 0 0 0 0 89.93010346663678 -166.69934518459027 0 -166.69934518459027 -26.505949993323981 0 0 0 0 -461.34836575017107 -337.31963548445492 0 -337.31963548445492 358.74503841092519 0 0 0 0 267.62367524462752 -43.263905113650253 0 -43.263905113650253 434.58814262543456 0 0 0 0 108.98294858905501 -391.18155872026909 0 -391.18155872026909 104.32596679904964 0 0 0 0 171.66460221339366 -390.10186852554034 0 -390.10186852554034 -639.85030210210243 0 0 0 0 197.63132467372839 124.68518505757538 0 124.68518505757538 183.14713237178512 0 0 0 0 124.74834401221554 -158.5974021575899 0 -158.5974021575899 -52.228584241645258 0 0 0 0 8.0938359933219459 -43.655408384329462 0 -43.655408384329462 48.247179890591838 0 0 0 0 120.29503895427933 -74.446651504889815 0 -74.446651504889815 90.712790333171142 0 0 0 0 245.76639097954558 -54.210608180486815 0 -54.210608180486815 92.867311764857732 0 0 0 0 29.74533358651388 25.01192419367726 0 25.01192419367726 112.34703556328896 0 0 0 0 -166.75932917428145 -755.76711368115502 0 -755.76711368115502 9.4886884980915056 0 0 0 0 -2.9630326339612481 -3.2173364002339895 0 -3.2173364002339895 -3.5429355035316235 0 0 0 0 -97.212216441745113 -547.07474647762137 0 -547.07474647762137 -720.61421800899552 0 0 0 0 -1121.1849407033878 -834.71776380919619 0 -834.71776380919619 445.95029384590453 0 0 0 0 -875.53199386212873 -1089.3970126077838 0 -1089.3970126077838 -339.11653875652701 0 0 0 0 -655.69163448967447 -591.19071239378536 0 -591.19071239378536 362.39253469392133 0 0 0 0 -1067.8641410522978 -355.0625867973431 0 -355.0625867973431 1230.3209534967318 0 0 0 0 -1309.5173788024404 -846.30591876638937 0 -846.30591876638937 470.55307678598911 0 0 0 0 -624.87486352488486 -381.31403689074796 0 -381.31403689074796 -58.806494935633964 0 0 0 0 6.3945524656535326 -4.6809671335225289 0 -4.6809671335225289 -12.284581510799399 0 0 0 0 -24.414887406186836 -21.087914879107075 0 -21.087914879107075 -27.869384467831992 0 0 0 0 189.41269409262986 -137.07439362734658 0 -137.07439362734658 49.566623052407522 0 0 0 0 70.415962479564769 -79.661191774617691 0 -79.661191774617691 -53.994537770398892 0 0 0 0 150.50173273541441 -124.00937359984891 0 -124.00937359984891 57.252012408775045 0 0 0 0 170.25800294039072 -91.004441703189514 0 -91.004441703189514 17.013872711526346 0 0 0 0 82.130461133150675 -61.489477358671138 0 -61.489477358671138 0.13866326361312531 0 0 0 0 -3566.5671299297464 1329.272916938673 0 1329.272916938673 181.27054320117168 0 0 0 0 -4.5590500692133418 -1.5217312750831411 0 -1.5217312750831411 4.1016134486065425 0 0 0 0 117.66284594114404 -81.858427051804028 0 -81.858427051804028 11.809205072582699 0 0 0 0 -9.5147025760883821 -8.0226108182579878 0 -8.0226108182579878 -4.8926098207965651 0 0 0 0 26.117145158001222 -58.447847322793677 0 -58.447847322793677 41.823727526469156 0 0 0 0 -2864.5407719610985 -1812.6842648120764 0 -1812.6842648120764 1777.2409827430965 0 0 0 0 788.33534705825878 -2448.2710916301876 0 -2448.2710916301876 -2.2411859189160168 0 0 0 0 1070.9406175165277 -3440.4133713511037 0 -3440.4133713511037 1680.8491262242896 0 0 0 0 -1194.7365788149618 -948.81356355317985 0 -948.81356355317985 447.52652258917806 0 0 0 0 -1335.40449539978 -958.89808010013076 0 -958.89808010013076 481.45217963249888 0 0 0 0 -294.70763523331698 -2732.7496099671116 0 -2732.7496099671116 6322.4244723055599 0 0 0 0 990.53623065157808 -1001.9652732083123 0 -1001.9652732083123 1733.5232427353621 0 0 0 0 10.533380325316244 -15.561958807511985 0 -15.561958807511985 -3.5570345797800158 0 0 0 0 874.34932931424555 -2031.0809447731554 0 -2031.0809447731554 1486.7670225003094 0 0 0 0 1099.2805285457325 -1390.3256301346046 0 -1390.3256301346046 1.8229254615871469 0 0 0 0 596.46523340720705 -724.46328167161118 0 -724.46328167161118 0.15183914816589095 0 0 0 0 844.80077598299977 -1208.4776939979201 0 -1208.4776939979201 833.93591363058476 0 0 0 0 500.19240442072987 -491.1933688846766 0 -491.1933688846766 386.92052913887892 0 0 0 0 32.113581800200834 -50.115258955764375 0 -50.115258955764375 -14.57814512746512 0 0 0 0 179.98834946707939 -529.13449927790498 0 -529.13449927790498 898.25671620910362 0 0 0 0 429.73854668560307 -1273.510360225504 0 -1273.510360225504 2178.6566740249982 0 0 0 0 26.588583453557959 -40.133612648096516 0 -40.133612648096516 -8.5050266524920772 0 0 0 0 106.49724445844731 -136.81346131592727 0 -136.81346131592727 0.064911225330433808 0 0 0 0 -19.936010923375306 -98.544915014186699 0 -98.544915014186699 78.717110647194204 0 0 0 0 10.561733581386189 -9.01597766530206 0 -9.01597766530206 4.0970126558270294 0 0 0 0 595.2589492099105 -519.09436134435236 0 -519.09436134435236 346.9844951848936 0 0 0 0 90.496022126275633 -93.47054510549782 0 -93.47054510549782 -34.901846386030314 0 0 0 0 -256.61330831772284 -550.88793203333262 0 -550.88793203333262 -2598.4199553282524 0 0 0 0 212.16263294648525 -373.37853397359777 0 -373.37853397359777 -3634.2873283628578 0 0 0 0 228.40083350892746 -394.41957032573555 0 -394.41957032573555 -3523.3829033825541 0 0 0 0 29.846817409988091 -28.217463687319338 0 -28.217463687319338 -94.379645593423902 0 0 0 0 -8.01252700888557 -9.6884104071462218 0 -9.6884104071462218 11.266670841789068 0 0 0 0 220.03408204254083 -461.08183080788876 0 -461.08183080788876 828.39710397799354 0 0 0 0 -306.01465129404096 -882.77658043309202 0 -882.77658043309202 618.06899875844829 0 0 0 0 421.06848195440398 -177.39913972573413 0 -177.39913972573413 -4583.440349637227 0 0 0 0 -614.96674619699843 202.88863885548926 0 202.88863885548926 -2686.9484362237417 0 0 0 0 62.676703116045246 -590.18535890211206 0 -590.18535890211206 -2623.3433734799037 0 0 0 0 -30.817686996146222 -101.727192362403 0 -101.727192362403 325.52841425688803 0 0 0 0 72.101242068762872 -161.78986630051338 0 -161.78986630051338 -33.263139916001165 0 0 0 0 11.849971909898159 -197.13889454763557 0 -197.13889454763557 500.58229972203935 0 0 0 0 71.232584909491408 -168.21492521275422 0 -168.21492521275422 -30.124705685842649 0 0 0 0 11.755544716761506 -114.26159151034153 0 -114.26159151034153 233.75503360258881 0 0 0 0 -74.175066185838659 -21.718531054397317 0 -21.718531054397317 138.00687858859965 0 0 0 0 -0.48914747448998241 6.4298944496595141 0 6.4298944496595141 142.3590725391623 0 0 0 0 -10.312774121218084 -20.636775361796495 0 -20.636775361796495 95.145894713010762 0 0 0 0 50.949711829120133 -103.72616834257542 0 -103.72616834257542 190.7418899771219 0 0 0 0 444.50257143768977 -815.65225377932074 0 -815.65225377932074 298.8747103355563 0 0 0 0 -9.9369140635885387 -36.942122202973479 0 -36.942122202973479 150.31969972215705 0 0 0 0 748.08375889081071 -681.6684165519182 0 -681.6684165519182 319.82501628989121 0 0 0 0 387.78689654018308 -765.82580792603039 0 -765.82580792603039 516.66569017700385 0 0 0 0 1866.6610927705005 -656.82437493658654 0 -656.82437493658654 144.83841815311462 0 0 0 0 2033.9329621897923 -854.52461148783186 0 -854.52461148783186 126.09101528505562 0 0 0 0 3586.1137426555069 204.01475510447926 0 204.01475510447926 -405.17044766125036 0 0 0 0 1026.2230574380446 -718.53862866304553 0 -718.53862866304553 469.08599804594269 0 0 0 0 1800.2878953972468 -1493.6606451682565 0 -1493.6606451682565 1150.154186262982 0 0 0 0 3819.4147401556402 -1749.6248101250749 0 -1749.6248101250749 1182.323650003118 0 0 0 0 -20.885024429262558 -319.83014533115056 0 -319.83014533115056 1005.0467496804195 0 0 0 0 318.46939602542989 -1947.2491999175472 0 -1947.2491999175472 919.42823313667031 0 0 0 0 1044.7145709629986 -1495.3887497904216 0 -1495.3887497904216 2272.0390904975211 0 0 0 0 -568.85115976458292 -690.55554323677643 0 -690.55554323677643 3000.2330315609579 0 0 0 0 1070.9164878865035 -1150.0666097309233 0 -1150.0666097309233 2878.8015732979111 0 0 0 0 2220.382489027048 -1248.9404150662012 0 -1248.9404150662012 2618.0069264101767 0 0 0 0 2592.2635219001495 -2385.1408588661488 0 -2385.1408588661488 5415.3205417394929 0 0 0 0 280.06979528738157 759.16429213729862 0 759.16429213729862 1947.9799489522302 0 0 0 0 5003.3049659886892 -3137.832696309335 0 -3137.832696309335 2354.9670166098513 0 0 0 0 -4.6752397211592829 1.6606619802730762 0 1.6606619802730762 21.846260319564806 0 0 0 0 -13.858016784310166 -1313.5445379538651 0 -1313.5445379538651 3696.1800265741294 0 0 0 0 -320.8572452297376 -600.74401752299673 0 -600.74401752299673 2763.1696554538912 0 0 0 0 -12.751997251225475 8.6173656104811016 0 8.6173656104811016 60.653760531189619 0 0 0 0 -30.950067945077222 -3.1359661636460032 0 -3.1359661636460032 19.167168269294905 0 0 0 0 3818.8560717074515 -1727.5410200714527 0 -1727.5410200714527 884.56251653027721 0 0 0 0 6.5618257766457191 -9.0101024463906754 0 -9.0101024463906754 10.87254112452537 0 0 0 0 1050.3796944491914 -1204.7719269076624 0 -1204.7719269076624 2239.7699096165088 0 0 0 0 -1092.2905756851469 -385.20874266420287 0 -385.20874266420287 2979.4901684627548 0 0 0 0 -1276.7527381358595 58.696938327615499 0 58.696938327615499 2148.1441918598139 0 0 0 0 339.87474830065185 -1258.5762700303021 0 -1258.5762700303021 1640.1247080921603 0 0 0 0 903.07340519691206 -1997.4560891129295 0 -1997.4560891129295 3612.9718723057449 0 0 0 0 28.91727759840829 -7.6098547265006573 0 -7.6098547265006573 9.8149265411102533 0 0 0 0 40.129121121015743 -5.7974886380453938 0 -5.7974886380453938 1.9741008400309283 0 0 0 0 792.00113551331015 -879.02402706083922 0 -879.02402706083922 2364.8780926194449 0 0 0 0 -59.882602338642755 -53.936776879236277 0 -53.936776879236277 12.694359828921733 0 0 0 0 267.82143007226477 -1415.647920829957 0 -1415.647920829957 3425.8138447524834 0 0 0 0 13.714759036520661 -6.0028375414033519 0 -6.0028375414033519 1.7733094356254959 0 0 0 0 1576.5969442946589 -674.60831512415461 0 -674.60831512415461 2518.1393188910383 0 0 0 0 1120.4096500013184 -2547.1359476322905 0 -2547.1359476322905 5302.3592672373034 0 0 0 0 -605.92937329954839 -2178.9430615764413 0 -2178.9430615764413 1663.1589118853153 0 0 0 0 -450.27383349307638 -1054.0787958209894 0 -1054.0787958209894 3013.1169370795542 0 0 0 0 -1388.0135998109399 -664.95984930880513 0 -664.95984930880513 2861.6962299278275 0 0 0 0 -6.9857578619645011 -11.92312185270157 0 -11.92312185270157 -12.341360814315493 0 0 0 0 1777.6096024290891 -1050.6339650266382 0 -1050.6339650266382 1400.9091977649587 0 0 0 0 1739.8756316083127 -872.64078016399435 0 -872.64078016399435 715.35451236089284 0 0 0 0 1473.7375513635998 -626.4806778501661 0 -626.4806778501661 542.11870462975639 0 0 0 0 -58.768379909568466 -1096.0705419890292 0 -1096.0705419890292 642.66823902900069 0 0 0 0 -2059.9935389296807 -427.04943124978308 0 -427.04943124978308 750.54372849140054 0 0 0 0 -27.934081685401907 -968.97465250424284 0 -968.97465250424284 417.27119434253109 0 0 0 0 1937.0258183069527 -1026.0144229687357 0 -1026.0144229687357 182.02443531885365 0 0 0 0 -18.199799398074376 -33.055209325359982 0 -33.055209325359982 -40.965590133104911 0 0 0 0 1535.8909773288069 -411.54018944635027 0 -411.54018944635027 -43.09049344468076 0 0 0 0 321.27411972494519 -788.29520671081991 0 -788.29520671081991 453.7653879331483 0 0 0 0 488.05945418614192 -333.47217997410098 0 -333.47217997410098 1057.2870797928335 0 0 0 0 1500.5249659595866 -842.92820350279362 0 -842.92820350279362 263.33634176179476 0 0 0 0 -1610.5529171941453 -750.0680496079658 0 -750.0680496079658 711.36988168698736 0 0 0 0 40.97462007179638 -615.68605562583252 0 -615.68605562583252 348.93370866704208 0 0 0 0 352.22761599248497 -1056.0161422539454 0 -1056.0161422539454 -454.242573143958 0 0 0 0 -1171.2939418360111 -809.55143887231679 0 -809.55143887231679 188.36575565797102 0 0 0 0 -579.86793842512998 -1546.7601362288042 0 -1546.7601362288042 -23.841769825939991 0 0 0 0 312.35887607865334 -853.09981061210601 0 -853.09981061210601 -431.27881207308383 0 0 0 0 -23.687150586549102 -43.868295761866477 0 -43.868295761866477 -64.789853410109998 0 0 0 0 699.22516560714212 -1492.9269037171325 0 -1492.9269037171325 205.33788176999951 0 0 0 0 -3.3353276147225728 -68.916234250154304 0 -68.916234250154304 -56.572891020087638 0 0 0 0 -119.50913681762177 -1103.9741887952769 0 -1103.9741887952769 -285.36640655141673 0 0 0 0 -351.81930781471056 -798.1871473817846 0 -798.1871473817846 -614.70779728400521 0 0 0 0 600.14426289657422 -70.436300839981413 0 -70.436300839981413 -1222.0472624795293 0 0 0 0 -216.11611879297106 -1359.0612557517993 0 -1359.0612557517993 203.44470140628255 0 0 0 0 1373.5057471310538 -1067.7100914919174 0 -1067.7100914919174 -923.24752563083894 0 0 0 0 151.14757346734405 -167.9360314368314 0 -167.9360314368314 -1067.032476352455 0 0 0 0 -201.16948186286027 -216.55840761983563 0 -216.55840761983563 -1176.7205799840522 0 0 0 0 431.83883704731852 4.2765097083465662 0 4.2765097083465662 -2209.0059223592398 0 0 0 0 128.00782166301656 -99.299544554347392 0 -99.299544554347392 -17.883619683719303 0 0 0 0 146.03788511738367 -124.76990663874676 0 -124.76990663874676 -0.0091201461909804493 0 0 0 0 115.00705850206759 -116.5651424513635 0 -116.5651424513635 22.270641185165005 0 0 0 0 52.968417125551255 -86.629075127584656 0 -86.629075127584656 13.090332033061578 0 0 0 0 59.956489209110075 -106.1048464818552 0 -106.1048464818552 39.373455167640735 0 0 0 0 32.058663888418778 -99.339285980822751 0 -99.339285980822751 38.089780423688353 0 0 0 0 162.20798308079219 -109.08459885612368 0 -109.08459885612368 -12.21301418669556 0 0 0 0 900.76159625503351 -565.61553765460121 0 -565.61553765460121 -1566.5440437635116 0 0 0 0 192.12417032965459 -395.96604770084377 0 -395.96604770084377 -1600.2820566024602 0 0 0 0 5.7201866474704559 -137.01663481945823 0 -137.01663481945823 155.38263458621202 0 0 0 0 181.96075945448979 -131.37749731382792 0 -131.37749731382792 -0.00088341614173259586 0 0 0 0 156.38140296961865 -111.74943449921557 0 -111.74943449921557 -11.167445153318113 0 0 0 0 -55.470554213820833 -153.50132471458346 0 -153.50132471458346 130.30051173589891 0 0 0 0 70.535089750379029 -130.14542628012714 0 -130.14542628012714 101.73530319353449 0 0 0 0 31.916868910401206 -24.341517993931859 0 -24.341517993931859 14.6367054277747 0 0 0 0 121.41028854375713 -261.43436333929276 0 -261.43436333929276 0.18448651599464938 0 0 0 0 4.1675086106355685 -4.6867918188238278 0 -4.6867918188238278 -0.061265032996743685 0 0 0 0 -122.68274308095613 -129.61205498573327 0 -129.61205498573327 -81.061694756586803 0 0 0 0 319.02986351253958 -164.26216698774078 0 -164.26216698774078 5.1790923706721514 0 0 0 0 25.152211979782805 -125.08833779655106 0 -125.08833779655106 62.443259376455899 0 0 0 0 30.094335935371419 -130.23172722040908 0 -130.23172722040908 318.6375936883851 0 0 0 0 28.15455506493225 -98.082471011558312 0 -98.082471011558312 115.5519493021385 0 0 0 0 -109.14886303596359 -154.39326628169511 0 -154.39326628169511 333.8075739083215 0 0 0 0 146.18275420280406 -144.17182011944533 0 -144.17182011944533 326.73915021165158 0 0 0 0 -47.805800974183512 -175.21155448940408 0 -175.21155448940408 385.01829372551583 0 0 0 0 55.775148521463052 -202.76129536982626 0 -202.76129536982626 211.88399664012832 0 0 0 0 -17.89309712676739 -16.473501454512927 0 -16.473501454512927 11.135399208833846 0 0 0 0 -44.370585078402655 -170.27451118986937 0 -170.27451118986937 -191.53236280158671 0 0 0 0 -118.14600715088636 -193.33613315540424 0 -193.33613315540424 -0.49025297215848695 0 0 0 0 -30.035384038492339 -245.68307747867948 0 -245.68307747867948 -98.635846721343114 0 0 0 0 -41.473063157797014 -354.01626970650432 0 -354.01626970650432 -1059.4864248929807 0 0 0 0 -6.5815307556046534 -4.7552619306279098 0 -4.7552619306279098 -1.8475205508166681 0 0 0 0 0.004207051668117856 -13.099796664640422 0 -13.099796664640422 -10.792490879903198 0 0 0 0 939.51733058795253 -13.04327991217724 0 -13.04327991217724 -1001.3980322691496 0 0 0 0 -88.184720949298935 -1137.7058245189692 0 -1137.7058245189692 0.30248484400708814 0 0 0 0 16.609728706232545 -156.74590543739396 0 -156.74590543739396 313.04970587816206 0 0 0 0 66.228563299853704 -296.12943784083473 0 -296.12943784083473 596.40769847377669 0 0 0 0 -9.6349384878451474 -339.33341667388049 0 -339.33341667388049 372.34591099090176 0 0 0 0 -158.30049594713273 -225.24860007815005 0 -225.24860007815005 353.20894441728888 0 0 0 0 -94.333197391013528 -203.05593154224334 0 -203.05593154224334 338.16439190111123 0 0 0 0 -178.24094113671163 -165.1854598372156 0 -165.1854598372156 818.93637029168167 0 0 0 0 -7.2340181263721348 -131.53416610828481 0 -131.53416610828481 59.421808717420788 0 0 0 0 -13.178520005607425 -325.2762036035565 0 -325.2762036035565 356.60291345879887 0 0 0 0 19.637988288097404 -267.92426106735365 0 -267.92426106735365 49.403026937994582 0 0 0 0 90.954134239242194 -228.18202246811416 0 -228.18202246811416 -19.321004080557032 0 0 0 0 91.894685560007929 -26.161542433212162 0 -26.161542433212162 182.39047197795298 0 0 0 0 139.82506326744988 -231.95449104554427 0 -231.95449104554427 -276.5227068709064 0 0 0 0 -47.464952592970953 -127.35818601814043 0 -127.35818601814043 55.593947416321953 0 0 0 0 -127.85554922355004 -30.041088270911132 0 -30.041088270911132 8.4636089143168647 0 0 0 0 -246.20603369192941 -173.0131099751452 0 -173.0131099751452 955.7732028044411 0 0 0 0 -244.73168085639008 -164.6472636658018 0 -164.6472636658018 824.36216211770079 0 0 0 0 -184.04179986033705 346.90015082852915 0 346.90015082852915 1514.5946011502529 0 0 0 0 354.89757991953229 -788.97156685021764 0 -788.97156685021764 506.21601670143355 0 0 0 0 -555.05419553426691 -599.25964389232104 0 -599.25964389232104 1323.8788869530326 0 0 0 0 -462.16803161174903 -835.36747731974174 0 -835.36747731974174 1168.3297770407953 0 0 0 0 291.44472324812887 -646.12063073905665 0 -646.12063073905665 185.38304869344574 0 0 0 0 40.59312834388038 -48.34594989058678 0 -48.34594989058678 57.100924334295996 0 0 0 0 620.86343842151564 -260.42730470644892 0 -260.42730470644892 -37.359140141525131 0 0 0 0 -1082.5064741829392 -561.76051343667314 0 -561.76051343667314 -222.87982628980535 0 0 0 0 -2672.9718364572691 -657.33062159620749 0 -657.33062159620749 249.97004636497877 0 0 0 0 -773.77679548595916 -738.52577404429758 0 -738.52577404429758 -122.11573964279523 0 0 0 0 -6.9325189491094079 -120.95731840788449 0 -120.95731840788449 -53.193885227723513 0 0 0 0 19.784555271675377 -75.314339061034289 0 -75.314339061034289 42.072170106344288 0 0 0 0 169.77562660015155 -77.201238791036303 0 -77.201238791036303 -133.45661456690868 0 0 0 0 107.50996783027131 -141.66743743485131 0 -141.66743743485131 -187.21851662391418 0 0 0 0 18.174062322383129 -150.80749011034152 0 -150.80749011034152 89.895841262458447 0 0 0 0 -1864.0591825976117 -2989.1158423121742 0 -2989.1158423121742 1439.3514761827828 0 0 0 0 -3115.618642337482 -1816.0311117624369 0 -1816.0311117624369 889.49972297105705 0 0 0 0 -3540.6182254597916 -431.43206551622643 0 -431.43206551622643 493.88752786288387 0 0 0 0 -5877.0472486339677 -2954.4303292504046 0 -2954.4303292504046 1573.6818930249137 0 0 0 0 -923.03946297847142 -941.84771459146577 0 -941.84771459146577 2.6076352355613981 0 0 0 0 -32.648451351772792 -13.479273643925751 0 -13.479273643925751 -5.1371290559122542 0 0 0 0 -575.43821964504605 -990.57141021719872 0 -990.57141021719872 -260.6684353738674 0 0 0 0 -1203.0392092546681 -744.03879502831842 0 -744.03879502831842 533.91946184530752 0 0 0 0 -77.402489201614983 -43.185768115656742 0 -43.185768115656742 -17.557653116110544 0 0 0 0 -949.889435684825 -1446.6028731370498 0 -1446.6028731370498 -431.3858958560013 0 0 0 0 -1760.21836641962 -1662.6394235001208 0 -1662.6394235001208 -374.42086599289541 0 0 0 0 -2066.7686326377261 -654.38779880414222 0 -654.38779880414222 283.74039350796374 0 0 0 0 -924.26478012494772 -944.1549207383614 0 -944.1549207383614 -0.94793298142030835 0 0 0 0 -23.400934498253335 -1.1460122450290271 0 -1.1460122450290271 9.9109621789025937 0 0 0 0 -2412.3318141380514 -1171.1936315402927 0 -1171.1936315402927 -0.03761838915117225 0 0 0 0 -129.41639702107204 -57.265315693744924 0 -57.265315693744924 -26.26036938582547 0 0 0 0 11.793121218378445 -8.7499031150880455 0 -8.7499031150880455 -11.024794243765655 0 0 0 0 6.7046423611565871 -49.54979601107803 0 -49.54979601107803 -46.697676811378642 0 0 0 0 15.531780844477694 -53.188664729386531 0 -53.188664729386531 -92.115794311433717 0 0 0 0 -81.793964010528725 -109.04295311543683 0 -109.04295311543683 -166.45311939933163 0 0 0 0 -2704.5581294874355 -1372.1097376176767 0 -1372.1097376176767 -122.1316145194578 0 0 0 0 -59.092851833513123 -87.557128127285978 0 -87.557128127285978 -29.408998902654275 0 0 0 0 -61.815854491134814 -76.494540771767788 0 -76.494540771767788 -41.663173806678969 0 0 0 0 29.837098263254603 -66.603658154313479 0 -66.603658154313479 -12.507064812252963 0 0 0 0 90.921912507081288 -300.99352637201082 0 -300.99352637201082 -136.87787959643174 0 0 0 0 -45.414324948883319 -88.122348819076137 0 -88.122348819076137 40.248028374270433 0 0 0 0 -45.199107415282924 135.29940891789738 0 135.29940891789738 945.70224324053561 0 0 0 0 -59.292220551862556 207.78364307931042 0 207.78364307931042 893.29362366248097 0 0 0 0 -39.504934388969559 -54.378357836932992 0 -54.378357836932992 -215.98614376675687 0 0 0 0 -12.960380611143762 -40.111277545782926 0 -40.111277545782926 -22.237961662152088 0 0 0 0 -178.95156044529904 -505.45347587631295 0 -505.45347587631295 759.53275850476348 0 0 0 0 -1093.7118810457032 -1437.383907658048 0 -1437.383907658048 -275.25003039598232 0 0 0 0 -1.7204065599482163 -61.26333284663464 0 -61.26333284663464 106.53259356831239 0 0 0 0 -784.63025016477332 -1282.2749612974148 0 -1282.2749612974148 -891.13477898738347 0 0 0 0 689.13824741865392 454.902322755559 0 454.902322755559 -64.104320707876468 0 0 0 0 -1089.4558441280137 -1305.6413465571145 0 -1305.6413465571145 -57.654889290744904 0 0 0 0 -216.30143525496533 -1012.9967529385904 0 -1012.9967529385904 -125.4303966825828 0 0 0 0 376.84641623853531 -953.85353168682195 0 -953.85353168682195 -409.53874112013727 0 0 0 0 -850.89955130577437 -1311.7929108045937 0 -1311.7929108045937 -253.07898239663336 0 0 0 0 -127.10352895992401 -1412.8477224612434 0 -1412.8477224612434 -338.39006163587328 0 0 0 0 -806.79369851059164 -1399.4448461419088 0 -1399.4448461419088 -634.60035285018967 0 0 0 0 -118.68034035326855 -1253.1566545176465 0 -1253.1566545176465 -795.2082005693228 0 0 0 0 -1532.2139240794058 -743.25979137039394 0 -743.25979137039394 -761.9685219460298 0 0 0 0 -857.91972838031506 -1103.2546972326527 0 -1103.2546972326527 -674.67787424853304 0 0 0 0 -748.26889795588613 -2304.1672364269907 0 -2304.1672364269907 374.3292644090252 0 0 0 0 -616.79937955291825 -1476.9208002734667 0 -1476.9208002734667 -266.77809148768847 0 0 0 0 -587.62896240923146 -1593.8284873321099 0 -1593.8284873321099 -485.68539308413165 0 0 0 0 -179.66009216607245 -1874.7948714397853 0 -1874.7948714397853 -304.972790264379 0 0 0 0 1466.757367314669 -1963.8536762475123 0 -1963.8536762475123 -751.9021636122925 0 0 0 0 632.48691440260882 -2512.3281316598441 0 -2512.3281316598441 926.97085360150959 0 0 0 0 442.28431676517357 -3243.0904816838956 0 -3243.0904816838956 223.87938085454516 0 0 0 0 95.863584991682728 -3443.9021446063052 0 -3443.9021446063052 345.13255469483556 0 0 0 0 -1616.2491687488146 -3477.7222582210379 0 -3477.7222582210379 709.88300418861036 0 0 0 0 -1036.9810036395502 -2284.7061766550469 0 -2284.7061766550469 725.05351388226336 0 0 0 0 -621.20901170931302 -3058.9271263354276 0 -3058.9271263354276 719.57684606144903 0 0 0 0 -518.93818415661372 -2625.8082623708469 0 -2625.8082623708469 -54.709744051506277 0 0 0 0 -1628.879729709246 -2799.6918118726098 0 -2799.6918118726098 661.05879427303444 0 0 0 0 1.0956497873485205 -2034.5637368209063 0 -2034.5637368209063 2010.0695396703813 0 0 0 0 -9.3339185516871268 -10.152046188269139 0 -10.152046188269139 -0.98847706176337624 0 0 0 0 1277.2322598922838 -4255.8692650095763 0 -4255.8692650095763 3842.042682482017 0 0 0 0 623.31502271385034 -414.67567021375726 0 -414.67567021375726 6006.0255097970366 0 0 0 0 3379.8072912038042 1342.2739993882715 0 1342.2739993882715 1384.1152845173929 0 0 0 0 -129.56221808341434 1691.6086808040927 0 1691.6086808040927 560.50864947892478 0 0 0 0 141.47835897460027 -1972.4990926755781 0 -1972.4990926755781 1336.6095423678926 0 0 0 0 4059.3502506692421 -2191.551812512269 0 -2191.551812512269 1297.7093899458123 0 0 0 0 2027.5967199539227 -3124.5339576131009 0 -3124.5339576131009 4315.1729347063811 0 0 0 0 4617.3574874215046 -2452.7411573668069 0 -2452.7411573668069 -16.307553213354367 0 0 0 0 5.9472607735294503 -14.915976457935415 0 -14.915976457935415 45.139399609236477 0 0 0 0 1012.9809021047804 2255.896486491758 0 2255.896486491758 4029.2912997050735 0 0 0 0 -358.71617829906609 -523.52356403874001 0 -523.52356403874001 7047.3460302687745 0 0 0 0 -259.05681141623791 -133.76923867961159 0 -133.76923867961159 2847.6683690518112 0 0 0 0 -581.24303754990251 42.47301980543125 0 42.47301980543125 3221.1807752149471 0 0 0 0 518.45641250862718 1093.9341664313033 0 1093.9341664313033 2043.4295295843622 0 0 0 0 -589.64961764801865 139.63166010916393 0 139.63166010916393 2315.7860868603457 0 0 0 0 -653.74502941943501 -486.51725159425587 0 -486.51725159425587 2374.3303359646234 0 0 0 0 -650.03087644842344 -397.66082369340256 0 -397.66082369340256 3576.4175185011991 0 0 0 0 322.0985781689451 -1691.7091313912388 0 -1691.7091313912388 2690.6592958797482 0 0 0 0 709.00479422438366 -1304.161074491225 0 -1304.161074491225 1802.0707248949329 0 0 0 0 -115.46266936600296 -951.62368990366667 0 -951.62368990366667 1474.3601645580493 0 0 0 0 1058.9750994939095 -1491.946401053603 0 -1491.946401053603 147.20391600212315 0 0 0 0 -1009.3800507185006 -709.73927123333851 0 -709.73927123333851 1408.9953367354537 0 0 0 0 979.80161594060701 -1220.4102566972324 0 -1220.4102566972324 -61.15000282911933 0 0 0 0 930.8105446673344 -1317.5845156239484 0 -1317.5845156239484 422.36210848079645 0 0 0 0 1591.7384107915204 -2012.6021034098667 0 -2012.6021034098667 1152.5404491589143 0 0 0 0 900.28570441764168 -2564.1699696551514 0 -2564.1699696551514 1535.4688718670513 0 0 0 0 -18.055699759816136 -37.879221031787154 0 -37.879221031787154 -13.948271183451027 0 0 0 0 -56.348769284508307 -372.89549719326897 0 -372.89549719326897 -1223.3070312539348 0 0 0 0 1395.8017502988369 -250.78672104587531 0 -250.78672104587531 -1324.4823753361416 0 0 0 0 688.74650896032836 -816.51697244772367 0 -816.51697244772367 377.40304745326284 0 0 0 0 2102.3299090503951 -727.68906852321015 0 -727.68906852321015 213.98988559775171 0 0 0 0 578.62994525349859 -669.60057420512749 0 -669.60057420512749 808.05942802780191 0 0 0 0 -510.71889545158774 -297.72702336428483 0 -297.72702336428483 -105.40859856119278 0 0 0 0 1.8459052403704987 -6.6768981924288155 0 -6.6768981924288155 3.9111298082448798 0 0 0 0 1.9621421686206304 -36.925505632748468 0 -36.925505632748468 -21.815646385432515 0 0 0 0 393.98464565217 -603.24026241764841 0 -603.24026241764841 68.260835902983672 0 0 0 0 21.981844369897658 -3.6082528412739237 0 -3.6082528412739237 -7.8922840198076472 0 0 0 0 256.99140533832542 -716.90572937285469 0 -716.90572937285469 1313.41128047038 0 0 0 0 19.86655441451876 -122.68401557188918 0 -122.68401557188918 -425.4550328378391 0 0 0 0 -17.312938223232777 -76.962966629776929 0 -76.962966629776929 -53.07243485559593 0 0 0 0 -7.8711417015108296 -24.584252828061302 0 -24.584252828061302 -25.389206994492156 0 0 0 0 8.6624085832140523 -19.587577273881241 0 -19.587577273881241 57.017014114578728 0 0 0 0 -4082.2743367212179 -787.24176605751563 0 -787.24176605751563 2950.9444043562398 0 0 0 0 16080.630535021433 -1596.6374474349577 0 -1596.6374474349577 -5528.4445576335565 0 0 0 0 1504.9514863268205 -6917.4889704195812 0 -6917.4889704195812 6496.3437280759244 0 0 0 0 -1938.5995761275863 -3155.099344772636 0 -3155.099344772636 5845.7640821290479 0 0 0 0 777.73996000962779 -3648.9847403744789 0 -3648.9847403744789 2645.9630080249626 0 0 0 0 -1924.8964937848505 -1474.1899721678419 0 -1474.1899721678419 2578.5187873345567 0 0 0 0 -1456.2210893700731 -2767.3834348574746 0 -2767.3834348574746 5106.5625652866438 0 0 0 0 -2641.1242826816342 -604.98602040574769 0 -604.98602040574769 3283.3881276591856 0 0 0 0 -1593.8942754475756 -1085.7086318596848 0 -1085.7086318596848 1919.2129013839003 0 0 0 0 -1942.0896351242591 -430.12611066558748 0 -430.12611066558748 1496.4851176305965 0 0 0 0 -1520.460649885712 -1076.1627903560002 0 -1076.1627903560002 1415.7647623786761 0 0 0 0 -3942.0583407702834 -1175.6423363354697 0 -1175.6423363354697 3911.3840885959216 0 0 0 0 -5660.1352608396155 -996.43050966605369 0 -996.43050966605369 2246.0300734862249 0 0 0 0 14277.039066611998 -7004.2785222730236 0 -7004.2785222730236 4823.5233748570536 0 0 0 0 7.7456147987957422 -29.459745825850881 0 -29.459745825850881 53.197586372153125 0 0 0 0 -1899.6697533644292 -1.4390697980998084 0 -1.4390697980998084 -1012.9061491885659 0 0 0 0 1.5178087158262987 -44.432725265335421 0 -44.432725265335421 88.63623269483287 0 0 0 0 -3184.0845652244125 -1184.3789655254823 0 -1184.3789655254823 358.78652649433934 0 0 0 0 -339.2242721963616 173.66941981270065 0 173.66941981270065 143.27142733163782 0 0 0 0 -2224.8870540158823 -1589.5114216840302 0 -1589.5114216840302 -451.81996126536615 0 0 0 0 -1183.6171511468615 -951.09441809509008 0 -951.09441809509008 -355.17997687053867 0 0 0 0 1344.5317228528002 1049.8989274805936 0 1049.8989274805936 -1638.874130913784 0 0 0 0 -56.011009342986654 -2683.9177468614944 0 -2683.9177468614944 1540.9683268857189 0 0 0 0 131.66057177520452 -2186.4062567576184 0 -2186.4062567576184 1529.7285808439774 0 0 0 0 2311.9979430250719 -1434.4130265692693 0 -1434.4130265692693 96.876871656539151 0 0 0 0 -131.86212756072928 -1450.9436992564442 0 -1450.9436992564442 1665.9530477789231 0 0 0 0 -1207.6043306591673 -1177.6090429388423 0 -1177.6090429388423 2123.3968824353942 0 0 0 0 -1101.1596772088415 -1412.7871916135773 0 -1412.7871916135773 2136.4617655755428 0 0 0 0 -1287.5835853895878 -1268.7427040996554 0 -1268.7427040996554 2035.7937643377227 0 0 0 0 -813.39619221280736 -165.48959313257365 0 -165.48959313257365 1991.1405559294653 0 0 0 0 -723.1521114648931 -331.49734382484166 0 -331.49734382484166 2024.4301884463348 0 0 0 0 -1271.6217162366302 -675.26023157566669 0 -675.26023157566669 2049.2124815850057 0 0 0 0 -1271.771387917659 -742.25524302109261 0 -742.25524302109261 2176.5334323935676 0 0 0 0 -1065.5126865562925 -345.67803779151291 0 -345.67803779151291 2753.7466572671547 0 0 0 0 -1003.9657330592963 -462.35648147301981 0 -462.35648147301981 2183.9164817571873 0 0 0 0 -1174.486055676578 -909.60054238671728 0 -909.60054238671728 1844.9026871780516 0 0 0 0 -1202.8283997932376 -734.69642548679258 0 -734.69642548679258 2693.5837002922053 0 0 0 0 -1536.1270266734791 -608.54344685940305 0 -608.54344685940305 2385.1395740378357 0 0 0 0 -1550.7490079192751 -938.59461071458963 0 -938.59461071458963 2053.4730567054357 0 0 0 0 -1702.6872681586756 -670.95350394510024 0 -670.95350394510024 1738.3495072135702 0 0 0 0 -1855.4175052907085 -1279.0853736538265 0 -1279.0853736538265 1508.519654623291 0 0 0 0 -1736.1383478887437 -929.91608791056206 0 -929.91608791056206 2080.0121904709667 0 0 0 0 -1546.1125608636394 -1389.9484632890235 0 -1389.9484632890235 2493.3825276513235 0 0 0 0 -918.60307165577251 -2319.4101392242737 0 -2319.4101392242737 3020.5741560785973 0 0 0 0 -1566.4448062115916 -1404.7999887322949 0 -1404.7999887322949 2410.4912522382801 0 0 0 0 -1625.819270150605 -782.1877612665412 0 -782.1877612665412 1864.9222843270109 0 0 0 0 -1577.4356331109957 -1031.3390417711344 0 -1031.3390417711344 2066.5937098961149 0 0 0 0 -1752.2298105221198 -1138.0498376095202 0 -1138.0498376095202 2001.5231439519848 0 0 0 0 -1500.1985225193057 -1031.8178648575413 0 -1031.8178648575413 1454.5395757744263 0 0 0 0 -1725.0708045194697 -995.12009027012391 0 -995.12009027012391 1454.4395567171687 0 0 0 0 -1466.0386546311602 -955.29966311860335 0 -955.29966311860335 492.42491416743724 0 0 0 0 -1378.7776632794285 -890.61155421001604 0 -890.61155421001604 369.13972228270723 0 0 0 0 -1741.8941396813243 -580.08721667604914 0 -580.08721667604914 1749.2445685333805 0 0 0 0 -1528.0009863950108 -910.42567873263033 0 -910.42567873263033 1449.42733216341 0 0 0 0 -1254.560533568424 -1031.2528005701461 0 -1031.2528005701461 -301.90951912623132 0 0 0 0 -1331.7190145066779 -893.77278902032413 0 -893.77278902032413 369.13413435521943 0 0 0 0 -1332.9902992527532 -1450.3157142987548 0 -1450.3157142987548 -863.24543536710553 0 0 0 0 -1745.9223239247876 -1183.5890065001367 0 -1183.5890065001367 479.46365814606543 0 0 0 0 -811.08751315033078 -727.11409672055743 0 -727.11409672055743 -1421.2498586735746 0 0 0 0 -885.82462169073733 -710.68259864336142 0 -710.68259864336142 -897.49970311869401 0 0 0 0 -1036.4882249672398 -1190.3776808051475 0 -1190.3776808051475 916.10378850216512 0 0 0 0 -2134.8121252251003 -720.34211885751574 0 -720.34211885751574 723.49002264073351 0 0 0 0 -1552.6035628008467 -1603.303562165238 0 -1603.303562165238 -1145.4560799605679 0 0 0 0 -2209.5281076629326 -2795.3548967289389 0 -2795.3548967289389 -1596.3540857544285 0 0 0 0 -2933.6940323171511 -2011.7044009713572 0 -2011.7044009713572 -165.01805649495509 0 0 0 0 -1533.689690311403 -97.609255508868955 0 -97.609255508868955 -313.25025451859983 0 0 0 0 -16.295916599266775 -15.235696065205957 0 -15.235696065205957 -3.8868887925168281 0 0 0 0 -3183.77739490573 -1251.408035485525 0 -1251.408035485525 7189.4184641071188 0 0 0 0 -1976.5489433620678 -240.08032437668589 0 -240.08032437668589 4589.3660253520065 0 0 0 0 -35.2217239292344 -5.266008764974174 0 -5.266008764974174 0.47589089442728749 0 0 0 0 2717.6442210149908 -1699.3076855553081 0 -1699.3076855553081 -2031.7632434460538 0 0 0 0 -4396.9141609457074 -237.18324016834958 0 -237.18324016834958 6805.2702116208675 0 0 0 0 -598.97294554439941 -1272.2871387381601 0 -1272.2871387381601 -4108.0002229453821 0 0 0 0 -825.51912005717168 -1519.8349671641772 0 -1519.8349671641772 1949.9573346515353 0 0 0 0 -786.55189969483763 -1311.7215426553594 0 -1311.7215426553594 5273.5632533153403 0 0 0 0 -496.18486441681125 -1742.7812309458968 0 -1742.7812309458968 -1868.2369921160862 0 0 0 0 -1686.8070580992644 -636.29521452034533 0 -636.29521452034533 -542.50421758608718 0 0 0 0 -86.911091308859952 -72.948817002536856 0 -72.948817002536856 43.355539648153155 0 0 0 0 15502.259660009433 -3991.7470996552438 0 -3991.7470996552438 -4028.9827543814608 0 0 0 0 17.988562799195915 -54.313778634170887 0 -54.313778634170887 120.99837387856167 0 0 0 0 -3335.0367561821058 -37.100198790045397 0 -37.100198790045397 7421.5174640791956 0 0 0 0 -2186.5477708746025 -1140.5355819796314 0 -1140.5355819796314 -635.86540617494029 0 0 0 0 -2860.264230312052 465.14897822627972 0 465.14897822627972 -318.26935047184816 0 0 0 0 -1476.6605815715702 -658.20328471643734 0 -658.20328471643734 -708.65030497826228 0 0 0 0 -1433.6017118106902 -965.05251278573996 0 -965.05251278573996 -1386.7509117212321 0 0 0 0 -1481.7647985355834 -339.48934090975672 0 -339.48934090975672 106.59416222566506 0 0 0 0 -1833.5970346987815 -2821.9394736202084 0 -2821.9394736202084 2119.5574799545284 0 0 0 0 2371.7590861402859 -2592.4112035909347 0 -2592.4112035909347 1733.7882131552324 0 0 0 0 56.204992644910817 -19.258518915245077 0 -19.258518915245077 92.35459131006246 0 0 0 0 91.02891789799736 -36.781647535583801 0 -36.781647535583801 14.59935823964123 0 0 0 0 192.65004854138533 -118.85931350216561 0 -118.85931350216561 97.486486241514285 0 0 0 0 216.34971848157875 -101.79501995823375 0 -101.79501995823375 91.84443812390964 0 0 0 0 213.44058842849336 -113.25162144464412 0 -113.25162144464412 47.534741742652841 0 0 0 0 -96.066561687557623 -563.11436126239823 0 -563.11436126239823 -876.74138338072225 0 0 0 0 45.489138293194017 -176.47539444105391 0 -176.47539444105391 110.89454974271229 0 0 0 0 270.59484794951641 -110.0831992001913 0 -110.0831992001913 61.853282347969071 0 0 0 0 197.10922730235325 -148.24325222620246 0 -148.24325222620246 143.1024765975817 0 0 0 0 252.09968313555873 -167.18432712842332 0 -167.18432712842332 108.31365321321937 0 0 0 0 252.55876571630506 -131.67848056975345 0 -131.67848056975345 146.70612358648577 0 0 0 0 105.49102665418468 -158.61344817942881 0 -158.61344817942881 180.30257280650039 0 0 0 0 52.862974076068959 -174.57140564612357 0 -174.57140564612357 108.02402448403126 0 0 0 0 296.82051595079611 -142.11945896000543 0 -142.11945896000543 115.40372733161348 0 0 0 0 544.82889616023022 -217.93554356729146 0 -217.93554356729146 133.85653831599484 0 0 0 0 -913.12824134825132 -367.26054717075749 0 -367.26054717075749 518.29244165387354 0 0 0 0 -428.80289967748104 -10.036331928655272 0 -10.036331928655272 55.840624302989454 0 0 0 0 -301.86508827661055 76.217671359776432 0 76.217671359776432 81.642082896927604 0 0 0 0 -275.36641950811463 -165.35295236953971 0 -165.35295236953971 10.427627165481681 0 0 0 0 -295.82796039934601 -459.60334353474536 0 -459.60334353474536 321.77598329431203 0 0 0 0 -788.43463723000605 -782.21629363206739 0 -782.21629363206739 -665.31552880343224 0 0 0 0 -1075.2638314717769 196.32749306987535 0 196.32749306987535 431.78043687762693 0 0 0 0 -658.74184539532143 -1128.7908993937453 0 -1128.7908993937453 -489.01954886344902 0 0 0 0 -2025.5561654744681 -2388.6478383727576 0 -2388.6478383727576 -2229.5369860655046 0 0 0 0 -2135.3204946018209 120.39529737318344 0 120.39529737318344 -532.60976167261833 0 0 0 0 -1071.7320859590836 -589.39045698576956 0 -589.39045698576956 -768.08558607430314 0 0 0 0 72.914913143744343 -839.55984658688249 0 -839.55984658688249 -4985.4699497719048 0 0 0 0 -239.70374845634069 -1302.6429581333687 0 -1302.6429581333687 -2521.9797544099856 0 0 0 0 -157.04796057229396 -59.996571752366435 0 -59.996571752366435 -2092.5472774580412 0 0 0 0 -186.22618835989124 -941.03446004909347 0 -941.03446004909347 -1167.8133559000271 0 0 0 0 287.47733396828698 -518.30583731349907 0 -518.30583731349907 -1702.7264353327191 0 0 0 0 125.27814206784387 -587.74398728543747 0 -587.74398728543747 -1134.89664199244 0 0 0 0 396.19720512678032 -864.04731969639397 0 -864.04731969639397 -840.24766528110194 0 0 0 0 330.84899228434551 -1053.076612399831 0 -1053.076612399831 -1125.7228279311676 0 0 0 0 132.31653137505782 -674.32340883291909 0 -674.32340883291909 -968.49373309995281 0 0 0 0 72.453113293328897 -1174.0704781563945 0 -1174.0704781563945 -675.47600818867795 0 0 0 0 403.7916707002878 -1378.6815103182562 0 -1378.6815103182562 -1860.1541285815911 0 0 0 0 1134.6220933217191 -1196.4074919818304 0 -1196.4074919818304 -783.02286896058649 0 0 0 0 446.09785814180213 -992.32689416673384 0 -992.32689416673384 -608.59762910302379 0 0 0 0 619.95005549416237 -15.795466160663636 0 -15.795466160663636 -1549.2764476860175 0 0 0 0 -14.131480520413248 -15.139235826621331 0 -15.139235826621331 -16.635673909605146 0 0 0 0 61.534415056059515 -218.97219779761508 0 -218.97219779761508 127.19298667734256 0 0 0 0 327.25955859675014 -822.56042269477621 0 -822.56042269477621 -68.11488184971131 0 0 0 0 -344.04181358807182 164.93006641185275 0 164.93006641185275 -105.54084845041507 0 0 0 0 113.12568419898889 -716.30644050129195 0 -716.30644050129195 199.00609016428643 0 0 0 0 -246.31300436623133 -676.76289442855341 0 -676.76289442855341 -336.8391129134543 0 0 0 0 228.79211402837973 -1021.6850637864263 0 -1021.6850637864263 -756.72598197482148 0 0 0 0 -1502.9740995284701 105.91965975017956 0 105.91965975017956 218.23542396610719 0 0 0 0 -0.16178004430066295 -1.1285912514266911 0 -1.1285912514266911 2.1292609249080101 0 0 0 0 1895.0497532026566 -1293.3123182922136 0 -1293.3123182922136 20.32753936114932 0 0 0 0 479.35349314098312 -407.42713620320683 0 -407.42713620320683 565.37135583042982 0 0 0 0 1387.7891813117458 -926.36365749538527 0 -926.36365749538527 549.02245371241588 0 0 0 0 1347.2029613233171 -987.13847325625829 0 -987.13847325625829 458.29447526108743 0 0 0 0 -12.356953246811827 -13.950016821313199 0 -13.950016821313199 18.889859177538938 0 0 0 0 -656.50894194707871 117.86120787920663 0 117.86120787920663 232.47205074384692 0 0 0 0 -4.9254440452446602 -8.1477709763331632 0 -8.1477709763331632 -6.1077728971009151 0 0 0 0 -307.56293651447049 0.10491978510981426 0 0.10491978510981426 -79.090869028965244 0 0 0 0 -306.16160378951099 -373.00678363254156 0 -373.00678363254156 364.31075952867104 0 0 0 0 -412.6810295656469 -246.62029886648816 0 -246.62029886648816 -83.414468953575124 0 0 0 0 -163.6752331413154 40.384700108712423 0 40.384700108712423 243.01884852319199 0 0 0 0 -41.372628730875959 -56.433844433099317 0 -56.433844433099317 -47.247933480723646 0 0 0 0 117.42079585765168 -186.36873717403341 0 -186.36873717403341 -112.71302473091055 0 0 0 0 -95.90865829429822 -478.28910014993744 0 -478.28910014993744 196.50286189778126 0 0 0 0 55.417284306979127 -272.15295835934921 0 -272.15295835934921 -217.63857351115439 0 0 0 0 -25.241240988973033 -25.281371771275673 0 -25.281371771275673 92.050206674613037 0 0 0 0 -88.223784963280195 -230.81951906631002 0 -230.81951906631002 58.148815752691007 0 0 0 0 2.7373182532173814 -202.93767541542184 0 -202.93767541542184 -206.94888761738548 0 0 0 0 -40.577557999713463 -357.16919860153575 0 -357.16919860153575 112.57186471408932 0 0 0 0 63.181999397082109 -313.87599832004435 0 -313.87599832004435 -216.44290924625238 0 0 0 0 -228.25650387976202 -92.514773579896428 0 -92.514773579896428 -66.088564032248541 0 0 0 0 -422.20786166939797 -129.95649166586372 0 -129.95649166586372 68.79954315291252 0 0 0 0 -215.65161733751302 -299.65740401990479 0 -299.65740401990479 183.46435910408036 0 0 0 0 68.326677432269207 -321.16364962752778 0 -321.16364962752778 -72.938090081312112 0 0 0 0 -33.09944660264938 -37.61902781950716 0 -37.61902781950716 -43.678030263225537 0 0 0 0 105.37931316540926 -146.67339397688193 0 -146.67339397688193 -173.76460644935287 0 0 0 0 -145.68939107505867 -85.206145536860276 0 -85.206145536860276 -90.307970856661086 0 0 0 0 -150.81568190107646 -179.80873784193682 0 -179.80873784193682 -110.65049287676084 0 0 0 0 151.01821670980098 -198.20145262260121 0 -198.20145262260121 -149.84407477098284 0 0 0 0 79.902350315453077 -79.272775578456276 0 -79.272775578456276 -30.639819639953203 0 0 0 0 59.702632298969547 -388.75819844811122 0 -388.75819844811122 -124.13612571427075 0 0 0 0 104.65760904016497 -138.2210263127381 0 -138.2210263127381 -58.595757558890909 0 0 0 0 7.6240635641788685 -339.16630927580445 0 -339.16630927580445 -182.58218003995717 0 0 0 0 -609.35939122967829 -326.56361293560622 0 -326.56361293560622 -125.12528762102011 0 0 0 0 -333.24233582408851 -135.47467961860639 0 -135.47467961860639 -187.69982817492564 0 0 0 0 -33.364575282198643 -290.6515072718214 0 -290.6515072718214 -93.515023316009319 0 0 0 0 45.220439069569693 -175.18622930228594 0 -175.18622930228594 -308.23268666992954 0 0 0 0 14.830573713254125 -68.601924167608558 0 -68.601924167608558 -11.767366847503581 0 0 0 0 -33.706418835515024 -271.37297124381575 0 -271.37297124381575 -238.02234536036849 0 0 0 0 -279.30956926333602 -390.19504030764801 0 -390.19504030764801 -242.71034787598182 0 0 0 0 29.146214046850218 -252.25278664371035 0 -252.25278664371035 -232.66772530542221 0 0 0 0 -156.62389297108166 -319.96344923140714 0 -319.96344923140714 -219.25431504219887 0 0 0 0 -117.93525330655393 -146.09165485494304 0 -146.09165485494304 -230.75418663868913 0 0 0 0 -117.93525330635021 -146.09165485491394 0 -146.09165485491394 -230.75418663863093 0 0 0 0 -117.93525330646662 -146.0916548549576 0 -146.0916548549576 -230.75418663874734 0 0 0 0 52.055966169093153 -137.77548958019179 0 -137.77548958019179 -128.88626168880364 0 0 0 0 11.455929290570765 -38.125357832495951 0 -38.125357832495951 22.409717041334233 0 0 0 0 -674.65938842186006 -755.38347674735269 0 -755.38347674735269 -288.38963248021901 0 0 0 0 -55.9724975109566 -588.87082731057308 0 -588.87082731057308 -732.84211529762979 0 0 0 0 -137.47818381985417 -372.59776157015585 0 -372.59776157015585 -455.97033983467554 0 0 0 0 177.90576706995125 -68.117454730545433 0 -68.117454730545433 -253.41193739039591 0 0 0 0 87.775866090611089 -54.344869434356951 0 -54.344869434356951 -88.14880793588236 0 0 0 0 32.047753839059837 -58.649328250429619 0 -58.649328250429619 -51.218577438444129 0 0 0 0 207.76852490298006 -31.90159426991886 0 -31.90159426991886 25.207101841107942 0 0 0 0 193.58213750458526 19.445756375018391 0 19.445756375018391 -159.83345675528835 0 0 0 0 935.01377471332546 -527.95211345585028 0 -527.95211345585028 -128.74364581512054 0 0 0 0 165.24651925778744 149.38479070152243 0 149.38479070152243 5.8446001844131388 0 0 0 0 -28.85809809339726 -46.930756841849039 0 -46.930756841849039 -74.52455547957004 0 0 0 0 -2898.5337324066058 1641.0112512496562 0 1641.0112512496562 -407.5097762777259 0 0 0 0 374.57345787341183 -518.59173760051635 0 -518.59173760051635 107.46617055072329 0 0 0 0 443.1206922754136 -1893.793379381128 0 -1893.793379381128 1695.1408876479254 0 0 0 0 217.91677489591893 -2253.2846736628744 0 -2253.2846736628744 2192.5724976240163 0 0 0 0 -65.985426748724421 -3211.936184538994 0 -3211.936184538994 547.82890361118734 0 0 0 0 35.788625482152298 -199.53131815352873 0 -199.53131815352873 135.3852474141209 0 0 0 0 527.10825646851299 -1030.2137621692873 0 -1030.2137621692873 874.46660955634434 0 0 0 0 -100.92617749817873 1186.6498376778109 0 1186.6498376778109 -3192.3265020110921 0 0 0 0 -6.172446075026528 -2674.9999473094049 0 -2674.9999473094049 2979.7622799379169 0 0 0 0 -269.2797093524714 -1728.3805838265471 0 -1728.3805838265471 1707.8054914711902 0 0 0 0 -381.5762038675457 -1827.1319618152775 0 -1827.1319618152775 3446.2910365527605 0 0 0 0 -16.259449094521642 -17.443297743768909 0 -17.443297743768909 -14.586028444907157 0 0 0 0 -536.23776318081946 422.24990938863266 0 422.24990938863266 -1397.5573821254511 0 0 0 0 -337.71546607760683 -335.424246992392 0 -335.424246992392 -731.21355186238361 0 0 0 0 179.42330989577749 -424.72934215978603 0 -424.72934215978603 -1545.6991657884628 0 0 0 0 564.67769910139032 -673.18111926190613 0 -673.18111926190613 -2704.094202428334 0 0 0 0 -459.60429486963403 -616.81658115912796 0 -616.81658115912796 356.76923819852527 0 0 0 0 36.758444381659501 -376.11382163755843 0 -376.11382163755843 -733.36051825866161 0 0 0 0 -180.90289391895931 -213.0220980067752 0 -213.0220980067752 -19.762428425898179 0 0 0 0 23.265781114270794 -321.76937452702987 0 -321.76937452702987 2.0302966528452089 0 0 0 0 433.52671246428872 51.521769990664325 0 51.521769990664325 312.340184345936 0 0 0 0 -248.43318574573277 17.669205936390426 0 17.669205936390426 541.42795837327139 0 0 0 0 52.048831820914486 -178.68849891175716 0 -178.68849891175716 111.96541164079611 0 0 0 0 -327.59460210184625 106.34633022094204 0 106.34633022094204 229.03594523228821 0 0 0 0 258.9180688848428 -585.96489204873797 0 -585.96489204873797 -301.13202351985092 0 0 0 0 -15.60228731600364 -553.38753574882867 0 -553.38753574882867 534.2387223370315 0 0 0 0 839.59063372905439 -110.70916899493386 0 -110.70916899493386 278.50075437864871 0 0 0 0 549.67310333333444 -802.41360753735353 0 -802.41360753735353 680.03045101152384 0 0 0 0 934.25286770666935 -706.12495895727625 0 -706.12495895727625 -130.81020910607185 0 0 0 0 359.84076126746731 -387.86151343832171 0 -387.86151343832171 -58.065666953451 0 0 0 0 1839.945175643621 -244.21352366404608 0 -244.21352366404608 100.15024427918252 0 0 0 0 10.22781391137687 -597.80008302789065 0 -597.80008302789065 233.25843968898698 0 0 0 0 1248.797765463969 -115.8161303687848 0 -115.8161303687848 -1177.6892120051853 0 0 0 0 -619.24235945466171 -609.17719317468436 0 -609.17719317468436 394.73515514103929 0 0 0 0 59.191152859836457 -186.55609794709039 0 -186.55609794709039 113.50438534518034 0 0 0 0 -28.409331985458266 -803.51630258894875 0 -803.51630258894875 -86.407030183298048 0 0 0 0 396.14024985822471 -1596.8798691919292 0 -1596.8798691919292 -94.435261173315666 0 0 0 0 -792.84458099523181 -1304.0010681505009 0 -1304.0010681505009 209.42676497158391 0 0 0 0 -797.92307447826192 -1147.158255883593 0 -1147.158255883593 -224.89319883450662 0 0 0 0 -2242.4102187078315 -1050.0445370722664 0 -1050.0445370722664 49.185643102529866 0 0 0 0 -3.0135194069896123 -8.780178254813265 0 -8.780178254813265 -4.6852452573494929 0 0 0 0 1580.4979443795055 -919.77492435514068 0 -919.77492435514068 13.664979713017601 0 0 0 0 999.33279280814531 -662.76580783113604 0 -662.76580783113604 253.75452154417871 0 0 0 0 1174.8257638645155 -340.34358233649982 0 -340.34358233649982 628.26982401148416 0 0 0 0 1580.012094856902 -462.4926206694654 0 -462.4926206694654 0.5926753173553152 0 0 0 0 2073.5424026754226 -344.34005318593699 0 -344.34005318593699 -148.26362585132301 0 0 0 0 1016.2751211855357 -1161.1920271005729 0 -1161.1920271005729 841.0271505099081 0 0 0 0 635.64670232089702 -705.53485097906378 0 -705.53485097906378 312.52025277256325 0 0 0 0 1057.3180537993248 -825.000386442749 0 -825.000386442749 133.52279721468949 0 0 0 0 602.59994729139908 -78.967834156397657 0 -78.967834156397657 -80.704621890443377 0 0 0 0 45.957220226344361 -36.288340751085343 0 -36.288340751085343 -1741.4306681632152 0 0 0 0 272.88773190243955 -236.88408252730733 0 -236.88408252730733 -3615.63767916285 0 0 0 0 -11.469299128574306 -8.3721308525459506 0 -8.3721308525459506 -10.708864059724348 0 0 0 0 -74.424604269523115 -1247.0429547344938 0 -1247.0429547344938 918.67920798660271 0 0 0 0 -337.17869666736806 -1482.5057678268349 0 -1482.5057678268349 -1109.9474556854984 0 0 0 0 -236.00903508803367 -2019.5721610314131 0 -2019.5721610314131 -167.11102407376166 0 0 0 0 -361.29010346065115 -1153.3986246329623 0 -1153.3986246329623 -247.16646989402216 0 0 0 0 -387.63720746219042 -735.81789180300984 0 -735.81789180300984 -464.4836656856387 0 0 0 0 -621.03526731676538 -900.44070964772254 0 -900.44070964772254 -353.28125577805258 0 0 0 0 -298.2105062505143 -464.75524487163784 0 -464.75524487163784 -191.8377426004572 0 0 0 0 -577.40334148242437 -695.55118148537349 0 -695.55118148537349 -237.94281453140138 0 0 0 0 -430.80088580828669 -546.72388378405594 0 -546.72388378405594 -90.401672358399082 0 0 0 0 -329.30184811844083 -302.73322443346478 0 -302.73322443346478 -46.882233466611069 0 0 0 0 -400.4842250862639 -545.69389657293505 0 -545.69389657293505 -143.68744049715315 0 0 0 0 -99.29758832438165 -287.04889789388108 0 -287.04889789388108 -128.96372418364626 0 0 0 0 -881.61750457838207 -741.85607433249243 0 -741.85607433249243 -125.47408480873673 0 0 0 0 -415.5442120944972 -341.5807316036844 0 -341.5807316036844 -78.434343603927118 0 0 0 0 -502.03324147580861 -291.46336372877704 0 -291.46336372877704 -18.299483154034533 0 0 0 0 -1010.823049079605 -500.92867646973173 0 -500.92867646973173 -42.308324813664512 0 0 0 0 -958.45549963940357 -730.26575305471852 0 -730.26575305471852 -80.999194392206846 0 0 0 0 -1090.09466683555 -1292.7631655552541 0 -1292.7631655552541 -295.9622809939101 0 0 0 0 -1213.4620462862513 -985.13905901351245 0 -985.13905901351245 -285.83193797622516 0 0 0 0 -1268.7885798799525 -754.65717573440088 0 -754.65717573440088 -474.10175724381406 0 0 0 0 -1111.9106250145633 -811.29519342810818 0 -811.29519342810818 -595.9231955177238 0 0 0 0 -1267.4735012842029 -763.78995915259475 0 -763.78995915259475 -432.55306362018746 0 0 0 0 -1163.6006052570992 -449.54855485663211 0 -449.54855485663211 23.631268060198636 0 0 0 0 -1120.7534673775008 -951.58869847811002 0 -951.58869847811002 -1796.809547503246 0 0 0 0 -1740.1532780745365 -1164.8650514113215 0 -1164.8650514113215 -562.09249140822067 0 0 0 0 -1807.4706034185147 -217.22374937848508 0 -217.22374937848508 241.70755162462592 0 0 0 0 -906.53141047585086 -77.407479013585544 0 -77.407479013585544 -1739.9999924485669 0 0 0 0 -1320.5140727909675 -1132.3306277683041 0 -1132.3306277683041 -74.61775334898266 0 0 0 0 -1315.4232679765628 233.83318201488146 0 233.83318201488146 -385.14385355815466 0 0 0 0 -1666.8868911119571 639.30114579363726 0 639.30114579363726 -1055.8777473620794 0 0 0 0 -1256.1757880064156 -331.66718412474074 0 -331.66718412474074 -96.492562608211301 0 0 0 0 -946.51958189133165 31.84164250687445 0 31.84164250687445 -1034.496566784539 0 0 0 0 -1242.6650531426203 -281.13384076044167 0 -281.13384076044167 -1301.7546525260259 0 0 0 0 -951.38579139235662 -275.36519454007794 0 -275.36519454007794 -574.70944713176868 0 0 0 0 -918.85501851975278 -272.58791236943944 0 -272.58791236943944 -2120.8722299682704 0 0 0 0 -294.72433847850334 1596.5493946165661 0 1596.5493946165661 -2566.6450849680841 0 0 0 0 1601.6765741509298 160.12478176745935 0 160.12478176745935 -3282.2635714984972 0 0 0 0 -1725.6381122228486 -572.42477525118011 0 -572.42477525118011 532.22345470645814 0 0 0 0 2142.975054382001 -791.07451070670868 0 -791.07451070670868 -2603.717683730094 0 0 0 0 -1.0011955672642472 -5.4703282832058804 0 -5.4703282832058804 -9.6901487276378475 0 0 0 0 -1831.918998076344 -371.52448644732067 0 -371.52448644732067 464.08753308182349 0 0 0 0 358.28900033809441 -693.58654663884226 0 -693.58654663884226 291.72395800153026 0 0 0 0 -4.2493554213019493 -15.16836369218877 0 -15.16836369218877 -14.011866175500245 0 0 0 0 60.201660710179567 -1320.2280336296099 0 -1320.2280336296099 53.689745852645501 0 0 0 0 -1177.1359120048401 -509.87375188093574 0 -509.87375188093574 248.61038697981712 0 0 0 0 1590.7353564255754 -648.47163351920608 0 -648.47163351920608 14.479404148311005 0 0 0 0 1241.1991388911847 -908.19570036843652 0 -908.19570036843652 107.07293417399342 0 0 0 0 961.4447735322974 -574.4523310591394 0 -574.4523310591394 211.55589065227105 0 0 0 0 1508.3439244932742 -1184.7295394876492 0 -1184.7295394876492 146.22870399587555 0 0 0 0 1111.8040373958502 -743.00219282474427 0 -743.00219282474427 72.196720911000739 0 0 0 0 1520.384921609264 -696.64505765560898 0 -696.64505765560898 638.00663184512814 0 0 0 0 2770.5056098669156 -952.49629267105774 0 -952.49629267105774 -108.07837344220025 0 0 0 0 948.14368969068892 -908.03217262727048 0 -908.03217262727048 53.970649711016449 0 0 0 0 -760.7455168171 -253.32169639639324 0 -253.32169639639324 148.93832277162437 0 0 0 0 1404.7051498161018 -1038.5671162888029 0 -1038.5671162888029 -247.39259230376047 0 0 0 0 -358.8984477956692 -692.2598962441989 0 -692.2598962441989 482.90129953896394 0 0 0 0 -668.76424861261694 -1475.8940894608422 0 -1475.8940894608422 -1498.7077604847436 0 0 0 0 3695.5597521794552 -1458.2503688440338 0 -1458.2503688440338 -478.46696035450441 0 0 0 0 3049.0404302651295 -306.74241325669573 0 -306.74241325669573 -298.90165619852087 0 0 0 0 1212.4311544949524 -1450.906738889702 0 -1450.906738889702 349.34393991135585 0 0 0 0 6042.329953944849 -3675.2375615052842 0 -3675.2375615052842 -1155.6079789240612 0 0 0 0 876.31622276959024 207.64900782319819 0 207.64900782319819 -1266.9262522250938 0 0 0 0 -2556.095139468991 -720.20088001208933 0 -720.20088001208933 -561.81268042709416 0 0 0 0 1210.574930158371 -796.02446285371843 0 -796.02446285371843 -691.0825656192028 0 0 0 0 -1832.3386692456916 -3519.5011185791154 0 -3519.5011185791154 -524.25439476812608 0 0 0 0 1569.0816296231415 -4390.4392778158699 0 -4390.4392778158699 -303.06903877455625 0 0 0 0 -803.77295063521888 822.68418386688791 0 822.68418386688791 -1584.2733454364497 0 0 0 0 -264.601845107798 -790.39268047850055 0 -790.39268047850055 -501.99041959935676 0 0 0 0 -286.21566059540783 -572.82420453081431 0 -572.82420453081431 -1844.3302698921834 0 0 0 0 -395.88380422496266 458.32313093025732 0 458.32313093025732 -917.41395030361309 0 0 0 0 -521.71348883267638 373.99805696467956 0 373.99805696467956 -873.98958656177274 0 0 0 0 224.7558857932745 16.239054549470893 0 16.239054549470893 -774.56753965453026 0 0 0 0 -100.42438497140029 634.7210094050206 0 634.7210094050206 -1878.5390559995431 0 0 0 0 -902.2526555428085 312.19948428564749 0 312.19948428564749 -580.21045797005354 0 0 0 0 34.405181906651706 37.230337597153266 0 37.230337597153266 -742.72005863959566 0 0 0 0 -126.33721748638345 297.17648389824899 0 297.17648389824899 -802.85690165512642 0 0 0 0 -7.6774458089927862 -11.034835225012763 0 -11.034835225012763 -19.70432180774651 0 0 0 0 -1600.5373492672115 -697.3168329021064 0 -697.3168329021064 336.85297388549952 0 0 0 0 293.2704765898452 12.771825767311384 0 12.771825767311384 -13.094428672884533 0 0 0 0 171.607967150685 -357.0064384854486 0 -357.0064384854486 -410.20428329611605 0 0 0 0 -795.30034463692118 -366.39694713368044 0 -366.39694713368044 5.6325094760104548 0 0 0 0 -21.335728302463451 -30.79762547372038 0 -30.79762547372038 -51.078523156804522 0 0 0 0 77.743600043962942 -361.54986063206161 0 -361.54986063206161 -44.076021021821362 0 0 0 0 397.14022788433658 -744.19961787771445 0 -744.19961787771445 -228.55868543236284 0 0 0 0 166.40787832019487 -385.71703996667202 0 -385.71703996667202 -568.8013210506906 0 0 0 0 -298.29848213566584 -492.83027872948151 0 -492.83027872948151 -672.62949628505157 0 0 0 0 -271.05314108411403 -401.94127928993112 0 -401.94127928993112 -372.32965983741451 0 0 0 0 27.959805813920127 -25.159596217531593 0 -25.159596217531593 14.77418796949371 0 0 0 0 -32.09517493686144 -351.04984332796448 0 -351.04984332796448 -637.47742974812354 0 0 0 0 -176.43270164461865 -278.90702180301014 0 -278.90702180301014 81.062568398105213 0 0 0 0 -159.03567427358939 -397.5043956593363 0 -397.5043956593363 -234.47123820034903 0 0 0 0 147.4347708753703 -30.163434638961917 0 -30.163434638961917 -350.8550126292248 0 0 0 0 114.71048598290037 -106.00255374583176 0 -106.00255374583176 36.95223432692876 0 0 0 0 -751.56337174843065 -611.16106992546702 0 -611.16106992546702 37.715496643635561 0 0 0 0 -226.28824953132425 -846.6198110376572 0 -846.6198110376572 -357.42285496657132 0 0 0 0 103.96588149298864 -98.357757109096156 0 -98.357757109096156 22.416342160805584 0 0 0 0 -349.92271870770492 -760.56872159228078 0 -760.56872159228078 -385.76517106599931 0 0 0 0 -359.12256628298201 -592.51893237065815 0 -592.51893237065815 -473.6839574021833 0 0 0 0 -102.05762370155571 -676.05940179805475 0 -676.05940179805475 -495.1299586800742 0 0 0 0 836.4510953900317 62.13361643646931 0 62.13361643646931 -740.2330612668884 0 0 0 0 2009.1421076952829 -1432.3462502861803 0 -1432.3462502861803 -581.31891053752042 0 0 0 0 -54.941050193505362 -1005.7238039968943 0 -1005.7238039968943 -411.95359742676374 0 0 0 0 2375.8644180883421 -717.27811834018212 0 -717.27811834018212 -800.64897858985933 0 0 0 0 -19.281144195645027 -6.281009886561165 0 -6.281009886561165 9.318741251091069 0 0 0 0 27.230680128394596 1.0309005068721717 0 1.0309005068721717 -14.778781876011919 0 0 0 0 2470.9566538120271 -1384.857756775571 0 -1384.857756775571 -160.95653725182638 0 0 0 0 578.63150933794077 -206.99839768197035 0 -206.99839768197035 -507.03152500878787 0 0 0 0 654.09214253196842 -564.75090509661095 0 -564.75090509661095 -370.19547921192134 0 0 0 0 581.71336753434343 -128.86440486931906 0 -128.86440486931906 -421.97508466787986 0 0 0 0 858.80872581023141 -546.18689077020099 0 -546.18689077020099 -818.93085718043949 0 0 0 0 123.17840187535941 -131.54017561150923 0 -131.54017561150923 67.069358429000204 0 0 0 0 928.67382590593479 -108.78931152751829 0 -108.78931152751829 -884.91299953396083 0 0 0 0 11.889245429573982 -69.970803121673484 0 -69.970803121673484 -58.015068729966913 0 0 0 0 74.841491690091061 -484.42035732403747 0 -484.42035732403747 -458.46588194376091 0 0 0 0 264.04355147813112 -514.98554058271111 0 -514.98554058271111 -475.08899894502247 0 0 0 0 -10.547067805978855 -92.217731666284465 0 -92.217731666284465 -11.930626387022414 0 0 0 0 -1148.6495683766552 -349.73827019590681 0 -349.73827019590681 -20.152560889429878 0 0 0 0 -1177.5909193888147 -1549.4047577968595 0 -1549.4047577968595 346.69711588810605 0 0 0 0 3.8660938658489954 2.2572565246853173 0 2.2572565246853173 2.0077633519371716 0 0 0 0 -408.40242459598812 -529.16927905042394 0 -529.16927905042394 -417.07248244568473 0 0 0 0 -472.01402061438239 -545.66329762359055 0 -545.66329762359055 193.76414012364694 0 0 0 0 -608.58161760041548 -928.71980219199031 0 -928.71980219199031 2411.6286367628163 0 0 0 0 -919.48135694561643 -753.51985751117172 0 -753.51985751117172 178.52490333333844 0 0 0 0 -1362.5496223910304 -584.01009284771135 0 -584.01009284771135 609.79546995744749 0 0 0 0 -1322.3609269036533 -956.50709755484422 0 -956.50709755484422 145.46366877079709 0 0 0 0 -1430.4618251183419 -992.78988313588343 0 -992.78988313588343 399.73184899362968 0 0 0 0 -1149.8919232858534 -432.32699335784855 0 -432.32699335784855 1407.0845091413066 0 0 0 0 -1685.9377989664936 -1466.225150206039 0 -1466.225150206039 420.91707366381343 0 0 0 0 -1129.8076489540108 -1154.4356615930592 0 -1154.4356615930592 31.712989559564448 0 0 0 0 -1469.4916452166981 -983.9761437891575 0 -983.9761437891575 -45.920280353166163 0 0 0 0 -1469.9225465454219 -1041.1417041884488 0 -1041.1417041884488 341.00780199526343 0 0 0 0 -1281.8148552727362 -941.18001425405237 0 -941.18001425405237 -194.66994358188822 0 0 0 0 -1198.2438891112688 -707.78309411025111 0 -707.78309411025111 -765.38593149374356 0 0 0 0 -1360.7730269405733 -582.97733827167531 0 -582.97733827167531 -241.97085732154665 0 0 0 0 -1277.8981172758286 -734.00068988184648 0 -734.00068988184648 -95.268495019277907 0 0 0 0 -1329.6726761234995 -1430.9946244281364 0 -1430.9946244281364 -1038.0649060914729 0 0 0 0 -827.77995715955331 -732.29368330001307 0 -732.29368330001307 -221.50970227996004 0 0 0 0 -884.97936177706924 -740.81669744812189 0 -740.81669744812189 -215.04843572860409 0 0 0 0 -1058.1426651898 -1112.5755986491677 0 -1112.5755986491677 -417.97887530844309 0 0 0 0 -310.46818858308689 -538.60040338076942 0 -538.60040338076942 -433.10064021897415 0 0 0 0 -452.07789672110812 -998.35953989041445 0 -998.35953989041445 -438.27044124342501 0 0 0 0 -516.0194517103082 -841.57559037577448 0 -841.57559037577448 -809.42313764474238 0 0 0 0 -71.10692207772081 -544.62109379187314 0 -544.62109379187314 -781.00431753418525 0 0 0 0 -15.467192720207095 -263.22320074841991 0 -263.22320074841991 -299.84064974388457 0 0 0 0 208.30571240939025 -414.79459610261256 0 -414.79459610261256 -1165.4421793612419 0 0 0 0 -202.34301187199162 -806.11131362625019 0 -806.11131362625019 -1010.6709247956169 0 0 0 0 4.7209600442147348 -569.14064157307439 0 -569.14064157307439 -851.07807928883994 0 0 0 0 -21.490453807167796 -962.86129680306476 0 -962.86129680306476 -1316.9798404382309 0 0 0 0 406.09830826717371 -349.49989732005633 0 -349.49989732005633 -2120.6109896844428 0 0 0 0 218.74127364475498 -169.80687427325756 0 -169.80687427325756 -525.19913334801095 0 0 0 0 50.524650694380398 -119.51627632181044 0 -119.51627632181044 -2955.6003962118448 0 0 0 0 -215.41903065795486 -1168.8969120392139 0 -1168.8969120392139 -1531.3985479117473 0 0 0 0 -1125.6512116230078 -1519.6749931009253 0 -1519.6749931009253 -369.3599240098556 0 0 0 0 -819.20043014157272 -1536.7122990906209 0 -1536.7122990906209 -1190.1077100833354 0 0 0 0 -1331.1270554133807 -1440.9299331713046 0 -1440.9299331713046 -368.30516924971016 0 0 0 0 -1219.3336185027765 -1336.0450139180903 0 -1336.0450139180903 -164.52578987619199 0 0 0 0 -1998.4862313578888 -1190.5879268213721 0 -1190.5879268213721 -186.98727001334191 0 0 0 0 -1269.5963300594667 -1838.2586099541149 0 -1838.2586099541149 -1072.4935837512603 0 0 0 0 -2449.6656188268807 -1661.8203333869442 0 -1661.8203333869442 -495.88087355144671 0 0 0 0 -402.96360351200747 -1927.1776997907018 0 -1927.1776997907018 -3396.1760073482583 0 0 0 0 -2221.090799894635 -2483.8943087356602 0 -2483.8943087356602 -1354.2413854681217 0 0 0 0 -1881.5211652075523 -1554.9251212269119 0 -1554.9251212269119 -1523.9854460984498 0 0 0 0 -2690.2150102938031 -785.8985897531893 0 -785.8985897531893 -26.667270081351944 0 0 0 0 -594.16451943299035 -37.807223971154599 0 -37.807223971154599 -43.180300547435763 0 0 0 0 -1126.1612270879123 -3105.2849570302787 0 -3105.2849570302787 529.98527919246408 0 0 0 0 -79.374358015375037 -2835.2469511958479 0 -2835.2469511958479 532.73176452000916 0 0 0 0 -1384.4437392323307 -3211.5571397003805 0 -3211.5571397003805 -221.91888208227465 0 0 0 0 -1475.2878544167684 -2507.5058133445136 0 -2507.5058133445136 558.27028018466081 0 0 0 0 -1890.1584087313859 -1950.8968605585505 0 -1950.8968605585505 1327.9659739171038 0 0 0 0 -15.003341245109581 -10.098392705043494 0 -10.098392705043494 -6.563661288662388 0 0 0 0 -1307.071140930926 -1240.9037937259345 0 -1240.9037937259345 1355.1692486156244 0 0 0 0 -839.81873938477656 -1830.029600071648 0 -1830.029600071648 499.74089608943905 0 0 0 0 -115.63613744782776 -1751.7175432200918 0 -1751.7175432200918 280.78746420610696 0 0 0 0 555.28156599131762 -1354.1784389022941 0 -1354.1784389022941 482.37528242571989 0 0 0 0 1279.5247157223639 -1675.1052771652903 0 -1675.1052771652903 -184.93213221812039 0 0 0 0 1464.6489263239127 -838.36195213328756 0 -838.36195213328756 -29.245659874868579 0 0 0 0 1297.7943439533428 -743.16280406163787 0 -743.16280406163787 321.91862572790706 0 0 0 0 1218.0794223177181 -929.55262884093099 0 -929.55262884093099 -62.97063717347919 0 0 0 0 587.97497763051069 -1012.1413896159938 0 -1012.1413896159938 310.25220968449139 0 0 0 0 350.00565622580325 -569.40406842306402 0 -569.40406842306402 1242.0279838147108 0 0 0 0 1299.2538388750327 -740.79086069283949 0 -740.79086069283949 404.18060703897208 0 0 0 0 156.06624664662013 420.01694849428532 0 420.01694849428532 -740.55916167789837 0 0 0 0 134.32932608343617 68.192707760434132 0 68.192707760434132 -522.05579349864274 0 0 0 0 -39.730371458208538 -160.52585211256519 0 -160.52585211256519 711.66416839027079 0 0 0 0 1164.238056866443 -1003.9547624756888 0 -1003.9547624756888 338.61616504634731 0 0 0 0 47.775475864342297 -388.53011662772042 0 -388.53011662772042 554.46402176479751 0 0 0 0 -24.119764989995616 -32.149724469003687 0 -32.149724469003687 -17.728014157686346 0 0 0 0 210.23342423481517 -407.48739511777239 0 -407.48739511777239 223.51268203359359 0 0 0 0 -6.5805260223733484 -7.1182878261315921 0 -7.1182878261315921 20.339887277244372 0 0 0 0 144.41199813634012 -123.28130219404557 0 -123.28130219404557 -313.5224876870343 0 0 0 0 -84.919609373930143 -94.637474676594138 0 -94.637474676594138 222.58235041081758 0 0 0 0 -69.813074183883145 -192.22642500718939 0 -192.22642500718939 73.934276489424519 0 0 0 0 79.704967041794589 -86.689180563447735 0 -86.689180563447735 141.5986475244863 0 0 0 0 26.815203270650244 -43.783593852629892 0 -43.783593852629892 -2.679881498136524 0 0 0 0 82.016601538052782 -225.07690732501214 0 -225.07690732501214 237.86380853327864 0 0 0 0 514.24153776242747 -142.72149180813722 0 -142.72149180813722 50.985551303310785 0 0 0 0 -26.68141633303712 -42.995603744958828 0 -42.995603744958828 43.17646573815324 0 0 0 0 78.100147244345862 -103.54122121020919 0 -103.54122121020919 115.73783164063934 0 0 0 0 21.218526355036175 -65.687803073692521 0 -65.687803073692521 32.795856631305639 0 0 0 0 61.179067545901262 -73.003087282275374 0 -73.003087282275374 1.0927204549661838 0 0 0 0 51.522171739727597 -57.198595469030749 0 -57.198595469030749 46.38177362487329 0 0 0 0 1754.260939902495 -193.7416298143653 0 -193.7416298143653 51.332466687937767 0 0 0 0 57.330414447242219 -65.038804200543382 0 -65.038804200543382 -0.002912775962613523 0 0 0 0 19.550821818818804 -47.906149772868957 0 -47.906149772868957 19.771886846778216 0 0 0 0 3.5357342880015494 -75.785275855509099 0 -75.785275855509099 -0.043533291603441306 0 0 0 0 27.862857063601354 -17.08994639303711 0 -17.08994639303711 14.304497458074763 0 0 0 0 9375.5666440007008 28.926004471359192 0 28.926004471359192 -777.47021799605864 0 0 0 0 1955.9912822776678 -934.29720079920662 0 -934.29720079920662 -536.32680931467621 0 0 0 0 1536.0521460961809 -800.75163014570353 0 -800.75163014570353 -106.14317571927677 0 0 0 0 2982.1765408013889 -1670.6569269688625 0 -1670.6569269688625 -374.62629646281857 0 0 0 0 1890.1928702545847 -3724.8204171471625 0 -3724.8204171471625 248.09226952152676 0 0 0 0 2991.6924827340918 -5338.4561378186554 0 -5338.4561378186554 3.4184809420257807 0 0 0 0 681.65428635186618 -3434.4915729180721 0 -3434.4915729180721 419.97063242926379 0 0 0 0 -1883.830141312239 -5593.8261276929261 0 -5593.8261276929261 1.4458290909318128 0 0 0 0 -990.02786164615827 -4493.3176779697969 0 -4493.3176779697969 618.51486271049362 0 0 0 0 -1494.4317434062323 -2884.304146577866 0 -2884.304146577866 1038.2814169226913 0 0 0 0 -1311.71364126755 -3263.9967853564667 0 -3263.9967853564667 1020.1453929324052 0 0 0 0 -971.0492947261373 -857.55473580578109 0 -857.55473580578109 194.78030534429126 0 0 0 0 -509.76417258899892 -504.53059341506741 0 -504.53059341506741 -326.42555312463082 0 0 0 0 -401.74309380170598 -239.99047897127457 0 -239.99047897127457 290.41994967703067 0 0 0 0 1790.0157138597497 -2758.8522756849161 0 -2758.8522756849161 842.41118806251325 0 0 0 0 -65.763155692149553 -78.270183375728465 0 -78.270183375728465 -35.829702373865132 0 0 0 0 -188.79188836968387 -1281.3550135595578 0 -1281.3550135595578 590.08952109655365 0 0 0 0 637.8363509329065 -1322.489748856904 0 -1322.489748856904 -93.120006682991516 0 0 0 0 -864.61111533937219 -595.39230720260821 0 -595.39230720260821 810.99389725722722 0 0 0 0 1821.6507314301343 -1906.5120695975565 0 -1906.5120695975565 -1779.8495077883999 0 0 0 0 -1467.994915991414 -136.9298476103686 0 -136.9298476103686 208.30492289933318 0 0 0 0 -606.09445622505154 -461.05543051398126 0 -461.05543051398126 -31.728367645293474 0 0 0 0 53.915099475998431 -27.092165276102605 0 -27.092165276102605 125.57058158358268 0 0 0 0 53.939582234333471 -92.864556293080796 0 -92.864556293080796 103.4540105601863 0 0 0 0 -122.35614141898986 6.0357709978998173 0 6.0357709978998173 136.11503264598286 0 0 0 0 15.823940352158388 -41.682123260223307 0 -41.682123260223307 -50.171368488372536 0 0 0 0 79.972666197216313 -212.00775216944749 0 -212.00775216944749 59.092479891638504 0 0 0 0 -8.0654732217145408 -68.683090299250836 0 -68.683090299250836 -44.071212838851693 0 0 0 0 107.73613650269544 -336.2511285662622 0 -336.2511285662622 340.62922261000494 0 0 0 0 -109.64689897527569 50.666004669561516 0 50.666004669561516 427.07644621628424 0 0 0 0 266.80674010586517 156.661588114599 0 156.661588114599 228.39479272287281 0 0 0 0 -110.16940500662895 70.278460185159929 0 70.278460185159929 458.98441951713176 0 0 0 0 -120.68603392294608 26.468957401957596 0 26.468957401957596 31.784718152921414 0 0 0 0 59.805722033182974 -182.61291747038194 0 -182.61291747038194 -218.94141496042721 0 0 0 0 128.26093722024234 -131.39838732912904 0 -131.39838732912904 130.05573412613012 0 0 0 0 121.32054990993493 -133.97297657858144 0 -133.97297657858144 135.7349005852011 0 0 0 0 13.515449334972885 -16.715479838741146 0 -16.715479838741146 13.55071712165477 0 0 0 0 60.464424823490162 -88.117439790803019 0 -88.117439790803019 43.303502693685004 0 0 0 0 12.800759287022942 -17.496159724417367 0 -17.496159724417367 5.177405464013134 0 0 0 0 -33.51360573117563 124.46194448448659 0 124.46194448448659 100.01397387646102 0 0 0 0 78.596105926728342 -45.55985470530868 0 -45.55985470530868 16.297512272125459 0 0 0 0 -845.55602560630359 65.342818935605465 0 65.342818935605465 34.021436656285914 0 0 0 0 1.3800020409696856 -0.010450942491331716 0 -0.010450942491331716 -7.1900324312819066 0 0 0 0 85.342994183463816 -56.043607331732346 0 -56.043607331732346 0.080647440947359428 0 0 0 0 -1160.2571918963004 -1358.1894708752498 0 -1358.1894708752498 -40.438363767723786 0 0 0 0 -3704.3005684265081 -481.75818903083564 0 -481.75818903083564 0.73354060685960576 0 0 0 0 703.46161414541166 -1082.7712220900667 0 -1082.7712220900667 -197.5799919400306 0 0 0 0 -4871.58642777364 1034.5869690401232 0 1034.5869690401232 880.85893262524041 0 0 0 0 -18.697312134884527 -13.091855612589306 0 -13.091855612589306 -19.331963497020865 0 0 0 0 -2272.9933311745262 -2566.8599198105076 0 -2566.8599198105076 512.49730130279204 0 0 0 0 -728.40462594116616 -533.38033985287984 0 -533.38033985287984 1185.5029471890011 0 0 0 0 -602.94919131201459 -676.40586558727955 0 -676.40586558727955 -2075.451739703145 0 0 0 0 -619.48142909008675 -727.98279471420938 0 -727.98279471420938 335.54927930395934 0 0 0 0 2179.4203884732487 -2403.0686759792152 0 -2403.0686759792152 369.642227227072 0 0 0 0 -4366.6490622279234 -796.46681167080533 0 -796.46681167080533 -0.83191730418499188 0 0 0 0 4687.1885889536352 -2825.6552844576072 0 -2825.6552844576072 -750.14411601271422 0 0 0 0 -6672.1549712099804 -1221.6143956750675 0 -1221.6143956750675 -370.36847442982253 0 0 0 0 -5013.365491729026 -2487.9471268714115 0 -2487.9471268714115 -4198.9083067566389 0 0 0 0 -8637.6514314567903 -4459.8065558846865 0 -4459.8065558846865 -1096.6878988419194 0 0 0 0 -8317.6502564472794 -3142.7727610176153 0 -3142.7727610176153 328.71800052700564 0 0 0 0 -3098.7464800259186 -1739.1281359959248 0 -1739.1281359959248 -112.19754414605268 0 0 0 0 -13079.824720692319 942.90880194737838 0 942.90880194737838 2670.7675745503802 0 0 0 0 -6914.9856883554085 -2553.8459137469081 0 -2553.8459137469081 2233.9987975569093 0 0 0 0 -7221.391379933596 1827.3661157829952 0 1827.3661157829952 294.32189057348296 0 0 0 0 -3547.5189223147754 -774.91607795839082 0 -774.91607795839082 2208.7103713070101 0 0 0 0 -27.747375520514666 -28.936766130422882 0 -28.936766130422882 -11.271989338185449 0 0 0 0 3738.9518951245554 -997.34982483254862 0 -997.34982483254862 -534.0579655311958 0 0 0 0 -3197.0084123599227 -1029.4862198332121 0 -1029.4862198332121 1138.4153882037026 0 0 0 0 -54.479441742939869 -70.975035508641469 0 -70.975035508641469 -31.619553158818178 0 0 0 0 -2335.0118561612471 -2182.9876533075512 0 -2182.9876533075512 -388.75243666028837 0 0 0 0 -5105.0630290115951 -1772.8395591568842 0 -1772.8395591568842 2625.9473254088953 0 0 0 0 -4044.7558465201873 -2674.7610485793848 0 -2674.7610485793848 2634.7759279550519 0 0 0 0 -3795.7111368368933 -3745.0315966752241 0 -3745.0315966752241 2068.3590517110024 0 0 0 0 -1552.4782084558756 -2993.1664327698527 0 -2993.1664327698527 -4095.8324088438385 0 0 0 0 -407.71764257379982 -441.40618223234196 0 -441.40618223234196 773.3364518435701 0 0 0 0 470.47445717599476 -166.59418490964163 0 -166.59418490964163 -1131.8793468257063 0 0 0 0 -3233.3373845723254 -1381.1724677094098 0 -1381.1724677094098 123.4173755402262 0 0 0 0 -727.5440078553811 522.64154308234401 0 522.64154308234401 -1002.1366809324827 0 0 0 0 -11.519591330914409 -2012.1704587603235 0 -2012.1704587603235 -4048.660082527369 0 0 0 0 -31.46114324344768 -29.771320370961121 0 -29.771320370961121 -25.286223748635791 0 0 0 0 -3749.3497374808503 -3278.6488809605544 0 -3278.6488809605544 4208.6769096798671 0 0 0 0 -2010.8685814850032 -983.44086243353377 0 -983.44086243353377 4920.0515427827486 0 0 0 0 -3817.0541882120306 -1997.4051353913092 0 -1997.4051353913092 4491.8661742269178 0 0 0 0 444.58896152084344 15.49022830373724 0 15.49022830373724 3714.0110794000211 0 0 0 0 -335.902002772782 -471.84152370951779 0 -471.84152370951779 819.54816837710678 0 0 0 0 -163.35838453416363 -181.21720800259209 0 -181.21720800259209 -124.11269507013276 0 0 0 0 -2027.9994334731891 1172.33136492208 0 1172.33136492208 746.98545502357592 0 0 0 0 -764.15182020043721 1475.910849343767 0 1475.910849343767 -562.38063196523581 0 0 0 0 -2.802192098581088 -8.4412540885608678 0 -8.4412540885608678 9.1826146441942029 0 0 0 0 3457.5229206970998 -4565.5074045322463 0 -4565.5074045322463 1601.6803161994467 0 0 0 0 -36.103942999160381 -61.906626889380085 0 -61.906626889380085 -44.071710899406924 0 0 0 0 4072.632515086425 -1769.6185250186063 0 -1769.6185250186063 757.04228600091301 0 0 0 0 -3316.751501860912 -1925.4417551545921 0 -1925.4417551545921 2561.3101027418597 0 0 0 0 -643.5420941025659 -1600.0119122948963 0 -1600.0119122948963 2432.1696183176537 0 0 0 0 -29.419116333971033 -3380.8874706295755 0 -3380.8874706295755 886.98426489782287 0 0 0 0 -3031.5379626560607 -1374.316459758993 0 -1374.316459758993 1371.6675527323823 0 0 0 0 -509.81877931358758 -1888.0268190274546 0 -1888.0268190274546 751.18052551976871 0 0 0 0 1410.5672911360889 -1420.9455306660093 0 -1420.9455306660093 -54.586805226699653 0 0 0 0 -2864.9132348963903 -2856.2485509151011 0 -2856.2485509151011 -0.97028487711213529 0 0 0 0 105.0178388013228 -3149.5003326072983 0 -3149.5003326072983 -1463.1002382227452 0 0 0 0 1569.7872391330957 -2565.8522341673261 0 -2565.8522341673261 1948.8269936278812 0 0 0 0 4582.2721052116249 -2614.0744743303076 0 -2614.0744743303076 0.050276130360955407 0 0 0 0 0.38273196874168036 -6.9113398839879778 0 -6.9113398839879778 10.587431912686156 0 0 0 0 -1.9040323526058387 -9.5098073726083641 0 -9.5098073726083641 0.30919025382456766 0 0 0 0 -15.079836121556582 -91.705973567339242 0 -91.705973567339242 0.35794845241569279 0 0 0 0 -1119.3368626104566 267.5388618936995 0 267.5388618936995 65.944051170314196 0 0 0 0 -473.87987793133652 241.41063029797806 0 241.41063029797806 49.097193939192948 0 0 0 0 -350.39640490914462 -486.94938812493638 0 -486.94938812493638 150.52988966485646 0 0 0 0 -153.02512295694214 -102.04647034112531 0 -102.04647034112531 370.3914926124562 0 0 0 0 -20.37430440474931 -15.287335717931143 0 -15.287335717931143 133.857603767245 0 0 0 0 -13.255173407465918 -105.32277147492277 0 -105.32277147492277 -0.19251896487548947 0 0 0 0 -6.3387928152549193 -4.7457275394762632 0 -4.7457275394762632 7.7400331121543786 0 0 0 0 -1565.8764499301033 -473.86478683796304 0 -473.86478683796304 171.54041021436569 0 0 0 0 -594.15350518369814 -1090.7540707246517 0 -1090.7540707246517 -731.47750980537967 0 0 0 0 -798.04659600873129 -1260.7228981902299 0 -1260.7228981902299 -6.6714404965501766 0 0 0 0 -40.951699110169557 -116.78914707081805 0 -116.78914707081805 -59.355030666347687 0 0 0 0 -791.02626454658457 -698.24955204641446 0 -698.24955204641446 628.2095921040891 0 0 0 0 -40.328770256006294 -118.60649388599791 0 -118.60649388599791 -54.50929844783289 0 0 0 0 -661.70388004926644 -656.65399021336634 0 -656.65399021336634 -183.05683417370892 0 0 0 0 -310.56346052119625 -344.74507459600864 0 -344.74507459600864 -376.66985222847143 0 0 0 0 -609.66998449418134 -331.45854390047043 0 -331.45854390047043 67.531242623663275 0 0 0 0 -488.46181339691975 -306.16749655242165 0 -306.16749655242165 -12.631302957597654 0 0 0 0 -583.86457703850465 -205.82169679699291 0 -205.82169679699291 130.30027799328673 0 0 0 0 -292.5541549193149 -176.67857673244725 0 -176.67857673244725 -171.56317292417225 0 0 0 0 -461.43074635244557 -243.77623991742439 0 -243.77623991742439 -179.62698621469553 0 0 0 0 -386.75813283656316 -474.00783548415347 0 -474.00783548415347 -74.454416425343879 0 0 0 0 -35.368912678888137 -113.47457852817502 0 -113.47457852817502 -47.964277029173758 0 0 0 0 -378.61130038044939 -243.83962533530575 0 -243.83962533530575 227.78222822649695 0 0 0 0 -405.38814531714888 -91.599965645727934 0 -91.599965645727934 28.276374502445833 0 0 0 0 353.98914616156253 -385.95650843594922 0 -385.95650843594922 -97.678598904109094 0 0 0 0 -3.5320243840803869 -31.695525821175778 0 -31.695525821175778 -52.849369934608092 0 0 0 0 777.16949139696953 513.32764544020029 0 513.32764544020029 -2197.5249077915796 0 0 0 0 108.65317310580576 -1577.0708814725194 0 -1577.0708814725194 -3856.5009653296729 0 0 0 0 -157.3936013059938 -200.1766309504419 0 -200.1766309504419 -1341.3189611752023 0 0 0 0 -98.673803211073391 -787.92351041122311 0 -787.92351041122311 -1090.9253650058163 0 0 0 0 -470.49324030389835 -1303.6371225732655 0 -1303.6371225732655 -1654.0764870692365 0 0 0 0 -2839.0620971078315 -2641.9624364975825 0 -2641.9624364975825 -1773.4738838932972 0 0 0 0 -1143.7132181928555 -1904.6831839768665 0 -1904.6831839768665 -1476.6832078934385 0 0 0 0 -345.22607517513006 -411.32275286151844 0 -411.32275286151844 -220.11607893767359 0 0 0 0 -345.15321444690926 -397.88835393251065 0 -397.88835393251065 -727.18029406049754 0 0 0 0 -687.5039828105655 -887.03554154856101 0 -887.03554154856101 -428.91094249791422 0 0 0 0 -216.08732888262603 -627.89123562079476 0 -627.89123562079476 -464.97666417128494 0 0 0 0 -485.90234722595051 -616.71773752431909 0 -616.71773752431909 -72.926829561780323 0 0 0 0 -1328.4681818836616 -1489.5451149071123 0 -1489.5451149071123 -125.42570201458875 0 0 0 0 -1088.2760724674517 -1619.659134119207 0 -1619.659134119207 -320.58705646831368 0 0 0 0 -1364.759863415733 -2004.92786873562 0 -2004.92786873562 -687.67818468886981 0 0 0 0 -1165.5872444909037 -1905.536212439365 0 -1905.536212439365 -649.13270007498795 0 0 0 0 -1177.170524808389 -1916.1545009594338 0 -1916.1545009594338 -465.48201311727462 0 0 0 0 -1229.5321942195733 -1936.8709659159431 0 -1936.8709659159431 -310.98949091214854 0 0 0 0 -1338.3956862903578 -2183.9869170412858 0 -2183.9869170412858 -360.49273970696959 0 0 0 0 -809.9804690041201 -2186.6450865726292 0 -2186.6450865726292 -270.14050608166144 0 0 0 0 -451.80289914479363 -1261.1832268667276 0 -1261.1832268667276 -229.20575031758199 0 0 0 0 -1835.1501071594248 -1293.2734239207202 0 -1293.2734239207202 -490.4119077209034 0 0 0 0 -1503.2790682306513 -2381.4065732166418 0 -2381.4065732166418 -820.25853405651287 0 0 0 0 -864.34040877629013 -1104.6836063828814 0 -1104.6836063828814 -1230.6622111695906 0 0 0 0 -1097.2524874654191 -1273.2807449748943 0 -1273.2807449748943 -596.83840710877121 0 0 0 0 -529.64739193789137 -672.35193278702536 0 -672.35193278702536 -474.52642328880029 0 0 0 0 -359.49023598738131 -866.30414310144261 0 -866.30414310144261 -260.26185162201364 0 0 0 0 -771.86681033458444 -1635.7183858138742 0 -1635.7183858138742 -426.25054842347163 0 0 0 0 593.32853471668204 -384.74997487709334 0 -384.74997487709334 -174.54926960233388 0 0 0 0 426.73673664063972 519.97146227829944 0 519.97146227829944 542.09881907366253 0 0 0 0 249.74770580464974 179.54661628021859 0 179.54661628021859 319.10671084898058 0 0 0 0 142.5358279005959 -179.60606148198531 0 -179.60606148198531 143.94758583093062 0 0 0 0 -7.3256937927508261 -221.34743143133528 0 -221.34743143133528 133.76288951127208 0 0 0 0 21.201853856871821 187.92480248426546 0 187.92480248426546 354.63921041047433 0 0 0 0 -187.16678492954816 -95.171841049625073 0 -95.171841049625073 48.519640059355879 0 0 0 0 109.38053334515479 -95.431359720815806 0 -95.431359720815806 68.258894750820048 0 0 0 0 5377.3157583968714 -7912.3576369538787 0 -7912.3576369538787 -1832.1734829783672 0 0 0 0 231.69063550618012 -63.958691153326072 0 -63.958691153326072 656.00564491857949 0 0 0 0 -11171.419013532082 865.99980659403082 0 865.99980659403082 -6218.7623642122489 0 0 0 0 553.13907988581923 43.726761734578758 0 43.726761734578758 -71.702695052677882 0 0 0 0 666.21204440988367 -99.476844949400402 0 -99.476844949400402 109.38318259824882 0 0 0 0 577.44534913089592 578.31017359977704 0 578.31017359977704 85.233032682474004 0 0 0 0 -240.84844150548452 71.634789254327188 0 71.634789254327188 4.7062882609316148 0 0 0 0 139.93231872934848 -110.98305512382649 0 -110.98305512382649 -508.42295705775905 0 0 0 0 60.638624193845317 250.83803070924478 0 250.83803070924478 367.65946050691127 0 0 0 0 -290.76524129501195 -606.89459185730084 0 -606.89459185730084 -432.82028963748598 0 0 0 0 -713.59035121111083 -410.94527506506711 0 -410.94527506506711 -474.29891927835706 0 0 0 0 -984.71765321710745 -1015.1829500272158 0 -1015.1829500272158 -904.56821087081335 0 0 0 0 -1082.7794100465544 -866.6690869966551 0 -866.6690869966551 -1098.4010061386252 0 0 0 0 -1023.9202598510465 -117.05729347455281 0 -117.05729347455281 -362.43853506504092 0 0 0 0 82.433473121578572 -12.19701881853689 0 -12.19701881853689 -558.09671944190632 0 0 0 0 72.737184213969158 68.815751436835853 0 68.815751436835853 -1115.8193035111472 0 0 0 0 -157.4198872531415 -251.22506699062069 0 -251.22506699062069 -472.45880398763984 0 0 0 0 -318.49177825833613 -773.71182090809452 0 -773.71182090809452 -1118.3839400536278 0 0 0 0 -3608.3221658783586 -2564.9687716302396 0 -2564.9687716302396 -1546.3437376535148 0 0 0 0 -2356.5307467517705 348.30048763227205 0 348.30048763227205 -844.9547019804013 0 0 0 0 -1544.1564901188685 -3320.4251610883148 0 -3320.4251610883148 -3540.9497676033025 0 0 0 0 -1267.4321014703601 -2918.4593530382499 0 -2918.4593530382499 -3591.092594946982 0 0 0 0 -1755.4686059709347 -2659.2825145071547 0 -2659.2825145071547 -3686.5142131287867 0 0 0 0 -1.1462690868971777 -2.1854284136290119 0 -2.1854284136290119 -25.505273842770521 0 0 0 0 -1407.584978614279 -1185.0030143001131 0 -1185.0030143001131 -3106.086895430497 0 0 0 0 -1951.5635638503009 -1910.7291086934274 0 -1910.7291086934274 -1314.357116346946 0 0 0 0 -8.6266777095152065 -43.809616017249937 0 -43.809616017249937 119.27005670387007 0 0 0 0 0.0094645278877578676 -46.524717311120185 0 -46.524717311120185 103.70650159887737 0 0 0 0 -717.18412299046759 337.58069711825374 0 337.58069711825374 722.49268818252676 0 0 0 0 -10.266322264375049 -36.457855840519187 0 -36.457855840519187 106.08758419851074 0 0 0 0 -2.7721486942807836 -20.584163014194331 0 -20.584163014194331 112.0731965267791 0 0 0 0 -34.304435815603938 -51.15813048529526 0 -51.15813048529526 118.43431272503312 0 0 0 0 -13.129332816624892 -38.812047892657745 0 -38.812047892657745 138.87139507250242 0 0 0 0 -317.55510329792924 -331.07538035003336 0 -331.07538035003336 57.728041238806327 0 0 0 0 -0.075206773352337344 -66.044356963953504 0 -66.044356963953504 119.56532652121678 0 0 0 0 -16.920999133233863 -11.621726575497377 0 -11.621726575497377 7.6047514673479384 0 0 0 0 -1172.7245204667415 -2773.3064529472613 0 -2773.3064529472613 -4449.900213753921 0 0 0 0 1.2150020894987807 -4386.3189012231614 0 -4386.3189012231614 -2543.2467158040963 0 0 0 0 -2545.677485689841 -4004.2153000062681 0 -4004.2153000062681 -0.13821717738755979 0 0 0 0 96.767683969401332 -132.6962810651612 0 -132.6962810651612 -34.984501582715893 0 0 0 0 -3.6356914135697309 -14.146860876007622 0 -14.146860876007622 -12.238708933329463 0 0 0 0 -3458.1394035904377 -2655.4146160817327 0 -2655.4146160817327 -1645.7025950364623 0 0 0 0 -17.762130056929095 -105.44935766829761 0 -105.44935766829761 -21.480904403916071 0 0 0 0 3.0167491380125284 -196.05374893262342 0 -196.05374893262342 50.682940237787989 0 0 0 0 22.677406292103115 -105.98202202825632 0 -105.98202202825632 -40.814899975724984 0 0 0 0 16.098668675404042 -144.05709397308237 0 -144.05709397308237 -0.052841833836282603 0 0 0 0 -0.4676975928232423 -127.09737185724953 0 -127.09737185724953 -0.12681212098686956 0 0 0 0 -31.743528269929811 -144.18150247316225 0 -144.18150247316225 0.027051802346250042 0 0 0 0 -38.706372827116866 -125.99665007334261 0 -125.99665007334261 -0.15569331777987827 0 0 0 0 -35.387457318298402 -134.45141967532254 0 -134.45141967532254 19.567365907219937 0 0 0 0 4.9250391420930555 -4.6109320063490031 0 -4.6109320063490031 5.9093527467288709 0 0 0 0 39.732508915942162 -65.716324431909015 0 -65.716324431909015 -199.58585284592118 0 0 0 0 174.04983115853975 -225.908728751936 0 -225.908728751936 -252.24403538223851 0 0 0 0 210.57064747606637 -516.15624351224687 0 -516.15624351224687 101.80493320748792 0 0 0 0 104.52895147458185 -292.7639827587991 0 -292.7639827587991 810.41254918090272 0 0 0 0 258.8261540037056 -89.386429075228079 0 -89.386429075228079 13.406583891992341 0 0 0 0 -67.809363267850131 324.85873000371794 0 324.85873000371794 1286.8048029753845 0 0 0 0 179.97978181482176 6.089503838604287 0 6.089503838604287 103.24861565674655 0 0 0 0 -35.437156979052816 -165.30694987649622 0 -165.30694987649622 588.44663064349334 0 0 0 0 187.8561653275101 209.60122592848711 0 209.60122592848711 526.6676613712043 0 0 0 0 -143.16846898282529 -62.632501345928176 0 -62.632501345928176 404.8749781515653 0 0 0 0 -259.06673308194149 147.9824455322414 0 147.9824455322414 166.88813546526944 0 0 0 0 -381.30509110647836 -114.56188994573313 0 -114.56188994573313 516.99590653877385 0 0 0 0 -534.46889211982489 -324.26476273410663 0 -324.26476273410663 341.01418822027335 0 0 0 0 -420.07116417640646 -527.51944187479421 0 -527.51944187479421 111.29915632642223 0 0 0 0 -548.32358867967559 -307.98312234348123 0 -307.98312234348123 456.12702898704447 0 0 0 0 -181.29893553309375 -188.11603458198806 0 -188.11603458198806 360.44190723530483 0 0 0 0 -344.35123676888179 -244.16756077497848 0 -244.16756077497848 393.97335326476605 0 0 0 0 -298.89779293809988 -356.90436594568746 0 -356.90436594568746 245.53234620156582 0 0 0 0 -211.5505573124392 -314.78559014407801 0 -314.78559014407801 265.56435807424714 0 0 0 0 -161.23862921749242 -248.58961206409731 0 -248.58961206409731 94.992225178575609 0 0 0 0 -23.368391298165079 -107.28901439014589 0 -107.28901439014589 239.74505467482959 0 0 0 0 -22.425426615518518 106.746576703139 0 106.746576703139 506.50558710283258 0 0 0 0 -44.463344325614344 -118.84387015547611 0 -118.84387015547611 44.887880039818953 0 0 0 0 -178.47584854922025 188.71972361617372 0 188.71972361617372 718.15898388327332 0 0 0 0 284.01978563889861 -19.189610810135491 0 -19.189610810135491 399.12088658823632 0 0 0 0 12.771730886296496 -24.989897762512328 0 -24.989897762512328 -20.582350346125537 0 0 0 0 -96.791487169044558 -136.00825141508176 0 -136.00825141508176 -115.63447490050748 0 0 0 0 -249.46638737767353 -146.39916781866486 0 -146.39916781866486 472.54119997954695 0 0 0 0 -184.52958118748211 -64.605634715102497 0 -64.605634715102497 711.10294313560007 0 0 0 0 -49.005185662946815 -109.54808369371102 0 -109.54808369371102 -14.584688373354254 0 0 0 0 -49.488815528689884 -147.10977630328853 0 -147.10977630328853 23.423628531803843 0 0 0 0 -55.328057127655484 -154.95754316152306 0 -154.95754316152306 17.056867724575568 0 0 0 0 -53.75067377940286 -156.60434416518547 0 -156.60434416518547 8.758349064970389 0 0 0 0 -58.588712560827844 -151.93570150312735 0 -151.93570150312735 13.728809044056106 0 0 0 0 -53.527933252596995 -145.09433581662597 0 -145.09433581662597 17.156187061333867 0 0 0 0 -53.443436595702224 -146.07013851779629 0 -146.07013851779629 6.6534101349534467 0 0 0 0 -41.840010063082445 -144.51946963468072 0 -144.51946963468072 4.7067047566233668 0 0 0 0 -47.873278810257034 -143.92576972307143 0 -143.92576972307143 -4.2555359228863381 0 0 0 0 -46.423025068943389 -139.21244607314293 0 -139.21244607314293 7.1729205068259034 0 0 0 0 -61.509092357591726 -145.43423898950277 0 -145.43423898950277 -0.02989670772512909 0 0 0 0 -75.874531851994107 -137.70833099893935 0 -137.70833099893935 -2.5553900316153886 0 0 0 0 -61.548770649824291 -144.46392138506053 0 -144.46392138506053 3.7126973607519176 0 0 0 0 -62.381854711871711 -147.5620619460351 0 -147.5620619460351 -7.163712330366252 0 0 0 0 -65.44313832161788 -150.15969809948001 0 -150.15969809948001 -4.8422196909377817 0 0 0 0 -65.776350529064075 -155.64258342553512 0 -155.64258342553512 -3.0141780499834567 0 0 0 0 -43.81537552327768 -107.47118707339615 0 -107.47118707339615 80.391141054144754 0 0 0 0 -492.89316921963473 -511.64301296312624 0 -511.64301296312624 1.5377306633672561 0 0 0 0 -65.545646976388525 -150.26355418280582 0 -150.26355418280582 5.5781422526342794 0 0 0 0 -57.098727006465197 -150.649877179123 0 -150.649877179123 2.3006709029432386 0 0 0 0 -58.351200355915353 -151.33210646908265 0 -151.33210646908265 7.0674735100474209 0 0 0 0 -63.102736962784547 -155.21446927057696 0 -155.21446927057696 4.4018084893468767 0 0 0 0 -68.469226763530969 -158.06166658503889 0 -158.06166658503889 7.9633158835349604 0 0 0 0 -54.444953371505107 -143.23061063289424 0 -143.23061063289424 10.774058821843937 0 0 0 0 -68.556405819836073 -154.52737373730633 0 -154.52737373730633 11.203213964181487 0 0 0 0 -8.2584465928581494 -22.564524403774897 0 -22.564524403774897 -45.695346362611446 0 0 0 0 -398.99891079636291 -182.0350847850932 0 -182.0350847850932 368.85317462784587 0 0 0 0 -89.407882400992094 -513.98012194730836 0 -513.98012194730836 -725.18669611439691 0 0 0 0 -98.450601723743603 -125.44707638560794 0 -125.44707638560794 35.305045062137651 0 0 0 0 -375.99366600613575 -371.10757702824776 0 -371.10757702824776 -762.65983457770199 0 0 0 0 -43.600648767644429 -109.95777435703076 0 -109.95777435703076 54.493210549504113 0 0 0 0 -72.919483204575954 -147.2094130362093 0 -147.2094130362093 -2.8270277023839299 0 0 0 0 -117.22104955615941 -128.98077062187076 0 -128.98077062187076 0.049809950651251711 0 0 0 0 -68.065593800594797 -146.48645022304845 0 -146.48645022304845 -16.420964421966346 0 0 0 0 -74.464371536800172 -128.41247029823717 0 -128.41247029823717 -23.478271145482722 0 0 0 0 -658.86376875423593 -534.49224392595352 0 -534.49224392595352 -160.5174925463507 0 0 0 0 -424.57604881949374 -33.939698238711571 0 -33.939698238711571 37.532480574504007 0 0 0 0 -67.8916899066935 -15.078340578926145 0 -15.078340578926145 27.960836968501098 0 0 0 0 -1233.7323131832527 -362.96915553987492 0 -362.96915553987492 -200.40500477264868 0 0 0 0 -9.0095593389577857 -27.501721715211147 0 -27.501721715211147 -42.138218520742271 0 0 0 0 -436.13078001880785 -275.26532410157961 0 -275.26532410157961 -20.806884053687099 0 0 0 0 13.988729136413895 -466.70452010288136 0 -466.70452010288136 -850.70837013534037 0 0 0 0 -7.2531358815971316 -12.875009631433159 0 -12.875009631433159 -32.987519698158962 0 0 0 0 -39.1969177761992 -123.21264708773542 0 -123.21264708773542 26.618468810174704 0 0 0 0 -368.90098740223038 -185.63878522481536 0 -185.63878522481536 95.661851241151453 0 0 0 0 -442.53185847694112 -396.49204469904362 0 -396.49204469904362 164.98201411403716 0 0 0 0 -388.75164520945691 -334.68676517107087 0 -334.68676517107087 202.33089093312446 0 0 0 0 -364.89670883957297 -422.4264400046377 0 -422.4264400046377 325.33963231616872 0 0 0 0 -401.94017369791982 -520.71798417011451 0 -520.71798417011451 111.58822589227202 0 0 0 0 -367.25257617142051 -398.40626154328493 0 -398.40626154328493 275.06518865844555 0 0 0 0 -390.8855608075537 -468.77459176089178 0 -468.77459176089178 28.612638990096457 0 0 0 0 -382.0025441844482 -589.09271654141048 0 -589.09271654141048 139.94205953540222 0 0 0 0 -378.0401644334197 -670.31754078550875 0 -670.31754078550875 -203.84269337832666 0 0 0 0 -249.79958886445093 -569.99178840948298 0 -569.99178840948298 -48.191126113837527 0 0 0 0 -224.55915604664187 -675.19862556760927 0 -675.19862556760927 -237.24883356345526 0 0 0 0 162.45280486634147 -667.4521488784485 0 -667.4521488784485 -26.705586398733431 0 0 0 0 -9.4136384026455175 -10.756050676295814 0 -10.756050676295814 -0.67537859158807834 0 0 0 0 -709.93494667028426 -345.07750177875278 0 -345.07750177875278 1990.935586484411 0 0 0 0 -474.26895739501197 -822.91230886903941 0 -822.91230886903941 961.11905031109927 0 0 0 0 -20.359848030724265 -18.929738790642602 0 -18.929738790642602 0.32366923291188421 0 0 0 0 -1267.8917892440222 -938.16462027288799 0 -938.16462027288799 139.01823421818699 0 0 0 0 -170.61213265966217 -771.65460079210243 0 -771.65460079210243 100.50953875196865 0 0 0 0 -10.812646203516124 -11.017339869799088 0 -11.017339869799088 0.50812239623138922 0 0 0 0 -432.21716526600358 -1813.1300486272667 0 -1813.1300486272667 -2026.9062712011219 0 0 0 0 -1527.396773367218 -836.55135420779698 0 -836.55135420779698 3129.5119922004656 0 0 0 0 -506.21674352045375 252.64255896158284 0 252.64255896158284 -183.99328924137808 0 0 0 0 -10.833650115701914 -0.31588995919648255 0 -0.31588995919648255 -0.0040953852074849806 0 0 0 0 -1341.7774743933624 -1160.5851954494901 0 -1160.5851954494901 1228.4550495386502 0 0 0 0 -179.14030260261279 -731.9473619379678 0 -731.9473619379678 -415.18872322820243 0 0 0 0 -864.8711976489576 -990.30819003697979 0 -990.30819003697979 -189.3335886116256 0 0 0 0 -1113.5781143012573 -248.23326651085154 0 -248.23326651085154 437.737765021011 0 0 0 0 35.616102453845087 -134.35417283559218 0 -134.35417283559218 34.959346730222023 0 0 0 0 -7.3818748565099668 -24.728024558171455 0 -24.728024558171455 106.30039033096227 0 0 0 0 148.38515498962806 75.738022032179288 0 75.738022032179288 -127.61667810403742 0 0 0 0 -64.307795994594926 249.20302453756449 0 249.20302453756449 -44.400324162634206 0 0 0 0 -59.313117613986833 61.430960578458325 0 61.430960578458325 -78.275036337938218 0 0 0 0 -690.1497976789251 -425.45127300348031 0 -425.45127300348031 3507.5423818740383 0 0 0 0 -23.611832016777498 3.7136697288734126 0 3.7136697288734126 11.489926842962298 0 0 0 0 -2099.5031400493172 -1822.9645813209245 0 -1822.9645813209245 1202.3093501420663 0 0 0 0 264.6461944480252 -458.13656084154354 0 -458.13656084154354 1021.5481959871249 0 0 0 0 279.65547234631958 -1040.6428296457962 0 -1040.6428296457962 412.12928291100252 0 0 0 0 33.062834449228831 -1699.7134563357831 0 -1699.7134563357831 2045.9874087365149 0 0 0 0 472.16569006050122 -536.48210821999237 0 -536.48210821999237 2054.4938101902817 0 0 0 0 550.19537297196803 326.34543295315234 0 326.34543295315234 4683.0130494687473 0 0 0 0 220.21017057885183 -1144.5774740456327 0 -1144.5774740456327 2376.2784351256123 0 0 0 0 464.4605154558667 -1789.9392843010137 0 -1789.9392843010137 815.51365814187739 0 0 0 0 24.82168541085025 -1011.6082671002546 0 -1011.6082671002546 2309.0066413688764 0 0 0 0 223.86556343673146 -1134.0028095027301 0 -1134.0028095027301 2543.7288724414902 0 0 0 0 2.2583065930230077 -1929.4555488871993 0 -1929.4555488871993 3150.5756261017887 0 0 0 0 -400.92540087333327 -989.23694304571472 0 -989.23694304571472 5766.8807985026942 0 0 0 0 0.0025844127529310243 -46.189049268350082 0 -46.189049268350082 75.381794259184971 0 0 0 0 19.730042742972728 -40.506428621723899 0 -40.506428621723899 39.553459274065972 0 0 0 0 12.467102994491711 -8.1899006659661211 0 -8.1899006659661211 11.116269698001759 0 0 0 0 -4.3772153271330509 -23.27224015899975 0 -23.27224015899975 81.013934621629119 0 0 0 0 -728.87151454534614 87.294300816152827 0 87.294300816152827 6353.7444958782435 0 0 0 0 -284.71870729541115 170.3624307131322 0 170.3624307131322 15.378651237362646 0 0 0 0 -0.32279284193646163 -36.580624420108506 0 -36.580624420108506 101.21029985700443 0 0 0 0 23.582813263825301 -22.060963173985328 0 -22.060963173985328 68.243068756302819 0 0 0 0 -0.30426587400143035 -36.243642875619116 0 -36.243642875619116 88.698093908038572 0 0 0 0 895.85524863094906 -2190.557534602638 0 -2190.557534602638 -3944.662102855933 0 0 0 0 517.52683659466493 -2337.5694194767466 0 -2337.5694194767466 -1748.3501180378225 0 0 0 0 932.13773067042348 -1609.8207211091067 0 -1609.8207211091067 -2228.1448821393424 0 0 0 0 -1.0710031737980898 -2602.7645784473061 0 -2602.7645784473061 -2226.7079697183945 0 0 0 0 407.85989099855942 -1903.6213229336936 0 -1903.6213229336936 -1761.9529750677248 0 0 0 0 0.90436680439815964 -2371.2756853324686 0 -2371.2756853324686 -740.24201529168931 0 0 0 0 -0.45307908827561733 -2073.8913730477543 0 -2073.8913730477543 1043.8514651377045 0 0 0 0 469.09956646974024 -1576.5014165010798 0 -1576.5014165010798 -219.0789267183718 0 0 0 0 508.66873744843178 -1980.3557683827894 0 -1980.3557683827894 -667.55173505710263 0 0 0 0 171.22352821067034 -1797.7298252758628 0 -1797.7298252758628 873.58610695652897 0 0 0 0 200.55485780903837 -1933.6927131320917 0 -1933.6927131320917 -669.68063294101739 0 0 0 0 -540.28252269601217 -2076.9702412512124 0 -2076.9702412512124 423.63787618837409 0 0 0 0 -815.24920309628942 -1715.8834903771021 0 -1715.8834903771021 -46.581643737867125 0 0 0 0 -1180.0582862281299 -1522.8773416920667 0 -1522.8773416920667 -71.753634219625383 0 0 0 0 72.486364556782064 -1631.9832754761446 0 -1631.9832754761446 -1371.9379049398485 0 0 0 0 -247.54814788204385 -1231.2380580322424 0 -1231.2380580322424 -1161.6397398320842 0 0 0 0 315.6193175438093 -1606.3623451470266 0 -1606.3623451470266 -1423.4137221070414 0 0 0 0 685.9039446831448 -1042.982690784891 0 -1042.982690784891 -1979.183922310498 0 0 0 0 705.15881299096509 -1389.7268326487319 0 -1389.7268326487319 -1643.7638581287756 0 0 0 0 702.55019575875485 -843.13153623829567 0 -843.13153623829567 -1131.3095679933267 0 0 0 0 -175.2812042531732 -1220.6174122865705 0 -1220.6174122865705 -1085.8431504594846 0 0 0 0 -742.89060241688276 -1841.7672832061289 0 -1841.7672832061289 -1491.0014189953663 0 0 0 0 -277.62339903390966 -861.61699071233306 0 -861.61699071233306 -1368.5209779396537 0 0 0 0 421.84468847089738 -1060.5806403079714 0 -1060.5806403079714 -1551.605689916003 0 0 0 0 174.45044804154895 -366.28204967446072 0 -366.28204967446072 -733.77862049410396 0 0 0 0 -233.72472449767338 -1040.9496120886215 0 -1040.9496120886215 1088.8340216662036 0 0 0 0 563.59290767271887 -1481.0453559963389 0 -1481.0453559963389 -3880.5451636332436 0 0 0 0 -12.111799435172088 -8.2333811511876149 0 -8.2333811511876149 -2.0224708404142477 0 0 0 0 745.41420272074174 -888.93028979009978 0 -888.93028979009978 -547.02151987577963 0 0 0 0 -633.01571681391215 -627.88617012582836 0 -627.88617012582836 -537.03798555461981 0 0 0 0 -34.16489058618356 -19.562222154240203 0 -19.562222154240203 -1.2945214302745032 0 0 0 0 255.43097283325915 -1107.8924789892917 0 -1107.8924789892917 -883.57218410632049 0 0 0 0 -128.85248121246696 -1000.271454652182 0 -1000.271454652182 355.04907919273364 0 0 0 0 -693.17984988994431 -1786.3730656141561 0 -1786.3730656141561 -2589.1068349514435 0 0 0 0 -164.92201474824833 -609.28785085893105 0 -609.28785085893105 -636.30215423549816 0 0 0 0 541.2558478332212 -850.63520873704692 0 -850.63520873704692 -666.93324627890252 0 0 0 0 -797.68276683329623 -4130.1045094415676 0 -4130.1045094415676 -6097.1464200267801 0 0 0 0 -814.02471795110614 -907.59126169212686 0 -907.59126169212686 459.29224825935216 0 0 0 0 -594.20704236136135 53.890535630765953 0 53.890535630765953 -1561.4248126359307 0 0 0 0 -254.41418045182945 -1920.8715280639808 0 -1920.8715280639808 -2905.9143264860904 0 0 0 0 -7492.7826074193872 -4618.081914017559 0 -4618.081914017559 -1246.4684138922603 0 0 0 0 -4065.51655796259 -1723.922752065555 0 -1723.922752065555 -1296.9738286069623 0 0 0 0 1987.8446619174865 -811.95093858040673 0 -811.95093858040673 -1197.4467513800191 0 0 0 0 -2690.1726329048543 -1783.3756474524416 0 -1783.3756474524416 -426.38249948170414 0 0 0 0 13.859131614043918 -36.775006661359441 0 -36.775006661359441 -51.831294553078862 0 0 0 0 -1493.7034774144558 -1502.1372354626837 0 -1502.1372354626837 -636.41933178037289 0 0 0 0 -1509.5020230675582 -1623.7244384543519 0 -1623.7244384543519 -1378.6845578717512 0 0 0 0 -1074.1204046746425 -525.48825393657171 0 -525.48825393657171 542.20662161298969 0 0 0 0 -1397.7841548440047 -1522.3643762681022 0 -1522.3643762681022 -356.8713812608039 0 0 0 0 -1161.5518337469548 -1574.4084854803659 0 -1574.4084854803659 -678.8420790269156 0 0 0 0 -570.74568833333615 -673.0136650412569 0 -673.0136650412569 -453.77476640345412 0 0 0 0 3441.5107470819203 -3583.8437353792833 0 -3583.8437353792833 -2907.5044005995151 0 0 0 0 1026.0299945841252 -339.97626445029891 0 -339.97626445029891 -1138.4571589888365 0 0 0 0 18.339841876162438 -39.696029166644053 0 -39.696029166644053 -48.64774752810996 0 0 0 0 -925.59865361418633 -1106.3643025441634 0 -1106.3643025441634 156.13405781885376 0 0 0 0 -1159.2059434479452 -1234.2018223185314 0 -1234.2018223185314 -723.06647984281881 0 0 0 0 -1432.2162196795689 -265.25938832547399 0 -265.25938832547399 -318.84206356122741 0 0 0 0 -3083.798169603775 -536.47062581143109 0 -536.47062581143109 -359.77956289891154 0 0 0 0 -3733.7817766983062 -879.07846792753844 0 -879.07846792753844 -130.66446866228944 0 0 0 0 -3367.7365954135312 -1444.8453113558935 0 -1444.8453113558935 -529.2112144434941 0 0 0 0 -2287.4224917595275 -792.75268755783327 0 -792.75268755783327 -589.36844118277077 0 0 0 0 -1897.168587873588 -1421.4066948613763 0 -1421.4066948613763 -879.88314331814763 0 0 0 0 15.247512748349124 -15.702522023076824 0 -15.702522023076824 -15.863624994155828 0 0 0 0 -3786.9076605082955 -2454.2401938198891 0 -2454.2401938198891 -658.82349594408879 0 0 0 0 8874.9153699789895 3944.6075173731842 0 3944.6075173731842 1923.7004862031608 0 0 0 0 -1825.1663439788972 -2754.6301873166522 0 -2754.6301873166522 -1993.2311795201385 0 0 0 0 -1217.1524869152054 -1323.4640543752321 0 -1323.4640543752321 -1381.5024117217399 0 0 0 0 -2204.8678014523393 -1515.6152251600906 0 -1515.6152251600906 -1129.7716798111505 0 0 0 0 -1409.5180294659222 -1421.01293791637 0 -1421.01293791637 -1061.749547895568 0 0 0 0 -259.99538184632547 -2114.6120317936584 0 -2114.6120317936584 -2052.419176314419 0 0 0 0 437.79770298278891 -1652.2653185030358 0 -1652.2653185030358 -1750.9787345827353 0 0 0 0 -253.8320303298533 -953.38814859728154 0 -953.38814859728154 -899.42205377508799 0 0 0 0 -1249.4605025723868 -1190.1965112977196 0 -1190.1965112977196 -147.76631784003985 0 0 0 0 -1224.2373641809972 -1298.3599110159848 0 -1298.3599110159848 -838.00315272396438 0 0 0 0 -1181.7341495983565 -1423.6637864811419 0 -1423.6637864811419 -540.03688966631307 0 0 0 0 -994.42135539115407 -1014.896261051168 0 -1014.896261051168 -1280.6182087210909 0 0 0 0 -1515.8474752618931 -1130.2574545631505 0 -1130.2574545631505 -829.72040998463399 0 0 0 0 -1040.6365012335882 -918.68482397398475 0 -918.68482397398475 -1184.0840019425086 0 0 0 0 -2225.6437295680516 -858.3399923812176 0 -858.3399923812176 -1112.9122013391898 0 0 0 0 -1995.6835672637098 -1399.8064004120606 0 -1399.8064004120606 -1141.5704818007653 0 0 0 0 -748.86022921750555 165.76066396215174 0 165.76066396215174 -2137.1362266049764 0 0 0 0 149.2880422018643 -748.86601635213447 0 -748.86601635213447 -1728.0587049425667 0 0 0 0 338.99207766556356 -1090.5247959834269 0 -1090.5247959834269 -4648.4025210846739 0 0 0 0 -864.9760217172734 -1370.0790310221491 0 -1370.0790310221491 -1162.6814107717692 0 0 0 0 -892.20872314259759 -1450.8035224214909 0 -1450.8035224214909 -347.48126214105287 0 0 0 0 -711.50523520255229 -1615.5112167590414 0 -1615.5112167590414 -1184.2238213014498 0 0 0 0 -656.32654860948242 -1097.6050069760986 0 -1097.6050069760986 -528.68795004725689 0 0 0 0 -396.25661489242339 -1028.2694383330672 0 -1028.2694383330672 -590.47979682877485 0 0 0 0 -1068.7036572361831 -1356.5019582706736 0 -1356.5019582706736 -517.59296666700175 0 0 0 0 -710.36402834084583 -1460.3904523300807 0 -1460.3904523300807 -863.4760754997551 0 0 0 0 -358.35160922820796 -1101.4746785247808 0 -1101.4746785247808 -761.72813404537737 0 0 0 0 207.36133646195231 -816.61690797221308 0 -816.61690797221308 -883.02080631376884 0 0 0 0 187.51873907876143 -709.66362046977065 0 -709.66362046977065 -917.31151828398288 0 0 0 0 542.69122155802324 -425.84916722813796 0 -425.84916722813796 -694.78335051030444 0 0 0 0 1050.2220953382785 -308.10606676726456 0 -308.10606676726456 -1439.1319723338383 0 0 0 0 504.55900641079643 -631.96604349352128 0 -631.96604349352128 -365.97902110745781 0 0 0 0 1505.3544466750172 -258.0310583241735 0 -258.0310583241735 -283.00595338470885 0 0 0 0 143.0952532695228 -157.17529420921892 0 -157.17529420921892 1309.8374387383519 0 0 0 0 -88.542101260274649 -805.99074122733145 0 -805.99074122733145 -40.589040148173808 0 0 0 0 -391.67588701494969 -784.19242495376966 0 -784.19242495376966 108.60490923818725 0 0 0 0 -467.02080123432097 -2094.004353647284 0 -2094.004353647284 1006.8220554896398 0 0 0 0 -602.98894720771932 -2591.3774155031642 0 -2591.3774155031642 -798.48477290901064 0 0 0 0 -12.770538605533659 -18.512476059972883 0 -18.512476059972883 -20.018228181992072 0 0 0 0 -782.11069362115813 -1392.7461915832537 0 -1392.7461915832537 766.40392734877241 0 0 0 0 -431.89751430621254 -2797.3590482327054 0 -2797.3590482327054 -1896.5263750392696 0 0 0 0 1098.2761013921991 1999.5015906408371 0 1999.5015906408371 -2293.1653232858735 0 0 0 0 2659.499520702695 -1733.1915718648306 0 -1733.1915718648306 -4788.397156590705 0 0 0 0 -10.150051440426864 -20.722459073908283 0 -20.722459073908283 -29.741391398583517 0 0 0 0 -2040.9505971467443 -2089.6637504230712 0 -2089.6637504230712 -177.17157636981574 0 0 0 0 -1147.7517555517552 -3483.6057926515641 0 -3483.6057926515641 -2825.5442789661101 0 0 0 0 -132.26082484962535 -2807.7621986445229 0 -2807.7621986445229 -5201.281682906083 0 0 0 0 2021.7440015049069 667.64193914562929 0 667.64193914562929 -7731.1902870488702 0 0 0 0 1031.1740873181261 778.82683777251805 0 778.82683777251805 -1070.8279434552824 0 0 0 0 118.54911340630497 -381.13408371892001 0 -381.13408371892001 882.53274733049329 0 0 0 0 -148.86888873524731 -1969.4328036249135 0 -1969.4328036249135 -640.85430584386631 0 0 0 0 523.08889240049757 -1556.197095464071 0 -1556.197095464071 -3380.6414427767886 0 0 0 0 609.57999593671411 -855.43229586262532 0 -855.43229586262532 -1031.2523874009275 0 0 0 0 0.64126748776470777 -735.87061675531004 0 -735.87061675531004 -1018.9110557110835 0 0 0 0 76.815518625313416 -12.736584697195212 0 -12.736584697195212 406.36738816960133 0 0 0 0 514.08392452145927 -379.25621238925669 0 -379.25621238925669 208.79158645349162 0 0 0 0 1321.806813893958 -1205.3165940753925 0 -1205.3165940753925 -130.17511078865209 0 0 0 0 -23.072494424134447 -30.333735588787448 0 -30.333735588787448 -32.286312578586035 0 0 0 0 424.50501491496107 -721.00634511424869 0 -721.00634511424869 718.26302670989753 0 0 0 0 752.16561011844897 441.66318202178809 0 441.66318202178809 -3805.4941885653957 0 0 0 0 704.72188454154821 -410.43511747162484 0 -410.43511747162484 -184.11696766075329 0 0 0 0 -9.1708015382529311 -11.13748297376182 0 -11.13748297376182 -14.803905092441966 0 0 0 0 0.13088669386709456 -504.947900168302 0 -504.947900168302 500.45276821890729 0 0 0 0 675.03480341108661 -140.7715688561002 0 -140.7715688561002 -462.16797571987263 0 0 0 0 -308.99516146225506 -1233.1784302139567 0 -1233.1784302139567 -732.5168550418457 0 0 0 0 76.000773782907345 -284.7307026759263 0 -284.7307026759263 -585.61574257968459 0 0 0 0 403.09054671115155 -581.15198297340612 0 -581.15198297340612 -1105.0485984683619 0 0 0 0 -1977.4780398968869 -1345.5767857288884 0 -1345.5767857288884 -516.47583957253664 0 0 0 0 33.380892598928277 -93.448617621383335 0 -93.448617621383335 127.58899218638658 0 0 0 0 1329.145407243821 -373.62243690812466 0 -373.62243690812466 -104.29884499458421 0 0 0 0 699.84288410663794 -650.03937718448651 0 -650.03937718448651 214.05665388173657 0 0 0 0 2424.0034677790754 -320.55052385734598 0 -320.55052385734598 -109.84669500443579 0 0 0 0 -4217.0582811165732 -1803.7860154390801 0 -1803.7860154390801 1153.6166803598899 0 0 0 0 756.30425495056261 -1721.550648511562 0 -1721.550648511562 -1069.0429459872466 0 0 0 0 11.448901679616029 -17.344807284267063 0 -17.344807284267063 21.790887812244534 0 0 0 0 -3030.0282113195017 -796.09563367801366 0 -796.09563367801366 872.92382547826855 0 0 0 0 -4654.5059767056518 -2429.2888393933608 0 -2429.2888393933608 773.84544049145188 0 0 0 0 -3154.912825874213 -1847.1380967277655 0 -1847.1380967277655 -781.68463683297159 0 0 0 0 21.53814458057915 -67.633177829826906 0 -67.633177829826906 74.230645198742252 0 0 0 0 2804.9910739763945 -542.19285708320967 0 -542.19285708320967 -39.073148578070686 0 0 0 0 2474.5947079093366 -320.85265247214375 0 -320.85265247214375 943.66369025965105 0 0 0 0 -8936.2583695304493 -3384.4169325025505 0 -3384.4169325025505 -1545.1133949571522 0 0 0 0 8494.7955489908709 -173.17489267362544 0 -173.17489267362544 -1811.1711578287941 0 0 0 0 -8487.3181569414737 -2518.2293727418364 0 -2518.2293727418364 -2548.9284303390887 0 0 0 0 6.3957478700763346 -20.798910428183177 0 -20.798910428183177 22.680310048250192 0 0 0 0 4505.1330377196828 930.58646535174739 0 930.58646535174739 743.57471115660155 0 0 0 0 -8772.6984529585825 -3675.8234863793077 0 -3675.8234863793077 -1234.5838205297478 0 0 0 0 54.067491691589964 -59.968001601061047 0 -59.968001601061047 49.944133744988392 0 0 0 0 662.50962432169763 198.59266314312117 0 198.59266314312117 60.618346250499599 0 0 0 0 516.12585351173766 -68.72899340098229 0 -68.72899340098229 11.321492516522994 0 0 0 0 1862.8806966625998 624.93600915816205 0 624.93600915816205 366.01581854260439 0 0 0 0 -193.85605464934633 -1422.5392730045933 0 -1422.5392730045933 -198.75242275038909 0 0 0 0 2202.93879797933 -1086.5330138351665 0 -1086.5330138351665 -256.98989161741338 0 0 0 0 177.39506171662651 -2363.8492958464558 0 -2363.8492958464558 642.90307061422573 0 0 0 0 -209.91393939053523 -752.26037055093184 0 -752.26037055093184 1369.7594348473067 0 0 0 0 -213.16519125302511 -1633.6115376248526 0 -1633.6115376248526 -117.33172630310582 0 0 0 0 -1247.8214496423316 -1993.5950328832623 0 -1993.5950328832623 138.00859436298197 0 0 0 0 -1561.9737556934633 -2189.1892924366693 0 -2189.1892924366693 -380.18769608218281 0 0 0 0 -1567.6140328489273 -1530.2627550975303 0 -1530.2627550975303 -580.75696937507018 0 0 0 0 -899.47396281344118 -1044.8767033342592 0 -1044.8767033342592 -12.956899818513193 0 0 0 0 -1222.1203372758173 -1896.5613394497414 0 -1896.5613394497414 -398.58036491178791 0 0 0 0 -1188.3164988680801 -1749.8991292476276 0 -1749.8991292476276 236.03264441793726 0 0 0 0 -2112.0042192842375 -1421.0833136756883 0 -1421.0833136756883 91.371629172863322 0 0 0 0 -2152.9515663985803 -1598.9437523707893 0 -1598.9437523707893 -306.32175895053297 0 0 0 0 -1664.5153940028249 -1593.0144848677446 0 -1593.0144848677446 -613.97130057064351 0 0 0 0 -1674.2535687720083 -1814.5543849685855 0 -1814.5543849685855 -2691.8938273607637 0 0 0 0 -2093.2258206348051 -2511.8828590105113 0 -2511.8828590105113 -4278.5808055370635 0 0 0 0 -2063.424240507753 -633.47155161268165 0 -633.47155161268165 2056.079825908324 0 0 0 0 -3141.1061376685684 -2152.1730732263823 0 -2152.1730732263823 -12.11481349681344 0 0 0 0 -21.982647853507785 -15.180736164369534 0 -15.180736164369534 -1.7457145058410131 0 0 0 0 -2403.083453390369 -3394.9073835187664 0 -3394.9073835187664 -3086.7756187817286 0 0 0 0 -1534.6640635496005 -522.25162793187337 0 -522.25162793187337 -1260.3655216944171 0 0 0 0 -1832.1452295871568 -522.80783584361052 0 -522.80783584361052 -576.21889579961135 0 0 0 0 -452.05058676961198 -211.23708828206145 0 -211.23708828206145 -2888.7682416276075 0 0 0 0 -3448.076137790893 -1346.4998722089222 0 -1346.4998722089222 -405.85086818819036 0 0 0 0 2.3655391830497194 -13.652775113308849 0 -13.652775113308849 -21.771755794411831 0 0 0 0 4538.6596956419853 31.306619966389917 0 31.306619966389917 -2663.8981697302079 0 0 0 0 -385.78460024474771 -871.01620206861116 0 -871.01620206861116 1118.0681477301405 0 0 0 0 -924.13440002399147 -1178.3269053323311 0 -1178.3269053323311 -696.5061966691319 0 0 0 0 -1875.6895396080217 -848.11568562804314 0 -848.11568562804314 -1224.3998972679983 0 0 0 0 -1616.4090839625133 -1520.7922022334824 0 -1520.7922022334824 -796.39120615414868 0 0 0 0 -1964.0871582267864 -2207.8335899997837 0 -2207.8335899997837 -2660.8179944425938 0 0 0 0 -756.35154080891516 -893.97848330663692 0 -893.97848330663692 -1248.8911550508565 0 0 0 0 -396.5245479477453 -1091.2788219295835 0 -1091.2788219295835 -1949.6019251148682 0 0 0 0 86.035550728644012 240.63095681113191 0 240.63095681113191 -1547.7684869468321 0 0 0 0 -23.274429523384697 -21.314497827972588 0 -21.314497827972588 -14.139621288547062 0 0 0 0 -2489.3416698799119 -575.43947852413112 0 -575.43947852413112 2653.8999575715134 0 0 0 0 -190.27305549043376 -597.29646914637306 0 -597.29646914637306 -3880.6694389597251 0 0 0 0 -644.34743860445451 583.65275250622653 0 583.65275250622653 1141.4934688504072 0 0 0 0 -1425.9057284274022 -1059.4799997340451 0 -1059.4799997340451 -1566.3167240437033 0 0 0 0 850.09731529511919 -1815.6314339526762 0 -1815.6314339526762 -741.30168582912302 0 0 0 0 417.64305269598117 -1744.2621997213464 0 -1744.2621997213464 1573.5455941925175 0 0 0 0 -2212.5704113638203 -2093.7135689448842 0 -2093.7135689448842 333.7833171851089 0 0 0 0 -2669.7225395558635 -1146.6731392512374 0 -1146.6731392512374 1078.7138987819926 0 0 0 0 -1664.2717730599106 -827.32121831992845 0 -827.32121831992845 683.93501279950578 0 0 0 0 -407.84282236539002 -1381.0367124732293 0 -1381.0367124732293 77.727636257361155 0 0 0 0 -603.98907843508641 -674.97037513336545 0 -674.97037513336545 348.50403556134552 0 0 0 0 -850.69351255091897 -913.18237683366897 0 -913.18237683366897 -429.77256116981152 0 0 0 0 -1230.4565243727702 -1266.5168909674321 0 -1266.5168909674321 126.38500710133667 0 0 0 0 -1447.2954085226957 -1320.1808518351463 0 -1320.1808518351463 -487.64184686925728 0 0 0 0 -1311.1495844093442 -988.54059016224346 0 -988.54059016224346 -754.58259615916177 0 0 0 0 -1051.4925525393337 -789.81194187662913 0 -789.81194187662913 -495.83331866864137 0 0 0 0 -1070.8256389328162 -1184.316654554561 0 -1184.316654554561 -817.44837620017643 0 0 0 0 -1048.5930961918493 -1314.6230881726806 0 -1314.6230881726806 -670.36020423077571 0 0 0 0 -1277.4691525009985 -1285.0708129243867 0 -1285.0708129243867 -566.55961398538784 0 0 0 0 -1046.780330921541 -1255.6414170263104 0 -1255.6414170263104 -787.72833477717359 0 0 0 0 -1314.9094631912303 -1417.3801912858471 0 -1417.3801912858471 -884.16176004949375 0 0 0 0 -1482.0250662195031 -1114.0187107692036 0 -1114.0187107692036 -758.68132305501058 0 0 0 0 1236.0933215627883 264.05569326423938 0 264.05569326423938 -345.1606977173069 0 0 0 0 877.10715351068211 -324.43980649377772 0 -324.43980649377772 -241.8623932171613 0 0 0 0 801.37076171219815 -146.71362594292441 0 -146.71362594292441 -560.17622763807321 0 0 0 0 -2842.1371254957485 -1602.5671320659894 0 -1602.5671320659894 -254.0509053993519 0 0 0 0 -2.0626718619428459 1.0122470318993351 0 1.0122470318993351 -19.066825614347977 0 0 0 0 -1929.1028630759683 -808.0635669206531 0 -808.0635669206531 -495.12930226986646 0 0 0 0 464.03305301320506 -346.5377155165188 0 -346.5377155165188 -104.96472768369131 0 0 0 0 369.07366859575268 149.03013468153949 0 149.03013468153949 123.24236019846285 0 0 0 0 572.96272456107545 -227.02439203142058 0 -227.02439203142058 -416.99015475128544 0 0 0 0 -231.50912451432669 -347.90305732951674 0 -347.90305732951674 -154.38962360798905 0 0 0 0 195.85040009366787 -149.95099333914152 0 -149.95099333914152 113.58299572855242 0 0 0 0 76.885062505520182 -796.41454175622493 0 -796.41454175622493 -656.86867170039659 0 0 0 0 250.96328745717619 -846.53244927635751 0 -846.53244927635751 -294.47732629370876 0 0 0 0 -83.331440733632917 -477.59173181298684 0 -477.59173181298684 39.201597002887866 0 0 0 0 340.3681175961683 -344.95216725689534 0 -344.95216725689534 -666.53242542645603 0 0 0 0 481.415871721234 -202.37043570365859 0 -202.37043570365859 -416.63333930440785 0 0 0 0 102.86410414951388 -170.74743448846857 0 -170.74743448846857 -238.27133420098107 0 0 0 0 185.08969708808837 -161.09857514271403 0 -161.09857514271403 118.81569706031104 0 0 0 0 -47.240028678053932 -924.41450250118578 0 -924.41450250118578 -165.57877131027635 0 0 0 0 -406.99901351821609 -247.610510604718 0 -247.610510604718 -66.137456210068194 0 0 0 0 449.79696211358532 -599.62868901267211 0 -599.62868901267211 -35.106630575610325 0 0 0 0 194.00636422948446 -302.3832084812384 0 -302.3832084812384 -183.89634575300443 0 0 0 0 -345.50315594093263 -568.31066592438219 0 -568.31066592438219 -29.640772799000842 0 0 0 0 290.62400196830276 -386.6395359815433 0 -386.6395359815433 247.12623268488096 0 0 0 0 -56.102276041049038 -44.769186665562046 0 -44.769186665562046 -34.077210427121827 0 0 0 0 -633.97425370010023 -468.04642737758695 0 -468.04642737758695 -28.63147509918781 0 0 0 0 -30.671433785566478 -901.17671537119895 0 -901.17671537119895 292.21762660575041 0 0 0 0 -42.482353784181839 -82.575958472364121 0 -82.575958472364121 -8.778257123684142 0 0 0 0 -205.23635871023725 -330.77598504002526 0 -330.77598504002526 -166.75250376923941 0 0 0 0 0.24343167623737827 -193.56715189106762 0 -193.56715189106762 -492.46569058226305 0 0 0 0 -25.060070666193496 -353.87982874846057 0 -353.87982874846057 -1131.4427447424978 0 0 0 0 1364.4374428668089 -778.31369869963237 0 -778.31369869963237 155.52318718600145 0 0 0 0 -346.4667954442375 -644.67514804591337 0 -644.67514804591337 -306.22126960766036 0 0 0 0 -809.57539705415547 -660.12904375584912 0 -660.12904375584912 -20.20499248887063 0 0 0 0 -122.1368961922999 -204.23425209656125 0 -204.23425209656125 300.24293956760084 0 0 0 0 18.495092267421974 -115.00458581590837 0 -115.00458581590837 162.34532343809502 0 0 0 0 -2.6510075173918892 -21.764964885563955 0 -21.764964885563955 17.093114070021613 0 0 0 0 -178.73424170035287 -40.526110528997378 0 -40.526110528997378 996.6366136323195 0 0 0 0 10.486501380628653 -2.8359406208531368 0 -2.8359406208531368 -1.0593276710912392 0 0 0 0 -16.424217857449548 -271.61447389806563 0 -271.61447389806563 -650.26371036541241 0 0 0 0 -24.411766363623627 -38.91510908878125 0 -38.91510908878125 -0.9037716951035577 0 0 0 0 253.38241895494502 -295.15101812306966 0 -295.15101812306966 199.93512332280807 0 0 0 0 14.736000065466214 -80.910185163917049 0 -80.910185163917049 12.891026984078053 0 0 0 0 -53.722434639756102 18.530712940148078 0 18.530712940148078 93.886498875916004 0 0 0 0 0.81741873823915512 -152.28129245423889 0 -152.28129245423889 132.12099276825251 0 0 0 0 11.46473668635349 -108.7042255916578 0 -108.7042255916578 45.880489706389994 0 0 0 0 19.509194818747346 -120.34159966182779 0 -120.34159966182779 -4.2494466895004734 0 0 0 0 102.81011345132877 -136.1640215892275 0 -136.1640215892275 57.136316839217216 0 0 0 0 39.512681562125238 -17.202090909422736 0 -17.202090909422736 -17.489887116094138 0 0 0 0 -207.19639259005089 -523.21783119676911 0 -523.21783119676911 -654.04381269631267 0 0 0 0 452.84547561157524 -876.70679016612121 0 -876.70679016612121 -464.741334875951 0 0 0 0 110.41774765461014 -314.67194389769429 0 -314.67194389769429 -636.62865209212396 0 0 0 0 97.274817934769089 -945.76520124918898 0 -945.76520124918898 -738.27249671813479 0 0 0 0 260.9708005953471 -424.47280816032435 0 -424.47280816032435 -1239.6010288715115 0 0 0 0 63.703408177827441 -853.71709811839901 0 -853.71709811839901 -938.74463846394792 0 0 0 0 -16.694495474072028 -1377.1156252801411 0 -1377.1156252801411 -1115.3516155877442 0 0 0 0 215.45628402497096 -1095.8854826359093 0 -1095.8854826359093 -843.47956731067097 0 0 0 0 186.38637335999374 -1018.7323672590119 0 -1018.7323672590119 -994.78880240563012 0 0 0 0 183.95508322776004 -669.62871754500884 0 -669.62871754500884 -133.55264204929699 0 0 0 0 161.85415054220357 -855.28992763502174 0 -855.28992763502174 -592.63867591829876 0 0 0 0 310.50985112755734 -1082.2692168338326 0 -1082.2692168338326 -549.31272879675089 0 0 0 0 200.21428394357645 -735.24153234614641 0 -735.24153234614641 -1012.5893434611644 0 0 0 0 555.60351766970052 -552.41344792673954 0 -552.41344792673954 -172.14719026313105 0 0 0 0 199.18649642126366 -1307.4024139999919 0 -1307.4024139999919 28.949002569439472 0 0 0 0 439.05641079089037 -677.19543004281877 0 -677.19543004281877 -133.59686283029441 0 0 0 0 241.64536382209917 -705.09435975563974 0 -705.09435975563974 630.95163062558458 0 0 0 0 202.92904531426757 -889.51127969698427 0 -889.51127969698427 517.33865320131008 0 0 0 0 -435.51306301546356 -1424.2285433699926 0 -1424.2285433699926 -204.39586491406226 0 0 0 0 -1011.9665875268402 -830.53322368563386 0 -830.53322368563386 -152.03918214722307 0 0 0 0 954.86793774332909 -596.93554779379338 0 -596.93554779379338 420.18715434621481 0 0 0 0 -190.32287618715782 -956.08500953785551 0 -956.08500953785551 -252.86658944956434 0 0 0 0 -95.51481035532197 -1315.8402534624765 0 -1315.8402534624765 -807.8678512520637 0 0 0 0 -76.810313621070236 -1068.1250956750264 0 -1068.1250956750264 -597.4166671927087 0 0 0 0 -300.28128487619688 -1285.7403339360753 0 -1285.7403339360753 -392.787434865877 0 0 0 0 -889.02182150499721 -1142.7500203441232 0 -1142.7500203441232 -319.80654568892419 0 0 0 0 -410.86000381453778 -880.70007319871365 0 -880.70007319871365 -311.94630975578912 0 0 0 0 -230.47892690790104 -1011.2559066493159 0 -1011.2559066493159 -886.56469861028017 0 0 0 0 -76.254785609417013 -631.93122330597544 0 -631.93122330597544 -1527.5191957693023 0 0 0 0 -332.29793502196844 -833.10134034836301 0 -833.10134034836301 -1105.3592742390247 0 0 0 0 318.0996080750192 -1010.8746416674403 0 -1010.8746416674403 -3223.7360478092378 0 0 0 0 2.4448140287403248 -10.692327248352797 0 -10.692327248352797 0.77211941618555358 0 0 0 0 -682.64976943140937 -495.39637593249427 0 -495.39637593249427 2563.5530881226296 0 0 0 0 343.89952848337634 -806.68962399238262 0 -806.68962399238262 237.96361345701735 0 0 0 0 411.46422144767712 -423.95139500947698 0 -423.95139500947698 -142.68516588606872 0 0 0 0 -139.32276710429142 -432.46388151242718 0 -432.46388151242718 1390.1938298256864 0 0 0 0 11.87848458521006 -16.025727384299927 0 -16.025727384299927 -0.079744900952217534 0 0 0 0 118.72967637196416 202.18983544345247 0 202.18983544345247 -49.207235296133149 0 0 0 0 437.88494443290983 -418.71728735307988 0 -418.71728735307988 -416.79909261554894 0 0 0 0 24.227141563921037 -52.213147870353481 0 -52.213147870353481 31.819940531178442 0 0 0 0 -121.81153739147885 -475.17732346013418 0 -475.17732346013418 269.72332758347329 0 0 0 0 192.86514872044992 -139.11121013522228 0 -139.11121013522228 86.036915368748794 0 0 0 0 349.37087558675557 -132.89481592405355 0 -132.89481592405355 -459.94787958191591 0 0 0 0 -909.06664233134507 -781.47723993473483 0 -781.47723993473483 -642.81408969478798 0 0 0 0 681.39144436307834 -151.05756377588477 0 -151.05756377588477 -322.90264923417999 0 0 0 0 16.368728620285964 -8.0984074587301507 0 -8.0984074587301507 -61.59552202452636 0 0 0 0 91.897319857031107 -13.892410786786058 0 -13.892410786786058 43.880894905363675 0 0 0 0 152.71428734671099 -241.03791221556912 0 -241.03791221556912 -189.79628939367831 0 0 0 0 102.87416729646873 -125.94367531730461 0 -125.94367531730461 18.16038339529527 0 0 0 0 -22.286459272378124 -166.34946385130752 0 -166.34946385130752 -69.483682053003577 0 0 0 0 182.40997792623239 -36.195945384002698 0 -36.195945384002698 143.3547639924509 0 0 0 0 83.302026646352488 -108.02148215233009 0 -108.02148215233009 3.2129549438993763 0 0 0 0 69.638804270451828 -148.35857649906501 0 -148.35857649906501 79.718555135220072 0 0 0 0 107.9605969949771 -301.62768645214237 0 -301.62768645214237 -70.892839953667135 0 0 0 0 -148.3972415215103 -344.13501656838343 0 -344.13501656838343 -147.02102835781443 0 0 0 0 -146.02874688617885 -451.9617940974349 0 -451.9617940974349 -136.88337309622329 0 0 0 0 -575.53921187410015 -744.76489339928958 0 -744.76489339928958 -359.12001256346139 0 0 0 0 -18.484391259171389 -329.21442039276371 0 -329.21442039276371 -336.0263718929782 0 0 0 0 -1249.7425248774234 -1299.4928094419811 0 -1299.4928094419811 -1158.2939589384187 0 0 0 0 -969.88512161059771 -963.42208745270909 0 -963.42208745270909 -981.74139655243926 0 0 0 0 -1393.790341138043 -1328.9572170038778 0 -1328.9572170038778 -900.75774354519672 0 0 0 0 -953.95577645560843 -1208.1669376380887 0 -1208.1669376380887 -1017.2456482088091 0 0 0 0 -1003.3125784802251 -1042.1556740317319 0 -1042.1556740317319 -442.23586107439769 0 0 0 0 -520.16623894267832 -1012.0884477358923 0 -1012.0884477358923 -836.59249222194921 0 0 0 0 -1008.877386133172 -1133.5035762554435 0 -1133.5035762554435 -776.23944912222214 0 0 0 0 -848.26890549124801 -695.51202992878098 0 -695.51202992878098 -521.90935549713322 0 0 0 0 -564.43219986041368 -538.81394874757825 0 -538.81394874757825 -111.29600829155606 0 0 0 0 -1.5601038995098975 -73.429078947986909 0 -73.429078947986909 89.571309438968655 0 0 0 0 -82.855290541228896 -83.014199071156327 0 -83.014199071156327 201.158166609006 0 0 0 0 -0.27983800981115792 -15.534286589651913 0 -15.534286589651913 -0.28227912223828611 0 0 0 0 -592.06754943011038 -399.08222822322568 0 -399.08222822322568 -555.21484737133324 0 0 0 0 -726.14111381127441 -840.45197974724215 0 -840.45197974724215 -780.63250060146675 0 0 0 0 -1094.3042848664336 -711.45843027632509 0 -711.45843027632509 -771.24263989515748 0 0 0 0 -72.618494156893576 -169.95583507515403 0 -169.95583507515403 -90.289266229054192 0 0 0 0 92.345439068208137 -121.75533083101919 0 -121.75533083101919 -42.399681638102919 0 0 0 0 210.92936460478813 -176.12436835731205 0 -176.12436835731205 -25.674157580593601 0 0 0 0 -115.9091628647875 -188.85963357955188 0 -188.85963357955188 -97.610447180741176 0 0 0 0 298.96007964982709 -290.8310181589186 0 -290.8310181589186 -20.058230054244632 0 0 0 0 -47.671869590072333 -10.07474846720595 0 -10.07474846720595 2.4332975559057388 0 0 0 0 -82.354679885669611 -182.06101151341863 0 -182.06101151341863 -79.237896996924974 0 0 0 0 -267.54393465392059 -140.96844283040264 0 -140.96844283040264 110.91732200709521 0 0 0 0 20.428363376078778 -142.48486822837367 0 -142.48486822837367 -103.262878899317 0 0 0 0 9.8922769430814128 -57.865022810034219 0 -57.865022810034219 -22.905542124984521 0 0 0 0 51.690657665116319 -59.945508662174745 0 -59.945508662174745 -49.453734671219507 0 0 0 0 -56.281497308893449 -224.24518540739291 0 -224.24518540739291 -111.25193282156397 0 0 0 0 -991.20140893463395 -668.57057072054158 0 -668.57057072054158 15.433377427973028 0 0 0 0 -191.2677752861855 -397.44490329590917 0 -397.44490329590917 -153.24117602407932 0 0 0 0 60.629907923706924 -290.46555480916868 0 -290.46555480916868 -185.59179048162332 0 0 0 0 218.66604328007452 -183.64128070848892 0 -183.64128070848892 -137.86041090000072 0 0 0 0 22.088388382209814 -217.09195775109765 0 -217.09195775109765 -113.2159713699657 0 0 0 0 5.8106253083096817 -161.27706306212349 0 -161.27706306212349 -11.392049585963832 0 0 0 0 -217.08424931555055 -409.8029265625446 0 -409.8029265625446 -40.60187979562761 0 0 0 0 -202.75525452439615 -122.77414411882637 0 -122.77414411882637 -27.127356217140914 0 0 0 0 -202.08497160652769 -107.50824611970165 0 -107.50824611970165 174.45916233577145 0 0 0 0 -75.633774579167948 -204.04480864851212 0 -204.04480864851212 21.791091331237112 0 0 0 0 -31.466034994940856 -239.68980862435274 0 -239.68980862435274 -7.0418737095460529 0 0 0 0 -391.08369701912306 -237.95787452281365 0 -237.95787452281365 170.64223193934595 0 0 0 0 -11.853494633548337 4.202081797056195 0 4.202081797056195 6.774640412847134 0 0 0 0 -1860.5938990049231 -1092.2239214924221 0 -1092.2239214924221 273.53922606621927 0 0 0 0 -1463.2975992780921 -781.90640169545077 0 -781.90640169545077 -379.16447364434134 0 0 0 0 -1828.1207043698187 -1470.6356298055971 0 -1470.6356298055971 -421.37269885302521 0 0 0 0 -1730.3891610889987 -746.92885093863879 0 -746.92885093863879 61.856731164531084 0 0 0 0 -1761.9114916817089 -792.24024407065372 0 -792.24024407065372 270.55216911176103 0 0 0 0 -1015.8560115198488 -543.35984979457135 0 -543.35984979457135 -347.78663331676216 0 0 0 0 -31.361292085675899 -11.015823501261394 0 -11.015823501261394 -33.141750773752591 0 0 0 0 -62.358043409647223 -142.9315163889199 0 -142.9315163889199 -15.152422205315702 0 0 0 0 -475.56886911258334 -525.53953974436445 0 -525.53953974436445 6.335781831242457 0 0 0 0 -971.94851796787134 -88.927116880859103 0 -88.927116880859103 -229.94217085069977 0 0 0 0 -3299.0062790132943 -688.13524797247373 0 -688.13524797247373 -118.50169021559122 0 0 0 0 -60.846974089314244 -146.9991722502281 0 -146.9991722502281 -36.077559002187876 0 0 0 0 -1434.5354607592308 -346.76779916162923 0 -346.76779916162923 30.99968271860007 0 0 0 0 1570.0589551141893 -910.40013233490026 0 -910.40013233490026 -773.63444730630727 0 0 0 0 -58.18643250994225 -35.882784855804779 0 -35.882784855804779 75.962824298780902 0 0 0 0 -1838.4355342506824 -1100.9184790499385 0 -1100.9184790499385 -254.48732529685367 0 0 0 0 -2114.8811135167634 -576.40837813125108 0 -576.40837813125108 70.631495909241494 0 0 0 0 -1581.7068301914987 -343.04116177348624 0 -343.04116177348624 -162.60484542242193 0 0 0 0 66.938514339388348 -169.66710071256966 0 -169.66710071256966 -65.184227704165096 0 0 0 0 56.495206774246924 -75.251505274536612 0 -75.251505274536612 -7.4845219882353433 0 0 0 0 15.164568691936438 -62.973820671870271 0 -62.973820671870271 -273.00954685844044 0 0 0 0 -47.612041751097422 -156.33796783092475 0 -156.33796783092475 -66.432018374973268 0 0 0 0 3.9855246120105221 -59.806844010236517 0 -59.806844010236517 -48.680640511910042 0 0 0 0 -129.10106664954219 -167.18289783527871 0 -167.18289783527871 -114.56217024001398 0 0 0 0 -49.182018247935048 -100.52699389262125 0 -100.52699389262125 -123.95018630594859 0 0 0 0 35.073450075909264 -60.887279996526956 0 -60.887279996526956 -106.20519573620152 0 0 0 0 -81.294668975591776 116.76050280330765 0 116.76050280330765 97.781280553866054 0 0 0 0 -62.162145861657336 -116.04527890956524 0 -116.04527890956524 -90.318883212263245 0 0 0 0 -40.35545196778213 -88.898130608940619 0 -88.898130608940619 3.4588298586762249 0 0 0 0 -75.348125467078262 -76.771815653107694 0 -76.771815653107694 -6.5898150033516458 0 0 0 0 -80.4591146555249 -100.59150819641582 0 -100.59150819641582 -124.64381489576772 0 0 0 0 60.69323463581091 -99.622744747609488 0 -99.622744747609488 65.798896628933548 0 0 0 0 -113.66172345417726 -104.39689957453629 0 -104.39689957453629 -46.93376387207536 0 0 0 0 46.255822164750327 -80.581295002263658 0 -80.581295002263658 -57.988664870909744 0 0 0 0 128.66106982761994 -129.82987388103356 0 -129.82987388103356 -68.565359870131942 0 0 0 0 -27.7563709014144 -98.249056438172616 0 -98.249056438172616 -37.359289641009326 0 0 0 0 15.710751354643435 -226.57711522748832 0 -226.57711522748832 -52.383907272524084 0 0 0 0 -2.8402579611320675 -8.1438093021411646 0 -8.1438093021411646 3.4895410261560578 0 0 0 0 -40.086232438523439 -285.07160706753075 0 -285.07160706753075 64.708986483392437 0 0 0 0 -13.461615130276186 650.50910364740048 0 650.50910364740048 -887.76160980098575 0 0 0 0 -23.932379806326935 -29.73100442465784 0 -29.73100442465784 209.09402678417973 0 0 0 0 -31.479982250932665 -64.284701760092787 0 -64.284701760092787 5.093848793989519 0 0 0 0 -85.474347047886113 -127.88716125761539 0 -127.88716125761539 82.797775366560018 0 0 0 0 -3.596599611893609 -7.9105983623511236 0 -7.9105983623511236 10.631608691657689 0 0 0 0 -236.14527741962229 -219.91588913113628 0 -219.91588913113628 -15.502260722720621 0 0 0 0 -7.9607726278607629 -20.392085107955907 0 -20.392085107955907 4.5197666172008564 0 0 0 0 57.649704206072784 -103.64697276434526 0 -103.64697276434526 -28.642368796576193 0 0 0 0 -454.83405263195891 42.181433551827922 0 42.181433551827922 18.445348317354728 0 0 0 0 3.4220969315392153 -0.89077940780967424 0 -0.89077940780967424 -11.341637538812822 0 0 0 0 -2029.6680640289269 -203.84238076313977 0 -203.84238076313977 107.59797500466493 0 0 0 0 183.86483915989811 -271.82860595880811 0 -271.82860595880811 -954.09403605088482 0 0 0 0 -146.79018972828635 9.3729145878160125 0 9.3729145878160125 7.5418680104612577 0 0 0 0 -210.72052473106305 -254.09605395577455 0 -254.09605395577455 -484.57170078252966 0 0 0 0 -1.6765815587043136 2.2342412480640803 0 2.2342412480640803 6.2902080409468866 0 0 0 0 950.04409173093154 -538.05259006261804 0 -538.05259006261804 -356.95832020857051 0 0 0 0 189.10028124786913 -543.46794317251624 0 -543.46794317251624 225.95020734295207 0 0 0 0 -1317.0698680834103 -446.83779219588564 0 -446.83779219588564 -143.54741313478826 0 0 0 0 -1495.3716295553168 -424.56160238305438 0 -424.56160238305438 257.42304471051648 0 0 0 0 -1456.829794402307 -510.02198653168034 0 -510.02198653168034 -29.578299691136522 0 0 0 0 -1482.6479140458177 -407.6367387692485 0 -407.6367387692485 -40.244783848645966 0 0 0 0 -1513.4879423951497 -791.94185125324293 0 -791.94185125324293 -817.62687480592649 0 0 0 0 -1326.4804468447983 -204.29547695312795 0 -204.29547695312795 -933.22065294267713 0 0 0 0 -1288.6882849088724 -221.9481171194675 0 -221.9481171194675 -483.66263364019414 0 0 0 0 -1328.4215056341054 -484.66032822841044 0 -484.66032822841044 -527.48638592560746 0 0 0 0 150.29754778288043 -682.37819362876871 0 -682.37819362876871 -753.54817148024722 0 0 0 0 -1305.8431208915499 -326.55365301138045 0 -326.55365301138045 -84.207749631381375 0 0 0 0 -386.66959998846869 -305.39747667254051 0 -305.39747667254051 -118.28090766305831 0 0 0 0 -119.2904588967067 -14.991998823719769 0 -14.991998823719769 138.48248564847381 0 0 0 0 -23.386352976510807 -52.140569441364804 0 -52.140569441364804 -49.85091597578058 0 0 0 0 -111.06299999530893 -430.93524461993729 0 -430.93524461993729 -463.06792404892622 0 0 0 0 -87.913793305808213 -440.68837466649347 0 -440.68837466649347 -493.903199808301 0 0 0 0 86.257097967129084 -383.79771937357509 0 -383.79771937357509 -584.28660071625927 0 0 0 0 -116.3662238332472 -407.41116620424145 0 -407.41116620424145 -518.42040901688961 0 0 0 0 -115.76907907556188 -440.22160386475559 0 -440.22160386475559 -508.21475891282898 0 0 0 0 -13.356432539961475 -38.933879006594367 0 -38.933879006594367 -88.048235285482491 0 0 0 0 -215.55147745269642 -263.90479742475145 0 -263.90479742475145 -611.47526639745865 0 0 0 0 -213.52513206609729 -453.14501230448514 0 -453.14501230448514 -540.97774270051013 0 0 0 0 114.87167679997219 -212.04057241258852 0 -212.04057241258852 -417.02519197884612 0 0 0 0 -706.00032981866389 -519.49474617162923 0 -519.49474617162923 -70.733332014555344 0 0 0 0 442.28258627506875 -495.07567981279135 0 -495.07567981279135 -1245.7485702567647 0 0 0 0 395.92533457033642 -355.56869918449047 0 -355.56869918449047 -1623.0077411612874 0 0 0 0 3.9242498437078837 -12.593680857373258 0 -12.593680857373258 -10.758298496516286 0 0 0 0 -43.247168188157957 137.12111498350714 0 137.12111498350714 -805.26820449001389 0 0 0 0 -41.411320344013802 -407.38530198713488 0 -407.38530198713488 -530.26476740160433 0 0 0 0 -13.703130996959572 -47.80162875015327 0 -47.80162875015327 -73.98508739226051 0 0 0 0 -19.051481198650436 -513.2370882809646 0 -513.2370882809646 -623.67281527705745 0 0 0 0 -51.375039426318835 -424.44174326313077 0 -424.44174326313077 -557.02406208635512 0 0 0 0 -79.85811126891349 -405.96143552322974 0 -405.96143552322974 -477.4058486534741 0 0 0 0 6.8547649562925841 -0.51947193973656169 0 -0.51947193973656169 14.354477790714327 0 0 0 0 -43.244223361907643 -40.652064123409218 0 -40.652064123409218 44.117457755037321 0 0 0 0 935.64603821733544 -1378.939835858102 0 -1378.939835858102 1634.9446291912172 0 0 0 0 -35.793973308080069 -35.239490687823505 0 -35.239490687823505 96.473643461970681 0 0 0 0 632.58741191851732 -938.74550526593521 0 -938.74550526593521 1703.9143569811858 0 0 0 0 20.964173850416898 -18.753736878168326 0 -18.753736878168326 3.4119711032798463 0 0 0 0 153.86994688471896 -273.77277272923675 0 -273.77277272923675 -195.01607953691564 0 0 0 0 385.43937028056826 -962.7008029960416 0 -962.7008029960416 1791.2860185884419 0 0 0 0 521.4093981732658 -928.01918637251947 0 -928.01918637251947 1721.3153365226608 0 0 0 0 485.0708066471052 -1047.8086193741619 0 -1047.8086193741619 1181.1460235685081 0 0 0 0 298.28569531896937 -1102.402633412692 0 -1102.402633412692 1636.7979629921028 0 0 0 0 211.0923123012326 -828.58556310881977 0 -828.58556310881977 1693.5451491309213 0 0 0 0 475.80533489746449 -911.20705408044159 0 -911.20705408044159 657.83439355755218 0 0 0 0 276.93938387048183 -579.5555917208294 0 -579.5555917208294 793.52951528750418 0 0 0 0 295.58839083088969 -646.81046181056445 0 -646.81046181056445 1291.1674676803377 0 0 0 0 265.82838473695028 -1068.647676712347 0 -1068.647676712347 1862.4979948177206 0 0 0 0 -155.83569588713726 -1621.6021879296204 0 -1621.6021879296204 1136.1826785048761 0 0 0 0 -469.14152718381956 -69.673970443051076 0 -69.673970443051076 1396.7880423113675 0 0 0 0 -670.93285719184496 -548.30043667180871 0 -548.30043667180871 606.97204346823855 0 0 0 0 -1243.177437360775 -966.47196488607733 0 -966.47196488607733 672.90778174326988 0 0 0 0 -338.00386063620681 -1132.2119618310026 0 -1132.2119618310026 -75.380135080122272 0 0 0 0 -1240.2504858248139 -940.74182259842928 0 -940.74182259842928 7.6088691107725026 0 0 0 0 -674.0231560638349 -499.9133632654557 0 -499.9133632654557 314.24398941571417 0 0 0 0 -1.0262060653822402 -5.3072388571076203 0 -5.3072388571076203 -1.251372768695326 0 0 0 0 -415.60407151286199 -354.34162651987572 0 -354.34162651987572 -133.09126556408592 0 0 0 0 160.69852352631278 -275.83151458721841 0 -275.83151458721841 397.33854329847964 0 0 0 0 -32.383869676762259 -108.24432473640547 0 -108.24432473640547 -50.763475964622245 0 0 0 0 -927.03869736363413 -317.99447327744565 0 -317.99447327744565 705.42354600933322 0 0 0 0 -1132.5940132630931 -608.07165725945379 0 -608.07165725945379 334.57822632614989 0 0 0 0 -1090.8554963534407 -673.26456049762783 0 -673.26456049762783 -64.648396116623189 0 0 0 0 -39.175762597024004 -99.227963638444635 0 -99.227963638444635 389.86069912429957 0 0 0 0 -5.702618729130279 -12.280940490229654 0 -12.280940490229654 14.196432208066305 0 0 0 0 -23.902808176515862 -103.78486708662436 0 -103.78486708662436 -28.670676934780783 0 0 0 0 102.35244931100169 21.933194554541842 0 21.933194554541842 100.15103547887702 0 0 0 0 3.6645293114124797 95.474704523890978 0 95.474704523890978 314.74511801644985 0 0 0 0 231.17550981418026 303.46125372529059 0 303.46125372529059 451.60505432996433 0 0 0 0 55.7729378369404 153.88612026287592 0 153.88612026287592 414.07442629789875 0 0 0 0 -96.322651630849577 -576.10776593843184 0 -576.10776593843184 -748.51122987235431 0 0 0 0 46.755330823812983 -719.09163078555866 0 -719.09163078555866 -1177.1839463190918 0 0 0 0 -117.98469621721961 -753.51758990083908 0 -753.51758990083908 -201.11337710820226 0 0 0 0 -0.62048728347421311 -869.23550685852899 0 -869.23550685852899 -398.294400643892 0 0 0 0 -84.870182314945851 -677.09794053018413 0 -677.09794053018413 -725.77341891862761 0 0 0 0 -309.61688209937711 -1207.1753892234156 0 -1207.1753892234156 -580.24197775257198 0 0 0 0 0.26788111821725857 -1044.2453167220895 0 -1044.2453167220895 -1048.9717499569015 0 0 0 0 -324.50140367618587 -1048.9444781098578 0 -1048.9444781098578 233.98770069697639 0 0 0 0 180.80730115593178 -701.61110615055077 0 -701.61110615055077 -219.77558758696614 0 0 0 0 -466.82580268229867 -590.1942688369727 0 -590.1942688369727 892.8982805685373 0 0 0 0 -772.84298586143996 -1813.0995880136688 0 -1813.0995880136688 -679.6740155002044 0 0 0 0 -22.722446557583339 -42.162171013789049 0 -42.162171013789049 -52.144052816404042 0 0 0 0 1919.9488940543088 -993.68610847800301 0 -993.68610847800301 133.57110173459296 0 0 0 0 133.80026785117843 -990.8890108012265 0 -990.8890108012265 653.78347428326379 0 0 0 0 809.95566975194379 68.445452695214044 0 68.445452695214044 109.1081754501356 0 0 0 0 248.76884060125303 -856.17113484809488 0 -856.17113484809488 -1020.4944970414072 0 0 0 0 122.46874960503192 -388.49700509692047 0 -388.49700509692047 -706.06080171787471 0 0 0 0 947.08616179713863 -654.00282885684283 0 -654.00282885684283 -1424.4253568908971 0 0 0 0 -15.313710298709339 -2262.8401526028101 0 -2262.8401526028101 -2343.1258991479408 0 0 0 0 994.47165306814713 -863.72184190806001 0 -863.72184190806001 -4211.725442117342 0 0 0 0 1886.6210637466866 865.0149897308147 0 865.0149897308147 -2056.718252550716 0 0 0 0 5.3540498657843614 -10.004696293248742 0 -10.004696293248742 -38.855357800723567 0 0 0 0 -2566.3023193779809 -2911.8544628999371 0 -2911.8544628999371 -1104.126263051352 0 0 0 0 -852.69620516110444 -984.55055719012307 0 -984.55055719012307 359.62869094143389 0 0 0 0 -2053.5575311563298 -1478.1589456366655 0 -1478.1589456366655 553.73612353065982 0 0 0 0 -3552.7231952875081 -1767.7709024638589 0 -1767.7709024638589 730.30894506926415 0 0 0 0 2246.7344319259864 -1033.8297572290139 0 -1033.8297572290139 -1833.3988967105779 0 0 0 0 -15.074819931024962 -22.153954783482618 0 -22.153954783482618 -21.087476750317279 0 0 0 0 -1518.8662157270301 -259.51091189356521 0 -259.51091189356521 1426.5503131032601 0 0 0 0 2447.7754699768702 -1910.086740100327 0 -1910.086740100327 -717.02691275879624 0 0 0 0 -744.46731425868347 -1219.4878903667341 0 -1219.4878903667341 1310.0092994784209 0 0 0 0 -597.46879344029003 931.10572045070148 0 931.10572045070148 937.52537253807532 0 0 0 0 -370.50563913623773 200.05697610014977 0 200.05697610014977 -1696.9006596867257 0 0 0 0 -1295.9455909878161 75.392639779871388 0 75.392639779871388 -559.67385556384397 0 0 0 0 -3590.8116120079067 -5.5673931550918496 0 -5.5673931550918496 -403.61821284875259 0 0 0 0 -3332.9222999104568 -1849.843709300163 0 -1849.843709300163 -321.19745236181188 0 0 0 0 -3241.4056945823686 -2298.0033550720145 0 -2298.0033550720145 -358.65222992966301 0 0 0 0 -4333.1998752557702 -109.17857840170836 0 -109.17857840170836 170.46006462667719 0 0 0 0 -4.4279424388132043 -4.8308722895517064 0 -4.8308722895517064 -26.793914160500492 0 0 0 0 3.0714094038276301 -33.489839750679323 0 -33.489839750679323 -33.719006170633634 0 0 0 0 -644.84463924562442 -1440.2635551284111 0 -1440.2635551284111 -1883.6632214371712 0 0 0 0 5442.6098333373011 -2913.8268464204957 0 -2913.8268464204957 -2309.1298748034751 0 0 0 0 -317.96814779099077 -283.41075962840841 0 -283.41075962840841 -1240.7184281174923 0 0 0 0 1207.8772097308392 70.437785596011963 0 70.437785596011963 -735.68995909113437 0 0 0 0 -2772.6864025868126 -1031.8049219774111 0 -1031.8049219774111 136.58416746405419 0 0 0 0 9536.8131884780159 3592.5078451990339 0 3592.5078451990339 213.47561503265752 0 0 0 0 -2963.5776850438851 -1352.0272038151306 0 -1352.0272038151306 -193.91937672009226 0 0 0 0 -2652.9853191409784 -1293.3826630682015 0 -1293.3826630682015 -387.0386503637128 0 0 0 0 -2838.9741119670216 -1586.1549376321927 0 -1586.1549376321927 -490.86165111727314 0 0 0 0 11.998491426478623 -18.52629765623584 0 -18.52629765623584 -19.515010235152261 0 0 0 0 -4200.1087004088768 -2172.6199402816128 0 -2172.6199402816128 -342.57591254479485 0 0 0 0 -1401.010825378411 -1433.1008639191423 0 -1433.1008639191423 -1222.2114025078481 0 0 0 0 -2216.7692592602107 -1263.652059792541 0 -1263.652059792541 -839.76763259996733 0 0 0 0 -2429.8621764308919 -1716.6334042591625 0 -1716.6334042591625 -896.31685031094821 0 0 0 0 -2683.0265531743062 -1684.4186495774484 0 -1684.4186495774484 -812.72656384547008 0 0 0 0 -3020.4390870479983 -2994.1507956064452 0 -2994.1507956064452 -1523.84933483036 0 0 0 0 -1576.6233492085594 -1190.0954175726947 0 -1190.0954175726947 -995.71207685036643 0 0 0 0 -1465.6928563850815 -1322.5634020574216 0 -1322.5634020574216 -1194.5651168003678 0 0 0 0 -1793.8026242419146 -1865.5777378532366 0 -1865.5777378532366 -1633.4688402748143 0 0 0 0 -1101.4485530407692 -1221.6618271267507 0 -1221.6618271267507 -1488.9490565228189 0 0 0 0 406.71315730328206 -1379.3523209352134 0 -1379.3523209352134 -2341.1343510076913 0 0 0 0 -1359.188793674577 -2674.2554741072672 0 -2674.2554741072672 -2742.5179013010347 0 0 0 0 -979.61326189598185 -716.64620626781834 0 -716.64620626781834 -675.94689223830937 0 0 0 0 -583.89816455406253 -1099.1417297134176 0 -1099.1417297134176 -540.13708065939136 0 0 0 0 11.83365683139408 -78.586503207335141 0 -78.586503207335141 73.328029767092346 0 0 0 0 -934.43549632438226 -836.61609333551314 0 -836.61609333551314 -567.66502276292886 0 0 0 0 -591.40894010654301 -1164.8124440153479 0 -1164.8124440153479 -599.86643437899602 0 0 0 0 -600.13890403677942 -1131.3994583504391 0 -1131.3994583504391 -215.75838210938309 0 0 0 0 -76.116485735896049 -90.156297713377512 0 -90.156297713377512 11.374140647099125 0 0 0 0 -16.783276509055668 -9.8015502603972209 0 -9.8015502603972209 -95.893901287016774 0 0 0 0 -313.38830566310207 -633.94091002253117 0 -633.94091002253117 46.909346587432083 0 0 0 0 -1042.9179163559093 -1643.2537918807302 0 -1643.2537918807302 -799.6819765161199 0 0 0 0 79.753978287443317 -104.17638799611771 0 -104.17638799611771 49.077768128880734 0 0 0 0 -3228.7168671457912 -2154.2660539270582 0 -2154.2660539270582 -910.39016349582016 0 0 0 0 1349.5493299907539 1529.8709704974754 0 1529.8709704974754 -5294.0270701467234 0 0 0 0 61.088473306823289 -216.00045038710959 0 -216.00045038710959 -110.77843539415471 0 0 0 0 -24.244985357742507 -77.255265259392417 0 -77.255265259392417 -30.030025653911821 0 0 0 0 -63.65375933006726 -149.21206833056749 0 -149.21206833056749 -104.87360710313806 0 0 0 0 103.64711085511954 -291.79688681847983 0 -291.79688681847983 -12.591805798774658 0 0 0 0 19.571808858061559 -433.51962282750401 0 -433.51962282750401 -211.40098318273522 0 0 0 0 0.27465319563293633 -1.1953013915987185 0 -1.1953013915987185 1.7267695538113799 0 0 0 0 -220.50324346948764 -258.00117243236491 0 -258.00117243236491 -87.734899400820723 0 0 0 0 190.32909621810541 -221.83293485141257 0 -221.83293485141257 -76.060422622351325 0 0 0 0 199.59702943850425 -135.0949400256286 0 -135.0949400256286 -18.356002971073394 0 0 0 0 30.540361530511291 -161.36761364000449 0 -161.36761364000449 22.315053176200308 0 0 0 0 188.99955898050393 -168.41351395735637 0 -168.41351395735637 -121.76744889291513 0 0 0 0 66.48512824405941 -84.192436901980386 0 -84.192436901980386 79.739048180051853 0 0 0 0 -341.0729145921141 -1099.2209462672818 0 -1099.2209462672818 1253.5204827166926 0 0 0 0 213.40266306182093 -794.29384537172064 0 -794.29384537172064 -333.26648562394621 0 0 0 0 -119.30285978539177 -220.75916291496105 0 -220.75916291496105 0.68753684173498186 0 0 0 0 171.20522564571002 49.774509572351235 0 49.774509572351235 -8.6527748931785027 0 0 0 0 -57.291641388525022 -144.41285308745319 0 -144.41285308745319 -136.91035435868798 0 0 0 0 -125.43474921543384 -144.33164373363979 0 -144.33164373363979 -130.91464785229618 0 0 0 0 0.85923432809568112 -2.32901707604492 0 -2.32901707604492 3.4021540208176475 0 0 0 0 -34.522176497863256 -61.984682150006847 0 -61.984682150006847 -65.887087882452761 0 0 0 0 -53.350788836131869 -180.54104048811018 0 -180.54104048811018 -185.0684752266352 0 0 0 0 -194.74311165291874 -175.79968048715637 0 -175.79968048715637 -129.16534914209842 0 0 0 0 -2255.9648097595782 -870.89499465083645 0 -870.89499465083645 442.38582832638349 0 0 0 0 49.754029858601029 -50.358270658203594 0 -50.358270658203594 49.667918049634338 0 0 0 0 -3101.2641282026452 -6009.817846873806 0 -6009.817846873806 1295.2721508554678 0 0 0 0 -1776.0839898159902 -1101.4630161266759 0 -1101.4630161266759 -3553.2772583236074 0 0 0 0 -1985.4651717303404 -2268.3903795523784 0 -2268.3903795523784 -1496.7719671610103 0 0 0 0 -676.37647857576667 -1753.4063411696334 0 -1753.4063411696334 -1338.4795666404534 0 0 0 0 -353.2706558816717 -1388.0831883952451 0 -1388.0831883952451 -1711.3920485483177 0 0 0 0 -226.93643974095176 -1406.6958339248522 0 -1406.6958339248522 -1782.4638297525671 0 0 0 0 159.68961684781971 -913.92804858307136 0 -913.92804858307136 -1751.3950175754362 0 0 0 0 -671.62806335767891 -1009.3501286961769 0 -1009.3501286961769 -1617.0570344836015 0 0 0 0 -752.69653512886725 -1740.2091295004175 0 -1740.2091295004175 -1898.3045424396441 0 0 0 0 35.980152694610808 -42.471017728750212 0 -42.471017728750212 36.41314272031164 0 0 0 0 -49.131855608720798 -130.0295842191772 0 -130.0295842191772 -148.53805189203376 0 0 0 0 24.916492901014863 -188.82125095261654 0 -188.82125095261654 -101.93136783749651 0 0 0 0 -26.949596438262233 -232.54253976350287 0 -232.54253976350287 -156.47260507282772 0 0 0 0 -94.91071050579194 -187.88715341315037 0 -187.88715341315037 -90.648767742353812 0 0 0 0 -451.40038696788542 -1232.3998467140682 0 -1232.3998467140682 -1959.4801426638041 0 0 0 0 26.23535504884012 -27.269700104404762 0 -27.269700104404762 21.03874465112311 0 0 0 0 -420.27395806487766 -763.01404517144329 0 -763.01404517144329 -1501.1125684127182 0 0 0 0 -218.57201147984597 -723.34818239041488 0 -723.34818239041488 -1610.1110632394266 0 0 0 0 10.427117344816509 -9.3130906050552085 0 -9.3130906050552085 5.586723337907415 0 0 0 0 -181.99224729719572 -42.63416727009826 0 -42.63416727009826 441.28384092073247 0 0 0 0 -179.07491368649062 -956.09734414207924 0 -956.09734414207924 -1457.9021988987788 0 0 0 0 -177.88736331547261 -931.08546051325538 0 -931.08546051325538 -1632.0739579516444 0 0 0 0 0.017984875579713844 -715.42391966468858 0 -715.42391966468858 -1610.8978564182398 0 0 0 0 -218.53341544771683 -727.32580343985319 0 -727.32580343985319 -1370.8143347255245 0 0 0 0 -146.562428653604 -817.89074766396516 0 -817.89074766396516 -1606.7730503022467 0 0 0 0 -155.73629756376613 -694.80717175881546 0 -694.80717175881546 -1174.3781288839673 0 0 0 0 57.628467880742392 -584.84137757253484 0 -584.84137757253484 -1534.340866576691 0 0 0 0 0.1188893300086499 -778.21892101361118 0 -778.21892101361118 -1177.950396410597 0 0 0 0 0.54846921525313519 -592.11133103050543 0 -592.11133103050543 -684.97725085196726 0 0 0 0 -178.51259723264229 -141.67734031910913 0 -141.67734031910913 304.2235550722653 0 0 0 0 172.92991828166123 -498.68862074439676 0 -498.68862074439676 -599.67084347755008 0 0 0 0 -77.17511411011219 -189.45849722500861 0 -189.45849722500861 -823.0074362856285 0 0 0 0 234.07193947929773 -387.00389254261245 0 -387.00389254261245 357.72100000275168 0 0 0 0 -0.61630148821859621 -542.53035589012507 0 -542.53035589012507 1205.1732181634361 0 0 0 0 -5.7963675734063145 -1013.9400227442202 0 -1013.9400227442202 514.36563781657605 0 0 0 0 0.013325899189229747 -373.46549937036315 0 -373.46549937036315 355.98353165370645 0 0 0 0 -746.32700377967558 -2463.6802196108238 0 -2463.6802196108238 449.19984670673148 0 0 0 0 502.79994296748191 -259.75549773215607 0 -259.75549773215607 -1402.2940885973221 0 0 0 0 124.27155114410562 -169.13729157922717 0 -169.13729157922717 -659.2727977127779 0 0 0 0 -13.700599064372341 -9.7871029258234401 0 -9.7871029258234401 -3.5802521649266339 0 0 0 0 55.266677561681718 18.549242177148699 0 18.549242177148699 1624.7884704406897 0 0 0 0 -166.50429786834138 -959.17042429978983 0 -959.17042429978983 2203.7311650723532 0 0 0 0 -15.817963239271194 -114.25800850332962 0 -114.25800850332962 -129.64954753661186 0 0 0 0 -52.538359424157534 -143.19725176834982 0 -143.19725176834982 95.367616771400208 0 0 0 0 24.694180911581498 -121.53656713951204 0 -121.53656713951204 -71.559895202000916 0 0 0 0 -206.24749704799615 -436.15990008670815 0 -436.15990008670815 3082.4835340548088 0 0 0 0 -31.425365028881345 -26.434023751075728 0 -26.434023751075728 -15.165828681194093 0 0 0 0 -34.961492899572477 -68.726550520903402 0 -68.726550520903402 276.19719390115642 0 0 0 0 -29.871378107112832 -98.440456982796604 0 -98.440456982796604 74.820149385715922 0 0 0 0 1163.027885129035 -839.7191070664976 0 -839.7191070664976 -109.53150010420359 0 0 0 0 100.84392070153262 -1096.4177473085438 0 -1096.4177473085438 1185.4342054082772 0 0 0 0 541.94939698241797 -442.67165411371479 0 -442.67165411371479 517.65935823164546 0 0 0 0 -223.57412531314185 -678.98376369613288 0 -678.98376369613288 446.70196951319485 0 0 0 0 12.25900719081983 -268.50138169485217 0 -268.50138169485217 -661.93121240064647 0 0 0 0 -156.1992172934406 -852.90748459766655 0 -852.90748459766655 -1270.3303701710065 0 0 0 0 -185.45214048239723 -856.09183621327065 0 -856.09183621327065 -922.1448973642473 0 0 0 0 106.0393274842063 -559.72834934179809 0 -559.72834934179809 -1809.0521405828258 0 0 0 0 -843.22176956589101 -1069.2362210387619 0 -1069.2362210387619 -1295.3878608576033 0 0 0 0 298.0505658015245 -608.61162274898834 0 -608.61162274898834 -1256.0217237778561 0 0 0 0 -907.22143326143851 -1081.7169479105396 0 -1081.7169479105396 -60.154333825572394 0 0 0 0 45.614235596149229 162.53371079704812 0 162.53371079704812 407.23187699488517 0 0 0 0 -2100.8221568112494 -1846.9886551340132 0 -1846.9886551340132 618.34721496485872 0 0 0 0 -514.54311026219511 -1625.1622233118542 0 -1625.1622233118542 -721.20628627090991 0 0 0 0 -796.05450224186643 -892.64277946765287 0 -892.64277946765287 -3610.1971196960367 0 0 0 0 -2840.0812168694683 -816.400514806719 0 -816.400514806719 -975.06913971134236 0 0 0 0 -2011.4008773813257 -3237.9018228302666 0 -3237.9018228302666 -1389.6172180306585 0 0 0 0 1.1237715496727674 -1.7411271459455122 0 -1.7411271459455122 -3.1882417350244125 0 0 0 0 -483.55110129289096 1354.6341522350976 0 1354.6341522350976 -441.871013979493 0 0 0 0 2313.8144192978507 -3897.0821774270626 0 -3897.0821774270626 -3748.0030108285446 0 0 0 0 -1187.5215906541853 -89.827410871728716 0 -89.827410871728716 -222.3208403613462 0 0 0 0 7.0684599948412767 -5.7011133866865293 0 -5.7011133866865293 -8.2347346768161174 0 0 0 0 -1022.904892496299 -1381.0688429426518 0 -1381.0688429426518 -1668.2578426118707 0 0 0 0 -0.6734591407950461 -35.269546397160553 0 -35.269546397160553 12.527024464862926 0 0 0 0 -2408.2803035974684 -1510.2199506967179 0 -1510.2199506967179 -1143.790001457528 0 0 0 0 1400.9525272325409 -2505.9910001312528 0 -2505.9910001312528 -1391.8508230368316 0 0 0 0 -2519.8121798005886 -471.29166376807188 0 -471.29166376807188 -4945.3572254283026 0 0 0 0 578.4743902888149 -2438.0303024011882 0 -2438.0303024011882 -1885.9145391867351 0 0 0 0 -31.733060841739643 -96.649226241053839 0 -96.649226241053839 109.15122995845013 0 0 0 0 4471.5337695945636 324.91815235717149 0 324.91815235717149 -461.76247380236964 0 0 0 0 -12.878480477763361 -7.796466944308861 0 -7.796466944308861 -1.3505254892171195 0 0 0 0 34.36977546865819 -87.844808549321897 0 -87.844808549321897 61.635905752475082 0 0 0 0 -20.237651317271911 -40.674789923730309 0 -40.674789923730309 -18.883239416765328 0 0 0 0 -362.61379592461162 -2028.1211938243705 0 -2028.1211938243705 1800.9850663986072 0 0 0 0 73.797510483069345 -2447.8930243624818 0 -2447.8930243624818 470.18630068429047 0 0 0 0 103.68511650449364 -129.27504325551854 0 -129.27504325551854 67.946960377218602 0 0 0 0 30.241922214801889 -146.97339503881813 0 -146.97339503881813 146.65411077626777 0 0 0 0 -0.16024821809293144 -0.82295245847819842 0 -0.82295245847819842 2.2924403551368471 0 0 0 0 153.374097257838 -94.722670793693396 0 -94.722670793693396 -63.659937859534693 0 0 0 0 90.797487358591752 -228.21486639854265 0 -228.21486639854265 99.257392331524898 0 0 0 0 -88.108671920126653 94.121338178621954 0 94.121338178621954 90.474521977528639 0 0 0 0 -294.64550153870368 -146.15985499029921 0 -146.15985499029921 198.11705491779139 0 0 0 0 1.677656217427284 -35.606322298690429 0 -35.606322298690429 150.07367173046805 0 0 0 0 -64.047974679648178 -143.74534811155536 0 -143.74534811155536 159.51559865794479 0 0 0 0 -138.70211228363041 -39.751487482769335 0 -39.751487482769335 158.42574753128429 0 0 0 0 -237.42164373410924 -414.3351463264662 0 -414.3351463264662 -635.64154481879268 0 0 0 0 182.38248794102401 42.189650438071112 0 42.189650438071112 71.917177501734841 0 0 0 0 61.831094187635216 -78.974144861235118 0 -78.974144861235118 73.822152486875595 0 0 0 0 -59.192621714057168 -142.25361049268395 0 -142.25361049268395 -708.56701852967763 0 0 0 0 -1080.7851021709503 -814.77629520099617 0 -814.77629520099617 -568.26446792062779 0 0 0 0 41.550954407917743 -523.27885291361144 0 -523.27885291361144 -113.34039608149033 0 0 0 0 -115.5784280173757 -509.11772472323037 0 -509.11772472323037 -733.01075845073865 0 0 0 0 -9.5309941677551251 -701.00530311569673 0 -701.00530311569673 -897.40832774243245 0 0 0 0 342.39053650091228 -547.36939907703709 0 -547.36939907703709 -736.21847689006609 0 0 0 0 75.493760276862304 -371.05099187929864 0 -371.05099187929864 -99.996056666921504 0 0 0 0 903.130411724429 -1230.6975169005309 0 -1230.6975169005309 177.27361836638011 0 0 0 0 -142.99725907672837 -631.1415051302447 0 -631.1415051302447 -139.0036840121611 0 0 0 0 -1527.2994287475085 -1817.6712363865709 0 -1817.6712363865709 -214.91675167961512 0 0 0 0 -2022.0196307504084 -906.8993798631127 0 -906.8993798631127 -241.47632039993209 0 0 0 0 32.754960982534413 -75.532555204956395 0 -75.532555204956395 62.314201430292307 0 0 0 0 1457.2588590228115 -580.13795690896222 0 -580.13795690896222 608.4834125597481 0 0 0 0 -71.815359870534621 -56.104909085689663 0 -56.104909085689663 9.9364304614618533 0 0 0 0 -13.079473730231427 -8.0121789227180216 0 -8.0121789227180216 7.1259090682968633 0 0 0 0 115.21174499896733 -174.52480603293952 0 -174.52480603293952 42.750794738272816 0 0 0 0 -32.20098390680505 -194.69068290908945 0 -194.69068290908945 357.57331419903494 0 0 0 0 -62.849088447849368 -74.563568046182667 0 -74.563568046182667 -8.6755179424116733 0 0 0 0 -2861.5188168145251 -1231.5293503548601 0 -1231.5293503548601 -581.36948929984646 0 0 0 0 -10.323391858471723 -106.93210347467524 0 -106.93210347467524 33.591575801441238 0 0 0 0 -44.61452920519514 -98.280156192747086 0 -98.280156192747086 235.57435476774117 0 0 0 0 854.85030702085351 -1343.4048634893079 0 -1343.4048634893079 860.0694670309058 0 0 0 0 210.16471606580308 -108.5502093324485 0 -108.5502093324485 -174.69804438858955 0 0 0 0 24.073131817404601 -7.7088339759410331 0 -7.7088339759410331 -2.9888727561064883 0 0 0 0 1368.2603139264538 -993.62478437679965 0 -993.62478437679965 43.399577366326412 0 0 0 0 1077.0698450848722 -440.74463100592402 0 -440.74463100592402 -433.46604449238657 0 0 0 0 37.905819752173556 -692.26234491980722 0 -692.26234491980722 -398.38726072026839 0 0 0 0 -81.32953233490116 172.24306848660171 0 172.24306848660171 -181.76603175611672 0 0 0 0 -189.12850555646583 198.97915045398804 0 198.97915045398804 763.83023299120032 0 0 0 0 -138.99543730997539 -86.040424188791803 0 -86.040424188791803 -235.37840660641086 0 0 0 0 247.53798344815732 -211.95392949915913 0 -211.95392949915913 -855.24024488749637 0 0 0 0 -73.272715328010349 -75.897039951605819 0 -75.897039951605819 -25.790561290643055 0 0 0 0 -1708.6086079637753 -3520.8082173863731 0 -3520.8082173863731 -2146.2783451116993 0 0 0 0 1048.6436432091868 43.357055901240528 0 43.357055901240528 -1292.159611840967 0 0 0 0 -408.1436890513578 -1527.4772510840967 0 -1527.4772510840967 -2483.3217983577524 0 0 0 0 -3.2617282972948445 -14.344192794755656 0 -14.344192794755656 -19.453829149925834 0 0 0 0 2683.6925396528823 167.82539377535863 0 167.82539377535863 -768.39704833707947 0 0 0 0 -3081.8276037964824 -1220.3394812372649 0 -1220.3394812372649 79.076214410433295 0 0 0 0 2711.5310890205146 -63.157180316365157 0 -63.157180316365157 293.40685953560023 0 0 0 0 -2149.383190861874 -2211.4717402285742 0 -2211.4717402285742 -1266.79091380925 0 0 0 0 706.59103427523223 16.099909665107702 0 16.099909665107702 -399.60432858478816 0 0 0 0 -843.76687300024787 116.67301087992314 0 116.67301087992314 385.43625737663297 0 0 0 0 -1223.6157031747862 -999.5068464247471 0 -999.5068464247471 -159.90229592665571 0 0 0 0 -2048.4484317342285 -366.01962567034207 0 -366.01962567034207 193.04887209303433 0 0 0 0 -1865.0145121986279 -1176.5086705780109 0 -1176.5086705780109 125.34604138167253 0 0 0 0 -511.29053770350583 -530.93109638347846 0 -530.93109638347846 116.75821616104167 0 0 0 0 -1268.7696198733756 -1010.1633156747057 0 -1010.1633156747057 -82.73007429120571 0 0 0 0 -1267.2254213380111 -986.79206746308466 0 -986.79206746308466 144.70605223319984 0 0 0 0 -932.22512334006024 -973.52059715117582 0 -973.52059715117582 -421.97186158094644 0 0 0 0 -1872.1832942332221 -1436.9782643638628 0 -1436.9782643638628 -325.64426036540135 0 0 0 0 -805.60349263562239 -1348.7833247578355 0 -1348.7833247578355 -1605.4722918787534 0 0 0 0 -1338.3879090410337 -1085.3467147541469 0 -1085.3467147541469 -407.82935644321151 0 0 0 0 -444.38890874352364 -440.60433018758954 0 -440.60433018758954 -207.66442204419764 0 0 0 0 81.807606254660641 -302.54413921727701 0 -302.54413921727701 -369.73464084865736 0 0 0 0 -637.50354761738708 -267.9346280415316 0 -267.9346280415316 203.82168010423993 0 0 0 0 -2.7580422883199276 -3.9730761642183126 0 -3.9730761642183126 -6.4775902339575406 0 0 0 0 -124.6560881328478 15.434933653725921 0 15.434933653725921 360.39438701208201 0 0 0 0 -47.750201867533178 -203.25782596630467 0 -203.25782596630467 41.191617721887724 0 0 0 0 -34.765883724406535 -39.155530260086095 0 -39.155530260086095 3.008907342985701 0 0 0 0 -8.5655115381523501 -64.219317788560602 0 -64.219317788560602 3.0581238370998562 0 0 0 0 177.93754033938239 -54.394593998105194 0 -54.394593998105194 -40.928265388997715 0 0 0 0 24.699924059004047 -47.971791527258262 0 -47.971791527258262 15.387753813982563 0 0 0 0 -194.2615710147511 -67.148078753329173 0 -67.148078753329173 126.89752936876539 0 0 0 0 -67.8034151463944 -273.34605770013786 0 -273.34605770013786 -787.12815660810156 0 0 0 0 -61.829467973991996 34.741300540948032 0 34.741300540948032 276.30513935144336 0 0 0 0 175.76792856305838 207.45206511540709 0 207.45206511540709 -201.90365918737189 0 0 0 0 40.404177538786428 -34.232410791028968 0 -34.232410791028968 -0.91859326323521628 0 0 0 0 414.86996984653524 -836.76547483335526 0 -836.76547483335526 -301.61114312946302 0 0 0 0 -44.999530784451053 -90.664104890156523 0 -90.664104890156523 -29.700250673573464 0 0 0 0 -411.99817820327007 209.70248191671635 0 209.70248191671635 22.565725992753869 0 0 0 0 2.0863457772635456 -22.201351834781946 0 -22.201351834781946 35.076476165454537 0 0 0 0 10.250570857248931 6.0045425449728214 0 6.0045425449728214 -21.150970407419898 0 0 0 0 -134.39417703112122 -2180.3330544621349 0 -2180.3330544621349 -2985.0681990434678 0 0 0 0 -323.60174087315681 -1497.1723079653566 0 -1497.1723079653566 -2115.3644673461322 0 0 0 0 -1870.7084936395695 -1283.107055522154 0 -1283.107055522154 -1950.0719312938272 0 0 0 0 0.42569685829863602 -1.0754032227278003 0 -1.0754032227278003 -5.0008344307857229 0 0 0 0 -242.72379589090997 -419.44715760746749 0 -419.44715760746749 -1651.983716045539 0 0 0 0 -857.74728694828809 -791.75097865470707 0 -791.75097865470707 -1193.6365396419351 0 0 0 0 25.161821269139182 17.692097551422194 0 17.692097551422194 -138.68883521053067 0 0 0 0 88.384276472555939 -1482.9831244101606 0 -1482.9831244101606 -1930.4074620079755 0 0 0 0 6.1987524748667511 15.208801108827686 0 15.208801108827686 -43.43354868552828 0 0 0 0 -642.59248578338884 -328.97123742201074 0 -328.97123742201074 -2798.430353700558 0 0 0 0 1.7074217786956751 2.7827865738001947 0 2.7827865738001947 -11.748329153275932 0 0 0 0 -12.968119639720555 -42.593536608592728 0 -42.593536608592728 -46.769673303850965 0 0 0 0 -134.70201102859573 -69.160718720191653 0 -69.160718720191653 -75.20584535002854 0 0 0 0 318.761778876069 -159.77185448208184 0 -159.77185448208184 -400.40586167700894 0 0 0 0 17.276172223930075 -42.791747190026939 0 -42.791747190026939 29.78810461327469 0 0 0 0 5.4746929995017126 -255.19461524931467 0 -255.19461524931467 -292.67090617209033 0 0 0 0 -27.239009574142983 -69.750752782069412 0 -69.750752782069412 -5.4771899022016441 0 0 0 0 -10.424964880789048 -75.916598554854772 0 -75.916598554854772 -3.2348205152375158 0 0 0 0 -42.675541475618957 -57.517365510475429 0 -57.517365510475429 5.5610450305164534 0 0 0 0 -30.309973904074468 -45.47975083048641 0 -45.47975083048641 -6.8380713875212571 0 0 0 0 -5.1552953925565816 -53.926090053973894 0 -53.926090053973894 1.6528891927650875 0 0 0 0 13.856333020959767 -43.414061690085077 0 -43.414061690085077 10.955842849673136 0 0 0 0 -102.51650621004228 -90.961152679092493 0 -90.961152679092493 4.7689486029025829 0 0 0 0 -74.618357114813989 -51.920218116475098 0 -51.920218116475098 35.74780705243893 0 0 0 0 -61.975647300219862 -42.727829933760404 0 -42.727829933760404 13.635679564875772 0 0 0 0 -33.428631910181139 -65.401482505699278 0 -65.401482505699278 -26.009177101463138 0 0 0 0 -26.542621225031326 -64.364276632088604 0 -64.364276632088604 -50.460552003225644 0 0 0 0 -43.50450915820511 -29.197524237206203 0 -29.197524237206203 17.176769122504083 0 0 0 0 2.4904247640198491 -10.483932387935113 0 -10.483932387935113 -10.166762917903474 0 0 0 0 -19.063937410945073 -32.371418551020042 0 -32.371418551020042 -43.020341118175565 0 0 0 0 -18.197264715272468 -36.463759204121743 0 -36.463759204121743 -57.556139252934372 0 0 0 0 0.10782041657478203 -3.6148336216043901 0 -3.6148336216043901 -15.986738907169503 0 0 0 0 -494.35081474710023 -1161.4457568307907 0 -1161.4457568307907 -960.89471971944295 0 0 0 0 -25.676252319710329 -33.976136348598629 0 -33.976136348598629 -17.164042057904226 0 0 0 0 -504.14879694906995 -385.03172740430932 0 -385.03172740430932 -185.84617549410586 0 0 0 0 -35.31334688392235 -62.300091503437216 0 -62.300091503437216 -2.6865815304051921 0 0 0 0 9.4170095720910467 57.177659562746641 0 57.177659562746641 152.30405913096607 0 0 0 0 -105.51433369258302 -97.311615822392952 0 -97.311615822392952 -251.61828734748596 0 0 0 0 5.9955070349666357 -0.032409685706937807 0 -0.032409685706937807 -2.9972951397031302 0 0 0 0 -167.81684336636681 -260.72237336064649 0 -260.72237336064649 248.1996189997858 0 0 0 0 -0.87118076329352334 -194.97381392186912 0 -194.97381392186912 -369.96537221516701 0 0 0 0 57.521703773876652 -433.48631977019568 0 -433.48631977019568 -840.137964752691 0 0 0 0 3.5626564527158848 1.4599211772672334 0 1.4599211772672334 -6.9787483909048262 0 0 0 0 -533.1531313751475 -579.93548345878844 0 -579.93548345878844 -836.31533140520651 0 0 0 0 -95.180150410058559 -454.2909062873141 0 -454.2909062873141 -1275.4609466685288 0 0 0 0 -0.50751368251803797 -539.32564903520415 0 -539.32564903520415 -1275.2424801279303 0 0 0 0 1.9237035703164338 0.1432397865380608 0 0.1432397865380608 -7.2684739243426932 0 0 0 0 -232.27944584033685 -985.34487627889393 0 -985.34487627889393 -1848.3126746430535 0 0 0 0 -1745.0164509130409 -567.12539714511513 0 -567.12539714511513 -1760.7299520649467 0 0 0 0 -1898.8181292951049 -1383.1453520030873 0 -1383.1453520030873 -942.11048898396439 0 0 0 0 -486.92275544538279 -676.57785292323479 0 -676.57785292323479 -1186.9068076837611 0 0 0 0 105.98186725300911 -473.51761657655334 0 -473.51761657655334 -1447.6179176823462 0 0 0 0 -175.14719082514057 -734.96268130606586 0 -734.96268130606586 -1181.0748258328276 0 0 0 0 -98.375938019758905 -295.86250512020843 0 -295.86250512020843 -992.96819566604972 0 0 0 0 -283.02068766117736 -292.49032477732544 0 -292.49032477732544 245.27484802685285 0 0 0 0 -552.6569454006094 520.57831910952518 0 520.57831910952518 -117.81760776865167 0 0 0 0 -220.90200955839828 -51.858453737837408 0 -51.858453737837408 -133.61961858856262 0 0 0 0 348.65134854216012 402.55520535648611 0 402.55520535648611 390.41904623061055 0 0 0 0 -249.98627063794993 -435.95737774048757 0 -435.95737774048757 719.38464606687921 0 0 0 0 389.96329927261104 -678.08629871029189 0 -678.08629871029189 211.52235189143903 0 0 0 0 -56.47907859456609 -66.455809755967948 0 -66.455809755967948 -29.003065173701543 0 0 0 0 -23.440911304542624 -36.174544081793243 0 -36.174544081793243 -36.203869209286623 0 0 0 0 -9.1473537722340552 -148.48668819759405 0 -148.48668819759405 -252.28626219435137 0 0 0 0 393.42227520383398 -28.33284087425038 0 -28.33284087425038 -131.08183339956304 0 0 0 0 -3.409068367400323 -79.722667112268027 0 -79.722667112268027 291.5054589643587 0 0 0 0 -408.67565916666354 204.41847030135295 0 204.41847030135295 157.02652128913905 0 0 0 0 -7.2862442999343671 -15.868841214957598 0 -15.868841214957598 -44.079292558611499 0 0 0 0 -34.60294617631007 123.65242077676521 0 123.65242077676521 245.00142864916052 0 0 0 0 102.82000958173012 -120.82510217262825 0 -120.82510217262825 -27.744578395897406 0 0 0 0 289.65208770921163 124.40301314941462 0 124.40301314941462 24.457102389569627 0 0 0 0 0.26007763223587688 -36.557043387369603 0 -36.557043387369603 -49.120104537851134 0 0 0 0 -69.836497237394724 -117.10420815259704 0 -117.10420815259704 -37.654790676271659 0 0 0 0 -93.263439831731375 -220.3398139019846 0 -220.3398139019846 -98.602542412195419 0 0 0 0 -225.69957220128708 -158.75962526333387 0 -158.75962526333387 149.13034606586734 0 0 0 0 -15.437776943432567 -35.874764067917354 0 -35.874764067917354 -73.329022497796245 0 0 0 0 790.70785578822324 -926.81474874874948 0 -926.81474874874948 -14.538989080981992 0 0 0 0 -659.0673627135111 -61.863349939827458 0 -61.863349939827458 575.22525860363385 0 0 0 0 -221.22453982321895 -355.50734368242411 0 -355.50734368242411 293.96528683745055 0 0 0 0 -281.69402864390577 158.83635501259232 0 158.83635501259232 28.632263538710049 0 0 0 0 550.42812739415967 -371.36167701177874 0 -371.36167701177874 -58.636952654502238 0 0 0 0 -1458.6550822492572 -1552.5625174150082 0 -1552.5625174150082 -144.71215720225518 0 0 0 0 538.86361719753768 66.310859749100928 0 66.310859749100928 -1502.3607427204079 0 0 0 0 -6.6553214975828894 -11.587330134113927 0 -11.587330134113927 -32.267963888964346 0 0 0 0 -1852.7077569879402 -841.22881732791939 0 -841.22881732791939 -150.39632039447315 0 0 0 0 -130.14104966198647 266.58690779773679 0 266.58690779773679 -1071.2485274231585 0 0 0 0 -14.310459016185348 -41.500303087523406 0 -41.500303087523406 -83.972887792482652 0 0 0 0 9.3291022360208444 -452.70611138384265 0 -452.70611138384265 -965.59868002279109 0 0 0 0 955.71715145483176 -607.79038596642204 0 -607.79038596642204 -1051.1613182670117 0 0 0 0 944.48026721148926 -556.17665663164007 0 -556.17665663164007 -1617.5656223375772 0 0 0 0 -1839.7506458072894 303.62547557928519 0 303.62547557928519 -1163.7418091864201 0 0 0 0 -0.45709720479368343 -3.1602787599346556 0 -3.1602787599346556 -17.343285530143945 0 0 0 0 541.42188901322515 81.764808940801231 0 81.764808940801231 -767.73961176636658 0 0 0 0 -1518.3140051014052 120.63645659173017 0 120.63645659173017 -165.74837285850663 0 0 0 0 1476.0560328977808 -823.88891534074355 0 -823.88891534074355 -1112.0527017387576 0 0 0 0 -13.97015814576659 -3.7273877549780963 0 -3.7273877549780963 -3.2017331421641018 0 0 0 0 -71.101943199813832 -70.51387326299664 0 -70.51387326299664 -423.72278792060752 0 0 0 0 -521.70265761337942 -379.91937236218735 0 -379.91937236218735 -297.39228740969702 0 0 0 0 -1209.9250121897712 -1064.9544004295144 0 -1064.9544004295144 -1182.0584549281921 0 0 0 0 -690.56993170679198 -1384.8438350266924 0 -1384.8438350266924 -1465.5513779264693 0 0 0 0 113.31580455310177 -1534.6753562984729 0 -1534.6753562984729 -1438.4304544376428 0 0 0 0 -1184.3733337542362 -852.15505094537366 0 -852.15505094537366 -681.30219477654464 0 0 0 0 -431.18570548095158 -1052.9184358123312 0 -1052.9184358123312 -1872.9471301810045 0 0 0 0 -748.78949283500697 -240.02388935916588 0 -240.02388935916588 -1026.609125358551 0 0 0 0 -1193.1051906863941 -326.45611847043801 0 -326.45611847043801 -1013.4520694078583 0 0 0 0 -1621.4175008708844 -718.21276820319872 0 -718.21276820319872 -1153.7826142832919 0 0 0 0 -1272.3169227664403 -283.78347389461214 0 -283.78347389461214 -816.63699650398121 0 0 0 0 -1362.4013082160236 -532.60709204971272 0 -532.60709204971272 -487.3532740756018 0 0 0 0 -1226.0712880131614 -397.58404302089366 0 -397.58404302089366 -828.58463058201528 0 0 0 0 -1274.9167981471983 -649.26279863258605 0 -649.26279863258605 -434.45675955435945 0 0 0 0 -1433.3036393602524 -1001.6311961320935 0 -1001.6311961320935 -1215.5883013887128 0 0 0 0 -2565.5174541350207 -906.80418609741173 0 -906.80418609741173 -281.33652281532341 0 0 0 0 -368.5776653962821 -505.83714130581757 0 -505.83714130581757 -250.96055527897079 0 0 0 0 246.95237895056925 -808.53473212679319 0 -808.53473212679319 -750.30786646716297 0 0 0 0 490.02462853942416 -380.96559895467362 0 -380.96559895467362 -875.65398553937121 0 0 0 0 -1481.8613223458378 -354.78994602236344 0 -354.78994602236344 -588.68825136391024 0 0 0 0 -588.58298326240038 -995.66459288991246 0 -995.66459288991246 -806.80506470124215 0 0 0 0 -663.33465584750229 -512.37327067027763 0 -512.37327067027763 -525.02210571951582 0 0 0 0 -751.71425029858074 -691.90014417650127 0 -691.90014417650127 -727.11156848062456 0 0 0 0 -244.12392460773117 -432.18261817146049 0 -432.18261817146049 -571.70765573371682 0 0 0 0 -311.17227488828939 -759.6635082475841 0 -759.6635082475841 -732.40935145764342 0 0 0 0 174.84575268125627 -494.68816135725319 0 -494.68816135725319 -744.88337982034136 0 0 0 0 -178.85171366803115 -523.02751185959278 0 -523.02751185959278 -705.76640695141032 0 0 0 0 89.980306752782781 -385.63431546504944 0 -385.63431546504944 -871.58332769850722 0 0 0 0 126.41902650502743 -545.05865284956599 0 -545.05865284956599 -400.05701199151736 0 0 0 0 111.7837105283761 -306.89087448685859 0 -306.89087448685859 -548.68225647739382 0 0 0 0 -256.15311761252815 -200.57945986967843 0 -200.57945986967843 -174.26424086781481 0 0 0 0 -663.11486449913355 -623.58672129412662 0 -623.58672129412662 -470.08744811205179 0 0 0 0 -929.45932935966994 -472.11264230734287 0 -472.11264230734287 -219.9256095446508 0 0 0 0 -969.54751841616235 -1109.7659176454763 0 -1109.7659176454763 217.9863209458108 0 0 0 0 -1462.2299564940768 -682.7518604118377 0 -682.7518604118377 -23.653239608280273 0 0 0 0 -1019.3602567152629 -790.77197601967055 0 -790.77197601967055 -253.27418384823977 0 0 0 0 -1279.1689589127491 -1131.4023301630041 0 -1131.4023301630041 -251.05411216826542 0 0 0 0 -679.90682051369367 -316.81429697238491 0 -316.81429697238491 -163.89499810583584 0 0 0 0 -291.97042813882581 -685.73674585930348 0 -685.73674585930348 -82.845355307820682 0 0 0 0 360.02779737618403 -1409.3650692720148 0 -1409.3650692720148 622.7152426315015 0 0 0 0 87.712074522467447 -45.3911802589937 0 -45.3911802589937 417.76015341443417 0 0 0 0 -26.592244682576506 3.9352973276463388 0 3.9352973276463388 23.22492325084491 0 0 0 0 -1515.7862792222295 -584.79268168633098 0 -584.79268168633098 -208.55676358535811 0 0 0 0 -1661.8900209524509 -869.98203468149404 0 -869.98203468149404 -278.2157958748503 0 0 0 0 -1202.2223534520308 -856.89350963364086 0 -856.89350963364086 -549.01080050169185 0 0 0 0 -1911.6230440679064 -1343.9690492752379 0 -1343.9690492752379 -442.29357682754835 0 0 0 0 -1499.8431212490741 -1010.5958623956416 0 -1010.5958623956416 -513.32166952131593 0 0 0 0 -87.731207315126085 -77.050058306822848 0 -77.050058306822848 -6.2105116880375135 0 0 0 0 -75.661614777056911 -62.854263604545096 0 -62.854263604545096 -6.9495755027221158 0 0 0 0 -2088.409502495284 -1327.6439945154998 0 -1327.6439945154998 -380.60780676839204 0 0 0 0 -28.241408908540194 -16.523839544263808 0 -16.523839544263808 20.045733700983682 0 0 0 0 -2067.4528121196399 -904.09606220719718 0 -904.09606220719718 -484.93677885516081 0 0 0 0 -1493.9119423142984 -898.16003218434525 0 -898.16003218434525 -491.87398999140714 0 0 0 0 -80.67997476652846 -0.22227189029277383 0 -0.22227189029277383 103.15724246446649 0 0 0 0 -160.76618492562557 -173.07900784556864 0 -173.07900784556864 64.888081539530504 0 0 0 0 -40.600186905663577 -126.44339130416301 0 -126.44339130416301 45.161850897092791 0 0 0 0 -105.68347060718952 -76.985355655524472 0 -76.985355655524472 9.0266590075079876 0 0 0 0 -416.04245121157146 -520.38035211435636 0 -520.38035211435636 -351.50500344988905 0 0 0 0 -1023.1190888352139 -882.12964989365355 0 -882.12964989365355 -704.75076965994231 0 0 0 0 -1302.6593136785086 -790.58811472241723 0 -790.58811472241723 -693.14767758126936 0 0 0 0 -1555.5592605243874 -1744.0444588885603 0 -1744.0444588885603 -702.57743536489897 0 0 0 0 -874.78157944489794 -649.44299969369968 0 -649.44299969369968 -789.7835445757064 0 0 0 0 268.54256147288106 -1211.8648112801525 0 -1211.8648112801525 -705.96648596125306 0 0 0 0 -2955.5961067867465 1336.1538394288154 0 1336.1538394288154 2358.6232267626419 0 0 0 0 2396.6836965322145 -458.62868973387776 0 -458.62868973387776 -597.41238404974138 0 0 0 0 -793.86502715408278 -1279.282863322207 0 -1279.282863322207 -855.41447545043616 0 0 0 0 -79.003569142296016 -77.145001313781336 0 -77.145001313781336 -22.769222908187466 0 0 0 0 -94.397173621619828 24.004539952945038 0 24.004539952945038 74.574497273217872 0 0 0 0 -177.37969429162331 -300.56035426174094 0 -300.56035426174094 -19.492928591321743 0 0 0 0 105.04168777087762 -168.48732968478544 0 -168.48732968478544 -69.86491218858896 0 0 0 0 3.194114850635799 -26.852598895064375 0 -26.852598895064375 16.846250471949645 0 0 0 0 -1229.7754960004822 534.94124254030521 0 534.94124254030521 -177.23475820308772 0 0 0 0 -843.23077590506 -359.88671899851931 0 -359.88671899851931 -1430.9022142526792 0 0 0 0 313.14499200903811 -383.83198441201785 0 -383.83198441201785 346.92599496184994 0 0 0 0 -30.804608698127311 3.9667502423479846 0 3.9667502423479846 27.027654944250649 0 0 0 0 -4334.1615144141251 -2691.010753562291 0 -2691.010753562291 -543.72585640727266 0 0 0 0 242.52009309089044 -1351.238114326502 0 -1351.238114326502 -37.573684756542207 0 0 0 0 1264.361130985315 142.45958381478704 0 142.45958381478704 335.31514043215884 0 0 0 0 -1342.9426550419012 -2393.208156097322 0 -2393.208156097322 -1493.0848351527675 0 0 0 0 -30.93260327891835 -2.4924850426559431 0 -2.4924850426559431 12.077792633900394 0 0 0 0 -25.003238810706534 -86.64299524397984 0 -86.64299524397984 56.599887149924484 0 0 0 0 -65.495586229430046 -154.63415481350864 0 -154.63415481350864 68.173578710618472 0 0 0 0 -62.596980269467167 -83.621842719516962 0 -83.621842719516962 146.98044807672795 0 0 0 0 -61.214535133331083 -156.18899662989725 0 -156.18899662989725 66.484513929656714 0 0 0 0 25.736582013963414 -86.410113021152796 0 -86.410113021152796 22.144940220372813 0 0 0 0 -52.760748681430414 -76.725779983684433 0 -76.725779983684433 194.60842197787343 0 0 0 0 -67.358279450866348 -69.842659863309677 0 -69.842659863309677 52.319273122172412 0 0 0 0 -10.780439641559497 -90.863213339332361 0 -90.863213339332361 190.03348979125059 0 0 0 0 -86.446742015716154 -110.24947463881199 0 -110.24947463881199 119.69870611723309 0 0 0 0 -130.55925887880585 -122.62587357901553 0 -122.62587357901553 241.72622916659952 0 0 0 0 146.32509177864995 -343.44816157112655 0 -343.44816157112655 -176.83041376750043 0 0 0 0 -36.410364742361708 -127.27232559704453 0 -127.27232559704453 56.526765192764287 0 0 0 0 -214.14312558525853 -143.45227091637207 0 -143.45227091637207 66.814879821904469 0 0 0 0 28.288036473160048 -121.33609927124925 0 -121.33609927124925 21.326909434271663 0 0 0 0 -125.47207086263006 -112.82515021607476 0 -112.82515021607476 218.5336426943667 0 0 0 0 -154.47911698749522 -161.15585808608739 0 -161.15585808608739 32.468243732721021 0 0 0 0 -48.615154690186017 -80.043915232912653 0 -80.043915232912653 113.25235200520341 0 0 0 0 20.860937789952082 -114.18392415620374 0 -114.18392415620374 1.4810004716510434 0 0 0 0 9.7123149746694253 -130.58636954909889 0 -130.58636954909889 41.195041425147792 0 0 0 0 -43.703240964940051 -126.54150259090173 0 -126.54150259090173 -89.458857145456108 0 0 0 0 -62.760445510477439 30.392397418463123 0 30.392397418463123 234.67872106312052 0 0 0 0 12.879686090371408 -48.717891106564991 0 -48.717891106564991 33.287297131756553 0 0 0 0 -8.8304408068903797 -48.72756851543889 0 -48.72756851543889 37.889937009083695 0 0 0 0 -118.53210307022528 -83.009901758327032 0 -83.009901758327032 -6.7872014322056202 0 0 0 0 -23.33529978421052 -44.199874344833653 0 -44.199874344833653 15.7869611555017 0 0 0 0 -13.147346001955611 -7.5341251810642689 0 -7.5341251810642689 8.9883395837089743 0 0 0 0 -51.577423462411389 -131.3117190634257 0 -131.3117190634257 -69.456728154731536 0 0 0 0 -48.816932879897649 -148.72736315067414 0 -148.72736315067414 40.252997529537424 0 0 0 0 -51.06790583494876 -80.217160590463209 0 -80.217160590463209 -46.772078288624471 0 0 0 0 -24.39155541926965 -62.651019337251938 0 -62.651019337251938 -39.663030103213856 0 0 0 0 -53.910446968449833 -79.017491613820994 0 -79.017491613820994 -34.938845995975498 0 0 0 0 -60.754606405360391 -72.965055537602893 0 -72.965055537602893 -80.209114890313458 0 0 0 0 -65.180067999142921 -85.922151382634183 0 -85.922151382634183 -39.019240827809881 0 0 0 0 -50.421971322677564 -109.19463407133298 0 -109.19463407133298 -25.554034425746067 0 0 0 0 30.886922597157536 -75.941035245879903 0 -75.941035245879903 -20.09296198595257 0 0 0 0 6.734054562751993 -117.07837469005227 0 -117.07837469005227 -18.102452839868867 0 0 0 0 6.06150370725274 -81.515009339497482 0 -81.515009339497482 -19.001711998852642 0 0 0 0 -7.5679061887815919 -66.733227271062447 0 -66.733227271062447 -25.962577105936422 0 0 0 0 16.846766147995368 -79.152105065380056 0 -79.152105065380056 -8.038625772940577 0 0 0 0 -19.112032085773535 -42.797076960974664 0 -42.797076960974664 -3.290497810638044 0 0 0 0 80.021248768782243 -262.29904302723116 0 -262.29904302723116 -3.7091474849221413 0 0 0 0 55.840260544267949 -101.43774693704836 0 -101.43774693704836 30.402132933719258 0 0 0 0 -30.668063087044914 -49.010245715762082 0 -49.010245715762082 -33.958955191641408 0 0 0 0 -56.075196967402007 -42.623347311729049 0 -42.623347311729049 -17.861360884358874 0 0 0 0 -5.0071603024116484 -80.248354499543439 0 -80.248354499543439 -6.5376899185048387 0 0 0 0 122.5078013856255 -11.512748725668644 0 -11.512748725668644 65.682767126592807 0 0 0 0 52.478656929089709 -51.98098508260442 0 -51.98098508260442 3.1257980409043427 0 0 0 0 39.959523571591262 -0.46040405413361896 0 -0.46040405413361896 25.915468495513778 0 0 0 0 -141.54779951222008 -74.300435091776308 0 -74.300435091776308 60.639325165349874 0 0 0 0 37.864542111783521 -118.85345084277651 0 -118.85345084277651 -100.33480124580694 0 0 0 0 12.22277193795685 -11.555407661716828 0 -11.555407661716828 5.9018737286181704 0 0 0 0 -164.12422029601294 -186.87145261453588 0 -186.87145261453588 95.052441021805862 0 0 0 0 184.03584713714372 -348.02253568945889 0 -348.02253568945889 -75.785193789051846 0 0 0 0 -5.8767120192002977 -40.041551703290608 0 -40.041551703290608 -59.218573508935748 0 0 0 0 -101.29670347857609 -21.396550568042585 0 -21.396550568042585 148.60537618321541 0 0 0 0 -96.778431679791538 -498.40750153477711 0 -498.40750153477711 -92.380340685009287 0 0 0 0 7.3759280989761464 -149.05860399648373 0 -149.05860399648373 82.672594172006939 0 0 0 0 17.091572594631089 -68.648246693448598 0 -68.648246693448598 -25.297558768407299 0 0 0 0 133.15479524948751 -74.364724370407203 0 -74.364724370407203 -260.35348756155872 0 0 0 0 93.944115922407946 5.0058096039865632 0 5.0058096039865632 -98.153303094994044 0 0 0 0 5.4821446024417781 -21.253985974144371 0 -21.253985974144371 -21.559404630522792 0 0 0 0 -62.196557144576218 -121.41141576670998 0 -121.41141576670998 71.774649184113514 0 0 0 0 19.666355859798585 -78.448924475322471 0 -78.448924475322471 5.7346585220250219 0 0 0 0 13.485822834322377 -57.727257980825669 0 -57.727257980825669 -40.992683716200304 0 0 0 0 -9.4563506823033094 -66.575445820503774 0 -66.575445820503774 -59.161075074040127 0 0 0 0 11.295982002535823 -78.104852407015187 0 -78.104852407015187 28.81721552529055 0 0 0 0 46.373569448904163 -121.0282784841288 0 -121.0282784841288 59.922776433100807 0 0 0 0 39.556203008338343 -67.977177764441876 0 -67.977177764441876 63.187347550221602 0 0 0 0 82.275130411871942 -94.616021404050116 0 -94.616021404050116 26.94300148612092 0 0 0 0 8.8850317664508225 -67.850541495484975 0 -67.850541495484975 -1.5294386108206695 0 0 0 0 -13.225682038027372 -79.32605104340827 0 -79.32605104340827 1.2863065049267277 0 0 0 0 -7.2846983502677176 -73.548722851954153 0 -73.548722851954153 8.7606484304014884 0 0 0 0 -13.302089634671574 -144.18710515418934 0 -144.18710515418934 88.58266945815194 0 0 0 0 106.87698091695347 -183.14601700935964 0 -183.14601700935964 80.679631542501738 0 0 0 0 -13.075045097582915 -117.12663957824407 0 -117.12663957824407 14.413892368607776 0 0 0 0 -18.014762972681567 -32.814077084567259 0 -32.814077084567259 28.503015491843541 0 0 0 0 -21.736952378894784 -102.16555011745368 0 -102.16555011745368 -11.329337760114868 0 0 0 0 0.42994445281871663 -64.928287727475521 0 -64.928287727475521 31.79444258711932 0 0 0 0 -35.381599865842503 -65.482075655482134 0 -65.482075655482134 -34.943381265184328 0 0 0 0 162.55856786972436 -274.29540720903606 0 -274.29540720903606 -679.48288035464429 0 0 0 0 -25.020905499270071 -86.115047989341335 0 -86.115047989341335 -49.812660694751919 0 0 0 0 -103.03554973240534 -192.31991434682823 0 -192.31991434682823 -73.531472819187911 0 0 0 0 78.298650103330147 -38.908903004718013 0 -38.908903004718013 54.776407803059556 0 0 0 0 196.72121711134969 -109.31563377618841 0 -109.31563377618841 -225.52719956217334 0 0 0 0 138.44203300928348 -267.84172552719247 0 -267.84172552719247 -243.61174462456256 0 0 0 0 53.046068483585259 -228.24087527563825 0 -228.24087527563825 -254.25949385796594 0 0 0 0 147.98207319440553 -187.8554286743165 0 -187.8554286743165 -477.32566296130244 0 0 0 0 -8.388246571586933 -81.218842859901997 0 -81.218842859901997 -518.26132764849899 0 0 0 0 -83.124423698260216 -129.42905074344162 0 -129.42905074344162 104.1787640262628 0 0 0 0 -21.811553118455819 -86.251846201400866 0 -86.251846201400866 -9.6132700451948665 0 0 0 0 -69.010334227321437 -172.95619508666641 0 -172.95619508666641 -67.256147450698336 0 0 0 0 16.002176351874368 -68.090930266364012 0 -68.090930266364012 36.84988152619735 0 0 0 0 -58.735258459375473 -126.77221801487758 0 -126.77221801487758 60.241669458235265 0 0 0 0 -51.012492081499659 -214.87110702885548 0 -214.87110702885548 -95.4353927318042 0 0 0 0 6.2262754473631503 -148.20796043394148 0 -148.20796043394148 -96.791977145825513 0 0 0 0 -3.5564242041727994 -109.42082462240069 0 -109.42082462240069 77.037345762201085 0 0 0 0 48.780413953005336 -255.47618779924233 0 -255.47618779924233 -243.24081301623301 0 0 0 0 75.386199515050976 -393.99227147553393 0 -393.99227147553393 -515.87766273698708 0 0 0 0 -99.819829926840612 -313.8120139665989 0 -313.8120139665989 -267.28644997871015 0 0 0 0 67.016757247503847 -259.71912951292325 0 -259.71912951292325 -368.68089510574646 0 0 0 0 -53.187420487200143 -381.96505036402232 0 -381.96505036402232 -353.69363491957483 0 0 0 0 -0.75607645018627068 -1.6865167092983668 0 -1.6865167092983668 1.4152460706363321 0 0 0 0 -35.176601724673674 -144.98276615100622 0 -144.98276615100622 -157.40701503249875 0 0 0 0 23.0458044223451 -372.94395830324947 0 -372.94395830324947 660.87330951299009 0 0 0 0 27.172976641450077 199.00856343690975 0 199.00856343690975 727.30513669161519 0 0 0 0 -18.82191064317675 -108.37352591151017 0 -108.37352591151017 10.533237722036471 0 0 0 0 -17.40590746938426 -101.96546575214975 0 -101.96546575214975 11.658313737783388 0 0 0 0 -52.909243818947289 -159.80901703938252 0 -159.80901703938252 -170.19713075294567 0 0 0 0 -8.053362693673904 -52.710638861464801 0 -52.710638861464801 15.435234834541049 0 0 0 0 -37.393727560032858 -159.1413634680066 0 -159.1413634680066 -201.73313516777125 0 0 0 0 -5.5336529401807866 -79.840868224807821 0 -79.840868224807821 -32.585768911628406 0 0 0 0 -30.795090757550497 -63.815816544942663 0 -63.815816544942663 11.446575607058548 0 0 0 0 -222.470972574607 -142.68647958971269 0 -142.68647958971269 246.54551652664668 0 0 0 0 -53.54263660863532 -69.258014631235838 0 -69.258014631235838 -25.893531922341953 0 0 0 0 -38.662727341920913 -64.356434621718151 0 -64.356434621718151 73.694999998229008 0 0 0 0 -40.339859472762328 -76.995572873172932 0 -76.995572873172932 -68.293567017439273 0 0 0 0 -31.453600030572261 -55.700499243658307 0 -55.700499243658307 -50.910314034920162 0 0 0 0 -44.912123491906272 -71.477948001122854 0 -71.477948001122854 -4.8936792369845961 0 0 0 0 -3.4344645727542229 -32.947303637243749 0 -32.947303637243749 234.49832419569066 0 0 0 0 -181.97845803940072 -95.035411971892245 0 -95.035411971892245 -88.683996536703489 0 0 0 0 -3.4493133525262465 -10.060050462020111 0 -10.060050462020111 -9.1402360174757202 0 0 0 0 20.923028385004727 -89.424164977033797 0 -89.424164977033797 -195.14015936309715 0 0 0 0 -106.39328920627122 -156.79751236001152 0 -156.79751236001152 338.61552378533815 0 0 0 0 -12.520991697208956 -68.867571833099646 0 -68.867571833099646 -719.33489506610204 0 0 0 0 -15.082725191256031 -130.87079336333409 0 -130.87079336333409 -832.12066375265567 0 0 0 0 -10.516493733625055 -113.59324916465656 0 -113.59324916465656 -88.760502482592912 0 0 0 0 -64.867261193388899 -132.95997604587154 0 -132.95997604587154 -74.960131648178802 0 0 0 0 -60.657475533498655 -39.352012391951575 0 -39.352012391951575 -90.17227758441004 0 0 0 0 -42.190624879789539 -130.88973922056175 0 -130.88973922056175 -170.21325811674615 0 0 0 0 -8.0925032395548442 -49.758305095074242 0 -49.758305095074242 -16.901870568712098 0 0 0 0 -45.628163942266838 -140.56623992149252 0 -140.56623992149252 -149.41071748679315 0 0 0 0 -53.324662969142082 -63.665566921636128 0 -63.665566921636128 -79.059798936719744 0 0 0 0 -34.377318355245706 -72.700386530979742 0 -72.700386530979742 -29.853425706787188 0 0 0 0 27.061612344870809 -79.494281008881444 0 -79.494281008881444 60.739535536595213 0 0 0 0 -29.272958797562751 -42.325767307782371 0 -42.325767307782371 -40.041376774765013 0 0 0 0 -28.435710350720854 -42.924574456800137 0 -42.924574456800137 -19.980748364860375 0 0 0 0 -96.755578778931522 -1.7865342159493593 0 -1.7865342159493593 89.921995306800454 0 0 0 0 -28.295583897455828 -45.048246070825783 0 -45.048246070825783 24.792499627592417 0 0 0 0 -14.182092677860055 -41.981853872472129 0 -41.981853872472129 -106.49392781397 0 0 0 0 -36.801713021273144 -91.266185845217848 0 -91.266185845217848 -35.668611426852046 0 0 0 0 -62.97457429592032 -131.76084567426005 0 -131.76084567426005 -151.52959740825463 0 0 0 0 -10.908010239430894 -41.529733799809371 0 -41.529733799809371 -103.36950029307921 0 0 0 0 -16.235526613832917 -50.84178620631792 0 -50.84178620631792 -36.531757280114107 0 0 0 0 -150.46244787014439 34.67203473601694 0 34.67203473601694 -48.489450301540273 0 0 0 0 -2.1397685116143634 -7.312017360445239 0 -7.312017360445239 -4.8785639328360801 0 0 0 0 -4.7894552168727387 -96.297098133552936 0 -96.297098133552936 -150.27490829909038 0 0 0 0 -119.86902531619216 0.55752651341117598 0 0.55752651341117598 -479.68173147260677 0 0 0 0 -27.099498292951466 -91.397015664116907 0 -91.397015664116907 -69.639066050629481 0 0 0 0 -39.608932694680647 -96.34126429211895 0 -96.34126429211895 -31.600360401390152 0 0 0 0 -22.975557130790548 -120.65454638432857 0 -120.65454638432857 -624.36259737564978 0 0 0 0 -34.453345026217178 -74.603865473610597 0 -74.603865473610597 -58.338128866186345 0 0 0 0 -67.751363184956546 -146.75824848022987 0 -146.75824848022987 -84.089734620340863 0 0 0 0 -56.231641082446004 -30.010852478422748 0 -30.010852478422748 35.630111802576721 0 0 0 0 -147.37936638551218 12.096870930039131 0 12.096870930039131 3.0858180747163715 0 0 0 0 -6.8756824671133199 -6.8916283284158482 0 -6.8916283284158482 13.876255765155207 0 0 0 0 -43.563861308990454 -24.321490751302917 0 -24.321490751302917 -32.855112410728907 0 0 0 0 -191.24802133719641 -74.333537117479864 0 -74.333537117479864 60.721608430729248 0 0 0 0 -217.88875421028388 -19.930088881661504 0 -19.930088881661504 22.770843528283876 0 0 0 0 -145.00866641528046 -130.23769210970931 0 -130.23769210970931 -96.529805831705744 0 0 0 0 -272.55361278864439 -232.18513653530681 0 -232.18513653530681 -138.14280082493497 0 0 0 0 -300.73938372213888 -102.17376879990843 0 -102.17376879990843 2.5506369461909344 0 0 0 0 4.7204758174630115 -113.10499680362409 0 -113.10499680362409 11.278958540706299 0 0 0 0 -66.905987805933663 -61.764872417682099 0 -61.764872417682099 -12.795982099916372 0 0 0 0 -22.805811399008235 -495.00582677241255 0 -495.00582677241255 55.127889289316954 0 0 0 0 -255.16914005084982 -10.189779316227941 0 -10.189779316227941 143.10838261769095 0 0 0 0 -91.980617934048496 -44.858578035222308 0 -44.858578035222308 -108.75590154085512 0 0 0 0 -218.13885788681364 -203.2667913229634 0 -203.2667913229634 -119.11980869681429 0 0 0 0 -227.99327661191273 -220.18525269281236 0 -220.18525269281236 -45.822428983359714 0 0 0 0 122.31932220767703 -1.1450245618652843 0 -1.1450245618652843 -194.6122909572332 0 0 0 0 12.822436452525153 -11.670830270886555 0 -11.670830270886555 4.7871536235385861 0 0 0 0 148.500435729944 -139.60793449692028 0 -139.60793449692028 -23.555497129091236 0 0 0 0 77.123399318945303 -198.95622041627939 0 -198.95622041627939 500.08399575747899 0 0 0 0 62.264183672583385 -112.09438575730701 0 -112.09438575730701 32.489323234447511 0 0 0 0 34.718928499230941 -43.834175779958159 0 -43.834175779958159 32.041133372022202 0 0 0 0 -116.19507391011575 377.04812134483655 0 377.04812134483655 602.7888571719086 0 0 0 0 -86.917187637975076 236.55699908861425 0 236.55699908861425 270.58223749964964 0 0 0 0 606.18447708168242 645.43874522102124 0 645.43874522102124 511.59032318991376 0 0 0 0 -187.38187751559599 611.20623125127895 0 611.20623125127895 885.57468369700655 0 0 0 0 -362.54557978802768 216.22295680265233 0 216.22295680265233 524.72329607648135 0 0 0 0 -1.3057626304657433 -24.822137573659504 0 -24.822137573659504 40.556989096079718 0 0 0 0 87.659400322576403 97.058537374356092 0 97.058537374356092 216.45683015712711 0 0 0 0 -37.174049341603677 -7.0208720577038548 0 -7.0208720577038548 30.212909224050236 0 0 0 0 574.08437491989753 -312.8564483207083 0 -312.8564483207083 -335.68223669100553 0 0 0 0 -4.5961888710080814 -9.1695475324031293 0 -9.1695475324031293 6.7087646613826806 0 0 0 0 196.56019710786495 155.98165255287313 0 155.98165255287313 175.92487045815506 0 0 0 0 41.410427489427093 -52.709355886388948 0 -52.709355886388948 -17.053701965093751 0 0 0 0 -445.79586581503645 -226.47230722702352 0 -226.47230722702352 -71.162334524844482 0 0 0 0 -8.0155907295550293 -0.42712219297497711 0 -0.42712219297497711 10.448313751052595 0 0 0 0 4.1091169000879368 -10.739216145632589 0 -10.739216145632589 3.3136310701548837 0 0 0 0 -388.82092102849856 -203.88201943107197 0 -203.88201943107197 -62.237375512107974 0 0 0 0 -349.24021092294424 -122.78099009965081 0 -122.78099009965081 -91.065230769287155 0 0 0 0 -313.90275579659283 -149.06354535408718 0 -149.06354535408718 -79.127909708837251 0 0 0 0 0.42001616602025926 -1.6165978291488017 0 -1.6165978291488017 4.7625857999103118 0 0 0 0 -20.213421027285676 -191.90859162083711 0 -191.90859162083711 214.77669528942351 0 0 0 0 -104.37768533578492 -315.47005461886511 0 -315.47005461886511 114.93959960454231 0 0 0 0 -121.31789062404096 -164.03842361658553 0 -164.03842361658553 -104.90444662082155 0 0 0 0 -35.199960449499486 -31.245405859393941 0 -31.245405859393941 117.48540964143467 0 0 0 0 1.7287199823928887 0.89299344120033197 0 0.89299344120033197 -2.270462773824022 0 0 0 0 -516.28316719409122 -929.84879657660713 0 -929.84879657660713 -152.93001526779699 0 0 0 0 -222.57726686213573 -180.84859566137311 0 -180.84859566137311 423.32306749666895 0 0 0 0 -102.62016212154413 111.68488528233138 0 111.68488528233138 567.61427455917874 0 0 0 0 39.116497935530788 31.201070383576734 0 31.201070383576734 62.362052221200429 0 0 0 0 -173.7390726065787 -299.64846224735811 0 -299.64846224735811 287.23005183677742 0 0 0 0 4.5209733032315853 -221.27083372684137 0 -221.27083372684137 -113.72532565340953 0 0 0 0 49.541800646390342 -28.366408454878311 0 -28.366408454878311 10.756499322933912 0 0 0 0 -95.251759515893355 150.06233020673244 0 150.06233020673244 780.59690854918153 0 0 0 0 253.26681957741675 337.9863271712311 0 337.9863271712311 45.349287363627809 0 0 0 0 255.77442504270402 -566.87807374990462 0 -566.87807374990462 567.53878069082566 0 0 0 0 -265.62828198350326 -551.31757542540799 0 -551.31757542540799 -121.35848531816009 0 0 0 0 -52.394079623154539 -404.42745220625147 0 -404.42745220625147 -701.68643035500281 0 0 0 0 39.385264221445055 -20.960793532630845 0 -20.960793532630845 8.7976615622019878 0 0 0 0 -557.88736111851176 -530.31745048054654 0 -530.31745048054654 765.24208241144879 0 0 0 0 328.13542157658958 -436.7077448005366 0 -436.7077448005366 580.1561979335529 0 0 0 0 -7.5339484122523572 -585.24361136279913 0 -585.24361136279913 1600.1516374892672 0 0 0 0 188.6324163758909 -45.229300275750575 0 -45.229300275750575 44.140176994689682 0 0 0 0 -1691.2690923556802 -1355.9861406083 0 -1355.9861406083 481.96954293494855 0 0 0 0 1421.5390422322016 268.15948563056008 0 268.15948563056008 -2455.6184075124183 0 0 0 0 1621.3953666941234 -330.5356542753816 0 -330.5356542753816 -1103.2480045913835 0 0 0 0 -1528.8373260915293 685.915009727246 0 685.915009727246 358.34040919045219 0 0 0 0 -398.27972438410507 1156.2081354289039 0 1156.2081354289039 -985.10774666530779 0 0 0 0 629.90578827510762 10.831322679507139 0 10.831322679507139 237.56203356524202 0 0 0 0 7.5110912466276716 -9.5607070923491619 0 -9.5607070923491619 -14.716140401161084 0 0 0 0 -82.614734339271308 -10.430449417783166 0 -10.430449417783166 242.25534534081817 0 0 0 0 195.79747924963885 -75.012490502005676 0 -75.012490502005676 -344.15961472876734 0 0 0 0 985.89068552020763 686.1360786359437 0 686.1360786359437 1436.1146114013391 0 0 0 0 1817.8264066501142 -1293.2436438414443 0 -1293.2436438414443 110.85775896506675 0 0 0 0 1378.6286038035614 -1359.2809975590862 0 -1359.2809975590862 704.1336566406826 0 0 0 0 1514.8801180952341 -1038.6320445997453 0 -1038.6320445997453 583.94864394636534 0 0 0 0 1507.1012568329024 -1809.8903537026781 0 -1809.8903537026781 1195.7513326350017 0 0 0 0 843.82892165962403 -890.16036769800485 0 -890.16036769800485 304.7760063899841 0 0 0 0 379.90736142942478 -833.87821073055966 0 -833.87821073055966 1382.5734685401585 0 0 0 0 978.55817998005659 -714.93339074018513 0 -714.93339074018513 511.85832359670894 0 0 0 0 82.232495314154221 -217.28462938395387 0 -217.28462938395387 594.58384182842565 0 0 0 0 -197.9611512419724 -232.48658516011346 0 -232.48658516011346 184.83243504300481 0 0 0 0 519.04669675756304 203.52707600872964 0 203.52707600872964 -324.54838653003935 0 0 0 0 995.5868393127821 -1445.7957591783015 0 -1445.7957591783015 1799.0710924445484 0 0 0 0 5.7761202904917468 1.72972170303197 0 1.72972170303197 -1.3387545280740056 0 0 0 0 2173.0099291202205 -597.82276064777761 0 -597.82276064777761 1920.179564074424 0 0 0 0 2723.3011419809482 -534.47840130091208 0 -534.47840130091208 1240.2099961275308 0 0 0 0 1889.7284019925428 -1766.4498379170382 0 -1766.4498379170382 1965.7845942693093 0 0 0 0 53.738477859638806 -528.11250737458613 0 -528.11250737458613 3377.8850678973722 0 0 0 0 -261.82361567560292 195.09882019157885 0 195.09882019157885 1901.6603398038642 0 0 0 0 15.842883169379348 -7.2944079532186663 0 -7.2944079532186663 3.9545130397561365 0 0 0 0 1211.7660275381495 -371.74715030038351 0 -371.74715030038351 -1234.8327376603629 0 0 0 0 -397.2901765406059 77.016945895233221 0 77.016945895233221 -153.6316205007206 0 0 0 0 2035.6385494535571 -1420.0540326027294 0 -1420.0540326027294 38.657259057137708 0 0 0 0 1393.5829503077694 -532.90810508752475 0 -532.90810508752475 -542.50101178006298 0 0 0 0 917.46320211564944 -426.86433873326132 0 -426.86433873326132 -13.085539736421197 0 0 0 0 452.12628636664158 -239.64051155472407 0 -239.64051155472407 -71.736350178067369 0 0 0 0 298.55760623631068 -233.44149536459008 0 -233.44149536459008 177.57293121809198 0 0 0 0 984.74329715966269 -796.72774195491138 0 -796.72774195491138 244.97115752065292 0 0 0 0 472.22242490308417 -268.7538226684992 0 -268.7538226684992 -77.933944169788447 0 0 0 0 -45.805184912518598 -56.192080319284287 0 -56.192080319284287 112.38729764812706 0 0 0 0 -1.7490927499493409 -203.55120534788148 0 -203.55120534788148 199.47581384518708 0 0 0 0 239.29628961805429 -289.38692862530297 0 -289.38692862530297 225.15518816262193 0 0 0 0 75.88192954887927 -130.24624144587506 0 -130.24624144587506 240.04745662863161 0 0 0 0 718.11962530641176 -507.67319427933762 0 -507.67319427933762 294.88424620276783 0 0 0 0 282.69492305807944 -291.98947468306869 0 -291.98947468306869 284.19323326504673 0 0 0 0 265.35962145921076 -302.29131395421064 0 -302.29131395421064 333.17069398450803 0 0 0 0 532.1894295174352 -517.41416356716036 0 -517.41416356716036 407.8431471757649 0 0 0 0 463.34677281620679 -595.74489741935395 0 -595.74489741935395 505.05856690720429 0 0 0 0 866.20265215420295 -896.20008622185378 0 -896.20008622185378 599.10471600659366 0 0 0 0 672.2434884411341 -561.4040842845061 0 -561.4040842845061 250.32229405590624 0 0 0 0 969.21031783866056 -804.86096225941583 0 -804.86096225941583 368.98552038405978 0 0 0 0 1093.0222596700696 -794.12361545166641 0 -794.12361545166641 87.864953438050179 0 0 0 0 1400.4488553928131 -1180.2691922713093 0 -1180.2691922713093 367.56171067598189 0 0 0 0 1572.7032506056785 -1090.2217291863089 0 -1090.2217291863089 200.28866863947133 0 0 0 0 944.76104276596016 -801.9856991777815 0 -801.9856991777815 498.5771435140523 0 0 0 0 1268.5824294023132 -1254.6884113732203 0 -1254.6884113732203 865.2359038026043 0 0 0 0 1762.2492009606285 -1320.8226593143627 0 -1320.8226593143627 812.11095006778487 0 0 0 0 685.21936709136207 -530.23302797134238 0 -530.23302797134238 1050.3442794617458 0 0 0 0 780.14770547991066 -902.29073999332832 0 -902.29073999332832 698.87632487028895 0 0 0 0 307.79686422981104 -311.55663857196123 0 -311.55663857196123 342.04136435769033 0 0 0 0 631.36044215962465 -691.47366332059028 0 -691.47366332059028 568.39068520515139 0 0 0 0 202.52222771388915 -456.31199750153974 0 -456.31199750153974 788.94922374196813 0 0 0 0 -235.92071018949355 -309.46407160340095 0 -309.46407160340095 605.94539551710614 0 0 0 0 -62.607525666688161 165.56947950530775 0 165.56947950530775 -49.468019609226758 0 0 0 0 5.963596474044607 -142.9537883321027 0 -142.9537883321027 437.77016635004111 0 0 0 0 535.0041788372655 -746.65987508309081 0 -746.65987508309081 128.4320014240584 0 0 0 0 434.63300658293883 -666.50011820510372 0 -666.50011820510372 665.68000390872476 0 0 0 0 86.026944835612085 -92.986680525362317 0 -92.986680525362317 64.855148521826777 0 0 0 0 -71.830919425367028 75.232649348265113 0 75.232649348265113 92.962925086675568 0 0 0 0 187.19835707459424 -184.04880154141574 0 -184.04880154141574 211.20886982091906 0 0 0 0 9.2264455318181717 -113.50971152783677 0 -113.50971152783677 343.97205983457388 0 0 0 0 121.71809337092418 -237.56475016082186 0 -237.56475016082186 505.81147412377595 0 0 0 0 64.421817526053928 29.62728574877201 0 29.62728574877201 -27.67862256267108 0 0 0 0 -48.021032293465396 -73.70109873614274 0 -73.70109873614274 -71.244034554334576 0 0 0 0 1.4784384732483886 -96.355653560054634 0 -96.355653560054634 290.42535936915374 0 0 0 0 -157.86789312594919 17.653622836907743 0 17.653622836907743 54.438861517912301 0 0 0 0 43.306394609444396 -18.295738806931695 0 -18.295738806931695 -20.187440630834317 0 0 0 0 -30.754265729920007 -1.4540855720406398 0 -1.4540855720406398 -2.7234284730548097 0 0 0 0 -57.259664965826232 81.304985961798593 0 81.304985961798593 -22.763566749345046 0 0 0 0 -130.89430313416233 -9.0685173536767252 0 -9.0685173536767252 -78.225846394430846 0 0 0 0 -20.63010812955099 -4.5175661743396347 0 -4.5175661743396347 -31.66905716209645 0 0 0 0 -17.385677310325264 50.06805155469192 0 50.06805155469192 -194.56608067288471 0 0 0 0 -75.401832913739781 -27.889242519204345 0 -27.889242519204345 -216.46916267367124 0 0 0 0 34.34038639839855 -124.78703535762179 0 -124.78703535762179 -627.49500295952566 0 0 0 0 4.8710017855302112 -6.596401577422526 0 -6.596401577422526 -69.607298930721484 0 0 0 0 -61.265158340975177 77.053948582215526 0 77.053948582215526 -80.610298837593291 0 0 0 0 -197.16848148436839 -100.98657154587454 0 -100.98657154587454 -620.4814616502772 0 0 0 0 146.0021502081654 -23.454395592239962 0 -23.454395592239962 -365.90239170653876 0 0 0 0 -260.47237815548579 -133.48356732910543 0 -133.48356732910543 -551.37907674265989 0 0 0 0 -5.2842288627243477 2.0497376351520558 0 2.0497376351520558 2.1942617620164455 0 0 0 0 204.75723137048954 12.916541627455445 0 12.916541627455445 -512.85110112150142 0 0 0 0 189.30349993794516 67.298112775417394 0 67.298112775417394 -661.03166544914893 0 0 0 0 -58.28765357897646 -57.273074758493749 0 -57.273074758493749 -522.67927888307167 0 0 0 0 -15.187168825166168 -165.81048067470005 0 -165.81048067470005 -69.4318259488834 0 0 0 0 64.204074177174334 25.515118249648367 0 25.515118249648367 -543.12852255192411 0 0 0 0 -15.144829079828924 -86.749098528154718 0 -86.749098528154718 -694.74514358892338 0 0 0 0 -12.76403011228831 -25.28419163817307 0 -25.28419163817307 -619.22300760298094 0 0 0 0 -1250.9114466245264 680.21086794059192 0 680.21086794059192 -462.42336494877236 0 0 0 0 -483.21260732019437 347.7924778088709 0 347.7924778088709 -1457.2673318368979 0 0 0 0 -427.55627263789211 807.89007165566181 0 807.89007165566181 -5109.5869572279189 0 0 0 0 -2744.0192830453379 277.79304310134467 0 277.79304310134467 -1189.0538238964873 0 0 0 0 802.56350023799314 -911.7920574939053 0 -911.7920574939053 -850.62146783815842 0 0 0 0 321.12974683578068 -466.51894464643556 0 -466.51894464643556 -991.30900538489186 0 0 0 0 295.7088171903597 114.87031419683626 0 114.87031419683626 -1397.2390243155241 0 0 0 0 107.17810658161034 -271.94606867952461 0 -271.94606867952461 -1013.0044599255489 0 0 0 0 1032.506032323261 -1248.261036874901 0 -1248.261036874901 -851.33990309176352 0 0 0 0 140.18710811276105 -928.24722400458631 0 -928.24722400458631 150.2451351742202 0 0 0 0 2283.4105905196921 579.71686982603569 0 579.71686982603569 390.73900456257616 0 0 0 0 15.12203159590976 -157.7204130083656 0 -157.7204130083656 -74.937847696193629 0 0 0 0 -483.57078087740229 95.332494636721094 0 95.332494636721094 526.7937619688164 0 0 0 0 -622.69805884854577 845.06624441335589 0 845.06624441335589 77.698084950483462 0 0 0 0 594.75035599254625 -213.96273511652907 0 -213.96273511652907 1060.533211225109 0 0 0 0 34.97969576549302 -160.41577528637481 0 -160.41577528637481 -75.379182996265655 0 0 0 0 6.0760321208447863 -20.458774184712283 0 -20.458774184712283 20.110023030078835 0 0 0 0 -4300.5173047768767 -647.09294170172143 0 -647.09294170172143 5491.1892784311785 0 0 0 0 -355.75152910422185 -680.7833469472389 0 -680.7833469472389 -700.30457828233193 0 0 0 0 1414.5532159521026 -370.51202729749184 0 -370.51202729749184 -2373.0357496261859 0 0 0 0 1.7925701860918366 -25.765649787416045 0 -25.765649787416045 14.860781117451003 0 0 0 0 -116.14582928031814 -353.1582702827709 0 -353.1582702827709 1451.1461233358859 0 0 0 0 18.761359479351313 -591.60030001941232 0 -591.60030001941232 97.744377767990954 0 0 0 0 -79.029789204259231 3.6357659448907 0 3.6357659448907 16.027097999537233 0 0 0 0 7214.47618273236 840.02366692334181 0 840.02366692334181 -3915.6461810589462 0 0 0 0 3059.8138421396216 -2257.7920662482575 0 -2257.7920662482575 -4661.2925924240262 0 0 0 0 105.4215372817055 -82.59768074438486 0 -82.59768074438486 39.375002319556323 0 0 0 0 118.10477560978325 -113.89089753212102 0 -113.89089753212102 2014.2983083687795 0 0 0 0 -2894.8051205683537 -2287.8015029439571 0 -2287.8015029439571 1508.3620317305722 0 0 0 0 -3027.7027478305536 -1858.4812106561585 0 -1858.4812106561585 2832.4879137962289 0 0 0 0 -80.197079602121846 14.77027444622523 0 14.77027444622523 2.9779358726299785 0 0 0 0 20.070555010541284 -267.94531864393502 0 -267.94531864393502 686.6674120150783 0 0 0 0 -575.7535698317115 140.42724568801623 0 140.42724568801623 1169.0267401126021 0 0 0 0 13.084991225870908 -273.75190139291772 0 -273.75190139291772 682.0332383077257 0 0 0 0 28.074198504040396 -264.7378145975581 0 -264.7378145975581 681.53808802175263 0 0 0 0 -31.502970188841573 -88.589307577947693 0 -88.589307577947693 359.80440668208757 0 0 0 0 97.281117476130021 421.2548376367813 0 421.2548376367813 1208.4612237194342 0 0 0 0 2.9394985835501757 -114.76139350907033 0 -114.76139350907033 266.88941749606602 0 0 0 0 -68.781983411016697 8.2615594753817376 0 8.2615594753817376 13.445911264291736 0 0 0 0 -5.2876781947034708 13.64026854517288 0 13.64026854517288 7.4926507463503818 0 0 0 0 1137.998749053404 -1185.5883268028185 0 -1185.5883268028185 -1899.0883789350848 0 0 0 0 -893.76050617831424 111.60195389170417 0 111.60195389170417 1539.0011901289531 0 0 0 0 22.855140423256671 -961.15563456323821 0 -961.15563456323821 -453.83436976819365 0 0 0 0 87.65047436348263 -82.580470010355143 0 -82.580470010355143 43.721783480780473 0 0 0 0 -2507.4545234740945 -542.88022337885013 0 -542.88022337885013 654.18788968627086 0 0 0 0 -2306.3837433575754 -1478.7445863070279 0 -1478.7445863070279 1574.0715088053566 0 0 0 0 -978.19719254486063 -1534.3961542157926 0 -1534.3961542157926 1276.5528348572007 0 0 0 0 -1346.1252404646802 972.45357166448048 0 972.45357166448048 4555.3011385142581 0 0 0 0 150.66969687304641 625.03379733195379 0 625.03379733195379 1395.4119659075768 0 0 0 0 43.298996827738861 -52.796171024915793 0 -52.796171024915793 32.901846100545953 0 0 0 0 -354.28939906111282 387.1079532733645 0 387.1079532733645 -68.278923281229709 0 0 0 0 -2627.9018025355663 -1218.550535583689 0 -1218.550535583689 1607.0751763517401 0 0 0 0 -1426.4334966561346 -2027.514139078093 0 -2027.514139078093 -1006.5118631180967 0 0 0 0 -2163.0461920502967 -1706.5331820262545 0 -1706.5331820262545 -1138.1320407293751 0 0 0 0 24.124504831917299 -71.773622850875583 0 -71.773622850875583 122.12567810692937 0 0 0 0 -527.67899918659532 -119.46981110842171 0 -119.46981110842171 1572.80748053145 0 0 0 0 2793.1653361861681 -477.73860777500158 0 -477.73860777500158 577.34232915982284 0 0 0 0 3147.2167148225199 -972.58168671162275 0 -972.58168671162275 -385.51652362957611 0 0 0 0 4077.5278021677223 -1413.9699504733508 0 -1413.9699504733508 -183.30420057965966 0 0 0 0 2043.70863066538 -2645.3772240207181 0 -2645.3772240207181 1663.4165520145425 0 0 0 0 12.273777470248916 -26.669621208678336 0 -26.669621208678336 53.438001924767008 0 0 0 0 -3437.4377905985166 -1671.4249043972522 0 -1671.4249043972522 2825.8587142831748 0 0 0 0 -2737.0447350806298 -881.3894478910097 0 -881.3894478910097 2097.4399583551567 0 0 0 0 -1544.1929320655872 -1056.9674766855778 0 -1056.9674766855778 339.83162202662129 0 0 0 0 -1981.5221106883928 -525.32532720910513 0 -525.32532720910513 -297.81686878205755 0 0 0 0 5.296390828273708 -5.4832711797511493 0 -5.4832711797511493 -9.411972338995561 0 0 0 0 -1604.448085899041 -1088.1623121247483 0 -1088.1623121247483 -145.04939680473581 0 0 0 0 -1768.1516028406204 -1517.8429144922975 0 -1517.8429144922975 -554.5050122645921 0 0 0 0 -1312.4318692509478 -1293.4137694156152 0 -1293.4137694156152 -1.2569696419682259 0 0 0 0 -1252.9115792505909 -421.42004359203929 0 -421.42004359203929 640.0525664402694 0 0 0 0 333.28615332713161 32.753809940048768 0 32.753809940048768 430.61884893866136 0 0 0 0 -420.72844422391427 -657.22750780838533 0 -657.22750780838533 327.20917847137139 0 0 0 0 -2.3154835609628179 -2.3884607578205101 0 -2.3884607578205101 -0.32721703584007938 0 0 0 0 -926.03840847234642 -340.37896779334937 0 -340.37896779334937 2342.4280528589984 0 0 0 0 -1290.4177598529986 -1472.8486385725084 0 -1472.8486385725084 -1097.1772573377393 0 0 0 0 6.7004100398829252 -13.601782848746588 0 -13.601782848746588 18.081513999355668 0 0 0 0 -167.39712028357462 67.514332379392343 0 67.514332379392343 314.11509328165448 0 0 0 0 -326.32707762392965 -706.75049182880957 0 -706.75049182880957 1754.0536755796688 0 0 0 0 -447.09811618700041 -188.08055613020588 0 -188.08055613020588 1165.9299710512105 0 0 0 0 490.80607058456371 -964.1315903103781 0 -964.1315903103781 1569.822655570259 0 0 0 0 485.16199967793 -966.04454236171762 0 -966.04454236171762 1428.7689502111707 0 0 0 0 -382.80986644109726 1410.545068075774 0 1410.545068075774 5356.73533330799 0 0 0 0 127.28661882430242 -1454.6257913290196 0 -1454.6257913290196 1467.8992219261172 0 0 0 0 176.86457595302727 -98.732868827136713 0 -98.732868827136713 -2106.6529926007493 0 0 0 0 12.09664042516988 -17.811096441861118 0 -17.811096441861118 13.650579034815653 0 0 0 0 -428.51445527251781 -705.54390467673534 0 -705.54390467673534 669.45251207584283 0 0 0 0 -1446.6187186187126 -622.7381784091591 0 -622.7381784091591 1794.1127124210648 0 0 0 0 712.70695065409564 -145.33329639026846 0 -145.33329639026846 666.68894345992624 0 0 0 0 -1145.9538347420312 874.89789197649645 0 874.89789197649645 1813.313676959865 0 0 0 0 -1600.7142832021873 227.60634766057868 0 227.60634766057868 919.80990872879954 0 0 0 0 -1659.4526208887801 -108.28790997102067 0 -108.28790997102067 793.77586557495829 0 0 0 0 -1923.1263761196933 748.4453489456439 0 748.4453489456439 769.18784428758011 0 0 0 0 -759.1054610533065 493.30853651556208 0 493.30853651556208 497.30289080277703 0 0 0 0 -1117.8378811119283 -227.83110265915059 0 -227.83110265915059 -415.85421890764792 0 0 0 0 -4449.8547482467184 -1038.7419722673512 0 -1038.7419722673512 -1092.4714563786465 0 0 0 0 -1374.0798906734453 164.46162224503996 0 164.46162224503996 -667.64902229223458 0 0 0 0 -952.05079559688079 -1669.0995228662975 0 -1669.0995228662975 -1507.5051962140078 0 0 0 0 -662.75520004802092 -1062.5036205268525 0 -1062.5036205268525 -1979.5607953144035 0 0 0 0 -957.09134833254939 -921.29444993935567 0 -921.29444993935567 1348.4259094175886 0 0 0 0 -130.297178056745 -290.59041728078046 0 -290.59041728078046 -949.6265708699575 0 0 0 0 -1320.2969334559511 -900.52693721936703 0 -900.52693721936703 -42.700389051082311 0 0 0 0 -42.840746103797734 30.152011958525364 0 30.152011958525364 -46.196994442660795 0 0 0 0 -1703.1018340821684 -554.78704388032656 0 -554.78704388032656 -80.777308224170156 0 0 0 0 -2210.2164324938822 -518.31199800765899 0 -518.31199800765899 -90.651685672695749 0 0 0 0 -67.933263680044874 -116.75990790754668 0 -116.75990790754668 8.1903051805920661 0 0 0 0 -1554.8474003071533 -588.83943802691283 0 -588.83943802691283 -332.65598031617992 0 0 0 0 -1302.0821186835674 -540.23381928507297 0 -540.23381928507297 -328.94847676009158 0 0 0 0 -154.73797970252053 -377.60121229360448 0 -377.60121229360448 -708.28308342605305 0 0 0 0 5.3575741778691395 -26.136778508292288 0 -26.136778508292288 -33.78486632182522 0 0 0 0 -2334.1725362794605 -503.65698309095933 0 -503.65698309095933 126.12225634810602 0 0 0 0 -1973.2093335699319 -137.53685932801181 0 -137.53685932801181 -11.606300622062918 0 0 0 0 -1305.714836648498 -323.24205133671649 0 -323.24205133671649 -186.5314443154457 0 0 0 0 -1561.5596705482312 -396.11348073555382 0 -396.11348073555382 -115.44341730191809 0 0 0 0 -6.3067199196921706 -10.604433874029539 0 -10.604433874029539 -14.112795073576581 0 0 0 0 -1328.3896040995387 -194.00726400032573 0 -194.00726400032573 -89.828158021126001 0 0 0 0 -2120.0942156415767 892.34147898101673 0 892.34147898101673 -404.80702510230367 0 0 0 0 -103.32662751595853 89.519121028092059 0 89.519121028092059 -333.39939587691515 0 0 0 0 -14.841128457931177 -16.365857987664462 0 -16.365857987664462 22.567102612357822 0 0 0 0 -58.754205186589388 -33.335857420899629 0 -33.335857420899629 -36.041768264309212 0 0 0 0 -1436.7007198604406 -459.20017613153868 0 -459.20017613153868 155.31590484105254 0 0 0 0 -1435.6880319372613 -226.65821165042075 0 -226.65821165042075 29.864079748373115 0 0 0 0 -2910.5488656153029 934.54696317846356 0 934.54696317846356 -289.09472125437651 0 0 0 0 -586.71463093778584 -1319.9661035595032 0 -1319.9661035595032 -2884.4620336621465 0 0 0 0 -29.896699044131722 -3.6640984324359511 0 -3.6640984324359511 -15.031754268682798 0 0 0 0 -20.117982775898739 -38.982413984038153 0 -38.982413984038153 -10.833905741946971 0 0 0 0 -4248.5258859198566 -618.40688324890868 0 -618.40688324890868 375.62604416042996 0 0 0 0 -3970.7130447350937 354.79053605563695 0 354.79053605563695 -78.178634584775864 0 0 0 0 -2010.2594728697732 27.580284297396702 0 27.580284297396702 -106.33009664387464 0 0 0 0 -2800.0459270926294 -259.19342150926923 0 -259.19342150926923 150.20965995808319 0 0 0 0 -2624.5355666234464 -484.78054022220249 0 -484.78054022220249 439.31118728098113 0 0 0 0 -3019.434247283185 -791.82679852834281 0 -791.82679852834281 273.78646514535285 0 0 0 0 -1865.7293930590095 -650.30234968816058 0 -650.30234968816058 -222.72010724644997 0 0 0 0 -2008.1002030899617 -892.59305033583769 0 -892.59305033583769 219.10271023231553 0 0 0 0 -2447.7470476462477 -307.27684588043553 0 -307.27684588043553 394.76350466039639 0 0 0 0 -1127.9582957780003 -708.33464412331796 0 -708.33464412331796 -303.00927029723516 0 0 0 0 -1423.1137596357075 457.85024963036722 0 457.85024963036722 -707.41910639165417 0 0 0 0 -733.55468637364902 -815.24331500314656 0 -815.24331500314656 -1649.1776910239951 0 0 0 0 -1417.6403984604403 592.5468620289048 0 592.5468620289048 -2766.1757198100931 0 0 0 0 -2498.8314845871064 -1801.1983456996954 0 -1801.1983456996954 -2050.1937667739203 0 0 0 0 -595.75895559999481 188.56124766402536 0 188.56124766402536 413.46650692362164 0 0 0 0 217.60951804486103 36.478429028364189 0 36.478429028364189 86.463267513412575 0 0 0 0 -201.04286820821289 -109.82343895923805 0 -109.82343895923805 180.90743972314885 0 0 0 0 386.34590856077557 -184.31537256829324 0 -184.31537256829324 208.42560777096151 0 0 0 0 1189.7286920373554 -487.00569531372548 0 -487.00569531372548 3.7999040969007183 0 0 0 0 488.10645962047784 544.54132923077668 0 544.54132923077668 356.53139919503155 0 0 0 0 2483.2770357171867 -1017.8886609464844 0 -1017.8886609464844 201.64595845113217 0 0 0 0 5.0054954206011075 -7.8456459697781185 0 -7.8456459697781185 20.651949887919599 0 0 0 0 1446.3697025493238 -812.89577054797064 0 -812.89577054797064 1366.4364817240203 0 0 0 0 -703.81737441908263 -646.28018964041894 0 -646.28018964041894 239.11945578537416 0 0 0 0 -148.26927438169878 414.91046721427119 0 414.91046721427119 324.68686851242819 0 0 0 0 -1637.6344488555333 -1290.2609808114503 0 -1290.2609808114503 -829.19049817539781 0 0 0 0 -1254.8747837293749 -929.99327372472453 0 -929.99327372472453 -625.36891609304075 0 0 0 0 -54.527153761247398 23.752368196816466 0 23.752368196816466 73.577463313901447 0 0 0 0 -22.263838183499757 10.774407792547354 0 10.774407792547354 -0.79117770569955148 0 0 0 0 -1161.0179865098721 -1242.4113432440427 0 -1242.4113432440427 -909.28391539649601 0 0 0 0 -1658.6494336787855 -2422.4529220136096 0 -2422.4529220136096 -402.40646227789858 0 0 0 0 -981.75151489193286 -1214.3456563282452 0 -1214.3456563282452 45.628287774365162 0 0 0 0 -1084.3559787678059 -793.76118632956423 0 -793.76118632956423 -802.30706387206374 0 0 0 0 -15.93871311295741 6.1842013535779046 0 6.1842013535779046 25.280156981438225 0 0 0 0 -932.30584488601971 -946.97992560070634 0 -946.97992560070634 -706.28934475251299 0 0 0 0 43.280520715047487 273.75818887668629 0 273.75818887668629 183.55751976933243 0 0 0 0 -193.55174733777312 -16.128365574484633 0 -16.128365574484633 184.75753689977864 0 0 0 0 3.8278911751190181 -38.139613930553296 0 -38.139613930553296 154.75237921648016 0 0 0 0 -339.89681257039047 -115.90255336425616 0 -115.90255336425616 666.71449541453694 0 0 0 0 26.255652898497839 -143.08878136855887 0 -143.08878136855887 -30.242851490303075 0 0 0 0 221.51905574626107 -405.64492098859955 0 -405.64492098859955 74.517769280115317 0 0 0 0 -1299.6775756945208 -395.55316212214166 0 -395.55316212214166 894.85706312203911 0 0 0 0 18.838030840307955 -116.61651337057567 0 -116.61651337057567 57.787916367181978 0 0 0 0 242.36929689657154 -123.99801381154793 0 -123.99801381154793 -12.99799788727978 0 0 0 0 -17.063268329038692 -406.60909273422294 0 -406.60909273422294 -141.90824612775759 0 0 0 0 -88.838335152233412 -40.612267656946642 0 -40.612267656946642 84.48728994558769 0 0 0 0 -158.51827981473207 -87.992799067242231 0 -87.992799067242231 142.62465199630242 0 0 0 0 24.523515236232118 -24.015959374134663 0 -24.015959374134663 16.749887160667562 0 0 0 0 -251.67585264346963 -275.29091951489681 0 -275.29091951489681 67.737907531980454 0 0 0 0 180.67304712389068 -80.745705852768879 0 -80.745705852768879 30.243349927677173 0 0 0 0 12.676237160565506 -86.565320148685714 0 -86.565320148685714 95.272251219859754 0 0 0 0 -7.7458912408231235 -69.935386994485981 0 -69.935386994485981 85.937263485281562 0 0 0 0 6.8571782701341739 -73.359484463696646 0 -73.359484463696646 25.892825681059293 0 0 0 0 -52.20338144314519 -78.568795779039647 0 -78.568795779039647 78.926750870392425 0 0 0 0 -36.506300469687915 -80.67671971500485 0 -80.67671971500485 160.53990109867703 0 0 0 0 -25.690959290562748 -47.99778132787543 0 -47.99778132787543 231.36790649559262 0 0 0 0 -44.187782354842057 88.887110271196434 0 88.887110271196434 92.708826855944608 0 0 0 0 -154.46957514122914 -45.300686110005699 0 -45.300686110005699 162.50206576177152 0 0 0 0 4.2057639625182617 -20.12677787728461 0 -20.12677787728461 61.208139054420442 0 0 0 0 167.44134869725167 -290.13163991481633 0 -290.13163991481633 368.83451615463855 0 0 0 0 28.842467956099426 -144.00523373817123 0 -144.00523373817123 -57.803855954267419 0 0 0 0 376.54021990472393 -144.58565446028661 0 -144.58565446028661 93.830222844539094 0 0 0 0 13.849441186362014 -9.5689773930272963 0 -9.5689773930272963 19.452630646134445 0 0 0 0 -59.125087980693934 -91.100108979167999 0 -91.100108979167999 196.51946557364136 0 0 0 0 46.950637010791979 -62.026304719953259 0 -62.026304719953259 47.375642626859189 0 0 0 0 -24.670765121707518 25.816858261674497 0 25.816858261674497 121.06310650897649 0 0 0 0 -31.705960845355861 -5.3687283662662821 0 -5.3687283662662821 30.24834248962614 0 0 0 0 12.060140948485241 -16.676081852900552 0 -16.676081852900552 38.881838037574198 0 0 0 0 3.9954745002885783 -44.149155788805189 0 -44.149155788805189 55.31182884880289 0 0 0 0 16.904428000307234 -44.398650087336136 0 -44.398650087336136 56.53202283920109 0 0 0 0 12.78988993298065 -38.137430927840661 0 -38.137430927840661 27.485098592358696 0 0 0 0 34.565280230279313 -64.321392045319953 0 -64.321392045319953 54.861031623775489 0 0 0 0 79.541239862592192 -105.46800072136102 0 -105.46800072136102 80.840492191611702 0 0 0 0 -39.430376337515554 -158.95870751359644 0 -158.95870751359644 135.6737065585985 0 0 0 0 17.593994841333053 -33.596535929390996 0 -33.596535929390996 45.174746148976681 0 0 0 0 126.1232590888394 -96.069345159921795 0 -96.069345159921795 66.292490226973314 0 0 0 0 -9.2885298659321336 -32.469840713270784 0 -32.469840713270784 36.808123398814331 0 0 0 0 14.359474255222022 -70.081274368607623 0 -70.081274368607623 98.519838144340767 0 0 0 0 -78.795854260837586 -40.084976519392512 0 -40.084976519392512 81.803005290475994 0 0 0 0 12.533531615768879 -56.568258062846326 0 -56.568258062846326 81.027115233300719 0 0 0 0 -25.446821895797257 -109.27889265039266 0 -109.27889265039266 88.711450087725098 0 0 0 0 -40.916094559587009 -80.959807372400519 0 -80.959807372400519 57.030651131317427 0 0 0 0 88.727435814540513 -80.83215251488582 0 -80.83215251488582 45.327746304370521 0 0 0 0 -36.484929918595299 -56.352195109771856 0 -56.352195109771856 84.081744823381086 0 0 0 0 7.087436625708051 -174.60095473053843 0 -174.60095473053843 63.630290357432386 0 0 0 0 -73.004866312117883 -195.22822065633864 0 -195.22822065633864 62.557522620176314 0 0 0 0 -22.720680517743403 -201.44100560317111 0 -201.44100560317111 70.043919674844801 0 0 0 0 7.3805749762168489 -168.87509317934382 0 -168.87509317934382 44.050496775620559 0 0 0 0 -8.3695556084257987 -188.80917974960903 0 -188.80917974960903 231.77269334552693 0 0 0 0 -27.954957263505321 -110.81884831039042 0 -110.81884831039042 24.074249626362871 0 0 0 0 36.461957944424285 -274.78045788677264 0 -274.78045788677264 278.6772791347139 0 0 0 0 -33.784980574837391 1.612179368177749 0 1.612179368177749 21.889587729958293 0 0 0 0 200.59076458212439 -235.23025914102618 0 -235.23025914102618 59.735458037863282 0 0 0 0 201.27852418125173 -6.9288300253957686 0 -6.9288300253957686 -34.43896587438212 0 0 0 0 49.315277217187102 -68.481220493470346 0 -68.481220493470346 59.365857595318772 0 0 0 0 35.547936847782694 -65.309324765565179 0 -65.309324765565179 45.667819554015296 0 0 0 0 20.987753528177258 -24.485344756114579 0 -24.485344756114579 -0.3836967240562501 0 0 0 0 268.57197446805822 -63.504934318308642 0 -63.504934318308642 -92.712054663774325 0 0 0 0 61.125850287422203 -84.777826560965821 0 -84.777826560965821 58.39703583125943 0 0 0 0 -1.3859057996014599 -82.892876636120491 0 -82.892876636120491 25.299708530525095 0 0 0 0 75.976104875994906 -83.501760842735791 0 -83.501760842735791 53.801484756458819 0 0 0 0 60.013530475284625 -66.095632646821969 0 -66.095632646821969 47.830036587265127 0 0 0 0 -446.29339887379319 -265.7513344287072 0 -265.7513344287072 507.70927773890435 0 0 0 0 386.46210101600445 -79.668156282394193 0 -79.668156282394193 44.047668233077275 0 0 0 0 172.68196949287085 -101.59339317891863 0 -101.59339317891863 -15.113083141099196 0 0 0 0 -27.28617171706901 5.9050558864346101 0 5.9050558864346101 22.031285364914851 0 0 0 0 219.6211481578066 -233.9550692474586 0 -233.9550692474586 222.30149693798739 0 0 0 0 95.082694215001538 -139.22735636755533 0 -139.22735636755533 152.52068767536548 0 0 0 0 219.71350094623631 275.1250702853431 0 275.1250702853431 281.4827434865947 0 0 0 0 -23.329751948265766 -92.718575785709618 0 -92.718575785709618 26.673872643223149 0 0 0 0 2.7227221948459075 -55.059134519989158 0 -55.059134519989158 26.277349207908571 0 0 0 0 0.64726484372329196 -18.205842859915833 0 -18.205842859915833 126.53010211518995 0 0 0 0 -6.4043067689126474 -141.96087011927375 0 -141.96087011927375 59.039216163446326 0 0 0 0 143.97557824844307 -68.340887895421929 0 -68.340887895421929 158.90557129212539 0 0 0 0 0.36945075301991892 -108.96570874167082 0 -108.96570874167082 91.39262466479704 0 0 0 0 77.03410122071503 -82.244778997846709 0 -82.244778997846709 54.424808104685752 0 0 0 0 20.89484429361255 -92.208031324000331 0 -92.208031324000331 30.621894397598226 0 0 0 0 76.124693422694691 -22.924702673932188 0 -22.924702673932188 62.132016016243142 0 0 0 0 128.25519399245968 -65.888733447725826 0 -65.888733447725826 50.210709674051031 0 0 0 0 104.84784750438121 -75.73365149651363 0 -75.73365149651363 58.118329487726442 0 0 0 0 205.30691896885401 -148.03633534218534 0 -148.03633534218534 109.92882192798425 0 0 0 0 194.79780842431956 -13.339990408479025 0 -13.339990408479025 22.155816167418379 0 0 0 0 -26.883568728895625 -37.067457593220752 0 -37.067457593220752 22.946699658612488 0 0 0 0 9.1895165452879155 -70.994373837813328 0 -70.994373837813328 33.061293481703615 0 0 0 0 -10.076253387382337 -19.552798261955303 0 -19.552798261955303 39.625514754723952 0 0 0 0 56.921938739844322 -64.314050631452133 0 -64.314050631452133 15.048130630318383 0 0 0 0 71.051509740773326 -38.6298028388901 0 -38.6298028388901 47.247278721479233 0 0 0 0 85.220934925069741 -33.193001267383806 0 -33.193001267383806 16.627827209653333 0 0 0 0 50.777386579221755 -10.247445843133349 0 -10.247445843133349 -3.2174907415366079 0 0 0 0 21.673669958564929 -23.397937489988038 0 -23.397937489988038 24.985714468336198 0 0 0 0 70.42202687979443 -46.941549233888509 0 -46.941549233888509 45.667924489007419 0 0 0 0 90.523703248429229 -61.326852250647789 0 -61.326852250647789 39.435173702047905 0 0 0 0 61.098683392585372 -85.859367368801031 0 -85.859367368801031 76.461582134274067 0 0 0 0 49.034790363148204 -71.162664652059902 0 -71.162664652059902 60.072264320624527 0 0 0 0 102.32852238860869 -117.11713171761085 0 -117.11713171761085 106.33014266798273 0 0 0 0 74.998588675618521 -87.38728550336964 0 -87.38728550336964 74.677982442997745 0 0 0 0 90.049994626315311 -97.676994588720845 0 -97.676994588720845 113.79511791153345 0 0 0 0 57.6751727888186 -112.93577063025441 0 -112.93577063025441 105.90592059244227 0 0 0 0 28.162488087604288 -94.761901648555067 0 -94.761901648555067 126.58693264931935 0 0 0 0 40.545478300235118 -90.896302197448676 0 -90.896302197448676 88.325037530594273 0 0 0 0 36.756092589741456 -93.174278822174529 0 -93.174278822174529 87.29800314156455 0 0 0 0 19.784986751918041 -98.672219536560078 0 -98.672219536560078 101.95163986861007 0 0 0 0 21.655289183028799 -93.773843564398703 0 -93.773843564398703 99.396198891103268 0 0 0 0 26.260444839877891 -85.379926665409585 0 -85.379926665409585 97.089172597323341 0 0 0 0 28.332899453438586 -99.244648661970132 0 -99.244648661970132 101.89174373156857 0 0 0 0 22.30111858525612 -39.791249008884463 0 -39.791249008884463 17.282557628002365 0 0 0 0 8.6037114759164979 -72.684386368819105 0 -72.684386368819105 81.776168325799517 0 0 0 0 34.728508959226019 -69.443226822957513 0 -69.443226822957513 72.812836907840392 0 0 0 0 19.554200926962949 -86.842875527410797 0 -86.842875527410797 98.162962990449159 0 0 0 0 -13.937038535501415 -4.5770074950023627 0 -4.5770074950023627 174.38854627363617 0 0 0 0 7.2849034074981773 -27.953377282612351 0 -27.953377282612351 3.5961400186299102 0 0 0 0 21.580887265386991 -142.37949305470102 0 -142.37949305470102 193.59059457620606 0 0 0 0 94.242213133291443 -120.12615165055286 0 -120.12615165055286 146.43630751443561 0 0 0 0 66.65619966716622 -111.08295765685034 0 -111.08295765685034 192.71107735030819 0 0 0 0 63.333451843296643 -92.510448144530528 0 -92.510448144530528 151.36925366680953 0 0 0 0 57.266000154231733 -111.35663845123054 0 -111.35663845123054 136.0435114907159 0 0 0 0 -2772.005789097464 -2865.7015177500571 0 -2865.7015177500571 -397.08567559706489 0 0 0 0 -2409.6139916980974 -1332.9035368480163 0 -1332.9035368480163 2968.6218946083809 0 0 0 0 -500.71894589650765 -1941.2282922727366 0 -1941.2282922727366 562.15308811458772 0 0 0 0 -558.51947595199272 -426.79507875209464 0 -426.79507875209464 143.83656923749993 0 0 0 0 -1689.1267328540998 -787.46990646081395 0 -787.46990646081395 628.28482596120466 0 0 0 0 -915.70406257819013 -539.1379631941744 0 -539.1379631941744 245.61528318486125 0 0 0 0 -1706.3087420676734 -634.9446934750315 0 -634.9446934750315 329.63475636037856 0 0 0 0 -2672.2349559211361 -74.132851891385442 0 -74.132851891385442 354.70985113397762 0 0 0 0 -2948.4021083968546 -732.29169716202341 0 -732.29169716202341 425.22565667300569 0 0 0 0 -11.423049015945878 -0.54678222924698616 0 -0.54678222924698616 30.136226839840599 0 0 0 0 -31.981001508858753 67.893410769674119 0 67.893410769674119 472.12689252530072 0 0 0 0 -1.536022101987129 -4.0593913134100958 0 -4.0593913134100958 9.2740671038969182 0 0 0 0 -1039.6313169412606 -389.11372639237288 0 -389.11372639237288 296.65712385135612 0 0 0 0 -1152.5631302453912 -632.6907088574485 0 -632.6907088574485 5.9935631400912825 0 0 0 0 -445.09208967534141 110.00781431703899 0 110.00781431703899 25.176054282252153 0 0 0 0 -2354.346112675179 -308.3342985446443 0 -308.3342985446443 226.84547375252714 0 0 0 0 26.875695072442756 -100.69578997828663 0 -100.69578997828663 54.317424990463394 0 0 0 0 -1311.9603968146585 -376.70652267060905 0 -376.70652267060905 -151.00484264618353 0 0 0 0 -1573.245574111721 -141.17738863231057 0 -141.17738863231057 -161.09263100142925 0 0 0 0 -1135.4428194414013 -168.55209455175259 0 -168.55209455175259 -98.837946178322454 0 0 0 0 -1913.0244013467745 -898.96847734496623 0 -898.96847734496623 335.01473924490983 0 0 0 0 -2488.8912432789293 -528.50862544010852 0 -528.50862544010852 505.28738837128913 0 0 0 0 -112.29769575099363 -89.202743367857693 0 -89.202743367857693 98.416357402675203 0 0 0 0 56.95539143674219 -115.77394320498342 0 -115.77394320498342 32.472256608845967 0 0 0 0 -1578.6760507452382 -429.97962287393284 0 -429.97962287393284 -61.664690737103228 0 0 0 0 -719.92906124731962 -774.39560929991967 0 -774.39560929991967 -275.81806507097281 0 0 0 0 11.748839190791765 -121.0120826436101 0 -121.0120826436101 84.15021463730875 0 0 0 0 54.02216105592197 -114.13860775201283 0 -114.13860775201283 36.553555351420073 0 0 0 0 -1041.767247368698 -712.79253067596437 0 -712.79253067596437 -25.52702113452915 0 0 0 0 -896.08809573393228 -1133.1523543728526 0 -1133.1523543728526 -349.57081792062672 0 0 0 0 -996.11998280036823 -1054.3321615253019 0 -1054.3321615253019 56.162101184359926 0 0 0 0 -651.83104810641089 -908.77736968700992 0 -908.77736968700992 -373.28966441324383 0 0 0 0 -603.76793993572937 -880.39473926248866 0 -880.39473926248866 -917.07155236501421 0 0 0 0 -745.3961466736946 -1440.2915299649248 0 -1440.2915299649248 177.79298779932287 0 0 0 0 -567.91339599035564 -1466.5291335558522 0 -1466.5291335558522 -930.98949059718143 0 0 0 0 -1011.3685136238637 -1285.3197625522598 0 -1285.3197625522598 663.05574673914271 0 0 0 0 -1045.8358919555758 -1069.9251059353846 0 -1069.9251059353846 234.49232207145951 0 0 0 0 -1330.3566335134965 -1002.3999536669799 0 -1002.3999536669799 394.79306833335431 0 0 0 0 -1072.3169379597821 -1107.8947438756204 0 -1107.8947438756204 201.68661873489327 0 0 0 0 -1451.6487720828372 -890.03223784601687 0 -890.03223784601687 291.06482060388953 0 0 0 0 -1163.5607762848958 -967.34871389874752 0 -967.34871389874752 15.065936895294726 0 0 0 0 -1336.2122862270044 -577.94885741995677 0 -577.94885741995677 274.58319173059135 0 0 0 0 -1337.0797053754195 -622.69198671053209 0 -622.69198671053209 1369.1409402318677 0 0 0 0 290.32918940594755 1322.7830131969372 0 1322.7830131969372 2259.7899648748007 0 0 0 0 -1580.9597981046027 -637.01468033522224 0 -637.01468033522224 3758.5309617694747 0 0 0 0 -893.11133247607358 -1072.9240515754591 0 -1072.9240515754591 1032.0346677185589 0 0 0 0 -875.61734211964358 -3168.1279652560743 0 -3168.1279652560743 1254.4281193998213 0 0 0 0 -468.74640465037373 -2143.5579317959528 0 -2143.5579317959528 369.50723750996985 0 0 0 0 -649.64834970673837 -884.7965516423792 0 -884.7965516423792 -857.96217240619126 0 0 0 0 -446.18821587136335 -746.00954415173874 0 -746.00954415173874 -1027.0085586185596 0 0 0 0 -1000.4385799379379 136.2055081377548 0 136.2055081377548 -2428.6888822919364 0 0 0 0 -151.39200467751471 -1777.1839551687985 0 -1777.1839551687985 -2261.2072630679686 0 0 0 0 308.95881308921162 119.98321952282276 0 119.98321952282276 -4591.9435312891947 0 0 0 0 -18.810484243951009 -19.506892535473177 0 -19.506892535473177 -15.750519752396002 0 0 0 0 -762.2147713615268 -586.24492939133506 0 -586.24492939133506 3122.8866197683046 0 0 0 0 -870.49142849328928 -2580.4170514956113 0 -2580.4170514956113 3296.8584859638177 0 0 0 0 -151.29419768877779 -1151.4549407760005 0 -1151.4549407760005 -744.06949934080694 0 0 0 0 -913.01578457393771 19.71926503758641 0 19.71926503758641 -35.903866232081782 0 0 0 0 -1770.5360681420987 137.87184379226881 0 137.87184379226881 -1093.5554983690308 0 0 0 0 -135.32206432379371 -534.50349800045524 0 -534.50349800045524 -1193.8959724452943 0 0 0 0 -1744.6595309383847 -1691.913768416196 0 -1691.913768416196 -2024.1114400675269 0 0 0 0 -1423.4461025251876 -237.09626427624971 0 -237.09626427624971 -702.23053360199992 0 0 0 0 -855.52930850331904 -177.22183875022893 0 -177.22183875022893 -1288.660516593076 0 0 0 0 -1123.0520355925037 -369.89386522211862 0 -369.89386522211862 -758.39426844394529 0 0 0 0 -2560.2738936005117 675.20187362410979 0 675.20187362410979 5.9258251127175754 0 0 0 0 141.77773020268796 -227.62697728923922 0 -227.62697728923922 129.35117201563844 0 0 0 0 -7.0306021457165571 -6.9087414737261952 0 -6.9087414737261952 2.1226415706191517 0 0 0 0 433.62763294621254 -302.03018278921627 0 -302.03018278921627 -169.63122785430096 0 0 0 0 -868.08778655616334 -651.91781383937996 0 -651.91781383937996 -86.511909422511962 0 0 0 0 -736.22405758406239 -831.35279712147712 0 -831.35279712147712 -426.97172587118621 0 0 0 0 -901.10186574749514 -475.75553747612526 0 -475.75553747612526 -506.89132611171226 0 0 0 0 -73.191727386957609 -191.76554731943725 0 -191.76554731943725 92.995376188497175 0 0 0 0 66.7388326420743 -120.41948418804964 0 -120.41948418804964 49.653997987497917 0 0 0 0 -11.290533602427331 -165.42608685204868 0 -165.42608685204868 -3.7579201366388588 0 0 0 0 -406.72405389685809 -399.44441225914306 0 -399.44441225914306 260.90028321629507 0 0 0 0 -33.726387079921551 -321.17950263370585 0 -321.17950263370585 91.113365490506112 0 0 0 0 41.958527356922545 -102.83685469399195 0 -102.83685469399195 82.721420537914838 0 0 0 0 32.479156814428279 -78.771552053498453 0 -78.771552053498453 128.41443047806388 0 0 0 0 186.6453949745337 -163.49340623064927 0 -163.49340623064927 148.73265339627687 0 0 0 0 62.531899804009299 -29.36248293332028 0 -29.36248293332028 83.973046132508898 0 0 0 0 95.903410758437531 56.677780840102059 0 56.677780840102059 304.7509494087426 0 0 0 0 -248.02798990400333 -206.54110726148065 0 -206.54110726148065 111.72521468448031 0 0 0 0 55.305004118135699 -124.76667367305652 0 -124.76667367305652 61.138498383504583 0 0 0 0 151.40499236028299 -196.88527827575365 0 -196.88527827575365 96.922878832067624 0 0 0 0 -39.953259684473323 -76.924552239514014 0 -76.924552239514014 37.543551423295867 0 0 0 0 -752.76548948383424 794.45091185541969 0 794.45091185541969 -1582.2088474448246 0 0 0 0 -58.744995939790357 5.1325097538216795 0 5.1325097538216795 30.439512445441437 0 0 0 0 -2570.38907165399 1292.5284133349123 0 1292.5284133349123 -806.2011234977108 0 0 0 0 -886.23108158161631 356.47859223811247 0 356.47859223811247 -336.87121612353076 0 0 0 0 -672.40916560146798 -1423.4608164882475 0 -1423.4608164882475 1644.0652020473062 0 0 0 0 -194.32615085844009 -1856.4416527622452 0 -1856.4416527622452 1416.5975041111815 0 0 0 0 126.28436442808015 -1370.8255165106166 0 -1370.8255165106166 894.6235227168072 0 0 0 0 -800.27466082890169 -800.32615374900342 0 -800.32615374900342 970.98663088661851 0 0 0 0 -516.6570984672253 -991.34764432686097 0 -991.34764432686097 22.456757675012341 0 0 0 0 -580.2351328804798 261.22386277294208 0 261.22386277294208 -1027.1404936567487 0 0 0 0 -793.15828291164507 -47.422054792727067 0 -47.422054792727067 452.99711773653689 0 0 0 0 -1526.9843744741884 -500.9200227016554 0 -500.9200227016554 51.043684590607882 0 0 0 0 -2112.001431446035 30.943977185701442 0 30.943977185701442 -158.10922722081159 0 0 0 0 41.258511130351977 -33.282981262264059 0 -33.282981262264059 3.9111272899838525 0 0 0 0 -2009.9050998604507 652.73219398406945 0 652.73219398406945 410.61646501785435 0 0 0 0 354.97652808007842 -151.30809796500398 0 -151.30809796500398 -0.80697643781604711 0 0 0 0 -35.518784904725663 -126.67785863478301 0 -126.67785863478301 60.007100548657419 0 0 0 0 -957.16093282343354 295.34499084311028 0 295.34499084311028 499.55441703648103 0 0 0 0 -1240.4694370022917 -146.05106870595046 0 -146.05106870595046 -159.99149020725145 0 0 0 0 697.52389852964552 -298.96273175395618 0 -298.96273175395618 1742.1367433217092 0 0 0 0 -56.420617265590408 -1125.383898686483 0 -1125.383898686483 851.59821602454394 0 0 0 0 1694.8499111427373 -1885.9767928200017 0 -1885.9767928200017 1207.9968141068603 0 0 0 0 111.01377812884311 -438.27411483996366 0 -438.27411483996366 1419.2167613276615 0 0 0 0 116.46064399243915 -904.63057298956846 0 -904.63057298956846 -35.09308369583735 0 0 0 0 885.33721379354392 -1382.5360434218273 0 -1382.5360434218273 190.02367331691039 0 0 0 0 -1.9823812864506181 -30.934622709256473 0 -30.934622709256473 30.10292018004111 0 0 0 0 2.8573324150347617 -3.4469662183546461 0 -3.4469662183546461 0.2679903748939978 0 0 0 0 24.685523733729497 -28.965443545210292 0 -28.965443545210292 21.846110344893532 0 0 0 0 28.257122205526684 -4.2669249913669773 0 -4.2669249913669773 -26.426363726248383 0 0 0 0 26.437221121311268 -10.388297589302965 0 -10.388297589302965 4.0558680823305622 0 0 0 0 -1140.6128869078766 -243.26468005691868 0 -243.26468005691868 373.13813069244497 0 0 0 0 24.228608840116067 -50.572004757385002 0 -50.572004757385002 32.702262912433071 0 0 0 0 1652.7243702139531 -356.61091869371012 0 -356.61091869371012 -1316.2982825071595 0 0 0 0 -401.30864287761506 -362.90875454610068 0 -362.90875454610068 222.4380467585288 0 0 0 0 18.213730763725863 -14.922752471906193 0 -14.922752471906193 6.06216600393509 0 0 0 0 19.103885019372683 -57.237112064220128 0 -57.237112064220128 95.549829695519293 0 0 0 0 18.346902520730509 -32.402051417862822 0 -32.402051417862822 42.918264522293612 0 0 0 0 25.740311355897575 -87.710672569053713 0 -87.710672569053713 105.77999534661649 0 0 0 0 23.363200326173683 -75.207763403785066 0 -75.207763403785066 74.258485522223054 0 0 0 0 29.238098049128894 -68.39025012498314 0 -68.39025012498314 79.696666416944936 0 0 0 0 26.958611788839335 -51.179668085926096 0 -51.179668085926096 38.004201200703392 0 0 0 0 21.058270576153518 -44.236422823262728 0 -44.236422823262728 50.201719566772226 0 0 0 0 15.142595508121303 -27.120071700166591 0 -27.120071700166591 28.714012410346186 0 0 0 0 38.269100460398477 -48.333217361374409 0 -48.333217361374409 41.374326691904571 0 0 0 0 29.909836281120079 -37.294125804313808 0 -37.294125804313808 39.993465272593312 0 0 0 0 27.5877959938598 -48.737507324557555 0 -48.737507324557555 47.950757777929539 0 0 0 0 45.138954365975223 -67.190221189070144 0 -67.190221189070144 64.598366285368684 0 0 0 0 57.635767456842586 -48.186933797293023 0 -48.186933797293023 36.408399050007574 0 0 0 0 56.127201548268204 -38.707477414078312 0 -38.707477414078312 30.274881793622626 0 0 0 0 33.262526301390608 -16.168023143240134 0 -16.168023143240134 17.128395844440092 0 0 0 0 48.505159293898032 -41.222628903480654 0 -41.222628903480654 36.867178599903127 0 0 0 0 8.3213281491636693 -3.4438931989252524 0 -3.4438931989252524 5.5972742258951769 0 0 0 0 48.148322872133576 -7.9824561445275322 0 -7.9824561445275322 15.150137820473901 0 0 0 0 39.501504413998191 -9.9489969295500487 0 -9.9489969295500487 -1.2395666024385719 0 0 0 0 43.986160651045793 -23.797198887041304 0 -23.797198887041304 15.563721310783876 0 0 0 0 29.942681735497899 -24.057622035601526 0 -24.057622035601526 18.692686579030124 0 0 0 0 6.586577857857705 -2.7630675308135721 0 -2.7630675308135721 4.0505903383167947 0 0 0 0 453.87292874261038 65.488516523644648 0 65.488516523644648 -177.69758591384743 0 0 0 0 49.269432537112152 -3.5406454628900974 0 -3.5406454628900974 8.805747635604348 0 0 0 0 11.25281570853258 -87.913150192627654 0 -87.913150192627654 31.582847530764411 0 0 0 0 256.83543925738195 -507.25074800352377 0 -507.25074800352377 -89.489733145601349 0 0 0 0 96.806769158137968 -89.523158848469649 0 -89.523158848469649 59.556689714562737 0 0 0 0 151.64806141558802 -133.51278535655001 0 -133.51278535655001 158.62772731759469 0 0 0 0 -7.6711190090354648 75.843000624718115 0 75.843000624718115 137.16639960366592 0 0 0 0 -570.47165414782648 -378.31213977406151 0 -378.31213977406151 -202.89029192028102 0 0 0 0 2.7955459621154075 -4.1051337943103903 0 -4.1051337943103903 -1.1843348892605263 0 0 0 0 29.588566974314745 -17.992294091709482 0 -17.992294091709482 -31.27504364007109 0 0 0 0 10.189605995527586 -15.301859230667873 0 -15.301859230667873 9.1422232165317894 0 0 0 0 7.7671534003384295 -18.606990631487861 0 -18.606990631487861 -12.502305671470822 0 0 0 0 25.417078395078988 -4.6325382048894426 0 -4.6325382048894426 -1.4971305093349656 0 0 0 0 26.809849343640963 -20.500667918793624 0 -20.500667918793624 -6.9122533874615328 0 0 0 0 152.68816599249112 -86.82359304340207 0 -86.82359304340207 -233.11569779996353 0 0 0 0 -0.12796741560241998 -2.7159325310551026 0 -2.7159325310551026 10.176116000963589 0 0 0 0 -481.04896380259015 -91.898486209785915 0 -91.898486209785915 94.499781026301207 0 0 0 0 -126.21472236519912 -289.80226185203355 0 -289.80226185203355 -185.34692151007039 0 0 0 0 -875.78540874367172 -30.05570271553006 0 -30.05570271553006 130.80280794556893 0 0 0 0 1073.6358689141707 -227.79115866377833 0 -227.79115866377833 -30.904899410554208 0 0 0 0 735.89856118803436 -82.857466688481509 0 -82.857466688481509 58.301707481819903 0 0 0 0 73.685041360600735 -67.207065796887036 0 -67.207065796887036 159.74893407039053 0 0 0 0 746.98140474085812 -98.444637838940253 0 -98.444637838940253 -53.814864349580603 0 0 0 0 787.3259349466025 -412.31397843552259 0 -412.31397843552259 260.2363265098611 0 0 0 0 87.175846735066443 -245.30620895912944 0 -245.30620895912944 677.42984688015713 0 0 0 0 76.044462027792179 191.20180704141239 0 191.20180704141239 515.31612285757728 0 0 0 0 185.93525329249678 133.7656327530276 0 133.7656327530276 -0.31578533221181715 0 0 0 0 14.883506856924313 -19.449911508700808 0 -19.449911508700808 23.445131357246026 0 0 0 0 410.75771176512353 23.11856741446536 0 23.11856741446536 -386.42019370313574 0 0 0 0 -316.66006424104853 131.36953450361761 0 131.36953450361761 115.39927739274572 0 0 0 0 -950.65586175247881 -1018.9652645884598 0 -1018.9652645884598 331.78043394300039 0 0 0 0 203.52764493024733 -185.91875869558135 0 -185.91875869558135 -77.746610590038472 0 0 0 0 346.77576794961351 -4.7281723826672533 0 -4.7281723826672533 -69.047391636451721 0 0 0 0 -1011.7636339010714 -131.3025861435417 0 -131.3025861435417 275.37004976326716 0 0 0 0 5.1068984880744779 -7.2062012568132161 0 -7.2062012568132161 8.6579307489606379 0 0 0 0 -990.22290938578954 -186.62780493575337 0 -186.62780493575337 157.82105093030259 0 0 0 0 1048.4756320665947 97.877711566725338 0 97.877711566725338 -52.235552859667223 0 0 0 0 -942.20997908469872 -351.99495750734059 0 -351.99495750734059 -26.678635080315871 0 0 0 0 -1135.3727618221537 -296.03416187851508 0 -296.03416187851508 290.17249944744981 0 0 0 0 388.26370881207913 -676.27490193975245 0 -676.27490193975245 32.695030014918302 0 0 0 0 -219.90119237615727 -359.54918222014385 0 -359.54918222014385 86.178173932261416 0 0 0 0 -302.61351936911524 -369.08928021667816 0 -369.08928021667816 -60.229316115477559 0 0 0 0 -220.17153477590182 -375.03700644871424 0 -375.03700644871424 -121.40287968453777 0 0 0 0 -296.48339793612104 -239.91475271998934 0 -239.91475271998934 -253.85755094539491 0 0 0 0 -333.70794195941562 -269.98614208595973 0 -269.98614208595973 -21.39627117643613 0 0 0 0 -217.62281086255825 -338.76598854530312 0 -338.76598854530312 -91.470551293627068 0 0 0 0 -41.4204499333282 -218.60795638308628 0 -218.60795638308628 -38.466533751052339 0 0 0 0 -320.21444356071788 63.315762003410782 0 63.315762003410782 -266.26036349256174 0 0 0 0 -195.97033072837075 -234.95678958002463 0 -234.95678958002463 -692.38249550808541 0 0 0 0 -234.40776642942001 -128.57773235473815 0 -128.57773235473815 -438.5350205408904 0 0 0 0 146.40781719066581 143.65603219726108 0 143.65603219726108 424.38189146510194 0 0 0 0 80.622913556871936 -150.6497545125967 0 -150.6497545125967 188.58556423252594 0 0 0 0 -9.6694711076270323 -49.903007484914269 0 -49.903007484914269 279.52883188283158 0 0 0 0 13.713054946985466 -9.5691351094076538 0 -9.5691351094076538 3.837304120209069 0 0 0 0 34.535948933291365 -128.17182765765028 0 -128.17182765765028 144.40855602884767 0 0 0 0 6.3372552594300942 -24.716152280016104 0 -24.716152280016104 181.34376832842827 0 0 0 0 -34.748364413244417 -720.42528558055346 0 -720.42528558055346 449.87943885921413 0 0 0 0 551.3448540481113 -816.73341215688924 0 -816.73341215688924 391.70337980738259 0 0 0 0 623.06334338795568 -747.87444162180327 0 -747.87444162180327 353.4956182613314 0 0 0 0 57.318433624139288 -737.45174845175643 0 -737.45174845175643 -1025.8678033549149 0 0 0 0 362.24473947567458 -1549.4018909964943 0 -1549.4018909964943 866.42876081086797 0 0 0 0 4.9145204130205116 -2.6180107057744522 0 -2.6180107057744522 0.66537411040705763 0 0 0 0 -1147.2635770771885 -189.51606388040818 0 -189.51606388040818 1058.7269745556114 0 0 0 0 -58.378702190544573 -877.81747796954733 0 -877.81747796954733 -499.49040481347765 0 0 0 0 -200.45028733164509 -239.81098764909257 0 -239.81098764909257 -194.94723004227126 0 0 0 0 72.813481976816547 -309.99894682323065 0 -309.99894682323065 -342.58993071480654 0 0 0 0 -96.707002793878928 -350.74248863929643 0 -350.74248863929643 -241.82974719509366 0 0 0 0 -211.96281128448027 -278.20444627916731 0 -278.20444627916731 -294.41482123231981 0 0 0 0 -68.563865451549646 -363.89004414300143 0 -363.89004414300143 -919.09226522226891 0 0 0 0 61.794085241802122 -485.450514887292 0 -485.450514887292 -71.478695410114597 0 0 0 0 420.39845368140232 -436.53448348188249 0 -436.53448348188249 -179.51286044314475 0 0 0 0 45.55554402742564 -241.77513087133411 0 -241.77513087133411 -173.88939753821251 0 0 0 0 23.748598148013116 -305.12733881393797 0 -305.12733881393797 -335.15880069622654 0 0 0 0 -243.8958438983027 -435.74399500443542 0 -435.74399500443542 -387.29997142625507 0 0 0 0 -322.70266836908195 -437.52707340622328 0 -437.52707340622328 -220.41561556933448 0 0 0 0 -212.61549452976033 -330.81713481069528 0 -330.81713481069528 -158.78175934110186 0 0 0 0 -43.799900031992365 -555.60589037080172 0 -555.60589037080172 -371.24889576103305 0 0 0 0 -56.72106115148199 -659.83294241184558 0 -659.83294241184558 -1135.2163557783292 0 0 0 0 -154.35544186851621 -776.06550804876315 0 -776.06550804876315 -602.59498892435658 0 0 0 0 -807.0592405026473 -995.15627604627298 0 -995.15627604627298 -671.03075292159338 0 0 0 0 -393.18268709189579 -491.62242530695949 0 -491.62242530695949 -545.28413674978401 0 0 0 0 298.4942654079623 -526.8060513604978 0 -526.8060513604978 -614.1036835342311 0 0 0 0 -111.04154647055111 -1278.8345147108921 0 -1278.8345147108921 -1728.0098884265501 0 0 0 0 -409.40226257297763 -827.10144483204931 0 -827.10144483204931 -844.23779655875114 0 0 0 0 -623.87717000692646 -1563.2835670452187 0 -1563.2835670452187 -2075.2727190166552 0 0 0 0 -325.24151824364526 -1077.8256144053012 0 -1077.8256144053012 -782.30180469406514 0 0 0 0 -143.26970658073697 -1151.6887716435958 0 -1151.6887716435958 -681.23795561888255 0 0 0 0 -248.04987065875412 -801.73852002983585 0 -801.73852002983585 -269.01597566493729 0 0 0 0 -9.1807928744674427 -530.1425006530626 0 -530.1425006530626 -194.97783553897898 0 0 0 0 -459.27374439631421 -573.47547995268542 0 -573.47547995268542 381.14222220418014 0 0 0 0 -407.39036339181439 -666.43402209206852 0 -666.43402209206852 93.962273580968031 0 0 0 0 207.36778078440693 -418.33174498704466 0 -418.33174498704466 193.87525914321304 0 0 0 0 165.3230820348781 -877.06524588035063 0 -877.06524588035063 859.8969443867536 0 0 0 0 153.31743148023816 -293.14238874577131 0 -293.14238874577131 -45.820384502025263 0 0 0 0 42.002111725938448 -945.07172224193346 0 -945.07172224193346 -98.847550755541306 0 0 0 0 -1022.0903549334107 -595.10402196658106 0 -595.10402196658106 433.96572661721802 0 0 0 0 1175.4682468332103 -1460.619522415378 0 -1460.619522415378 480.29705471677153 0 0 0 0 1076.1658219810197 -619.81788713676724 0 -619.81788713676724 -15.110698236232565 0 0 0 0 0.046991276369696688 -9.3443390159359581 0 -9.3443390159359581 10.17875740121417 0 0 0 0 2121.0356985001927 -1015.3290485511243 0 -1015.3290485511243 -90.04027852575382 0 0 0 0 -2293.657815052552 -18.473979519143995 0 -18.473979519143995 684.56602136803849 0 0 0 0 -640.27901603512146 -25.019272314464615 0 -25.019272314464615 50.874512529415369 0 0 0 0 68.686696939541434 -1285.823763484128 0 -1285.823763484128 370.21771096202974 0 0 0 0 -521.71033694598009 -996.96500024283159 0 -996.96500024283159 283.0312363366138 0 0 0 0 -0.40731610797926576 -17.134490014928119 0 -17.134490014928119 19.793952136348906 0 0 0 0 16.560659807379125 -554.65666519197111 0 -554.65666519197111 77.176894275267841 0 0 0 0 -604.95473265125838 -898.80090740247215 0 -898.80090740247215 253.92797531564429 0 0 0 0 269.1033482186831 -844.84089270829281 0 -844.84089270829281 615.47816941501515 0 0 0 0 246.94196546485728 -556.28412434085658 0 -556.28412434085658 1073.169972240561 0 0 0 0 85.805354832002195 -973.95233545066731 0 -973.95233545066731 786.46502022154891 0 0 0 0 -133.49887096325256 -218.35091051308882 0 -218.35091051308882 251.00017936099903 0 0 0 0 237.39221577174612 -2095.0280201671412 0 -2095.0280201671412 2209.9373459044618 0 0 0 0 205.63898283532035 -654.65338446535316 0 -654.65338446535316 1145.984652709034 0 0 0 0 -445.19175132733653 -1555.6437673486362 0 -1555.6437673486362 4126.2539194120909 0 0 0 0 450.34223878178454 -1315.1619821933637 0 -1315.1619821933637 1661.9815382533125 0 0 0 0 418.54602506828905 -395.45958430220526 0 -395.45958430220526 2512.8598487462004 0 0 0 0 -825.03441356252006 -1278.1161001725632 0 -1278.1161001725632 -2009.9387376706072 0 0 0 0 -153.70260530256382 -390.94466167662176 0 -390.94466167662176 -2671.9448581778051 0 0 0 0 4.7685234212598857 -6.2983133478468574 0 -6.2983133478468574 -1.4775115770796887 0 0 0 0 220.04513959882388 -2076.5646089273787 0 -2076.5646089273787 -1479.0506429592497 0 0 0 0 506.65486384964606 -717.72414661953371 0 -717.72414661953371 574.69286106643995 0 0 0 0 551.20494008186142 -405.31944179197671 0 -405.31944179197671 -924.46483407323831 0 0 0 0 -1192.939975283407 -1423.6365574637312 0 -1423.6365574637312 -136.69827614318638 0 0 0 0 -2.8595086708891841 -5.9866080560161521 0 -5.9866080560161521 -8.2819419455972252 0 0 0 0 -734.37828938451958 -1237.202752479134 0 -1237.202752479134 -2005.9476194765302 0 0 0 0 333.25005026801591 -899.86201521793191 0 -899.86201521793191 -341.80152001644456 0 0 0 0 468.17629448261687 -1161.1663445533718 0 -1161.1663445533718 15.52220694522839 0 0 0 0 0.037352688723530036 -8.5452991602536628 0 -8.5452991602536628 9.587753519907011 0 0 0 0 1101.5990000708152 -342.93948127622207 0 -342.93948127622207 -518.81060060447635 0 0 0 0 2102.4358933931981 -1246.514730171104 0 -1246.514730171104 121.15533843620869 0 0 0 0 -761.04048244771184 22.227455742518941 0 22.227455742518941 293.78480814326758 0 0 0 0 -2221.2523774079345 -567.54680978495526 0 -567.54680978495526 1467.2204150358484 0 0 0 0 675.1768431278615 -1033.1198802097351 0 -1033.1198802097351 886.13692268680825 0 0 0 0 727.54192682655412 -777.23974471515248 0 -777.23974471515248 1336.6077838064739 0 0 0 0 634.58241697101766 -556.82309887561132 0 -556.82309887561132 -23.2604764609423 0 0 0 0 670.33120666922332 -750.81481505676857 0 -750.81481505676857 397.84091659531987 0 0 0 0 1047.4125891921212 -579.61024713737424 0 -579.61024713737424 769.30951900272339 0 0 0 0 1061.1731938573212 -813.58915367709415 0 -813.58915367709415 -11.560187868963112 0 0 0 0 1703.1996724525961 -340.36022592282825 0 -340.36022592282825 23.179872350818187 0 0 0 0 1596.8342726562732 -478.25187903236656 0 -478.25187903236656 -22.149750227923505 0 0 0 0 1635.7898128301749 -598.48413559490291 0 -598.48413559490291 129.17114123442298 0 0 0 0 1340.5572635561839 -889.28626731893019 0 -889.28626731893019 158.9693843684945 0 0 0 0 1826.2368393080978 -873.21375671400165 0 -873.21375671400165 158.94355756808363 0 0 0 0 1838.1293857520213 -1087.9071687412797 0 -1087.9071687412797 937.74199328381656 0 0 0 0 1728.6496520274231 -449.68340239383269 0 -449.68340239383269 244.66662161356362 0 0 0 0 1646.5202641687192 -349.6401969413846 0 -349.6401969413846 -53.881526520643092 0 0 0 0 947.26703212783468 -2.1719243085135531 0 -2.1719243085135531 3.7781486475869315 0 0 0 0 101.46595435727795 -75.616053210171231 0 -75.616053210171231 392.33033556323062 0 0 0 0 1602.0397684379132 -276.03620812464942 0 -276.03620812464942 -70.453105975451763 0 0 0 0 -19.528327028558124 -50.375131742512167 0 -50.375131742512167 235.98879912226221 0 0 0 0 103.6786746465441 -83.8857379949186 0 -83.8857379949186 186.66512514395436 0 0 0 0 -33.046049091950408 -20.996659069463931 0 -20.996659069463931 245.14492416029316 0 0 0 0 183.31415538771034 -7.4852207242711302 0 -7.4852207242711302 -53.889729951915797 0 0 0 0 75.246202989059384 -142.8784416743074 0 -142.8784416743074 318.59119300613202 0 0 0 0 842.09180726643535 -436.150833939937 0 -436.150833939937 375.52131527780148 0 0 0 0 1104.6576351927724 -853.60552117467705 0 -853.60552117467705 579.63080080377404 0 0 0 0 7.5486985035613543 2.4525238388159636 0 2.4525238388159636 -1.0067011026082824 0 0 0 0 1187.6839093805465 122.6654550905223 0 122.6654550905223 -196.50087003713998 0 0 0 0 69.676967001098092 -31.28098247381422 0 -31.28098247381422 102.46048296047229 0 0 0 0 -13.863351269595 -19.49577374903329 0 -19.49577374903329 -4.6339509982748837 0 0 0 0 56.829601532146626 -81.269654144252854 0 -81.269654144252854 12.680229289062481 0 0 0 0 20.034326029590375 -45.754145490828705 0 -45.754145490828705 52.210508704942185 0 0 0 0 13.622551568726635 -6.5294465216415603 0 -6.5294465216415603 1.9847317152307227 0 0 0 0 62.670843300369597 -100.07934175054652 0 -100.07934175054652 68.384377637106809 0 0 0 0 38.610525732277893 -102.73335469997255 0 -102.73335469997255 93.842723716697947 0 0 0 0 40.185233427954017 -68.591886187196792 0 -68.591886187196792 44.792954733085935 0 0 0 0 8.0556573961366666 -132.25102358870936 0 -132.25102358870936 82.613409604731714 0 0 0 0 -6.9624041963675438 -3.8576800343421311 0 -3.8576800343421311 -2.8753406829643495 0 0 0 0 721.36473565392225 -271.30772456364502 0 -271.30772456364502 37.395989953089156 0 0 0 0 -288.98272765747606 -756.97042573754152 0 -756.97042573754152 507.04091999857337 0 0 0 0 591.67377460239095 -987.844164016381 0 -987.844164016381 192.64604708336992 0 0 0 0 573.24859338511305 -768.452470405653 0 -768.452470405653 128.34971703180054 0 0 0 0 833.47904550360545 -871.2406443192267 0 -871.2406443192267 204.25246017207974 0 0 0 0 611.2918655131798 -996.29517787863733 0 -996.29517787863733 347.67802527032472 0 0 0 0 653.26464779665548 -1014.9898984905849 0 -1014.9898984905849 47.189586162916385 0 0 0 0 704.11516798241064 -1037.5876883649908 0 -1037.5876883649908 -93.842180194609682 0 0 0 0 768.85627603490138 -897.44212573933692 0 -897.44212573933692 196.3563954566489 0 0 0 0 1354.8773638140601 -935.48070258175449 0 -935.48070258175449 65.488105956290383 0 0 0 0 478.87179547893902 -677.43202398387803 0 -677.43202398387803 55.270379768771818 0 0 0 0 920.8650710938382 -670.93921126139321 0 -670.93921126139321 -93.347252509178361 0 0 0 0 832.00743500265526 -1034.5202237799094 0 -1034.5202237799094 39.397878658899572 0 0 0 0 
</DataArray>
<DataArray type="Float64" Name="cross_section_updated" format="ascii">
1 1 1 1 1 0.0096117187051331515 1 1 1 1 1 1 0.020782478165372209 1 1 1 0.014140580995138721 1 1 1 1 0.023987676256038371 1 1 1 1 1 0.0083738803860418029 1 0.010053328841432022 1 1 1 1 0.010041788114289255 1 1 1 1 1 1 1 1 0.022443277055997007 1 1 1 0.0006891691279813511 1 0.020986293062448515 1 1 1 -4.1263973071803406e-09 0.012306281392918205 1 1 1 1 1 0.01694247385502274 1 1 1 1 1 1 1 1 1 0.0099849956260095584 0.0015292340648183078 1 1 1 1 1 0.016078379892321429 1 0.01042806735955989 1 4.3242470160187452e-09 1 1 1 1 1 0.018768706683665655 1 1 1 0.010166279515431876 1 1 0.013830779480322472 1 1 -1.6294768659386172e-09 1 1 0.0037877305331434352 1 1 1 1 1 1 1 1 1 1 0.0057040630803809819 0.0096878478663182943 1 1 1 1 1 1 1 1 1 1 0.0092995665714514578 1 0.0097409166452235713 1 1 0.012539436217618537 1 0.0096557791594755402 1 1 0.010057610954333714 1 1 1 1 1 1 1 1 1 1 1 1 1 1 1 0.011660385738914088 1 1 1 0.010585515230131778 1 1 1 0.0078644091721173856 1 1 1 1 0.01003215553882205 1 1 0.018062953916456605 0.012482920341436238 1 1 1 0.0053459006298771927 1 1 1 1 1 1 0.0082394020181557059 1 1 1 1 1 1 1 1 1 1 1 1 0.0093324033495822828 1 1 1 1 1 1 1 1 1 1 1 1 1 1 1 1 1 0.0067759322839965538 0.0085048794208110942 1 1 1 0.010436608001424812 1 1 1 1 1 1 0.0077418318244476744 1 1 1 1 0.023141754841964693 1 0.0038083032057257132 1.695823183267553e-09 1 1 0.016255809477101472 1 1 1 1 1 1 1 1 1 1 1 1 1 1 1 1 1 1 1 0.016206309860102824 1 1 1 1 1 0.017061930461859099 1 1 1 1 1 1 1 1 0.0087092768437206508 1 1 1 1 0.0080833016774366773 1 0.02023137907406887 1 -8.9743364128924696e-10 1 1 1 1 1 1 1 0.0079742980897846011 1 1 1 0.009646188940944718 1 1 1 1 1 1 1 1 1 1 1 1 1 1 1 1 1 0.00025210881602001634 1 1 0.0016963163308126306 0.0073778947725010105 1 1 1 1 1 1 1 1 1 1 1 1 1 1 1 1 0.014468177327031762 1 1 1 1 1.5676641235140565e-10 0.0097415718144633068 1 1 1 1 1 0.0084846097990120897 1 1.8902985635116387e-09 1 1 1 1 1 1 0.021881656519903769 6.7674990611443775e-11 1 1 1 1 1 1 1 1 1 1 0.01934249626171574 1 1 1 1 1 1 1 1 1 1 1 1 1 1 1 1 1 1 1 1 1 0.019636123650015179 1 1 1 0.0017164837406412128 1 1 1 1 0.0096363704216371818 1 1 1 1 1 1 1 1 1 1 1 1 1 1 1 1 1 1 1 1 1 1 1 1 0.010236673139208174 1 1 0.009758562990464693 1 1 1 1 0.012100960815096278 1 1 1 1 1 1 1 1 1 1 1 1 1 1 1 1 1 1 1 1 1 1 1 1 1 1 1 0.0037634888268241948 1 1 0.0091424180024689342 1 1 0.0073981707024731516 1 1 1 1 1 1 1 1 1 1 0.010517284290279108 1 1 1 1 0.0099627103411162529 1 0.0078559189263546422 1 1 1 0.011548071287159066 1 1 1 1 0.014024409426004348 1 1 1 1 5.7339995737648586e-09 1 0.0030767906658423633 1 0.015015402402935904 1 1 1 5.4582922001666923e-09 1 1 1 1 1 1 1 1 1 1 0.024435110306627664 1 1 0.012082564095362019 1 1.7768149451757864e-10 1 1 1.0597198951689535e-09 1 0.011551883846193191 1 1 1 1 1 1 0.01073967821205715 1 1 1 1 3.6945152007139548e-09 1 1.3452325711704738e-09 1.912879084298158e-09 1 1 1 0.00069282893723832811 1 1 1 1 1 1 1 1 1 1 1 1 1 1 1 1 1 1 1 1 1 1 1 1 1 1 1 1 1 1 1 1 1 1 1 0.0059134631557613074 1 1 0.0061435579882463537 1 1 1 1 1 0.0085787020035836478 1 1 1 1 1 1 1 1 1 1 1 1 1 1 1 1 0.012421120611785519 1 1 1 1 1 1 0.0099945735560572988 1 1 1 1 1 1 1 1 1 1 1 1 1 1 0.0098850515546570379 1 1 1 1 1 1 1 1 1 1 1 1 0.0087822420113254154 1 1 1 1 1 1 1 1 1 1 0.0098904779985997532 1 1 1 1 1 1 1 1 1 1 1 0.0070681397848014749 1 1 1 1 0.0090109098880195582 1 1 1 1 0.030949357587392805 1 1 1 1 1 1 1 0.030775898703218681 1 0.011356263391268433 1 1 0.0095555880384373335 1 0.024880616434649616 1 1 1 0.010105009380303169 1 1 1 1 1 1 1 1 1 1 1 1 1 1 1 1 1 1 1 1 0.01039418728313405 1 1 1 1 1 0.018086111750420492 1 1 1 1 1 0.007750382802673296 1 1 1 1 1 1 1 1 1 1 1 1 1 1 1 1 1 1 1 1 1 1 1 1 1 1 1 1 1 1 1 1 1 1 1 1 1 1 1 1 1 1 1 0.010100108595378509 1 1 1 1 1 1 1 1 1 1 1 1 1 1 1 1 1 1 1 1 1 1 1 1 1 1 1 1 1 1 1 1 1 1 1 1 1 1 1 1 1 1 1 1 1 1 1 1 0.0093806463268953852 1 1 1 0.0099574498753573701 1 0.010351810630302074 1 0.0048272564374463867 1 1 1 1 1 1 1 1 1 1 0.0082984151900569944 1 1 1 1 0.0059503678818692007 1 1 1 1 1 1 1 1 1 1 0.032769847793441824 1 1 1 1 0.0095792889939878001 1 1 1 1 1 1 1 0.033951497335980546 1 1 1 1 1 1 1 1 1 1 1 0.011489038149609667 1 1 1 1 1 1 0.03409005952216862 1 1 1 1 1 1 1 1 1 1 1 1 1 1 1 1 0.014033916387668516 1 1 1 0.010873849279772314 1 1 1 1 1 1 1 1 1 1 1 1 1 1 1 0.0095733330108441553 1 1 1 0.0097790135889439279 1 1 0.032936946061682751 0.024453523362105281 1 0.024879131150180249 1 1 1 1 1 1 0.010117997994472445 1 1 1 1 1 1 1 0.010534299665586645 1 1 1 1 1 1 1 1 1 1 1 1 1 1 1 1 1 1 1 1 1 1 1 1 1 1 1 1 1 1 1 1 1 1 1 0.030349525436756904 1 1 1 1 1 1 1 0.0096636961721314127 1 -5.7975753017802667e-09 1 1 1 0.0096735628304094254 1 1 1 1 1 1 1 1 0.0099857272893166885 1 1 0.012919180741505006 1 1 0.018607057353027465 1 0.02764607447839959 1 1 0.029403910604090585 1 1 1 1 1 1 1 1 -1.1853562714714272e-09 1 0.010617673994828073 0.01334129001888989 1 1 1 0.0094509777343477555 1 1 1 0.012094839832469546 1 0.013465428909972368 1 1 0.0069965517085684159 0.015897324253821371 1 1 0.012803753081506393 1 1 1 1 1 1 1 0.00013592706948296202 1 1 0.019753664538112677 1 0.0096876368488427317 1 1 0.0035972342038695232 1 1 1 1 1 0.015162079573237307 1 1 1 1 0.013684092280878815 1 0.01031250374149739 1 1 0.009787978695803834 0.01039406182722917 1 1 1 1 1 0.0047858012304216255 1 1 1 1 1 1 1 1 1 0.0050551125309663452 1 1 1 1 1 1 1 1 1 1 1 1 1 1 1 1 1 1 1 1 1 1 1 1 1 1 1 0.0043568028623247948 1 1 1 1 1 1 1 1 1 1 1 0.010047082838681921 1 0.0043265434633738414 1 1 1 1 1 1 1 1 1 1 1 1 1 1 1 1 1 1 1 0.007440573093807766 1 0.013254365243158164 1 0.012831256306538771 1 1 1 1 1 0.014881590983341721 1 1 0.01264777410965983 1 1 1 1 1 1 1 1 1 1 1 1 1 1 0.011647356666243211 1 1 1 1 1 1 1 1 1 1 1 0.0098946009387257065 1 1 1 1 0.003897912437389156 1 1 1 1 1 1 0.0067210797216263052 1 1 1 1 1 1 0.0090922067513571139 1 1 1 1 1 1 1 1 1 1 1 1 1 1 1 1 1 1 1 0.0098751834524842472 1 1 1 0.010676810036734763 1 1 1 1 1 1 1 1 1 1 0.013610016378041795 1 1 1 1 1 1 0.010103851329178376 0.012201186083687809 1 1 1 1 1 1 1 1 1 1 1 1 1 1 1 1 2.5611427047081761e-10 1 1 0.003763487499452922 1 1 1 1 0.0089593427594809871 0.010291690187211343 1 1 1 1 1 1 1 1 1 1 1 1 1 1 1 1 1 1 1 1 1 1 1 1 1 1 1 1 1 1 1 1 1 1 1 1 1 1 1 1 1 1 0.008507887151982441 1 1 1 1 1 1 1 1 1 1 1 1 1 3.7575559400093717e-09 1 1 1 1 1 1 1 0.0059965682514537206 1 1 1 1 1 1 1 1 1 1 0.0082593482143573475 1 1 0.034187795670130083 1 1 3.4990907359089274e-09 1 1 1 1 1 1 1 1 1 1 1 0.02990548828179871 1 1.8891932662343236e-09 1 0.011859001076026873 1 1 1 0.0093718818092945744 1 1 1 1 1 1 1 1 1 1 1 1 1 1 1 0.0084677903408613663 1 0.022349030569651943 1 1 0.0063987943278048893 1 1 -9.4276465540527044e-09 1 1 1 1 0.0065682046967203873 1 1 1 1 1 1 1 1 1 1 0.0060954460867203714 1 1 1 1 1 1 1 1 1 1 1 1 0.0076769001305839156 1 1 1 1 1 1 1 1 1 1 1 1 1 1 1 0.0013771456542387012 1 1 1 1 1 1 1 0.00091017716103701518 1 1 1 1 1 1 0.008277936617676623 1 1 1 0.0090367703925555015 0.00095059985660567864 0.0033973036931340059 0.010243517589943608 1 1 1 1 1 1 1 1 1 1 1 1 1 1 1 1 0.0026571999648645969 1 1 1 1 1 1 5.6158707649467399e-09 1 0.01066638228722952 1 1 0.002840168024414079 1 1 1 0.015073126034551961 0.00011588864899628876 1 1 1 0.010489226859519571 1 1 1 1 0.011657447107185252 1 1 1 1 1 1 1 1 1 1 1 1 1 1 1 1 1 1 1 1 1 1 1 1 1 1 1 1 1 1 1 1 1 1 1 1 1 1 1 1 1 1 1 1 0.0037090071961310353 1 0.016597517231333757 1 1 1 1 1 1 1 1 1 1 1 1 1 1 1 1 1 1 1 1 1 1 0.010376386492836839 1 1 1 1 1 1 1 1 1 1 1 1 1 1 1 0.010551563292021733 1 1 1 1 1 0.0099830567619344744 1 1 1 1 1 1 1 1 1 1 1 1 1 1 1 1 1 1 1 1 1 1 1 1 0.009406024610164522 0.0098318943644090141 1 1 1 1 1 1 1 1 1 1 1 1 1 1 1 1 1 0.0093024510202477095 1 1 1 1 1 1 1 0.0086528042402024743 0.011476317564243516 1 1 1 1 1 1 1 1 1 1 1 1 1 1 1 1 1 1 0.0089025709226791434 0.0069871832829226412 1 1 1 1 1 1 1 1 1 1 1 1 1 1 1 1 1 1 1 1 1 1 1 1 1 1 1 1 1 1 0.010079165165123728 1 1 3.8185254680467295e-09 1 1 1 0.0072568334013974924 1 1 1 1 1 1 1 1 1 1 1 1 1 1 1 1 1 1 1 1 1 1 1 1 0.0100078335447727 1 1 1 1 1 1 1 1 1 0.0075924378404462894 1 0.0048776696953608343 0.006905777503466012 0.0095884831150011372 1 1 1 0.0045030336949706436 1 0.0098484007031169451 1 1 1 1 0.0055681933119206628 1 1 1 1 1 1 1 1 1 1 1 1 1 1 1 1 1 1 1 1 1 1 1 1 0.0089141781141895381 1 1 1 1 0.012767784398609972 1 0.011005108985547948 1 1 1 1 1 1 1 1 1 1 1 1 1 1 1 1 1 1 1 1 1 1 3.9108752972194516e-09 1 0.0098326306650085623 1 1 1 1 1 0.014120683532327608 -1.6609522091037832e-09 1 1 1 0.00021978383037491583 1 0.010587808203047715 1 1 1 1 1 1 1 1 1 1 1 1 0.007884162274538916 1 1 1 1 1 1 1 0.010374812452356243 1 1 1 1 1 0.0050459889901057382 1 1 1 1 0.010932031596887166 1 1 0.01101907746411588 1 1 0.0041337957454004107 1 1 1 1 1 1 1 1 1 0.0042294385585306248 1 1 1 1 1 1 1 1 1 1 1 1 1 0.0060068793474926732 1 1 1 0.0030200081222707519 1 1 1 1 1 1 1 1 0.0074614343899894429 1 1 0.008933182587758666 1 1 1 1 1 0.0075405075541160882 1 1 0.0039601085605162657 1 0.0063167978478799805 1 0.01387537948087926 1 1 0.0088464952931804897 1 1 0.0074177434655093091 1 1 1 0.010159781623953363 1 1 1 0.015134854794765264 0.0073614607998322423 1 0.01472204279778251 1 1 0.024655714772641578 1 1 1 0.0063571932602080952 1 1 1 1 1 1 2.1306589131908638e-10 1 1 1 1 1 1 1 1 1 0.0050316734704423053 1 1 0.014831586475894078 1 1 0.017839558670363076 1 0.014690083195300362 1 1 1 1 1 1 0.010256119140097192 0.010759779742473613 1 1 1 1 1 1 1 1 1 1 1 1 0.0080479750591591244 1 1 1 1 1 0.0040922876171961761 1 1 1 0.036761802220700801 9.4510294729177602e-10 0.0062252353154802903 1 1 1 1 1 1 1 1 0.0081168451700577571 1 1 1 1 1 1 1 1 1 1 1 1 1 1 1 0.025245982735306927 1 1 0.028793145906502747 1 1 1 1 1 0.0089037705712683123 1 1 1 1 0.011281277119492419 1 1 1 1 1 0.010164913506843148 0.013865135269612304 1 1 1 1 1 1 1 1 1 0.0210110735731984 1 1 0.0022513801128403246 1 1 1 0.023675851613473211 0.015350603444143971 0.022525366184400201 1 1 1 0.025557404545900667 0.010104102464063342 1 1 1 1 1 1 0.024384141809117361 1 1 1 1 1 0.019918660094038372 1 1 1 0.0027581228278162305 1 1 1 1 0.020952825956720197 1 1 0.004978533097598048 1 1 1 0.03078396211583604 1 0.024794518796342389 0.021294928236987566 1 1 1 1 0.013369428133451162 1 0.0096444467902952469 1 1 1 1 1 1 1 1 1 1 1 1 1 1 1 1 1 1 1 1 0.0053251932763081593 1 1 1 0.0083972055781770302 1 1 1 1 1 0.0073684695486708803 1 1 1 1 1 1 1 1 1 1 1 1 1 1 1 1 1 1 1 1 1 1 1 1 1 1 1 1 1 1 1 1 1 1 1 1 1 0.0081001606724447946 1 0.0088651571484005889 1 1 1 1 1 1 1 1 1 1 1 1 1 1 0.0093700369178515291 1 0.0099466556395280542 1 1 1 1 0.0094169223210121764 1 1 0.010188285970707076 0.0098231411142657085 1 1 1 1 1 0.010076092292819569 1 1 1 1 1 1 1 1 1 1 1 1 1 1 1 1 1 1 1 1 1 1 1 1 1 1 1 1 1 1 1 1 0.0086023035053255995 1 1 1 1 1 1 1 1 1 1 1 1 1 1 1 1 1 1 1 1 1 1 1 0.0097433267504192719 1 0.0094794459460291122 1 1 1 1 1 1 1 1 1 1 1 1 1 1 1 1 1 1 1 0.011573977656528435 0.010024306688429602 1 1 1 1 1 1 1 1 1 1 1 0.0092122436232022348 1 1 1 1 1 1 1 1 1 1 1 0.0096789332182096316 1 0.00624889219465612 1 1 1 0.010715126844593845 1 1 1 1 1 1 1 1 1 1 1 1 1 1 1 1 1 1 1 1 1 1 1 1 1 1 1 1 1 1 1 1 1 1 1 1 0.009775074455494713 1 0.01007377886368948 1 1 1 1 1 1 1 1 1 1 0.010787517694005481 1 1 1 1 1 1 0.010388882745631919 1 1 1 1 1 1 1 1 1 1 1 1 1 1 1 1 1 0.010661854130244869 0.010263219181871334 1 1 1 1 1 1 1 1 1 1 1 1 1 1 1 1 1 1 0.0083849576064604289 1 1 1 1 1 1 1 1 0.0094808592570432976 1 1 1 1 1 1 1 1 1 1 1 1 1 1 1 1 1 1 1 1 1 0.0086535732403015195 1 1 1 1 1 1 1 1 1 1 1 1 1 1 1 1 1 1 1 1 1 0.0091822928361987629 1 0.0077191261046436173 1 1 1 1 0.006661451472565286 1 1 1 1 1 1 1 1 1 1 1 1 1 1 1 1 1 1 1 1 1 1 1 1 1 1 1 1 1 1 0.010568461648373304 0.0097433700071100637 1 1 0.011402171870715593 1 1 1 1 1 1 1 1 1 1 1 1 1 1 0.0086559797661451415 1 0.014983033580806632 1 1 1 1 0.0095073298725999282 1 1 1 1 1 1 1 1 1 1 1 1 1 1 1 1 1 1 1 1 1 1 1 1 1 1 1 1 1 1 1 1 1 1 0.0072120199999977305 1 1 0.010084578513803788 0.0090032327153168664 1 1 1 1 1 1 1 1 1 1 1 1 1 1 0.0093473857801952553 0.0083568814443672375 1 1 1 1 0.0077192350889596154 1 0.009378005174237071 0.0085888978201379453 1 1 1 1 1 1 1 1 1 0.010151722974277307 1 1 1 1 1 1 1 1 1 1 1 0.010041472054730653 1 1 1 1 1 0.0042823775182600082 1 1 0.010067424884331246 1 0.011031699171889391 1 1 1 1 0.0045829645840835195 1 0.0032003462723509055 1 1 0.0096385769850215255 1 1 1 1 1 0.0097488279045681511 1 0.0088329793221721825 1 1 1 1 -3.3045944453080622e-10 1 1 1 1 4.8321507212234494e-10 1 0.0099386307858250339 1 1 1 1 1 1 1 0.0079060127200353859 1 0.0099878835457513637 1 1 1 0.0057124138485184564 0.023785885497567223 1 1 1 0.0052890010118184713 0.0076206434789837865 1 1 1 1 1 1 1 1 1 1 1 0.0068258995776693948 1 1 1 1 1 1 1 1 0.002901227861962119 1 1 -3.6780014103787728e-10 1 1 1 1.8496306564055182e-05 1 1 1 -2.6797035423964388e-09 1 1 1 1 1 1 1 1 1 1 1 2.4969813994246692e-09 1 1 1 1 1 1 1 1 1 0.0098177909458631359 1 1 1 1 1 1 -2.2082795019667811e-09 1 1 1 1 -3.4032831153912868e-09 1 1 1 1 1 1 1 1 1 1 1 1 1 1 1 2.3387301470445543e-10 1 1 1 1 1 1 1 1 1 1 1 1 1 1 1 1 1 1 1 1 0.0110755979369574 -2.1245013023113435e-09 1 1 1 1 1 1 0.0099951984183123798 1 0.010489338562873256 1 1 1 1 0.011514943017144792 1 1 1 1 1 0.0014409721202996457 1 1 1 0.012472061557593235 1 0.012128964561405961 1.710996674203491e-10 1 1 1 1 1 0.0099494607231905372 1 1 1 1 1 1 1 1 1 1 0.013042498228678076 1 0.000634783402820846 1 1 1 0.0044817753505091151 1 1 1 1 1 0.01012441320835805 1 0.0014510291248114281 1 1 1 1 1 0.01312722669600867 1 1 1 1 1 1 1 1 0.0098743530693267047 1 1 1 1 1 0.018665580736402836 1 1 1 1 1 1 1 1 1 1 1 1 1 0.012074957150966884 1 1 1 1 1 1 1 1 1 1 1 1 1 1 1 1 0.022564634431287027 1 1 1 -7.3866243911410723e-09 1 0.008849301615842747 1 1 0.008717322081810603 1 1 1 1 1 1 1 0.02220673612259718 1 0.0076164041871061555 1 1 1 1 0.0028064130556379116 1 1 1 0.0064356858690115728 1 1 1 1 0.010113319022252154 1 1 0.009966186277257226 1 1 1 1 0.010124450772144009 1 1 1 1 1 1 1 1 1 0.00069333558281525201 1 1 0.0020086501607902629 1 1 1 1 1 0.00098342988673102288 -1.4411341772713193e-09 1 1 0.0034463633722514033 1 1 -1.2109892741363204e-09 1 1 1 1 1 1 1 1 1 1 1 1 1 1 1 1 1 1 1 1 0.0097887466666048157 1 1 1 1 1 0.014855059910798857 1 0.0012934235745180496 1 1 0.0085828984594497979 1 1.5125605941357367e-09 1 1 1 1 0.01076731012406016 1 1 1 1 0.0084305840809803436 1 1 1 1 1 1 1 1 4.8347228998046887e-10 1 1 0.0016255608213080128 1 1 1 0.00989971181240238 0.010150278207987438 1 1 0.0052087024171380975 1 1 1 0.010132359249315957 1 0.0085835377267652196 1 1 1 1 1 1 1 1 1 1 1 1 1 1 0.015161105049454719 1 1 1 0.011534836983565645 1 1 1 1 0.010090716487236528 1 1 1 1 1 1 1 1 1 1 1 1 0.0094127033210765904 1 1 0.008396416353214366 1 1 0.0089510839945076189 1 1 1 0.0099135101756154947 1 1 1 0.011036924872996838 0.035404602332205326 1 1 1 1 1 1 1 1 1 1 1 1 0.0054679799071256554 1 0.012341432203667423 1 1 0.013644250032159203 1 1 0.0032865845732600787 1 1 1 1 1 1 1 0.011536948857354484 0.0056229036984403336 0.0044502295997770145 0.010798969734499259 1 1 0.031857569160269057 1 1 1 1 0.01583852536278145 1 0.020637813945737639 1 1 0.010125386786378456 1 1 1 1 1 1 1 0.0047850388700108135 1 0.0096700404501418105 1 1 1 1 1 1 1 1 0.012024472942185283 1 1 1 1 0.010010161212772622 1 1 0.003627145190045606 0.0060566020956936886 1 0.0078385516856739161 1 1 1 1 0.0043306162557963726 1 1 1 0.005184560280308885 1 1 0.0066401113887722615 1 1 0.0089523709222281613 1 0.010042286672872186 1 0.010140758330551981 1 1 0.0075793125175977437 1 0.0010247426985321509 1 1 1 1 1 0.040214583064978222 1 1 1 0.006021374239627366 1 0.007621221888882132 1 1 1 0.016976399134507367 1 1 1 1 1 1 1 1 1 1 1 1 1 0.0092384187264091464 1 1 0.0099778180880542543 1 1 0.0094879723552249891 1 1 1 1 0.0074321365620870598 1 1 1 0.012232927369644951 1 1 1 1 1 1 0.0043786296860486729 1 0.010475659722396141 1 1 1 1 1 0.0073538402170406948 1 1 1 1 0.010039079153951219 1 1 1 1 1 1 1 1 1 1 0.0047497419282869751 1 0.012792052917538092 1 1 1 1.1419957271496806e-09 1 1 0.0088811440296558183 1 1 0.01597337747244823 1 1 1 1 0.017973048760097726 1 1 0.0039158587603729932 1 1 1 0.019446121876877852 1 1 1 1 0.010162713096635467 1 1 1 1 1 1 1 0.022480882676566082 1 0.0091321050554358796 1 1 0.0068665444275627183 1 1 1 1 1 1 1 0.0086227772236431854 1 1 1 1 0.0096908408717337712 1 1 1 1 1 1 1 0.00076265463609913667 0.0069628837792199486 1 0.009925884348018138 1 1 1 1.6081354112934543e-09 1 1 1 1 1 0.029336257118881374 1 1 1 1 1 1 1 1 1 1 0.0097576398402906307 1 1 1 1 1 1 1 0.0088469661594681569 1 1 1 1 1 1 1 0.01386065943294509 1 1 1 1 1 1 0.02143037890624138 1 1 1 1 1 1 1 1 1 1 1 1 1 1 1 1 1 1 1 1 1 1 1 1 1 1 1 1 1 1 1 1 1 1 1 1 1 1 1 1 1 1 1 1 1 1 1 1 1 1 1 1 1 1 1 1 1 1 1 1 1 1 0.014732071172102776 1 0.010231900837702979 1 0.013185102351989591 1 1 1 1 1 1 1 1 1 1 0.0098054222923669894 1 0.012038210410962501 0.0095969828488196973 1 0.020667097800111979 1 1 1 1 0.0019770059647432493 1 1 1 1 0.0053317230746329578 1 1 1 1 1 1 1 1 1 1 1 0.010146692173337394 1 1 1 1 1 1 1 1 1 1 1 1 1 1 1 1 1 0.0083623889691679682 1 1 1 1 1 1 0.0043786617012122608 1 1 1 1 1 0.012030204483481285 1 1 1 1 1 1 0.016069919192742917 1 1 1 1 1 1 1 1 1 1 1 1 1 1 0.019119199123317453 1 0.010411661823474418 1 1 1 1 0.016638364673693357 1 1 1 0.0091425168065015494 1 1 1 1 -2.0677940089364188e-10 0.0081269363938797912 1 0.020029356753504136 1 1 0.0073640207967568694 1 1 1 1 1 1 1 1 1 1 1 1 1 1 1 0.0019329377966271055 1 1 0.020693346046731474 1 1 1 0.0081170109125928615 1 1 1 1 0.009727527042011859 1 1 1 1 1 1 1 1 0.0091457722477401634 1 1 1 1 1 1 1 1 1 1 0.0099239260491760239 1 1 1 0.0053907563317363199 1 1 1 1 1 1 1 1 1 1 1 1 1 1 1 0.019679694309526895 1 1 1 0.018642090803003761 1 1 0.011226267881451294 1 0.00035703904688286908 1 1 0.0084477841571948854 0.0095972508476854998 0.020228554075975944 1 1 1 1 0.00270565128266613 1 1 1 1 1 0.0047152503731174578 1 1 0.01020166084968736 1 1 1 1 1 1 1 1 1 1 1 1 0.0098896586665151304 1 1 1 1 1 0.0067554257447035443 1 1 1 1 0.0083560744817733207 0.011190825711829271 1 1 1 1 0.0095317481294167894 1 1 1 1 1 1 1 1 1 1 1 0.011393195221380013 1 1 1 1 1 1 1 0.0099935168934958355 1 1 0.014150690248509373 1 1 0.0085237520244456303 1 1 1 0.012031338540894679 1 0.0078916989358094446 1 1 1 0.013292137148301991 0.010715343382317844 1 0.010026233125212648 1 1 1 1 1 1 1 1 1 1 1 1 1 1 1 1 1 1 1 1 1 1 1 0.010318333497317735 1 1 0.010833784141145955 1 1 1 1 1 1 1 1 1 1 1 1 1 1 1 1 1 1 1 1 1 1 1 1 1 1 1 1 1 1 1 0.0060052786674719243 1 1 1 1 0.011604627547843249 1 1 1 1 1 1 1 0.0046941474131158688 1 1 1 1 1 0.010023813198569627 1 0.018204839924856664 0.0096955911041538487 1 1 1 1 1 1 1 1 1 1 1 0.010419487610625472 1 1 1 0.013293970602583426 1 1 1 1 1 1 1 1 1 1 1 1 1 1 1 1 1 1 1 1 1 1 1 1 1 1 1 1 1 1 1 1 0.014233904913628994 1 1 1 1 1 0.0099224853101894384 1 0.011272671126691454 1 1 1 1 3.4268011987054203e-09 1 1 1 1 1 1 1 1 1 1 1 1 1 1 1 1 1 1 0.0026406479953402003 1 1 1 1 1 1 0.0054175939838133971 0.014144604080620194 1 1 1 1 1 1 1 1 1 1 0.0089510830463588979 0.019399868643524817 1 1 1 1 0.0188946038283547 1 1 0.015175100149853276 1 1 1 1 1 1 1 1 1 1 0.0072707174516998471 1 0.0098653032495556875 1 0.0044935746314264773 1 1 1 1 1 0.010934594586645176 1 1 1 1 1 0.010058518125909511 1 1 1 1 1 1 1 1 1 1 1 1 1 1 1 0.0086031112415223959 1 0.0062647296779995559 1 1 1 1 1 1 1 1 1 1 1 1 1 1 1 0.0087766505722914404 1 1 1 1 1 1 1 1 1 1 1 0.0093079927660479275 1 1 1 1 1 1 1 1 1 1 1 1 1 1 1 1 1 1 1 1 1 2.2526629311903079e-09 1 1 1 1 1 1 1 1 1 1 1 1 1 1 1.2375650920715131e-09 1 1 1 1 1 1 1 1 1 1 1 1 1 1 1 1 1 1 1 1 1 1 1 1 1 1 1 1 1 1 1 1 1 1 1 1 1 1 1 1 1 0.0061801720791880566 1 1 1 1 1 1 1 1 0.010564575438982487 1 1 1 1 1 1 1 1 1 1 1 1 1 1 0.01296983369840856 1 1 0.0095107445945660871 1 1 1 1 1 1 1 1 1 0.01116623056479993 1 1 1 1 1 1 1 -1.7956758510684345e-09 0.019483169298298346 1 1 1 1 1 1 1 1 1 1 1 1 0.013628688115985652 1 1 1 0.01182346727234041 1 1 1 1 1 1 1 0.015274494048539027 1 1 0.01158619765835453 1 1 1 1 1 1 1 1 1 1 1 1 1 0.0042258871365393261 1 1 1 0.0062349448432598067 1 1 1 1 1 -5.8663458119001533e-10 1 1 0.0088759385414070059 0.0098030260898637339 1 1 1 0.017920455231560863 1 1 1 0.013979120682648494 1 1 1 0.016102869357439133 1 1 1 1 1 1 1 1 1 1 1 1 1 0.011629178518562697 1 1 1 1 0.014183781856464656 1 1 1 1 1 0.016098500888360786 1 1 1 1 1 1 0.013392051332403751 1 1 1 1 1 1 1 1 1 1 1 1 1 1 1 1 1 1 1 1 1 1 1 1 1 1 1 1 1 1 1 1 1 1 1 1 1 1 1 1 1 1 1 1 1 2.0419635808621717e-09 1 1 1 1 1 1 1 1 1 1 1 1 1 0.0087736015742683662 1 1 1 1 1 4.9231263185239502e-05 1 1 1 1 0.0092512187136886033 1 1 1 1 0.010004660732604977 1 1 1 0.0012593670092222106 0.0050706884868688632 1 1 0.006304265603138101 1 0.0089777807517316573 0.0068695285028991648 1 1 1 0.0056449536872591761 1 1 1 1 1 1 1 0.0097143363482847106 1 1 1 1 0.0097194607954395745 1 1 1 1 1 1 1 1 -2.583460797719872e-09 1 0.0091104378295042733 1 1 -9.2449490250723354e-10 1 1 1 1 1 1 1 1 1 1 1 0.0099985997548502313 1 8.0353188859627611e-10 1 1 1 1 1 1 1 0.00043028270255157002 1 1 1 1 1 5.5827370484562346e-05 1 1 1 1 1 1 1 1 1 0.0010770109632320004 1 1 1 1 1 1 1 1 1 1 1 1 1 1 1 1 1 1 1 1 1 1 1 1 1 1 1 1 1 1 1 1 1 1 1 1 1 1 1 1 1 0.0094686578062435148 1 1 1 1 1 1 1 1 1 1 1 1 1 1 1 1 0.011177381345172301 1 1 1 1 1 1 1 1 1 1 1 1 1 1 1 1 1 1 1 1 1 1 1 1 1 1 1 1 1 1 1 1 1 1 1 1 1 1 1 1 1 1 1 1 1 1 1 1 1 1 1 1 1 1 1 1 1 1 1 1 1 1 1 1 1 1 1 1 1 1 1 1 1 1 1 1 1 1 1 1 1 1 1 1 1 1 1 1 1 1 1 1 1 1 1 1 1 1 1 1 1 1 1 0.0038352563574014821 1 1 1 1 1 1 1 1 1 1 1 1 1 0.013386603136559764 1 1 1 1 1 1 1 1 1 1 0.0098632744128469042 1 1 1 1 1 1 1 1 1 1 1 1 1 1 1 1 1 1 1 1 1 1 1 1 1 1 1 0.0088969233701105838 1 1 1 1 1 1 1 1 0.0062271816007591144 1 1 1 1 1 1 1 1 1 1 1 1 1 1 1 -2.4041499312177361e-09 1 1 1 1 1 1 1 1 1 1 1 1 0.0050074186477624353 1 1 1 1 1 1 1 1 1 1 1 1 1 1 1 1 1 1 1 1 1 1 1 1 1 1 0.0071817116987347596 0.0010787203001769597 1 1 1 1 1 1 1 0.010576743978024213 1 1 1 1 0.009359378454190919 1 0.0046403659642897457 1 1 1 1 0.0039586430262120772 1 1 0.014863866294131643 1 1 0.013937476207443704 1 1 1 1 1 1 1 1 1 1 1 1 1 1 1 1 1 1 1 1 1 1 1 1 1 1 1 1 1 1 1 1 1 1 1 1 1 1 1 1 0.0055151282984373835 1 1 1 0.013148115714296336 1 1 1 1 1 1 1 1 1 0.016460901486286653 1 1 1 1 1 1 0.013312785771990318 1 1 1 0.010029625883637275 1 1 1 0.010016295812640689 1 1 1 1 1 1 1 0.010990906696650574 0.0089273531087541748 0.011333811220748703 1 0.0025479009960714515 0.0082492498148119594 1 1 0.010517427723041503 0.0060303518001683688 1 1 1 1 1 1 1 1 1 1 1 1 1 1 1 1 1 1 1 1 1 1 1 1 1 1 0.0073327773310625085 0.0085791094178683247 1 1 1 0.0068939873939196303 0.0063969371179213308 1 0.011509487050079825 1 0.0028306117953376224 1 0.0067150984662900396 0.012140465295763065 1 1 1 1 1 0.0010987711327459411 1 1 1 1 0.0065767539859122809 1 1 1 1 1 1 1 0.011237969871744724 1 0.0042041207653299457 1 1 0.00090632325323961038 1 1 1 1 0.0078129278532208211 1 1 1 1 1 1 1 1 1 1 1 1 1 1 1 1 1 0.0049880088364918449 1 1 0.0027015744926985183 1 1 0.0048150809471023924 1 1 1 1 3.6780060724481145e-09 1 1 1 1 1 0.016699248777515663 1 1 1 0.0066798649679053971 1 0.01765475436232674 1 1 1 1 1 0.0074874623639400433 0.0043704839659352759 1 0.017758182350722164 1 1 -6.4126126379446258e-09 1 1 1 1 1 0.021115560739691917 1 1 1 1 1 1 1 1 0.0062790707991537964 1 1 1 1 1 1 1 1 1 0.009561046771931269 1 1 1 1 1 1 1 1 1 1 1 1 1 1 1 1 1 1 1 1 1 1 1 1 1 1 1 1 1 1 1 1 1 1 1 1 1 1 1 1 1 1 1 1 1 1 1 1 1 1 1 1 1 1 1 1 1 1 1 1 1 1 1 1 1 1 1 1 1 1 1 1 1 1 1 1 1 -7.4624425042135734e-10 0.0088282250151652687 1 1 0.02632635877749772 1 1 1 1 1 1 1 4.4405366952937619e-09 1 1 1 1 1 1 1 1 2.6017089212106159e-05 1 1 1 1 1 1 1 1 0.00062490886236206758 1 1 1 1 1 1 1 1 1 1 1 1 1 1 1 1 1 1 1 1 1 1 1 1 1 1 1 0.011270134663204947 1 1 1 0.010033243755191873 1 1 1 0.0052681278971040205 0.010002192217706677 1 1 0.0031605622075122873 2.19606111767634e-09 1 1 0.0018961304568588001 0.015423604479219174 1 1 1 1 1 1 1 1 1 1 1 1 1 1 1 1 1 1 1 0.01295996272432331 1 1 1 1 0.017807832544982839 1 1 1 1 1 1 1 1 1 1 1 1 1 0.0093088155107288045 1 1 1 1 1 1 1 1 1 1 1 0.0099514288711358735 1 1 1 0.0037527484647412006 1 1 0.0020980234044797458 0.0065221802939792201 1 1 1 1 1 1 1 1 0.0084826383120086314 1 1 1 1 1 0.0038396065628061374 1 1 1 1 1 1 1 1 1 1 1 1 1 1 0.0011022544855990614 1 0.0050384769317981179 0.0099750151565916878 1 1 1 1 1 0.0070374126705502402 1 1 1 0.012015149268949081 1 0.0071063707177803845 1 1 0.014085733999672174 1 1 1 1 0.009791323763726309 1 1 1 0.010497992471446844 1 1 1 1 0.0071837568916960654 1 1 0.0075889768379121189 1 1 0.0090188485291065323 1 1 1 1 1 1 1 1 1 1 1 1 1 1 1 1 1 1 1 1 1 1 1 1 1 1 1 1 1 1 1 1 1 1 1 1 1 1 1 1 1 1 1 1 1 1 1 1 1 1 1 1 1 1 1 1 1 1 1 1 1 1 1 1 1 1 1 1 1 1 1 1 1 1 1 1 1 1 1 1 1 1 1 1 1 1 1 1 1 1 1 1 1 1 1 1 1 1 1 1 1 1 1 1 1 1 1 1 1 1 1 1 1 1 1 1 1 1 1 1 1 1 1 1 1 1 1 1 1 1 1 1 1 1 1 1 1 1 1 1 1 1 1 1 1 1 1 1 1 1 1 1 1 1 1 1 1 1 1 1 0.0085039519677846502 1 1 1 1 1 1 1 1 1 0.0024983669597958818 -2.5837707320897074e-09 1 1 0.0059560866535327585 1 9.1165286431049708e-10 1 0.0097187223897676374 1 1 1 1 1 1 1 1 1 1 1 1 1 1 1 1 1 1 1 1 1 1 1 1 1 1 1 1 1 1 1 1 1 1 1 1 1 1 1 1 1 1 1 1 1 1 1 1 1 1 1 1 1 1 1 1 1 1 1 1 1 1 1 1 1 1 1 1 1 0.020476941184669112 1 1 1 1 1 1 1 1 1 1 1 1 1 1 1 1 1 1 1 1 1 1 1 1 1 1 1 1 1 1 1 1 1 1 1 1 1 1 1 1 1 1 1 1 0.0089331093947264198 1 1 1 1 1 1 1 1 1 1 0.013974484626783376 1 1 1 1 1 1 1 1 1 1 0.011748527053497895 1 1 1 1 1 1 1 1 1 1 1 1 1 1 1 1 1 0.0055651938404775447 1 1 0.010365907833242788 1 1 1 1 1 1 1 1 1 0.0078979468669535396 1 0.011443944450061222 1 0.0088045864525411396 1 1 1 1 1 1 1 1 0.0094793133126155893 1 1 0.010304410262302763 1 1 1 1 1 1 1 1 0.011769214773700548 1 1 1 1 1 1 1 1 1 1 1 1 1 1 1 1 1 1 1 1 1 1 1 1 1 1 1 1 1 0.011526464775398097 0.0091521397605842658 1 0.010729126452651561 1 1 1 1 0.013785790447882737 1 1 1 1 0.010581713211283872 0.0076013166505914803 1 1 1 1 1 1 1 1 1 1 1 1 1 1 0.0130722312782636 1 0.0098890807230041858 0.017195026498429695 1 1 1 0.0073612225135329945 1 1 1 1 1 1 1 1 1 1 1 1 1 1 1 1 1 1 1 0.017544084453841868 1 1 1 1 1 1 1 1 1 1 1 1 1 1 1 1 1 1 1 1 0.010905353264573519 1 1 1 1 1 1 1 1 1 0.013823801103643204 1 1 0.0092276377259780714 1 1 1 1 1 1 1 0.013027816961138233 1 1 1 1 1 1 1 1 1 1 1 1 1 1 1 1 1 1 1 1 0.009867037429864986 1 0.014795154778007649 0.016000322638904017 1 2.3867514700737225e-09 1 1 1 1 1 1 1 1 1 1 1 1 1 1 1 1 1 1 1 1 0.0019957316620636475 1 0.00020806001833068369 1 1 1 1 1 1 1 1 1 1 1 1 1.3923592626086112e-09 1 1 1 1 1 1 1 1 1 1 1 0.0082492460010980539 1 1 1 1 1 1 1 1 1 1 1 1 1 1 1 1 1 1 1 1 1 1 1 0.0014985087677560002 1 1 1 1 1 1 1 1 1 1 1 1 1 1 1 1 1 1 1 0.00024278598081573996 1 1 1 1 1 0.010018437963906604 1 1 0.0094926815588193738 1 1 2.5707660999962911e-10 1 1 1 1 1 1 1 1 1 1 1 1 0.0021226806475389826 1 1 0.0091132399697858579 1 1 1 1 1 1 1 1 1 1 1 1 1 1 1 1 1 1 1 1 1 1 0.010690530808736227 1 1 1 1 0.0098797013669868206 1 0.0058033093350273943 1 1 1 1 1 1 1 1 1 1 1 1 1 0.020415869825886959 1 0.018255199410774768 0.00015065602055207294 1 0.0061402340137773209 1 2.6345978558495187e-09 1 1 1 1 1 1 0.0049361905923983821 1 1 1 1 1 1 1 1 1 1 1 1 1 1 0.0095177280625980392 1 1 1 0.0090983060971064622 1 1 1 1 1 1 0.010230564134495652 1 1 0.010414438874485753 1 1 1 1 1 1 1 0.0101844274375055 1 1 1 1 1 1 1 1 1 1 1 1 1 1 1 1 1 1 1 1 1 1 0.0096088143883091611 1 0.010028236353800745 1 1 1 1 1 1 1 0.011805220843645228 1 1 1 1 1 1 1 1 1 0.0062687969173418848 1 1 1 1 1 1 1 1 1 1 1 1 1 1 1 1 1 1 0.0091447639651142248 1 1.4689763693648272e-09 1 1 1 0.012686210848127856 1 0.0094287503772925024 1 1 1 1 1 1 0.012170342073754219 1 1 1 1 1 1 1 1 1 1 1 0.010133679742083507 1 1 -6.8571430478225892e-10 1 1 1 1 1 0.0099908766779745264 0.015756415534329764 1 0.0099287577952407516 1 1 0.028341501891741082 0.01088520111796229 1 2.2102190910811004e-10 1 1 1 1 1 1 1 1 1 1 1 1 1 1 1 1 1 1 1 1 1 1 1 1 1 1 1 0.012575119836551255 1 1 1 0.015544953534959792 1 1 1 1 1 1 1 1 1 1 1 1 1 1 1 0.015913428478003859 1 1 1 1 1 1 0.014987616303346826 1 1 1 1 1 1 0.0089461691555835759 1 1 1 1 1 1 1 1 1 1 0.0028861598540206451 0.0073354663016549984 1 1 1 1 1 1 1 1 1 1 1 1 1 1 1 0.014014355401013152 1 1 1 0.01005136891685271 0.017211025823204339 1 1 1 1 1 1 1 1 1 1 1 0.021034254864845014 1 1 1 1 1 1 1 1 1 1 1 1 1 1 1 1 1 1 1 1 1 1 1 1 1 1 1 1 1 1 1 1 1 1 1 1 1 1 1 1 1 0.022947927432483764 1 0.024960087785248893 1 1 1 1 1 1 1 -1.2891955905591779e-09 1 1 1 1 1 0.0027636045573445969 1 1 1 0.0054805670866359332 1 1 1 1 1 1 1 1 1 1 1 0.0076942259615359956 0.0088966079141983012 1 0.014132147534217279 0.0096863723733682516 1 1 5.0449958485777879e-05 1 1 1 0.0098535376646227413 1 1 1 1 -9.7788878383742173e-10 1 1 1 1 1 1 1 0.011149006088663836 1 1 1 1 1 1 1 1 1 1 1 1 1 1 1 0.0074291150573242634 1 1 1 1 1 1 1 1 0.013695629062722569 1 1 1 0.015643401552923174 0.014875617814310568 1.7819169542687696e-09 1 1 1 0.0078721085553183218 1 1 1 0.020900027692161094 1 1 1 1 0.023264709386314843 0.010071135900370672 1 0.0086572426235109468 1 1 1 0.0082988041625390238 1 1 1 1 1 0.0013414517775961615 1 1 1 1 0.0035702133651799514 1 1 1 1 0.010678100673859284 1 1 1 1 1 1 1 1 1 1 1 1 1 1 1 1 0.007123731897149814 1 1 1 1 0.0083209912707488676 1 0.010224226200065932 1 1 1 1 1 1 1 1 1 1 1 1 0.010764399543701869 1 1 1 1 1 1 1 1 1 1 1 0.010245264089590672 1 1 1 1 1 1 1 1 0.012259168166343377 1 1 1 0.010322018528753953 1 0.012074543243086829 1 1 1 1 1 1 1 1 1 1 1 1 1 1 1 1 1 1 1 1 1 1 1 1 1 1 1 1 1 1 1 1 0.0075011857636969534 1 1 1 1 1 1 1 1 1 1 1 1 1 1 1 1 1 1 1 1 1 1 1 1 1 1 1 1 1 1 1 1 1 0.015983527794573352 1 0.026605017234888832 1 0.011191352974408965 1 1 1 1 1 1 1 1 1 1 1 1 1 1 0.010183061106406835 1 1 1 0.011521946014395934 1 1 1 1 1 1 1 1 1 1 1 0.01365024836306742 1 1 1 1 1 1 1 1 1 1 1 1 0.010989049243151368 1 1 1 0.01490664220221477 1 1 1 1 1 1 1 1 1 1 1 1 1 1 1 0.012903275215449097 1 0.011541972162686176 1 1 1 1 1 0.010926846259967496 1 1 1 1 1 1 1 1 1 1 1 1 1 1 1 1 1 1 1 1 1 1 1 1 1 1 1 1 1 1 1 1 1 1 1 1 1 1 1 1 1 1 1 1 1 1 1 1 1 1 1 1 1 1 1 0.0082797712882965932 0.010124459765534874 1 1 1 1 1 1 1 1 1 0.010120356839898932 1 1 1 1 1 1 1 1 1 0.0099956780986848667 1 1 1 0.0090270083232329851 1 1 1 1 1 1 1 1 0.012080965458027424 1 1 1 0.010719662405264495 1 1 1 0.0073079331204736267 1 1 1 1 1 1 1 1 1 1 1 1 1 1 1 1 1 1 1 1 1 1 1 1 1 0.0089777964999019702 1 1 1 0.0080262083162882872 1 1 1 1 1 1 1 1 1 1 1 1 1 1 1 0.0083780560846645133 1 0.0092053763695410656 1 1 1 1 1 1 0.0082671284260696018 1 1 1 1 1 1 1 0.0080575101643474561 1 1 1 0.0060390145728204461 1 1 1 1 0.0089116753864905973 1 1 0.0090840450108070972 1 1 1 1 0.0094485736274823734 1 1 1 1 1 1 0.0084969854438686765 1 1 1 1 1 1 1 1 1 1 1 1 1 1 1 1 1 1 1 1 1 1 1 1 1 1 1 0.010672426439714874 1 1 1 0.011495473240616665 1 1 1 1 1 1 1 1 0.0096580331739167941 0.013045369876579328 1 1 1 1 1 1 1 0.0094184313248027521 1 1 0.0066936866229709985 1 1 1 0.0098077302616097206 1 1 0.0032810550594344207 1 1 1 0.018068876680637842 1 0.0099994947484076738 0.018331661494862227 1 0.0059962031207744307 0.017448929593297482 1 1 1 0.0099989706503496242 0.0033381936204248952 1 1 1 0.017671732989492754 1 1 1 0.0017055533267845563 1 1 1 1 1 1 1 1 1 1 1 1 1 1 1 1 1 1 1 1 0.009674278203722235 1 1 1 1 0.010497325004624032 1 1 1 1 1 1 1 0.0077280958224526589 1 1 0.0094066854198222305 1 1 1 1 1 0.010718075791116125 0.0037662425888703652 1 1 0.0080825990920297477 0.0057211303092312843 1 1 1 1 1 1 1 1 0.0067190162931702255 0.010086863543088076 1 0.0098857349774684466 1 1 1 1 0.0098165683890877181 1 1 0.0058582609533824187 1 1 1 1 1 1 1 1 1 1 1 1 0.016150175147436545 1 1 0.010080178103721672 1 1 1 1 1 1 1 1 1 1 1 0.026004564311844149 1 1 1 1 1 1 1 1 1 1 1 1 1 1 1 1 1 1 1 1 1 1 1 1 1 0.021582839557142696 1 0.019368388194437876 1 1 1 1 1 1 0.016762732836513177 1 1 1 1 1 1 1 1 1 1 1 1 1 1 1 1 1 1 1 1 1 1 1 1 1 1 0.012639863929568246 1 1 1 0.01175691992885896 1 1 1 1 1 1 0.021700593999451179 1 1 1 0.020743944776302564 1 1 1 1 0.018805940101229407 1 1 1 1 1 1 1 1 1 0.0057098533080061908 1 1 1 1 1 1 1 1 1 1 1 1 1 1 1 1 1 1 1 1 1 1 0.020077822373986164 1 1 1 1 0.021487471960479683 1 1 1 1 1 1 1 1 1 1 1 1 1 1 1 0.012887780065477951 1 1 1 1 1 0.011130860136618986 1 1 1 1 1 1 0.0094976261976688695 1 1 0.0085454187624946568 1 1 1 1 1 0.023278336172034252 1 1 1 1 1 0.0098243640508079849 1 1 1 1 1 1 1 0.010045324720852913 1 0.010044442706309588 1 1 1 1 0.013174858971684951 1 1 1 0.018986002955266215 1 1 0.009581743095805971 1 1 1 0.0098766951387529098 1 1 1 1 0.013760743635955398 0.011422010399778686 1 1 1 1 1 1 0.0073868494423657005 1 1 1 0.010065575505089155 0.017413561604101992 1 1 1 1 1 1 1 1 1 1 1 1 1 1 1 1 1 1 1 1 1 1 1 1 1 1 1 1 0.011314707410442193 1 1 1 1 1 1 1 1 0.010038387598221767 1 1 1 1 0.00982558725432741 1 1 1 1 1 1 1 1 1 1 1 1 1 0.01270544082917774 1 0.0090327367842171838 1 1 1 1 0.012304981183473649 1 1 1 1 1 1 1 1 1 1 1 1 1 1 1 1 1 1 1 0.01082180716417443 1 1 1 1 1 1 1 1 1 1 1 1 0.010266949560102741 1 0.011179190431152628 1 1 1 0.011971400536042395 1 1 1 1 1 1 1 1 1 1 1 1 1 1 1 1 1 1 0.011059159664992499 1 1 1 1 1 1 0.017953074479204939 1 1 1 1 1 1 1 0.018662081884404935 1 1 0.01553846271429913 1 1 1 1 1 1 1 1 1 1 1 1 1 1 1 1 1 1 0.0069010220288098709 1 1 1 1 0.0091976321546791556 1 1 1 1 1 1 1 0.013864733829034741 0.009990234308826236 1 1 1 0.018462215782302879 1 1 1 1 -6.7830357997067381e-10 1 1 1 1 1 1 1 1 0.011801638347960905 1 1 1 1 1 1 1 1 1 0.0069312403564728217 1 1 1 1 0.0018919850108816555 1 1 1 1 1 1 0.0076288010569452169 1 1 1 1 1 1 1 1 1 0.004782537703236972 1 1 1 1 1 1 1 1 1 1 1 1 1 0.0059082743017307635 1 1 1 0.010806227924113176 1 0.012731486616101684 1 1 1 0.0066589119737726424 1 1 1 1 0.0098235583204731962 1 1 1 0.0093593361523624415 1 1 1 1 0.0095357778318892472 1 1 1 1 1 1 1 1 1 0.0087545376554390084 1 1 1 1 1 1 1 1 1 1 0.0080249940536776428 1 1 1 1 0.0091115682146491531 1 1 1 1 1 1 1 1 1 1 1 1 1 1 1 1 1 1 1 1 1 1 1 0.014216655756595371 1 0.0041101815357844629 0.0068158373304088998 1 1 1 1 1 1 0.012925411428707623 1 1 1 3.2215397016699399e-11 0.017434822776355427 1 0.011245478130705366 0.00025662937865691959 1 0.010002018675656192 1 1 1 1 1 0.011050736097584848 1 1 1 1 1 1 1 0.011188444415812959 1 1 -7.6651513053471731e-09 1 1 1 1 1 0.0091769003766155044 0.00061561341659446128 1 1 0.0027693010734418724 0.017316279319450886 1 1 1 1 1 1 0.016933747550868967 1 1 0.0099223190337236408 1 0.025428220998795735 1 1 1 1 1 1 0.010267492395423294 1 0.0084331732187373915 1 1 1 1 1 1 1 1 1 1 1 1 0.010313358865064893 1 1 1 1 1 1 0.00027878852582248481 1 0.018359907455398183 1 0.0097767774261469029 1 1 1 1 1 1 1 1 1 1 1 1 1 1 1 0.010065585794725794 1 1 1 1 0.010065704649484995 1 1 1 0.010078294511263186 1 1 1 1 1 1 1 0.016038520172894356 1 1 1 1 1 0.019614593404569725 0.0083128561028528655 1 1 1 1 0.0093560606056217049 1 1 1 1 1 1 1 0.0093614171949939415 0.0053682757695354341 1 1 1 1 1 1 0.010000011318491701 1 0.0084543120063735114 1 1 1 1 1 1 1 1 0.010798894639267559 1 1 1 1 1 0.012391132090033818 1 1 0.012003440125159295 1 1 0.010152616072349949 1 0.01749577941193755 1 1 1 -3.772593001882818e-10 0.0090464500058197606 1 1 1 1 1 1 0.014348343726451033 1 0.014153935757422928 1 1 1 0.018645644104266001 1 1 0.023542999146687275 1 1 1 1 1 1 1 1 1 1 1 1 1 1 1 1 1 0.012172894117269503 1 1 1 0.0071315255588048181 1 0.010204289740959051 1 1 1 1 1 0.010914537456762699 0.013861407338535695 1 1 1 0.01124158753889918 1 1 1 1 1 0.0079447920656928323 1 1 1 1 1 1 1 0.003770387145249493 1 1 1 1 1 1 1 1 1 1 0.00088720862383092486 1 -1.0079674733765032e-09 1 1 1 1 1 1 1 1 0.021142117812905828 1 1 0.013904590774878078 0.020581815019153137 1 0.024389818303507206 1 1 0.012281613955546979 1 1 1 1 0.0099022409738246803 1 0.010046586230034737 1 1 1 1 0.022605213583177332 1 1 1 1 0.0079688818035017258 1 1 1 1 0.0092697616880823112 0.0097587934076823271 1 1 1 1 1 1 1 1 0.015337090454859061 1 1 1 1 1 0.011313790162673266 1 1 1 1 1 1 1 1 1 1 1 1 1 1 0.015027029127976967 1 1 0.018742468355831318 1 1 1 1 1 0.0062102101136682162 1 1 2.2347524143706554e-09 1 1 1 1 0.010557505565610893 1 1 0.010007852901124508 0.0055848711044647441 0.0047746213623418784 1 1 1 1 0.014210740777307065 1 0.0097234521661034648 1 1 1 0.010142634929726752 1 1 0.023408815066288578 1 1 1 1 1 1 1 1 1 1 1 1 1 1 1 1 1 1 1 1 1 1 1 1 1 0.009104349296060868 1 1 1 1 1 1 1 1 0.014987083952710062 1 1 1 1 1 1 1 1 1 1 1 1 1 1 1 1 1 0.0066220491207319675 1 1 1 1 1 1 0.0099121826908287539 0.0085348874836863684 1 0.011908379031979211 1 1 1 0.0060287557571952338 0.016183885264486719 1 1 1 1 1 1 1 1 1 1 1 1 1 1 0.015629339799345644 1 0.019324942686427704 1 1 1 1 1 1 1 1 1 1 1 1 1 1 1 1 1 1 1 1 1 1 1 1 1 1 1 1 1 1 1 1 1 1 1 1 1 1 1 1 1 1 1 1 1 1 1 1 1 0.0077877367402048071 1 1 0.0064090805530313813 1 1 1 1 1 1 1 3.5615545400033422e-09 1 0.023510877252899159 1 1 1 1 1 1 1 1 1 0.018303825896838002 1 1 1 1 0.026315599989875246 1 1 1 1 1 0.025994882639673048 1 1 1 1 1 1 1 1 1 1 1 1 1 1 1 1 1 1 1 1 1 1 1 1 1 1 1 0.0069574345660977591 1 1 1 1 1 1 1 0.010108494760363379 1 1 1 1 0.010560859808608259 1 0.010123970146318668 1 1 1 1 -4.9086186990066061e-09 1 1 1 0.018465724933022586 1 1 1 1 1 1 1 1 0.0023752787469306594 1 1 1 1 1 1 1 1 1 1 1 1 1 1 1 1 1 1 1 1 1 0.015267541355196763 1 1 1 1 1 0.0020281327178627989 1 1 1 1 -8.0322870993354556e-09 1 1 1 1 1 0.029386362354677748 1 1 1 1 1 0.0067888092064368015 1 1 1 1 1 1 1 1 1 1 0.026503252419467417 1 1 1 1 1 1 1 1 1 1 1 0.026910432692167523 1 1 1 1 1 0.0092103467017153502 1 1 1 1 1 1 1 1 1 1 1 0.0082217479951276068 1 1 1 1 1 1 1 1 1 1 1 1 1 1 1 1 1 1 1 1 1 1 1 1 1 1 1 1 1 1 1 1 1 1 1 1 1 1 1 0.0088584451722077059 1 1 0.0080687918739230438 1 1 1 1 1 1 1 1 1 1 1 1 1 1 1 1 1 1 1 1 1 1 1 1 1 1 1 1 1 1 1 1 1 0.0074036037951415723 1 1 1 1 0.0030071865422273067 1 1 1 1 1 0.0097005554367134671 1 1 1 1 0.02747059078489842 1 1 0.025422172782969224 1 1 1 1 1 1 1 0.0099671636161657428 0.010136563826134501 1 1 1 1 1 0.032088298908689264 1 2.4017662858533129e-11 1 1 -1.5252243409230593e-09 1 1 0.010472843665615558 1 1 1 1 1 1 1 1 1 1 1 1 1 1 1 1 1 1 1 1 1 1 1 1 1 1 1 1 1 1 1 1 1 1 1 1 1 1 1 1 1 1 1 1 1 1 1 1 1 1 0.0078367847369054874 1 1 1 1 1 1 1 1 1 1 1 1 1 1 1 1 0.0047202582620411472 1 0.010096477489035057 1 1 1 1 0.0073631252045200588 1 1 0.0068468473668564511 1 0.01928126511285732 1 0.020509802081125211 1 1 1 1 0.013694688217221071 1 1 1 1 1 1 1 1 1 1 1 1 1 1 1 -9.4919609672228233e-10 1 1 1 1 1 1 1 0.027424287707455405 1 1 1 0.00074244558920021075 1 1 1 1 1 1 1 1 0.0097389077726068047 1 0.0091226779863095714 1 1 1 0.0096710148374743211 1 1 1 1 1 0.0070102824370063405 1 1 1 1 1 1 1 1 1 1 1 1 1 1 1 1 0.0064075434204354867 1 1 0.0010926516640767762 1 1 1 1 1 1 1 1 1 1 0.0041829560100731123 1 1 1 1 1 1 1 1 0.0093803745259161322 1 2.2667117141605964e-10 1 1 1 1 1 1 1 1 1 1 1 0.010781914737417013 0.0089660955836318428 1 1 1 1 1 0.02234961567234222 1 0.010233482692421525 1 1 1 -2.6769104988222381e-10 1 1.7301117483103923e-10 1 1 1 1 1 1 1 1 0.00076055013452500445 1 1 1 0.0037549276137406364 1 1 1 1 1 1 1 1 1 1 1 1 1 1 1 1 1 1 1 1 1 1 1 1 1 1 1 1 1 1 1 1 1 1 1 0.028002546785512034 1 1 1 1 1 1 1 1 1 1 1 1 1 1 1 1 1 1 1 1 1 1 1 0.0074507375619601128 1 1 1 1 1 1 0.020930948886885743 1 0.023387658846929713 1 1 0.0080178787009857894 1 1 1 1 0.0086155148285575675 1 0.0050809798760996852 1 1 1 1 1 1 1 0.010849844364859168 1 1 1 1 1 1 1 1 1 1 1 1 1 1 1 1 1 1 1 1 1 1 0.015811367493282047 1 1 0.012580454650092908 1 1 1 0.0016530721937846674 1 1 1 1 1 1 1 1 1 1 1 1 1 1 1 0.015605183163580415 1 1 1 1 1 1 1 1 0.010109126752670429 1 1 1 1 0.015383165170362215 1 1 1 1 1 1 1 1 0.010620493374912519 1 1 0.0098061694694539306 -8.3638598130653108e-10 1 1 1 1 1 1 1 1 1 1 1 1 0.0090087254910041215 1 1 0.007876467881836581 1 1 0.0088677423908324546 1 1 1 0.008930539702210083 1 1 1 1 1 1 1 1 1 1 0.0076009016999694784 1 1 1 1 1 1 1 1 1 1 1 1 1 1 0.011389122480881225 0.017803824625965345 1 1 1 1 1 1 1 1 1 1 1 1 1 1 1 1 1 1 1 1 1 1 1 1 1 1 1 1 1 1 1 1 0.0087738919435837379 1 1 0.0065481162360129172 1 1 1 1 1 1 1 1 1 1 1 1 1 0.0063927670958785071 1 1 1 1 1 1 1 1 0.0068226614227344384 1 1 1 1 1 1 1 1 0.0093390306462596551 1 1 1 1 1 1 1 1 1 1 1 1 1 1 1 1 1 1 1 1 1 1 1 1 1 1 1 1 1 1 1 1 1 1 1 1 1 1 1 0.0065074651041377302 1 1 1 1 0.0057646506849649611 1 1 1 1 1 1 1 1 1 1 1 1 1 0.0041963446520236827 1 1 1 0.0076860749704594396 1 1 1 1 1 1 0.026061310629745427 1 1 1 1 1 0.013454854994287516 1 1 1 0.019875896663062893 1 1 1 1 1 0.013022013754584026 1 1 0.021096636286973565 1 1 1 1 1 1 1 1 1 1 1 1 1 1 1 1 1 1 1 1 1 0.0077742242924291674 1 1 1 1 1 0.0084070077030799703 1 1 1 1 1 1 1 1 1 0.0061958017799005286 1 1 1 1 1 1 1 1 1 1 1 1 1 1 1 1 1 1 1 1 1 1 1 1 1 1 0.0081500988945954964 1 1 1 1 1 0.040973694848518719 1 1 1 1 1 1 0.041475336103206202 1 1 1 1 1 1 0.0013394394922584939 1 1 3.0619426924505255e-09 1 1 1 1 1 1 1 0.030185704563778615 0.012435621354616275 1 0.01093371150111945 1 0.0049864591738542872 1 1 1 0.00072842084716100153 0.022512443775380135 1 0.02126632618190169 0.0091599453281692653 1 1 1 1 1 1 1 1 1 1 1 1 1 1 1 1 1 1 1 1 1 1 1 1 1 1 1 1 1 1 1 0.01036444761666515 1 1 1 1 0.011364644104899272 1 1 0.013013557696450354 1 0.038843129947596665 1 1 1 0.0047158510124664307 1 1 0.029336330534713018 1 1 0.016034132031356937 0.018639043517491842 1 1 1 1 1 1 1 1 1 1 1 1 1 1 0.019766270094956115 1 0.010147081726510465 1 1 1 1 0.012475526363109044 1 1 1 0.010018130341147194 1 1 1 0.013091568958110138 0.0085772048562637176 1 1 1 1 1 1 1 1 1 1 1 1 1 0.0092934131188802047 1 1 1 1 1 1 0.007878876262443324 -1.8853890983161481e-09 1 1 1 4.1127871941437633e-10 1 1 0.0097899361803273858 1 1 1 1 0.016694923256504672 1 1 0.0012348549532529077 1 1 0.003196893765473538 1 1 0.016109608740409578 0.00041218960120452744 1 0.024563836856447703 1 2.3812943240539286e-09 1 0.011067147463044822 1 0.010835233511353581 1 1 1 0.013385770172428783 1 0.011356675851834679 1 0.0081633304075601244 1 1 0.0092486369749040301 1 1 1 1 0.010471652680340001 1 1 1 1 1 1 1 1 1 1 1 1 1 1 0.00098446352941449974 1 1 1 1 1 -5.8958162648878321e-09 1 1 1 1 1 1 0.010025914146176457 1 1 3.3415369967565445e-09 1 1 1 0.011254142839450138 1 1 0.014413428711650925 1 0.01146124087741875 1 1 1 1 1 1 1 1 1 1 1 1 1 1 1 1 1 0.0097296883847509223 1 1 0.0038108145844551588 1 1 1 1 0.009093640944385719 0.0048042622843386621 1 1 1 1 1 1 1 1 1 1 1 1 1 1 1 0.0020149408460571425 1 1 1 1 1 1 1 1 1 0.0068484577837785721 1 1 1 1 1 0.0062502901610921955 1 1 1 1 1 1 1 1 1 1 0.007576991355962957 0.0084267189779690041 1 1 1 1 1 1 1 1 1 0.0088369020299359016 1 1 1 1 1 1 1 1 1 1 1 1 1 1 0.020610935131375151 1 1 1 -3.6786940993405182e-09 0.0013416531864647169 1 1 0.02676302386094679 1 1 1 -1.1475584829612195e-08 1 1 1 0.010239852050873265 1 1 1 1 1 0.024535097591093805 1 1 1 1 1 1 0.010478391339208498 1 1 1 1 0.019710767235891866 1 1 1 1 1 1 1 1 1 0.017608432122329806 1 1 1 1 1 0.015017512402644234 1 1 0.011758929149011256 1 1 1 1 1 1 1 1 1 1 1 1 1 1 1 1 1 1 1 1 0.008069449462070534 1 1 1 1 1 1 0.0051595415230176675 1 1 1 1 1 1 1 1 1 1 1 1 1 1 1 1 1 1 1 0.010117843198634166 1 1 1 0.0099338422211689634 1 0.013970832207516493 1 1 1 1 1 1 0.010258039632118118 1 0.0049702202191442349 1 1 1 1 0.010238539288335242 1 1 1 1 1 1 1 1 1 0.02354593276272908 1 1 1 1 1 1 1 1 1 1 1 0.021749820349155059 1 1.3000832771448145e-09 0.010333653068534177 1 1 0.0016718450954263872 1 0.021374688437631344 1 1 1 0.011383487396816966 1 1 1 1 1 1 1 -1.3193875020300894e-09 1 1 1 0.0077625717120407955 1 1 1 1 1 1 1 1 1 1 1 1 1 1 1 1 1 1 1 0.0099765190960364181 1 1 0.0045481400450146439 1 1 0.015546236397064107 1 1 1 1 0.013454377692079997 1 1 1 0.01378941508290709 0.009251871926953259 1 1 1 0.0099903464505027573 1 1 1 1 0.0072623715924461305 1 0.0097582673678368662 0.002710374287444195 1 1 0.016479563752874814 1 1 1 1 0.0036273949387163398 1 0.014612882024727712 1 1 1 1 1 1 0.010751481072655084 1 1 0.0097513457155981448 1 1 1 1 1 1 0.010224232907982335 1 1 1 0.0099386907467076679 1 1 1 0.0099288821985058229 1 1 1 1 1 1 1 1 1 1 1 1 1 1 0.0039577985753391949 1 1 1 1 0.0050030753884550581 1 1 1 0.0032803232586199587 1 1 1 0.0012047361613155561 1 1 1 1 1 1 1 0.0063490186860558498 1 1 -4.7773586926702638e-09 1 1 1 1 0.0082728604753668153 1 1 1 0.0092427128717803581 1 1 1 1 1 1 1 1 1 1 1 1 1 1 1 1 1 1 1 1 1 1 1 1 1 1 1 1 1 1 1 1 1 1 1 1 1 1 1 1 1 0.010096525457481045 1 1 1 1 1 1 -3.3311954306114444e-09 1 0.011811429120313632 1 1 0.013525531063559944 1 1 1 1 1 1 1 1 1 1 1 1 -1.5423628641625386e-09 0.0088780172526980623 1 1 0.0083083672756627189 1 1 1 0.01172784379983078 1 1 1 1 0.0098548757373825291 1 1 1 1 0.014817712109564625 1 0.0052894438531175536 1 1 1 1 1 1 0.015976570167077389 0.00098439640130023459 1 0.024500825373007129 0.012405201531351353 1 1 1 0.014263930291170053 0.016534013199668879 1 0.013020644764162186 0.010088366769298071 1 1 1 0.0046992795594153203 1 1 1 1 1 0.020782206311612397 0.0025851772665554558 0.0061841237729801345 1 1 1 1 0.003105631749929446 1 1 1 0.018520728192886492 1 1 1 0.0097183375693043611 1 1 0.0020775574909299909 1 1 1 0.016754038334341994 1 1 0.010071644213703398 1 0.018826022238567126 0.011575991167992766 1 0.0077523096070531115 1 1 1 0.0078213012362942334 0.0046000561110171173 1 1 1 1 0.010035713218485029 1 0.017080345178776195 -3.5458239296126681e-10 1 0.0035448668963605125 1 1 1 1 1 1 1 1 0.0026025459363422012 1 1 1 1 1 1 1 1 1 1 1 0.0099764790576456902 1 1 1 0.010990661923192592 0.010964884762371724 1 0.01293491695689946 1 -5.6580640069026078e-09 1 1 0.0017139787815088885 0.0061442774467774554 1 0.008389090467770921 0.0007025078458651364 1 1 0.0099277685900894079 1 1 1 1 0.015433578641021403 0.0010611526551572836 1 1 0.012342799260193318 1 1 0.0084633006716237653 1 1 0.0083867172909674655 1 0.0054460615411590623 1 0.0022728591316829826 1 0.0098311849472283493 1 1 0.0099870800077040498 1 1 1 0.0018025231493063211 1 0.0033620152763128158 -3.5035000248151427e-10 1 1 0.011306532092250795 1 1 1 1 1 1 1 0.00026619835779591924 1 1 1 1 1 1 0.009646313008746972 1 1 1 0.017466578499601884 1 1 1 1 1 0.012908068790565504 1 1 1 0.010141138370497982 1 1 1 0.0098236717031969945 0.0099113537076584296 1 1 1 0.010457391894590329 1 1 1 1 0.0099629505009390575 1 1 1 1 1 1 0.016198601509817633 1 1 1 1 1 0.014842016107125031 1 1 1 1 1 1 1 1 1 1 0.0082415455423909163 1 1 1 1 1 1 1 1 1 1 1 1 1 1 0.010613084384080772 1 1 1 1 1 0.011888349990929276 1 1 1 1 1 1 1 1 1 1 1 1 1 1 1 1 1 1 1 1 1 1 1 1 1 1 1 1 1 1 1 1 1 1 1 1 1 1 1 1 1 1 1 1 1 1 1 1 1 1 0.0080355894601111255 1 1 1 0.010008857333863592 1 1 1 1 0.0094311004588629871 1 1 1 0.00083603432939175978 1 1 1 1 1 1 1 1 1 1 1 1 1 1 0.0040399566559761631 1 1 1 0.0058004669073615268 0.011980137132699695 1 1 1 0.0098037418996396453 1 1 0.0022037706523893598 1 1 0.024848027691945149 1 1 1 0.0022458598393598418 1 1 1 1 1 1 1 0.0032901528169636653 0.01070034817735044 1 1 1 0.023292572012963697 1 1 1 1 1 0.017402565617621633 1 1 1 1 0.026003025892955091 1 1 1 1 1 0.016648583511032398 1 1 1 1 0.0097554203144300296 1 1 1 1 1 1 0.0097340726104749118 1 1 0.01047429199138783 1 1 1 1 1 1 1 1 0.012297205688821523 1 1 1 1 1 1 1 1 1 1 1 1 1 1 1 1 0.0025554395707486147 1 1 4.9233663031861274e-09 1 1 1 0.0099300327379962094 1 1 1 1 0.0099467297864642354 1 1 1 0.012720419801312369 1 1 1 1 1 0.0069347143468073517 0.0068421619056237039 1 1 1 1 1 1 1 1 1 1 1 1 1 1 1 1 1 1 1 1 1 0.012359266335281551 1 1 1 1 1 0.012598711907715854 0.0079918379779931152 1 1 1 1 0.011117239382070813 1 1 1 0.024690764846944529 1 0.0081163158214986059 1 1 0.019242446825237479 1 1 1 1 0.0097026511101095114 1 1 1 0.021549769600565719 0.011280421387966224 1 0.0043855914463265117 0.032441979249176356 1 1 0.016751930434295556 1 1 1 0.011111254081640425 1 1 1 0.0091348339316757836 1 0.017454486185211854 1 0.012269665109720343 1 1 1 0.014089990386363558 1 0.0079487951709084088 0.022885235261754292 1 1 1 1 1 1 1 1 1 1 1 1 1 1 1 1 0.01942829230756863 1 0.010175343224050674 1 0.018982218992044511 1 0.019889405996199164 0.018208762560909763 1 1 1 0.010112791060017105 1 1 1 1 0.012211149575170955 1 1 1 1 0.023776204335576208 1 1 1 1 1 1 1 1 0.014220865130067678 0.012063536766585588 1 1 0.009775975330632283 0.013692472064641371 1 1 1 1 1 1 1 1 1 1 1 1 1 1 1 0.013565904550652005 1 1 1 1 0.010014224006033447 1 1 1 1 1 1 1 1 1 1 1 1 1 1 0.011982306978090343 1 0.011002657456855271 1 1 1 1 0.018437277722493862 1 1 1 1 1 1 0.01683627422265753 1 1 0.021933050361462324 1 1 1 1 1 1 1 1 1 1 1 1 1 1 1 1 1 1 1 1 1 1 1 1 1 1 0.0064154488291967224 1 1 1 1 1 1 1 1 1 1 1 1 0.009635028441202181 1 1 1 1 1 0.018678500650746797 1 1 1 0.026532906297212736 1 1 1 1 1 0.019904937566154191 0.0072585234769082935 1 1 0.0097781131033107295 1 1 1 1 1 1 1 1 1 1 1 0.008647592902925624 1 1 0.024759100281988695 1 1 1 1 1 1 1 1 1 1 1 1 1 1 1 1 1 0.012548345622709204 1 1 1 1 1 1 1 1 1 1 1 1 1 1 1 1 0.010589734576700163 1 1 1 1 0.010567444665938501 1 1 1 1 0.02542230631125842 1 1 1 0.0099174698799219113 1 0.011860679362668824 1 1 1 1 0.011038986528141809 1 1 1 1 1 1 1 1 1 1 1 0.013814321606297114 1 1 1 1 1 1 0.011400899452451423 1 1 1 1 1 1 1 1 1 1 1 1 1 1 1 1 1 1 0.01181989553502924 1 1 1 1 1 1 1 0.010601128962883091 1 1 1 1 1 1 1 1 1 1 1 1 1 1 1 1 1 1 1 1 1 1 1 1 1 1 1 1 1 1 1 1 1 1 1 1 0.011051292006212679 1 1 1 1 1 0.012040616883785469 1 1 1 1 1 1 1 1 1 1 1 1 1 0.010262639269344117 1 1 1 1 0.0089578179799486724 1 1 1 0.010989324877572794 1 1 1 1 1 1 1 1 1 1 1 1 1 1 1 1 1 1 1 1 1 1 1 1 1 1 1 1 0.010646221980154793 1 1 0.0070939673006558471 1 1 0.011549344391451525 1 1 1 1 0.0091067058033397364 1 1 1 1 1 1 1 1 1 1 1 1 1 
</DataArray>
</CellData>
</Piece>
</UnstructuredGrid>
</VTKFile>
